<?xml version="1.0"?>
<VTKFile type="UnstructuredGrid" version="0.1" byte_order="LittleEndian">
<UnstructuredGrid>
<Piece NumberOfPoints="30578" NumberOfCells="10723">
<Points>
<DataArray type="Float64" NumberOfComponents="3" format="ascii">
-0.5 -0.5 0 -0.47439485679867832 -0.48072581506667478 0 -0.5 -0.44765434486020428 0 -0.5 -0.5 0 -0.47439485679867832 -0.48072581506667478 0 -0.43702443379937372 -0.49999999999999922 0 -0.47439485679867832 -0.48072581506667478 0 -0.45530669598391149 -0.47718009944797551 0 -0.43702443379937372 -0.49999999999999922 0 -0.47439485679867832 -0.48072581506667478 0 -0.45530669598391149 -0.47718009944797551 0 -0.4597353119515426 -0.45943449384344293 0 -0.45530669598391149 -0.47718009944797551 0 -0.44381084376742141 -0.47114793899167112 0 -0.4597353119515426 -0.45943449384344293 0 -0.45530669598391149 -0.47718009944797551 0 -0.44381084376742141 -0.47114793899167112 0 -0.43702443379937372 -0.49999999999999922 0 -0.44381084376742141 -0.47114793899167112 0 -0.43702443379937372 -0.49999999999999922 0 -0.45059725373546922 -0.44229587798334291 0 -0.4339166039271336 -0.43498117536117131 0 -0.43309128002320102 -0.45351235807576151 0 -0.44381084376742141 -0.47114793899167112 0 -0.45059725373546922 -0.44229587798334291 0 -0.4597353119515426 -0.45943449384344293 0 -0.44381084376742141 -0.47114793899167112 0 -0.45059725373546922 -0.44229587798334291 0 -0.43309128002320102 -0.45351235807576151 0 -0.44381084376742141 -0.47114793899167112 0 -0.45059725373546922 -0.44229587798334291 0 -0.4597353119515426 -0.45943449384344293 0 -0.47505511338101108 -0.44868394208069429 0 -0.46517432262153441 -0.43649963461163338 0 -0.45059725373546922 -0.44229587798334291 0 -0.4597353119515426 -0.45943449384344293 0 -0.46517432262153441 -0.43649963461163338 0 -0.47505511338101108 -0.44868394208069429 0 -0.47820614292347569 -0.42776699273468149 0 -0.46517432262153441 -0.43649963461163338 0 -0.47505511338101108 -0.44868394208069429 0 -0.47820614292347569 -0.42776699273468149 0 -0.47439485679867832 -0.48072581506667478 0 -0.47505511338101108 -0.44868394208069429 0 -0.5 -0.44765434486020428 0 -0.47439485679867832 -0.48072581506667478 0 -0.4597353119515426 -0.45943449384344293 0 -0.47505511338101108 -0.44868394208069429 0 -0.47505511338101108 -0.44868394208069429 0 -0.5 -0.44765434486020428 0 -0.47820614292347569 -0.42776699273468149 0 -0.5 -0.44765434486020428 0 -0.49656450065014057 -0.42151023988558672 0 -0.47820614292347569 -0.42776699273468149 0 -0.5 -0.44765434486020428 0 -0.49656450065014057 -0.42151023988558672 0 -0.50000000000000089 -0.37904661106745707 0 -0.49656450065014057 -0.42151023988558672 0 -0.48135717246594062 -0.40685004338866881 0 -0.47820614292347569 -0.42776699273468149 0 -0.49656450065014057 -0.42151023988558672 0 -0.48135717246594062 -0.40685004338866881 0 -0.48135717246594062 -0.40685004338866881 0 -0.47820614292347569 -0.42776699273468149 0 -0.48135717246594062 -0.40685004338866881 0 -0.47820614292347569 -0.42776699273468149 0 -0.45738366370351707 -0.41344381697501481 0 -0.49656450065014057 -0.42151023988558672 0 -0.48135717246594062 -0.40685004338866881 0 -0.50000000000000089 -0.37904661106745707 0 -0.50000000000000089 -0.37904661106745707 0 -0.48466894952205442 -0.38486603086372417 0 -0.48717439863114548 -0.36823452950912272 0 -0.48135717246594062 -0.40685004338866881 0 -0.50000000000000089 -0.37904661106745707 0 -0.48466894952205442 -0.38486603086372417 0 -0.48466894952205442 -0.38486603086372417 0 -0.48717439863114548 -0.36823452950912272 0 -0.50000000000000089 -0.37904661106745707 0 -0.48466894952205442 -0.38486603086372417 0 -0.48135717246594062 -0.40685004338866881 0 -0.48466894952205442 -0.38486603086372417 0 -0.46593083509403682 -0.39197871725165279 0 -0.48135717246594062 -0.40685004338866881 0 -0.48466894952205442 -0.38486603086372417 0 -0.48135717246594062 -0.40685004338866881 0 -0.46593083509403682 -0.39197871725165279 0 -0.48466894952205442 -0.38486603086372417 0 -0.47195833844942919 -0.37959069520904498 0 -0.46593083509403682 -0.39197871725165279 0 -0.48466894952205442 -0.38486603086372417 0 -0.46593083509403682 -0.39197871725165279 0 -0.48466894952205442 -0.38486603086372417 0 -0.47195833844942919 -0.37959069520904498 0 -0.48717439863114548 -0.36823452950912272 0 -0.46593083509403682 -0.39197871725165279 0 -0.44890944387521442 -0.39029302340116001 0 -0.45132291774153199 -0.37789636588759368 0 -0.47195833844942919 -0.37959069520904498 0 -0.46593083509403682 -0.39197871725165279 0 -0.45132291774153199 -0.37789636588759368 0 -0.46593083509403682 -0.39197871725165279 0 -0.45132291774153199 -0.37789636588759368 0 -0.48135717246594062 -0.40685004338866881 0 -0.46593083509403682 -0.39197871725165279 0 -0.45738366370351707 -0.41344381697501481 0 -0.46593083509403682 -0.39197871725165279 0 -0.44275815558040038 -0.40077469311046232 0 -0.45738366370351707 -0.41344381697501481 0 -0.46593083509403682 -0.39197871725165279 0 -0.44275815558040038 -0.40077469311046232 0 -0.46593083509403682 -0.39197871725165279 0 -0.44275815558040038 -0.40077469311046232 0 -0.44890944387521442 -0.39029302340116001 0 -0.44275815558040038 -0.40077469311046232 0 -0.44064580868350911 -0.39542861624611658 0 -0.44890944387521442 -0.39029302340116001 0 -0.44225344557501872 -0.38376649822575309 0 -0.45132291774153199 -0.37789636588759368 0 -0.43671500038902772 -0.36381401452353412 0 -0.44890944387521442 -0.39029302340116001 0 -0.44225344557501872 -0.38376649822575309 0 -0.45132291774153199 -0.37789636588759368 0 -0.44064580868350911 -0.39542861624611658 0 -0.44225344557501872 -0.38376649822575309 0 -0.43040194378266172 -0.3881600185019185 0 -0.44064580868350911 -0.39542861624611658 0 -0.44890944387521442 -0.39029302340116001 0 -0.44225344557501872 -0.38376649822575309 0 -0.47820614292347569 -0.42776699273468149 0 -0.46517432262153441 -0.43649963461163338 0 -0.45738366370351707 -0.41344381697501481 0 -0.45059725373546922 -0.44229587798334291 0 -0.45738366370351707 -0.41344381697501481 0 -0.45059725373546922 -0.44229587798334291 0 -0.46517432262153441 -0.43649963461163338 0 -0.45738366370351707 -0.41344381697501481 0 -0.44275815558040038 -0.40077469311046232 0 -0.45738366370351707 -0.41344381697501481 0 -0.44164244492799948 -0.42121090558557039 0 -0.45059725373546922 -0.44229587798334291 0 -0.45738366370351707 -0.41344381697501481 0 -0.44164244492799948 -0.42121090558557039 0 -0.45059725373546922 -0.44229587798334291 0 -0.44164244492799948 -0.42121090558557039 0 -0.4339166039271336 -0.43498117536117131 0 -0.4339166039271336 -0.43498117536117131 0 -0.42355654769347711 -0.414558964497861 0 -0.41671115160429401 -0.44095791049380378 0 -0.44164244492799948 -0.42121090558557039 0 -0.4339166039271336 -0.43498117536117131 0 -0.42355654769347711 -0.414558964497861 0 -0.44275815558040038 -0.40077469311046232 0 -0.44164244492799948 -0.42121090558557039 0 -0.42355654769347711 -0.414558964497861 0 -0.42355654769347711 -0.414558964497861 0 -0.41056920252370888 -0.3963363404412637 0 -0.40050668374064252 -0.41734442193795029 0 -0.42355654769347711 -0.414558964497861 0 -0.41671115160429401 -0.44095791049380378 0 -0.42355654769347711 -0.414558964497861 0 -0.40050668374064252 -0.41734442193795029 0 -0.41671115160429401 -0.44095791049380378 0 -0.44225344557501872 -0.38376649822575309 0 -0.43040194378266172 -0.3881600185019185 0 -0.43671500038902772 -0.36381401452353412 0 -0.43040194378266172 -0.3881600185019185 0 -0.43671500038902772 -0.36381401452353412 0 -0.44064580868350911 -0.39542861624611658 0 -0.42355654769347711 -0.414558964497861 0 -0.43040194378266172 -0.3881600185019185 0 -0.42355654769347711 -0.414558964497861 0 -0.43040194378266172 -0.3881600185019185 0 -0.44275815558040038 -0.40077469311046232 0 -0.44064580868350911 -0.39542861624611658 0 -0.42355654769347711 -0.414558964497861 0 -0.44064580868350911 -0.39542861624611658 0 -0.43040194378266172 -0.3881600185019185 0 -0.42355654769347711 -0.414558964497861 0 -0.43040194378266172 -0.3881600185019185 0 -0.41056920252370888 -0.3963363404412637 0 -0.43040194378266172 -0.3881600185019185 0 -0.4079689369259607 -0.37224253963894771 0 -0.43040194378266172 -0.3881600185019185 0 -0.41056920252370888 -0.3963363404412637 0 -0.4079689369259607 -0.37224253963894771 0 -0.41056920252370888 -0.3963363404412637 0 -0.39195929229331972 -0.37982250283040359 0 -0.4079689369259607 -0.37224253963894771 0 -0.41056920252370888 -0.3963363404412637 0 -0.39195929229331972 -0.37982250283040359 0 -0.39357845321732049 -0.39746174547711199 0 -0.41056920252370888 -0.3963363404412637 0 -0.39357845321732049 -0.39746174547711199 0 -0.40050668374064252 -0.41734442193795029 0 -0.39357845321732049 -0.39746174547711199 0 -0.38114412328536468 -0.40833987260765031 0 -0.36544727141479139 -0.39026932065168712 0 -0.39195929229331972 -0.37982250283040359 0 -0.37549160074202448 -0.3732971907138336 0 -0.36544727141479139 -0.39026932065168712 0 -0.39195929229331972 -0.37982250283040359 0 -0.39357845321732049 -0.39746174547711199 0 -0.36544727141479139 -0.39026932065168712 0 -0.40050668374064252 -0.41734442193795029 0 -0.3944977858259317 -0.43926335073686201 0 -0.41671115160429401 -0.44095791049380378 0 -0.40050668374064252 -0.41734442193795029 0 -0.38028594703985957 -0.42392304976487449 0 -0.3944977858259317 -0.43926335073686201 0 -0.39357845321732049 -0.39746174547711199 0 -0.40050668374064252 -0.41734442193795029 0 -0.38114412328536468 -0.40833987260765031 0 -0.40050668374064252 -0.41734442193795029 0 -0.38114412328536468 -0.40833987260765031 0 -0.38028594703985957 -0.42392304976487449 0 -0.38114412328536468 -0.40833987260765031 0 -0.38028594703985957 -0.42392304976487449 0 -0.36590226101420908 -0.41270082520662749 0 -0.38028594703985957 -0.42392304976487449 0 -0.3944977858259317 -0.43926335073686201 0 -0.3723601590800425 -0.44005613486137668 0 -0.3944977858259317 -0.43926335073686201 0 -0.38265619596279349 -0.45813348326120767 0 -0.3723601590800425 -0.44005613486137668 0 -0.40093272222703252 -0.45142790024540502 0 -0.3944977858259317 -0.43926335073686201 0 -0.38265619596279349 -0.45813348326120767 0 -0.40093272222703252 -0.45142790024540502 0 -0.3944977858259317 -0.43926335073686201 0 -0.41671115160429401 -0.44095791049380378 0 -0.38265619596279349 -0.45813348326120767 0 -0.40986575551511062 -0.46735685648974662 0 -0.38265619596279349 -0.45813348326120767 0 -0.39389470715733632 -0.47355095168427308 0 -0.40986575551511062 -0.46735685648974662 0 -0.40093272222703252 -0.45142790024540502 0 -0.38265619596279349 -0.45813348326120767 0 -0.40986575551511062 -0.46735685648974662 0 -0.38265619596279349 -0.45813348326120767 0 -0.38272382101637098 -0.47243968377412587 0 -0.39389470715733632 -0.47355095168427308 0 -0.38272382101637098 -0.47243968377412587 0 -0.38859428369766791 -0.48614630665141417 0 -0.36652141413456929 -0.48474993749143802 0 -0.38272382101637098 -0.47243968377412587 0 -0.38859428369766791 -0.48614630665141417 0 -0.39389470715733632 -0.47355095168427308 0 -0.37500484199342449 -0.5 0 -0.38859428369766791 -0.48614630665141417 0 -0.40140120367436599 -0.49999999999999611 0 -0.37500484199342449 -0.5 0 -0.38859428369766791 -0.48614630665141417 0 -0.36652141413456929 -0.48474993749143802 0 -0.38859428369766791 -0.48614630665141417 0 -0.40140120367436599 -0.49999999999999611 0 -0.40563347959473789 -0.48367842824487117 0 -0.40140120367436599 -0.49999999999999611 0 -0.40563347959473789 -0.48367842824487117 0 -0.40563347959473789 -0.48367842824487117 0 -0.39389470715733632 -0.47355095168427308 0 -0.40986575551511062 -0.46735685648974662 0 -0.38859428369766791 -0.48614630665141417 0 -0.40563347959473789 -0.48367842824487117 0 -0.39389470715733632 -0.47355095168427308 0 -0.40563347959473789 -0.48367842824487117 0 -0.40986575551511062 -0.46735685648974662 0 -0.42809744812538553 -0.47353695305504512 0 -0.40986575551511062 -0.46735685648974662 0 -0.4199949121527507 -0.4855396040697898 0 -0.42809744812538553 -0.47353695305504512 0 -0.40986575551511062 -0.46735685648974662 0 -0.40563347959473789 -0.48367842824487117 0 -0.4199949121527507 -0.4855396040697898 0 -0.40986575551511062 -0.46735685648974662 0 -0.40563347959473789 -0.48367842824487117 0 -0.4199949121527507 -0.4855396040697898 0 -0.41921281873686977 -0.5 0 -0.40140120367436599 -0.49999999999999611 0 -0.40563347959473789 -0.48367842824487117 0 -0.41921281873686977 -0.5 0 -0.4199949121527507 -0.4855396040697898 0 -0.41921281873686977 -0.5 0 -0.43702443379937372 -0.49999999999999922 0 -0.4199949121527507 -0.4855396040697898 0 -0.43702443379937372 -0.49999999999999922 0 -0.42809744812538553 -0.47353695305504512 0 -0.44381084376742141 -0.47114793899167112 0 -0.43702443379937372 -0.49999999999999922 0 -0.42809744812538553 -0.47353695305504512 0 -0.42809744812538553 -0.47353695305504512 0 -0.42194140881699782 -0.45884101952858919 0 -0.43309128002320102 -0.45351235807576151 0 -0.44381084376742141 -0.47114793899167112 0 -0.42809744812538553 -0.47353695305504512 0 -0.43309128002320102 -0.45351235807576151 0 -0.4339166039271336 -0.43498117536117131 0 -0.43309128002320102 -0.45351235807576151 0 -0.41671115160429401 -0.44095791049380378 0 -0.42194140881699782 -0.45884101952858919 0 -0.43309128002320102 -0.45351235807576151 0 -0.41671115160429401 -0.44095791049380378 0 -0.42194140881699782 -0.45884101952858919 0 -0.41671115160429401 -0.44095791049380378 0 -0.40986575551511062 -0.46735685648974662 0 -0.41671115160429401 -0.44095791049380378 0 -0.40986575551511062 -0.46735685648974662 0 -0.40093272222703252 -0.45142790024540502 0 -0.41671115160429401 -0.44095791049380378 0 -0.40986575551511062 -0.46735685648974662 0 -0.42809744812538553 -0.47353695305504512 0 -0.42194140881699782 -0.45884101952858919 0 -0.40986575551511062 -0.46735685648974662 0 -0.45828666285701658 -0.26028432573271792 0 -0.43487007995442373 -0.25384069753834382 0 -0.45658005330295048 -0.2439827770756183 0 -0.43864273500925549 -0.2751587481676856 0 -0.45828666285701658 -0.26028432573271792 0 -0.43487007995442373 -0.25384069753834382 0 -0.43864273500925549 -0.2751587481676856 0 -0.45645423860141388 -0.27827293425430932 0 -0.45828666285701658 -0.26028432573271792 0 -0.43864273500925549 -0.2751587481676856 0 -0.45828666285701658 -0.26028432573271792 0 -0.45645423860141388 -0.27827293425430932 0 -0.47869064668718631 -0.2683854874950159 0 -0.47091363495918082 -0.28947603344621109 0 -0.45645423860141388 -0.27827293425430932 0 -0.45828666285701658 -0.26028432573271792 0 -0.47869064668718631 -0.2683854874950159 0 -0.45828666285701658 -0.26028432573271792 0 -0.47793059070477772 -0.24540990329775009 0 -0.45828666285701658 -0.26028432573271792 0 -0.47869064668718631 -0.2683854874950159 0 -0.47793059070477772 -0.24540990329775009 0 -0.4872249908214738 -0.25598993182963242 0 -0.47869064668718631 -0.2683854874950159 0 -0.47793059070477772 -0.24540990329775009 0 -0.4872249908214738 -0.25598993182963242 0 -0.5 -0.25006354863638108 0 -0.5 -0.27586016112259643 0 -0.4872249908214738 -0.25598993182963242 0 -0.5 -0.25006354863638108 0 -0.49068252501969761 -0.24549971615663649 0 -0.4872249908214738 -0.25598993182963242 0 -0.5 -0.27586016112259643 0 -0.47869064668718631 -0.2683854874950159 0 -0.5 -0.27586016112259643 0 -0.47869064668718631 -0.2683854874950159 0 -0.48721788021035761 -0.2882082846164955 0 -0.47869064668718631 -0.2683854874950159 0 -0.47091363495918082 -0.28947603344621109 0 -0.48721788021035761 -0.2882082846164955 0 -0.47091363495918082 -0.28947603344621109 0 -0.48721788021035761 -0.2882082846164955 0 -0.48161809245015419 -0.30465866835107641 0 -0.5 -0.27586016112259643 0 -0.48721788021035761 -0.2882082846164955 0 -0.5 -0.3016567736088116 0 -0.48721788021035761 -0.2882082846164955 0 -0.5 -0.3016567736088116 0 -0.48161809245015419 -0.30465866835107641 0 -0.5 -0.3016567736088116 0 -0.48161809245015419 -0.30465866835107641 0 -0.5 -0.32745338609502678 0 -0.47091363495918082 -0.28947603344621109 0 -0.48161809245015419 -0.30465866835107641 0 -0.45879166701778518 -0.3036258058313378 0 -0.48161809245015419 -0.30465866835107641 0 -0.45879166701778518 -0.3036258058313378 0 -0.47638885418803739 -0.32253493654140952 0 -0.45645423860141388 -0.27827293425430932 0 -0.47091363495918082 -0.28947603344621109 0 -0.45879166701778518 -0.3036258058313378 0 -0.45645423860141388 -0.27827293425430932 0 -0.45879166701778518 -0.3036258058313378 0 -0.43905227881958647 -0.29505920944709452 0 -0.43864273500925549 -0.2751587481676856 0 -0.45645423860141388 -0.27827293425430932 0 -0.43905227881958647 -0.29505920944709452 0 -0.45879166701778518 -0.3036258058313378 0 -0.43905227881958647 -0.29505920944709452 0 -0.4399695753826649 -0.31139282438396382 0 -0.4399695753826649 -0.31139282438396382 0 -0.45223868162566522 -0.32343332413938758 0 -0.42808850906329299 -0.32433171173736591 0 -0.45879166701778518 -0.3036258058313378 0 -0.4399695753826649 -0.31139282438396382 0 -0.45223868162566522 -0.32343332413938758 0 -0.45223868162566522 -0.32343332413938758 0 -0.42808850906329299 -0.32433171173736591 0 -0.45223868162566522 -0.32343332413938758 0 -0.44207286924452832 -0.33783824796895978 0 -0.46140244920768408 -0.33754740415941759 0 -0.44207286924452832 -0.33783824796895978 0 -0.46140244920768408 -0.33754740415941759 0 -0.45117994904742642 -0.3486532256997657 0 -0.45223868162566522 -0.32343332413938758 0 -0.44207286924452832 -0.33783824796895978 0 -0.42808850906329299 -0.32433171173736591 0 -0.45879166701778518 -0.3036258058313378 0 -0.45223868162566522 -0.32343332413938758 0 -0.47638885418803739 -0.32253493654140952 0 -0.45223868162566522 -0.32343332413938758 0 -0.46140244920768408 -0.33754740415941759 0 -0.47638885418803739 -0.32253493654140952 0 -0.45223868162566522 -0.32343332413938758 0 -0.47638885418803739 -0.32253493654140952 0 -0.48161809245015419 -0.30465866835107641 0 -0.47638885418803739 -0.32253493654140952 0 -0.5 -0.32745338609502678 0 -0.47638885418803739 -0.32253493654140952 0 -0.5 -0.32745338609502678 0 -0.48104103145021149 -0.34129537751375599 0 -0.5 -0.32745338609502678 0 -0.48104103145021149 -0.34129537751375599 0 -0.5 -0.35324999858124201 0 -0.46140244920768408 -0.33754740415941759 0 -0.48104103145021149 -0.34129537751375599 0 -0.46549330969023639 -0.35152931309322771 0 -0.46140244920768408 -0.33754740415941759 0 -0.47638885418803739 -0.32253493654140952 0 -0.48104103145021149 -0.34129537751375599 0 -0.48104103145021149 -0.34129537751375599 0 -0.48025743214923627 -0.35616585996071459 0 -0.46549330969023639 -0.35152931309322771 0 -0.48025743214923627 -0.35616585996071459 0 -0.46757842097458802 -0.36652008110622503 0 -0.46549330969023639 -0.35152931309322771 0 -0.48025743214923627 -0.35616585996071459 0 -0.5 -0.35324999858124201 0 -0.48717439863114548 -0.36823452950912272 0 -0.48104103145021149 -0.34129537751375599 0 -0.48025743214923627 -0.35616585996071459 0 -0.5 -0.35324999858124201 0 -0.50000000000000089 -0.37904661106745707 0 -0.5 -0.35324999858124201 0 -0.48717439863114548 -0.36823452950912272 0 -0.47195833844942919 -0.37959069520904498 0 -0.48717439863114548 -0.36823452950912272 0 -0.46757842097458802 -0.36652008110622503 0 -0.48025743214923627 -0.35616585996071459 0 -0.48717439863114548 -0.36823452950912272 0 -0.46757842097458802 -0.36652008110622503 0 -0.45132291774153199 -0.37789636588759368 0 -0.46757842097458802 -0.36652008110622503 0 -0.45216690816074923 -0.36231126303824313 0 -0.47195833844942919 -0.37959069520904498 0 -0.45132291774153199 -0.37789636588759368 0 -0.46757842097458802 -0.36652008110622503 0 -0.46757842097458802 -0.36652008110622503 0 -0.46549330969023639 -0.35152931309322771 0 -0.45216690816074923 -0.36231126303824313 0 -0.46140244920768408 -0.33754740415941759 0 -0.46549330969023639 -0.35152931309322771 0 -0.45117994904742642 -0.3486532256997657 0 -0.46549330969023639 -0.35152931309322771 0 -0.45117994904742642 -0.3486532256997657 0 -0.45216690816074923 -0.36231126303824313 0 -0.44599028472907742 -0.35554349803526408 0 -0.45117994904742642 -0.3486532256997657 0 -0.45216690816074923 -0.36231126303824313 0 -0.44599028472907742 -0.35554349803526408 0 -0.45117994904742642 -0.3486532256997657 0 -0.44228407783080631 -0.34851364977492799 0 -0.44207286924452832 -0.33783824796895978 0 -0.44228407783080631 -0.34851364977492799 0 -0.43394442261003058 -0.34546672586134508 0 -0.44228407783080631 -0.34851364977492799 0 -0.43858436747801349 -0.35660488883003821 0 -0.43394442261003058 -0.34546672586134508 0 -0.44207286924452832 -0.33783824796895978 0 -0.45117994904742642 -0.3486532256997657 0 -0.44228407783080631 -0.34851364977492799 0 -0.44599028472907742 -0.35554349803526408 0 -0.44228407783080631 -0.34851364977492799 0 -0.43858436747801349 -0.35660488883003821 0 -0.44599028472907742 -0.35554349803526408 0 -0.43858436747801349 -0.35660488883003821 0 -0.43671500038902772 -0.36381401452353412 0 -0.43858436747801349 -0.35660488883003821 0 -0.43671500038902772 -0.36381401452353412 0 -0.44599028472907742 -0.35554349803526408 0 -0.45216690816074923 -0.36231126303824313 0 -0.43671500038902772 -0.36381401452353412 0 -0.45132291774153199 -0.37789636588759368 0 -0.43671500038902772 -0.36381401452353412 0 -0.45132291774153199 -0.37789636588759368 0 -0.45216690816074923 -0.36231126303824313 0 -0.43671500038902772 -0.36381401452353412 0 -0.43040194378266172 -0.3881600185019185 0 -0.43671500038902772 -0.36381401452353412 0 -0.4079689369259607 -0.37224253963894771 0 -0.43858436747801349 -0.35660488883003821 0 -0.43671500038902772 -0.36381401452353412 0 -0.41901032175007979 -0.34674631764622038 0 -0.43671500038902772 -0.36381401452353412 0 -0.41901032175007979 -0.34674631764622038 0 -0.43858436747801349 -0.35660488883003821 0 -0.43394442261003058 -0.34546672586134508 0 -0.41901032175007979 -0.34674631764622038 0 -0.41901032175007979 -0.34674631764622038 0 -0.4079689369259607 -0.37224253963894771 0 -0.40160491304204049 -0.35527610236370899 0 -0.43671500038902772 -0.36381401452353412 0 -0.41901032175007979 -0.34674631764622038 0 -0.4079689369259607 -0.37224253963894771 0 -0.4079689369259607 -0.37224253963894771 0 -0.38553593006925752 -0.3563250607759802 0 -0.4079689369259607 -0.37224253963894771 0 -0.38553593006925752 -0.3563250607759802 0 -0.40160491304204049 -0.35527610236370899 0 -0.39195929229331972 -0.37982250283040359 0 -0.4079689369259607 -0.37224253963894771 0 -0.38553593006925752 -0.3563250607759802 0 -0.39195929229331972 -0.37982250283040359 0 -0.37549160074202448 -0.3732971907138336 0 -0.38553593006925752 -0.3563250607759802 0 -0.37549160074202448 -0.3732971907138336 0 -0.38553593006925752 -0.3563250607759802 0 -0.38553593006925752 -0.3563250607759802 0 -0.36666079927166728 -0.34293209489202431 0 -0.38553593006925752 -0.3563250607759802 0 -0.39342078659019603 -0.34300184077244372 0 -0.38006824781918919 -0.33243312042550199 0 -0.38553593006925752 -0.3563250607759802 0 -0.38006824781918919 -0.33243312042550199 0 -0.36666079927166728 -0.34293209489202431 0 -0.38553593006925752 -0.3563250607759802 0 -0.39342078659019603 -0.34300184077244372 0 -0.41901032175007979 -0.34674631764622038 0 -0.40160491304204049 -0.35527610236370899 0 -0.39342078659019603 -0.34300184077244372 0 -0.38553593006925752 -0.3563250607759802 0 -0.40160491304204049 -0.35527610236370899 0 -0.39342078659019603 -0.34300184077244372 0 -0.41901032175007979 -0.34674631764622038 0 -0.40130564311113259 -0.32967862076890581 0 -0.39342078659019603 -0.34300184077244372 0 -0.40130564311113259 -0.32967862076890581 0 -0.39064670272592411 -0.32967160323888278 0 -0.39342078659019603 -0.34300184077244372 0 -0.40130564311113259 -0.32967862076890581 0 -0.39342078659019603 -0.34300184077244372 0 -0.39064670272592411 -0.32967160323888278 0 -0.39342078659019603 -0.34300184077244372 0 -0.38006824781918919 -0.33243312042550199 0 -0.38006824781918919 -0.33243312042550199 0 -0.38935907146989862 -0.31816186479418052 0 -0.37140736883531977 -0.32183989730859341 0 -0.38935907146989862 -0.31816186479418052 0 -0.38351210912712752 -0.30253866195360818 0 -0.37140736883531977 -0.32183989730859341 0 -0.39064670272592411 -0.32967160323888278 0 -0.38006824781918919 -0.33243312042550199 0 -0.38935907146989862 -0.31816186479418052 0 -0.38935907146989862 -0.31816186479418052 0 -0.401514660155255 -0.31819685637317691 0 -0.39554973675391708 -0.30949047449279188 0 -0.40130564311113259 -0.32967862076890581 0 -0.38935907146989862 -0.31816186479418052 0 -0.40130564311113259 -0.32967862076890581 0 -0.38935907146989862 -0.31816186479418052 0 -0.39962023335203928 -0.32539073298322901 0 -0.38935907146989862 -0.31816186479418052 0 -0.39962023335203928 -0.32539073298322901 0 -0.401514660155255 -0.31819685637317691 0 -0.40130564311113259 -0.32967862076890581 0 -0.39064670272592411 -0.32967160323888278 0 -0.38935907146989862 -0.31816186479418052 0 -0.40130564311113259 -0.32967862076890581 0 -0.39962023335203928 -0.32539073298322901 0 -0.4039383365009207 -0.3252300993353433 0 -0.39962023335203928 -0.32539073298322901 0 -0.4039383365009207 -0.3252300993353433 0 -0.39962023335203928 -0.32539073298322901 0 -0.4039383365009207 -0.3252300993353433 0 -0.401514660155255 -0.31819685637317691 0 -0.40130564311113259 -0.32967862076890581 0 -0.4039383365009207 -0.3252300993353433 0 -0.401514660155255 -0.31819685637317691 0 -0.4088463285069534 -0.31693695448250642 0 -0.4053668684804122 -0.3086126184714344 0 -0.4039383365009207 -0.3252300993353433 0 -0.401514660155255 -0.31819685637317691 0 -0.4088463285069534 -0.31693695448250642 0 -0.4039383365009207 -0.3252300993353433 0 -0.42808850906329299 -0.32433171173736591 0 -0.4088463285069534 -0.31693695448250642 0 -0.42808850906329299 -0.32433171173736591 0 -0.41503252140001728 -0.31110728079830707 0 -0.4039383365009207 -0.3252300993353433 0 -0.4088463285069534 -0.31693695448250642 0 -0.42808850906329299 -0.32433171173736591 0 -0.4039383365009207 -0.3252300993353433 0 -0.41609663568284688 -0.33258428014908531 0 -0.42808850906329299 -0.32433171173736591 0 -0.4039383365009207 -0.3252300993353433 0 -0.4088463285069534 -0.31693695448250642 0 -0.40130564311113259 -0.32967862076890581 0 -0.4039383365009207 -0.3252300993353433 0 -0.41609663568284688 -0.33258428014908531 0 -0.41901032175007979 -0.34674631764622038 0 -0.40130564311113259 -0.32967862076890581 0 -0.41609663568284688 -0.33258428014908531 0 -0.41901032175007979 -0.34674631764622038 0 -0.40130564311113259 -0.32967862076890581 0 -0.41901032175007979 -0.34674631764622038 0 -0.41609663568284688 -0.33258428014908531 0 -0.42777047674672519 -0.33763052508657909 0 -0.41609663568284688 -0.33258428014908531 0 -0.42777047674672519 -0.33763052508657909 0 -0.42808850906329299 -0.32433171173736591 0 -0.43394442261003058 -0.34546672586134508 0 -0.41901032175007979 -0.34674631764622038 0 -0.42777047674672519 -0.33763052508657909 0 -0.44207286924452832 -0.33783824796895978 0 -0.43394442261003058 -0.34546672586134508 0 -0.42777047674672519 -0.33763052508657909 0 -0.44207286924452832 -0.33783824796895978 0 -0.42777047674672519 -0.33763052508657909 0 -0.42808850906329299 -0.32433171173736591 0 -0.4399695753826649 -0.31139282438396382 0 -0.42808850906329299 -0.32433171173736591 0 -0.42349591428063971 -0.31031667424466408 0 -0.42808850906329299 -0.32433171173736591 0 -0.42349591428063971 -0.31031667424466408 0 -0.41503252140001728 -0.31110728079830707 0 -0.43905227881958647 -0.29505920944709452 0 -0.42349591428063971 -0.31031667424466408 0 -0.41899880716149451 -0.29003317060265321 0 -0.43905227881958647 -0.29505920944709452 0 -0.4399695753826649 -0.31139282438396382 0 -0.42349591428063971 -0.31031667424466408 0 -0.43864273500925549 -0.2751587481676856 0 -0.43905227881958647 -0.29505920944709452 0 -0.41899880716149451 -0.29003317060265321 0 -0.43864273500925549 -0.2751587481676856 0 -0.41899880716149451 -0.29003317060265321 0 -0.41649742047364408 -0.2919272257303569 0 -0.41502826726935188 -0.28951283527362931 0 -0.41151645216318689 -0.29124877083691719 0 -0.41899880716149451 -0.29003317060265321 0 -0.41649742047364408 -0.2919272257303569 0 -0.41502826726935188 -0.28951283527362931 0 -0.41899880716149451 -0.29003317060265321 0 -0.41649742047364408 -0.2919272257303569 0 -0.41899880716149451 -0.29003317060265321 0 -0.41502826726935188 -0.28951283527362931 0 -0.41310038927908221 -0.28484217392458988 0 -0.41310038927908221 -0.28484217392458988 0 -0.40629814920556201 -0.2872410904076857 0 -0.40433064532645308 -0.27892106023783952 0 -0.41502826726935188 -0.28951283527362931 0 -0.41310038927908221 -0.28484217392458988 0 -0.41151645216318689 -0.29124877083691719 0 -0.41310038927908221 -0.28484217392458988 0 -0.40629814920556201 -0.2872410904076857 0 -0.41151645216318689 -0.29124877083691719 0 -0.41649742047364408 -0.2919272257303569 0 -0.41151645216318689 -0.29124877083691719 0 -0.41283916949633909 -0.29890888486812428 0 -0.40629814920556201 -0.2872410904076857 0 -0.41151645216318689 -0.29124877083691719 0 -0.4052488046064433 -0.29379102377099447 0 -0.41151645216318689 -0.29124877083691719 0 -0.41283916949633909 -0.29890888486812428 0 -0.4052488046064433 -0.29379102377099447 0 -0.42349591428063971 -0.31031667424466408 0 -0.41899880716149451 -0.29003317060265321 0 -0.42349591428063971 -0.31031667424466408 0 -0.41649742047364408 -0.2919272257303569 0 -0.41283916949633909 -0.29890888486812428 0 -0.42349591428063971 -0.31031667424466408 0 -0.41899880716149451 -0.29003317060265321 0 -0.41649742047364408 -0.2919272257303569 0 -0.40711072979061191 -0.30081998795009107 0 -0.41283916949633909 -0.29890888486812428 0 -0.4052488046064433 -0.29379102377099447 0 -0.40711072979061191 -0.30081998795009107 0 -0.41283916949633909 -0.29890888486812428 0 -0.41256685577174013 -0.30556786269479153 0 -0.42349591428063971 -0.31031667424466408 0 -0.41283916949633909 -0.29890888486812428 0 -0.41256685577174013 -0.30556786269479153 0 -0.42349591428063971 -0.31031667424466408 0 -0.41503252140001728 -0.31110728079830707 0 -0.41256685577174013 -0.30556786269479153 0 -0.4088463285069534 -0.31693695448250642 0 -0.41503252140001728 -0.31110728079830707 0 -0.4053668684804122 -0.3086126184714344 0 -0.41503252140001728 -0.31110728079830707 0 -0.41256685577174013 -0.30556786269479153 0 -0.4053668684804122 -0.3086126184714344 0 -0.40711072979061191 -0.30081998795009107 0 -0.41256685577174013 -0.30556786269479153 0 -0.4053668684804122 -0.3086126184714344 0 -0.401514660155255 -0.31819685637317691 0 -0.4053668684804122 -0.3086126184714344 0 -0.39554973675391708 -0.30949047449279188 0 -0.4053668684804122 -0.3086126184714344 0 -0.39799597453689262 -0.29994237087155962 0 -0.39554973675391708 -0.30949047449279188 0 -0.40711072979061191 -0.30081998795009107 0 -0.4053668684804122 -0.3086126184714344 0 -0.39799597453689262 -0.29994237087155962 0 -0.40711072979061191 -0.30081998795009107 0 -0.39799597453689262 -0.29994237087155962 0 -0.4052488046064433 -0.29379102377099447 0 -0.39799597453689262 -0.29994237087155962 0 -0.39554973675391708 -0.30949047449279188 0 -0.38351210912712752 -0.30253866195360818 0 -0.38935907146989862 -0.31816186479418052 0 -0.39554973675391708 -0.30949047449279188 0 -0.38351210912712752 -0.30253866195360818 0 -0.38351210912712752 -0.30253866195360818 0 -0.3950660262777419 -0.28803976586637831 0 -0.37433096522584453 -0.28132989654828328 0 -0.39799597453689262 -0.29994237087155962 0 -0.38351210912712752 -0.30253866195360818 0 -0.3950660262777419 -0.28803976586637831 0 -0.39799597453689262 -0.29994237087155962 0 -0.3950660262777419 -0.28803976586637831 0 -0.4052488046064433 -0.29379102377099447 0 -0.40629814920556201 -0.2872410904076857 0 -0.3950660262777419 -0.28803976586637831 0 -0.4052488046064433 -0.29379102377099447 0 -0.40629814920556201 -0.2872410904076857 0 -0.3950660262777419 -0.28803976586637831 0 -0.40433064532645308 -0.27892106023783952 0 -0.40433064532645308 -0.27892106023783952 0 -0.39374553591587069 -0.27251425727467649 0 -0.41316010660589619 -0.2636986180010682 0 -0.39374553591587069 -0.27251425727467649 0 -0.41316010660589619 -0.2636986180010682 0 -0.3950660262777419 -0.28803976586637831 0 -0.40433064532645308 -0.27892106023783952 0 -0.39374553591587069 -0.27251425727467649 0 -0.39374553591587069 -0.27251425727467649 0 -0.37433096522584453 -0.28132989654828328 0 -0.3950660262777419 -0.28803976586637831 0 -0.39374553591587069 -0.27251425727467649 0 -0.37433096522584453 -0.28132989654828328 0 -0.39374553591587069 -0.27251425727467649 0 -0.37648826808451968 -0.27741199289956509 0 -0.37433096522584453 -0.28132989654828328 0 -0.39374553591587069 -0.27251425727467649 0 -0.37598097480723441 -0.26745556380373348 0 -0.38363075469537122 -0.26088114511686322 0 -0.39374553591587069 -0.27251425727467649 0 -0.37598097480723441 -0.26745556380373348 0 -0.37648826808451968 -0.27741199289956509 0 -0.37598097480723441 -0.26745556380373348 0 -0.37648826808451968 -0.27741199289956509 0 -0.37277902062147272 -0.27405557492128901 0 -0.37648826808451968 -0.27741199289956509 0 -0.37433096522584453 -0.28132989654828328 0 -0.38363075469537122 -0.26088114511686322 0 -0.37393540655460039 -0.25504906339868932 0 -0.38258347849844832 -0.24967798674395081 0 -0.37598097480723441 -0.26745556380373348 0 -0.38363075469537122 -0.26088114511686322 0 -0.37393540655460039 -0.25504906339868932 0 -0.38363075469537122 -0.26088114511686322 0 -0.3945867816951415 -0.25828321704239809 0 -0.38258347849844832 -0.24967798674395081 0 -0.3945867816951415 -0.25828321704239809 0 -0.3933004523496676 -0.24484402304582939 0 -0.38258347849844832 -0.24967798674395081 0 -0.39374553591587069 -0.27251425727467649 0 -0.3945867816951415 -0.25828321704239809 0 -0.41316010660589619 -0.2636986180010682 0 -0.3945867816951415 -0.25828321704239809 0 -0.41316010660589619 -0.2636986180010682 0 -0.40847937369743209 -0.24258689873782929 0 -0.39374553591587069 -0.27251425727467649 0 -0.38363075469537122 -0.26088114511686322 0 -0.3945867816951415 -0.25828321704239809 0 -0.41316010660589619 -0.2636986180010682 0 -0.42931567121415071 -0.25028064732030619 0 -0.40847937369743209 -0.24258689873782929 0 -0.41316010660589619 -0.2636986180010682 0 -0.40847937369743209 -0.24258689873782929 0 -0.41899880716149451 -0.29003317060265321 0 -0.41310038927908221 -0.28484217392458988 0 -0.41316010660589619 -0.2636986180010682 0 -0.41310038927908221 -0.28484217392458988 0 -0.40433064532645308 -0.27892106023783952 0 -0.41316010660589619 -0.2636986180010682 0 -0.41899880716149451 -0.29003317060265321 0 -0.41316010660589619 -0.2636986180010682 0 -0.42551969657153998 -0.27199364899169498 0 -0.41899880716149451 -0.29003317060265321 0 -0.41316010660589619 -0.2636986180010682 0 -0.43864273500925549 -0.2751587481676856 0 -0.42551969657153998 -0.27199364899169498 0 -0.43487007995442373 -0.25384069753834382 0 -0.43864273500925549 -0.2751587481676856 0 -0.41899880716149451 -0.29003317060265321 0 -0.42551969657153998 -0.27199364899169498 0 -0.41316010660589619 -0.2636986180010682 0 -0.43487007995442373 -0.25384069753834382 0 -0.41316010660589619 -0.2636986180010682 0 -0.42551969657153998 -0.27199364899169498 0 -0.43487007995442373 -0.25384069753834382 0 -0.41316010660589619 -0.2636986180010682 0 -0.43487007995442373 -0.25384069753834382 0 -0.42931567121415071 -0.25028064732030619 0 -0.32316489217708799 -0.25890650528201359 0 -0.32888695585781391 -0.26910619260742191 0 -0.31032083431566337 -0.26180085087236171 0 -0.32316489217708799 -0.25890650528201359 0 -0.32888695585781391 -0.26910619260742191 0 -0.33131030172746923 -0.25321851497678438 0 -0.32888695585781391 -0.26910619260742191 0 -0.31032083431566337 -0.26180085087236171 0 -0.32316489217708799 -0.25890650528201359 0 -0.33131030172746923 -0.25321851497678438 0 -0.32202724095639168 -0.2495658441092535 0 -0.32316489217708799 -0.25890650528201359 0 -0.31032083431566337 -0.26180085087236171 0 -0.32202724095639168 -0.2495658441092535 0 -0.31032083431566337 -0.26180085087236171 0 -0.32202724095639168 -0.2495658441092535 0 -0.31283906540333922 -0.25031215033235238 0 -0.31032083431566337 -0.26180085087236171 0 -0.32202724095639168 -0.2495658441092535 0 -0.31480478096024378 -0.27564718726691712 0 -0.32888695585781391 -0.26910619260742191 0 -0.31032083431566337 -0.26180085087236171 0 -0.31480478096024378 -0.27564718726691712 0 -0.32888695585781391 -0.26910619260742191 0 -0.32507396769595592 -0.29410449247197662 0 -0.32888695585781391 -0.26910619260742191 0 -0.3381311227387106 -0.26238754928509761 0 -0.34453036853746388 -0.27526151563856671 0 -0.32888695585781391 -0.26910619260742191 0 -0.34453036853746388 -0.27526151563856671 0 -0.33279411355556121 -0.28213246275860349 0 -0.32888695585781391 -0.26910619260742191 0 -0.34453036853746388 -0.27526151563856671 0 -0.34453036853746388 -0.27526151563856671 0 -0.34450588037081892 -0.28462367662190302 0 -0.33279411355556121 -0.28213246275860349 0 -0.32888695585781391 -0.26910619260742191 0 -0.33131030172746923 -0.25321851497678438 0 -0.32888695585781391 -0.26910619260742191 0 -0.3381311227387106 -0.26238754928509761 0 -0.33131030172746923 -0.25321851497678438 0 -0.3381311227387106 -0.26238754928509761 0 -0.34897267059429732 -0.25990550268967838 0 -0.3420777495351906 -0.24844208584564559 0 -0.3381311227387106 -0.26238754928509761 0 -0.33131030172746923 -0.25321851497678438 0 -0.3420777495351906 -0.24844208584564559 0 -0.34897267059429732 -0.25990550268967838 0 -0.35255150303394622 -0.24812522560144931 0 -0.3420777495351906 -0.24844208584564559 0 -0.34897267059429732 -0.25990550268967838 0 -0.35751050643918753 -0.2560897164936603 0 -0.35722060467742811 -0.26762499714769428 0 -0.34897267059429732 -0.25990550268967838 0 -0.35751050643918753 -0.2560897164936603 0 -0.35255150303394622 -0.24812522560144931 0 -0.35751050643918753 -0.2560897164936603 0 -0.363557814049559 -0.2486896754833777 0 -0.35255150303394622 -0.24812522560144931 0 -0.35751050643918753 -0.2560897164936603 0 -0.36561260290989678 -0.26128521942254013 0 -0.363557814049559 -0.2486896754833777 0 -0.35751050643918753 -0.2560897164936603 0 -0.36561260290989678 -0.26128521942254013 0 -0.35722060467742811 -0.26762499714769428 0 -0.37598097480723441 -0.26745556380373348 0 -0.36561260290989678 -0.26128521942254013 0 -0.37393540655460039 -0.25504906339868932 0 -0.36561260290989678 -0.26128521942254013 0 -0.37393540655460039 -0.25504906339868932 0 -0.363557814049559 -0.2486896754833777 0 -0.37277902062147272 -0.27405557492128901 0 -0.36654922363893422 -0.27215591673696138 0 -0.37433096522584453 -0.28132989654828328 0 -0.37648826808451968 -0.27741199289956509 0 -0.37277902062147272 -0.27405557492128901 0 -0.37433096522584453 -0.28132989654828328 0 -0.37598097480723441 -0.26745556380373348 0 -0.37277902062147272 -0.27405557492128901 0 -0.36654922363893422 -0.27215591673696138 0 -0.37598097480723441 -0.26745556380373348 0 -0.36561260290989678 -0.26128521942254013 0 -0.36654922363893422 -0.27215591673696138 0 -0.36561260290989678 -0.26128521942254013 0 -0.36654922363893422 -0.27215591673696138 0 -0.35722060467742811 -0.26762499714769428 0 -0.36654922363893422 -0.27215591673696138 0 -0.35722060467742811 -0.26762499714769428 0 -0.36017378121711419 -0.28141683866971062 0 -0.36654922363893422 -0.27215591673696138 0 -0.36017378121711419 -0.28141683866971062 0 -0.37433096522584453 -0.28132989654828328 0 -0.34453036853746388 -0.27526151563856671 0 -0.36017378121711419 -0.28141683866971062 0 -0.35722060467742811 -0.26762499714769428 0 -0.34453036853746388 -0.27526151563856671 0 -0.36017378121711419 -0.28141683866971062 0 -0.34453036853746388 -0.27526151563856671 0 -0.34450588037081892 -0.28462367662190302 0 -0.36017378121711419 -0.28141683866971062 0 -0.34897267059429732 -0.25990550268967838 0 -0.35722060467742811 -0.26762499714769428 0 -0.34453036853746388 -0.27526151563856671 0 -0.3381311227387106 -0.26238754928509761 0 -0.34897267059429732 -0.25990550268967838 0 -0.34453036853746388 -0.27526151563856671 0 -0.34450588037081892 -0.28462367662190302 0 -0.34891652205724832 -0.29286991805537971 0 -0.36017378121711419 -0.28141683866971062 0 -0.37433096522584453 -0.28132989654828328 0 -0.36105831684996031 -0.30543451277817618 0 -0.34891652205724832 -0.29286991805537971 0 -0.37433096522584453 -0.28132989654828328 0 -0.34891652205724832 -0.29286991805537971 0 -0.36017378121711419 -0.28141683866971062 0 -0.37433096522584453 -0.28132989654828328 0 -0.38351210912712752 -0.30253866195360818 0 -0.37433096522584453 -0.28132989654828328 0 -0.36105831684996031 -0.30543451277817618 0 -0.34891652205724832 -0.29286991805537971 0 -0.37433096522584453 -0.28132989654828328 0 -0.36105831684996031 -0.30543451277817618 0 -0.38351210912712752 -0.30253866195360818 0 -0.36105831684996031 -0.30543451277817618 0 -0.37140736883531977 -0.32183989730859341 0 -0.36105831684996031 -0.30543451277817618 0 -0.3496688877197569 -0.30429177800002122 0 -0.34586440994984541 -0.3145735322147622 0 -0.34891652205724832 -0.29286991805537971 0 -0.36105831684996031 -0.30543451277817618 0 -0.3496688877197569 -0.30429177800002122 0 -0.34891652205724832 -0.29286991805537971 0 -0.3496688877197569 -0.30429177800002122 0 -0.33956299038192078 -0.30735077663143923 0 -0.3496688877197569 -0.30429177800002122 0 -0.33956299038192078 -0.30735077663143923 0 -0.34586440994984541 -0.3145735322147622 0 -0.34891652205724832 -0.29286991805537971 0 -0.33956299038192078 -0.30735077663143923 0 -0.32350207888865212 -0.30440993956247547 0 -0.33956299038192078 -0.30735077663143923 0 -0.3301339810941622 -0.31110503031331638 0 -0.32350207888865212 -0.30440993956247547 0 -0.34891652205724832 -0.29286991805537971 0 -0.32350207888865212 -0.30440993956247547 0 -0.33956299038192078 -0.30735077663143923 0 -0.3301339810941622 -0.31110503031331638 0 -0.33675509785737662 -0.31655799101612769 0 -0.34891652205724832 -0.29286991805537971 0 -0.33611461648670682 -0.29143764798725502 0 -0.32350207888865212 -0.30440993956247547 0 -0.32888695585781391 -0.26910619260742191 0 -0.33279411355556121 -0.28213246275860349 0 -0.32507396769595592 -0.29410449247197662 0 -0.34450588037081892 -0.28462367662190302 0 -0.34891652205724832 -0.29286991805537971 0 -0.33611461648670682 -0.29143764798725502 0 -0.34450588037081892 -0.28462367662190302 0 -0.33611461648670682 -0.29143764798725502 0 -0.33279411355556121 -0.28213246275860349 0 -0.33279411355556121 -0.28213246275860349 0 -0.33070524953878982 -0.29012978506972142 0 -0.32507396769595592 -0.29410449247197662 0 -0.33611461648670682 -0.29143764798725502 0 -0.33279411355556121 -0.28213246275860349 0 -0.33070524953878982 -0.29012978506972142 0 -0.33611461648670682 -0.29143764798725502 0 -0.32742439802278828 -0.29462709162158601 0 -0.32350207888865212 -0.30440993956247547 0 -0.33611461648670682 -0.29143764798725502 0 -0.33070524953878982 -0.29012978506972142 0 -0.32742439802278828 -0.29462709162158601 0 -0.32507396769595592 -0.29410449247197662 0 -0.30234930147786221 -0.28905184696057518 0 -0.32507396769595592 -0.29410449247197662 0 -0.32350207888865212 -0.30440993956247547 0 -0.30234930147786221 -0.28905184696057518 0 -0.31480478096024378 -0.27564718726691712 0 -0.32507396769595592 -0.29410449247197662 0 -0.30234930147786221 -0.28905184696057518 0 -0.32888695585781391 -0.26910619260742191 0 -0.32507396769595592 -0.29410449247197662 0 -0.32507396769595592 -0.29410449247197662 0 -0.32742439802278828 -0.29462709162158601 0 -0.33070524953878982 -0.29012978506972142 0 -0.32507396769595592 -0.29410449247197662 0 -0.32742439802278828 -0.29462709162158601 0 -0.32302725724223008 -0.30752291379569302 0 -0.32350207888865212 -0.30440993956247547 0 -0.2999756881373381 -0.31509264677165549 0 -0.3301339810941622 -0.31110503031331638 0 -0.32302725724223008 -0.30752291379569302 0 -0.32422013968378288 -0.31561436227230438 0 -0.32302725724223008 -0.30752291379569302 0 -0.32350207888865212 -0.30440993956247547 0 -0.3301339810941622 -0.31110503031331638 0 -0.32302725724223008 -0.30752291379569302 0 -0.32350207888865212 -0.30440993956247547 0 -0.32507396769595592 -0.29410449247197662 0 -0.32742439802278828 -0.29462709162158601 0 -0.32350207888865212 -0.30440993956247547 0 -0.32507396769595592 -0.29410449247197662 0 -0.32350207888865212 -0.30440993956247547 0 -0.32302725724223008 -0.30752291379569302 0 -0.31656029902357641 -0.31849097864348519 0 -0.2999756881373381 -0.31509264677165549 0 -0.32265466046617669 -0.32198754646013139 0 -0.33127214989488979 -0.33008610863815152 0 -0.32872450059276898 -0.31896534214889599 0 -0.32265466046617669 -0.32198754646013139 0 -0.31892782856615448 -0.32825501756413727 0 -0.33127214989488979 -0.33008610863815152 0 -0.32265466046617669 -0.32198754646013139 0 -0.32422013968378288 -0.31561436227230438 0 -0.32872450059276898 -0.31896534214889599 0 -0.32302725724223008 -0.30752291379569302 0 -0.32422013968378288 -0.31561436227230438 0 -0.31656029902357641 -0.31849097864348519 0 -0.3301339810941622 -0.31110503031331638 0 -0.32422013968378288 -0.31561436227230438 0 -0.32872450059276898 -0.31896534214889599 0 -0.32265466046617669 -0.32198754646013139 0 -0.32422013968378288 -0.31561436227230438 0 -0.31656029902357641 -0.31849097864348519 0 -0.32265466046617669 -0.32198754646013139 0 -0.31656029902357641 -0.31849097864348519 0 -0.31892782856615448 -0.32825501756413727 0 -0.31656029902357641 -0.31849097864348519 0 -0.31892782856615448 -0.32825501756413727 0 -0.30936258926988919 -0.3261434941065412 0 -0.31892782856615448 -0.32825501756413727 0 -0.31208723605418232 -0.33616024018399832 0 -0.30936258926988919 -0.3261434941065412 0 -0.31892782856615448 -0.32825501756413727 0 -0.32183099473442811 -0.33958013728355868 0 -0.31208723605418232 -0.33616024018399832 0 -0.32183099473442811 -0.33958013728355868 0 -0.31234840654553953 -0.34764506024843322 0 -0.31208723605418232 -0.33616024018399832 0 -0.31892782856615448 -0.32825501756413727 0 -0.32183099473442811 -0.33958013728355868 0 -0.33127214989488979 -0.33008610863815152 0 -0.33127214989488979 -0.33008610863815152 0 -0.34778566847407638 -0.32953912900806931 0 -0.33412452318830171 -0.35434929914508079 0 -0.32183099473442811 -0.33958013728355868 0 -0.33127214989488979 -0.33008610863815152 0 -0.33412452318830171 -0.35434929914508079 0 -0.34778566847407638 -0.32953912900806931 0 -0.33412452318830171 -0.35434929914508079 0 -0.33127214989488979 -0.33008610863815152 0 -0.34035549841598117 -0.32426700585474 0 -0.34778566847407638 -0.32953912900806931 0 -0.34035549841598117 -0.32426700585474 0 -0.33427681169025408 -0.32246911191447869 0 -0.33675509785737662 -0.31655799101612769 0 -0.33127214989488979 -0.33008610863815152 0 -0.34035549841598117 -0.32426700585474 0 -0.33427681169025408 -0.32246911191447869 0 -0.33127214989488979 -0.33008610863815152 0 -0.33427681169025408 -0.32246911191447869 0 -0.32872450059276898 -0.31896534214889599 0 -0.33427681169025408 -0.32246911191447869 0 -0.32872450059276898 -0.31896534214889599 0 -0.33675509785737662 -0.31655799101612769 0 -0.3301339810941622 -0.31110503031331638 0 -0.32872450059276898 -0.31896534214889599 0 -0.33675509785737662 -0.31655799101612769 0 -0.33956299038192078 -0.30735077663143923 0 -0.33675509785737662 -0.31655799101612769 0 -0.34586440994984541 -0.3145735322147622 0 -0.34035549841598117 -0.32426700585474 0 -0.33675509785737662 -0.31655799101612769 0 -0.34586440994984541 -0.3145735322147622 0 -0.36105831684996031 -0.30543451277817618 0 -0.34778566847407638 -0.32953912900806931 0 -0.36105831684996031 -0.30543451277817618 0 -0.34586440994984541 -0.3145735322147622 0 -0.34778566847407638 -0.32953912900806931 0 -0.34035549841598117 -0.32426700585474 0 -0.34586440994984541 -0.3145735322147622 0 -0.34778566847407638 -0.32953912900806931 0 -0.34035549841598117 -0.32426700585474 0 -0.34778566847407638 -0.32953912900806931 0 -0.36105831684996031 -0.30543451277817618 0 -0.37140736883531977 -0.32183989730859341 0 -0.34778566847407638 -0.32953912900806931 0 -0.38006824781918919 -0.33243312042550199 0 -0.37140736883531977 -0.32183989730859341 0 -0.36666079927166728 -0.34293209489202431 0 -0.37140736883531977 -0.32183989730859341 0 -0.36666079927166728 -0.34293209489202431 0 -0.34778566847407638 -0.32953912900806931 0 -0.34778566847407638 -0.32953912900806931 0 -0.35170181166344461 -0.34709871950800919 0 -0.33412452318830171 -0.35434929914508079 0 -0.36666079927166728 -0.34293209489202431 0 -0.34778566847407638 -0.32953912900806931 0 -0.36666079927166728 -0.34293209489202431 0 -0.34778566847407638 -0.32953912900806931 0 -0.35170181166344461 -0.34709871950800919 0 -0.36666079927166728 -0.34293209489202431 0 -0.35170181166344461 -0.34709871950800919 0 -0.35823625571973289 -0.36157435498686258 0 -0.35170181166344461 -0.34709871950800919 0 -0.35823625571973289 -0.36157435498686258 0 -0.33412452318830171 -0.35434929914508079 0 -0.38553593006925752 -0.3563250607759802 0 -0.36666079927166728 -0.34293209489202431 0 -0.35823625571973289 -0.36157435498686258 0 -0.37549160074202448 -0.3732971907138336 0 -0.38553593006925752 -0.3563250607759802 0 -0.35823625571973289 -0.36157435498686258 0 -0.37549160074202448 -0.3732971907138336 0 -0.35823625571973289 -0.36157435498686258 0 -0.35302350150803719 -0.38208755235937009 0 -0.35823625571973289 -0.36157435498686258 0 -0.34413293857164062 -0.37054757780120701 0 -0.35302350150803719 -0.38208755235937009 0 -0.35823625571973289 -0.36157435498686258 0 -0.34413293857164062 -0.37054757780120701 0 -0.33412452318830171 -0.35434929914508079 0 -0.34413293857164062 -0.37054757780120701 0 -0.33412452318830171 -0.35434929914508079 0 -0.33519042443293379 -0.3802220457599616 0 -0.33412452318830171 -0.35434929914508079 0 -0.33519042443293379 -0.3802220457599616 0 -0.32046337790252549 -0.37915946928209171 0 -0.32183099473442811 -0.33958013728355868 0 -0.33412452318830171 -0.35434929914508079 0 -0.31234840654553953 -0.34764506024843322 0 -0.33412452318830171 -0.35434929914508079 0 -0.316806384823896 -0.36257585725837499 0 -0.31234840654553953 -0.34764506024843322 0 -0.316806384823896 -0.36257585725837499 0 -0.3002892316592175 -0.36914960035789463 0 -0.32046337790252549 -0.37915946928209171 0 -0.33412452318830171 -0.35434929914508079 0 -0.316806384823896 -0.36257585725837499 0 -0.32046337790252549 -0.37915946928209171 0 -0.33412452318830171 -0.35434929914508079 0 -0.32046337790252549 -0.37915946928209171 0 -0.3002892316592175 -0.36914960035789463 0 -0.32046337790252549 -0.37915946928209171 0 -0.3002892316592175 -0.36914960035789463 0 -0.31234840654553953 -0.34764506024843322 0 -0.29527517448125451 -0.36666176000398298 0 -0.316806384823896 -0.36257585725837499 0 -0.3002892316592175 -0.36914960035789463 0 -0.31234840654553953 -0.34764506024843322 0 -0.3002892316592175 -0.36914960035789463 0 -0.29527517448125451 -0.36666176000398298 0 -0.3002892316592175 -0.36914960035789463 0 -0.29403121103535113 -0.38030922419454549 0 -0.31234840654553953 -0.34764506024843322 0 -0.29527517448125451 -0.36666176000398298 0 -0.2976254313092957 -0.34087720338781918 0 -0.3002892316592175 -0.36914960035789463 0 -0.31234840654553953 -0.34764506024843322 0 -0.29527517448125451 -0.36666176000398298 0 -0.26926364122666091 -0.35375553660024128 0 -0.28048823453243299 -0.34080574413418752 0 -0.29527517448125451 -0.36666176000398298 0 -0.2976254313092957 -0.34087720338781918 0 -0.29527517448125451 -0.36666176000398298 0 -0.28048823453243299 -0.34080574413418752 0 -0.2976254313092957 -0.34087720338781918 0 -0.29527517448125451 -0.36666176000398298 0 -0.26926364122666091 -0.35375553660024128 0 -0.29527517448125451 -0.36666176000398298 0 -0.27994264201103719 -0.36323993691456841 0 -0.26926364122666091 -0.35375553660024128 0 -0.29527517448125451 -0.36666176000398298 0 -0.28588261091775702 -0.37268605543787447 0 -0.29403121103535113 -0.38030922419454549 0 -0.29527517448125451 -0.36666176000398298 0 -0.29403121103535113 -0.38030922419454549 0 -0.3002892316592175 -0.36914960035789463 0 -0.29527517448125451 -0.36666176000398298 0 -0.29403121103535113 -0.38030922419454549 0 -0.29527517448125451 -0.36666176000398298 0 -0.28588261091775702 -0.37268605543787447 0 -0.27994264201103719 -0.36323993691456841 0 -0.28588261091775702 -0.37268605543787447 0 -0.27994264201103719 -0.36323993691456841 0 -0.2742629371717063 -0.37916463673385931 0 -0.27994264201103719 -0.36323993691456841 0 -0.26568404082974961 -0.36651666061706623 0 -0.2742629371717063 -0.37916463673385931 0 -0.27994264201103719 -0.36323993691456841 0 -0.26568404082974961 -0.36651666061706623 0 -0.26017799311385281 -0.35268912854855933 0 -0.26568404082974961 -0.36651666061706623 0 -0.25909124390184018 -0.37475905286733341 0 -0.2742629371717063 -0.37916463673385931 0 -0.26568404082974961 -0.36651666061706623 0 -0.25909124390184018 -0.37475905286733341 0 -0.25494538795031141 -0.36273054802101118 0 -0.26568404082974961 -0.36651666061706623 0 -0.25494538795031141 -0.36273054802101118 0 -0.26017799311385281 -0.35268912854855933 0 -0.25909124390184018 -0.37475905286733341 0 -0.25494538795031141 -0.36273054802101118 0 -0.24748772700216881 -0.3717564301773445 0 -0.26017799311385281 -0.35268912854855933 0 -0.2404133442166683 -0.34213832018255058 0 -0.26926364122666091 -0.35375553660024128 0 -0.24325210797206609 -0.34084931319650169 0 -0.26017799311385281 -0.35268912854855933 0 -0.26926364122666091 -0.35375553660024128 0 -0.24325210797206609 -0.34084931319650169 0 -0.25494538795031141 -0.36273054802101118 0 -0.26017799311385281 -0.35268912854855933 0 -0.24808760514302669 -0.3536558827211943 0 -0.27994264201103719 -0.36323993691456841 0 -0.26017799311385281 -0.35268912854855933 0 -0.27994264201103719 -0.36323993691456841 0 -0.26017799311385281 -0.35268912854855933 0 -0.26926364122666091 -0.35375553660024128 0 -0.28048823453243299 -0.34080574413418752 0 -0.2621599680271573 -0.33226375772155409 0 -0.28106782808224812 -0.3236782022466056 0 -0.26926364122666091 -0.35375553660024128 0 -0.28048823453243299 -0.34080574413418752 0 -0.2621599680271573 -0.33226375772155409 0 -0.2621599680271573 -0.33226375772155409 0 -0.24518994726652291 -0.33234415230164399 0 -0.24308922262768951 -0.32099342612622928 0 -0.2621599680271573 -0.33226375772155409 0 -0.24325210797206609 -0.34084931319650169 0 -0.24518994726652291 -0.33234415230164399 0 -0.2621599680271573 -0.33226375772155409 0 -0.24325210797206609 -0.34084931319650169 0 -0.26926364122666091 -0.35375553660024128 0 -0.2621599680271573 -0.33226375772155409 0 -0.24325210797206609 -0.34084931319650169 0 -0.2621599680271573 -0.33226375772155409 0 -0.25915672867891859 -0.31415112243359272 0 -0.24308922262768951 -0.32099342612622928 0 -0.2621599680271573 -0.33226375772155409 0 -0.28106782808224812 -0.3236782022466056 0 -0.25915672867891859 -0.31415112243359272 0 -0.28106782808224812 -0.3236782022466056 0 -0.2709678639136075 -0.30238435136382452 0 -0.2621599680271573 -0.33226375772155409 0 -0.25915672867891859 -0.31415112243359272 0 -0.28106782808224812 -0.3236782022466056 0 -0.28106782808224812 -0.3236782022466056 0 -0.2999756881373381 -0.31509264677165549 0 -0.28453315598845252 -0.30841843357299598 0 -0.28106782808224812 -0.3236782022466056 0 -0.2976254313092957 -0.34087720338781918 0 -0.2999756881373381 -0.31509264677165549 0 -0.28106782808224812 -0.3236782022466056 0 -0.2999756881373381 -0.31509264677165549 0 -0.28048823453243299 -0.34080574413418752 0 -0.28106782808224812 -0.3236782022466056 0 -0.2976254313092957 -0.34087720338781918 0 -0.31234840654553953 -0.34764506024843322 0 -0.2976254313092957 -0.34087720338781918 0 -0.31208723605418232 -0.33616024018399832 0 -0.2976254313092957 -0.34087720338781918 0 -0.31208723605418232 -0.33616024018399832 0 -0.30936258926988919 -0.3261434941065412 0 -0.2976254313092957 -0.34087720338781918 0 -0.2999756881373381 -0.31509264677165549 0 -0.2976254313092957 -0.34087720338781918 0 -0.30936258926988919 -0.3261434941065412 0 -0.2999756881373381 -0.31509264677165549 0 -0.31656029902357641 -0.31849097864348519 0 -0.30936258926988919 -0.3261434941065412 0 -0.2999756881373381 -0.31509264677165549 0 -0.32350207888865212 -0.30440993956247547 0 -0.2999756881373381 -0.31509264677165549 0 -0.30234930147786221 -0.28905184696057518 0 -0.2999756881373381 -0.31509264677165549 0 -0.30234930147786221 -0.28905184696057518 0 -0.2999756881373381 -0.31509264677165549 0 -0.30234930147786221 -0.28905184696057518 0 -0.29239547880504652 -0.30127313523009702 0 -0.32350207888865212 -0.30440993956247547 0 -0.2999756881373381 -0.31509264677165549 0 -0.30234930147786221 -0.28905184696057518 0 -0.29006270545698909 -0.29189763306700739 0 -0.29239547880504652 -0.30127313523009702 0 -0.30234930147786221 -0.28905184696057518 0 -0.29006270545698909 -0.29189763306700739 0 -0.28742262680475061 -0.28573302172180548 0 -0.30234930147786221 -0.28905184696057518 0 -0.28742262680475061 -0.28573302172180548 0 -0.29006270545698909 -0.29189763306700739 0 -0.28742262680475061 -0.28573302172180548 0 -0.28158089536532038 -0.29680102193740848 0 -0.29006270545698909 -0.29189763306700739 0 -0.28158089536532038 -0.29680102193740848 0 -0.29239547880504652 -0.30127313523009702 0 -0.28158089536532038 -0.29680102193740848 0 -0.29239547880504652 -0.30127313523009702 0 -0.28453315598845252 -0.30841843357299598 0 -0.2999756881373381 -0.31509264677165549 0 -0.29239547880504652 -0.30127313523009702 0 -0.28453315598845252 -0.30841843357299598 0 -0.28106782808224812 -0.3236782022466056 0 -0.28453315598845252 -0.30841843357299598 0 -0.2709678639136075 -0.30238435136382452 0 -0.28158089536532038 -0.29680102193740848 0 -0.28453315598845252 -0.30841843357299598 0 -0.2709678639136075 -0.30238435136382452 0 -0.25915672867891859 -0.31415112243359272 0 -0.25718459078837252 -0.29759752524363881 0 -0.24047089863443691 -0.30798947189970438 0 -0.25915672867891859 -0.31415112243359272 0 -0.2709678639136075 -0.30238435136382452 0 -0.25718459078837252 -0.29759752524363881 0 -0.25718459078837252 -0.29759752524363881 0 -0.25108388684634803 -0.28956965662021522 0 -0.26792751193251091 -0.28139844079955562 0 -0.25108388684634803 -0.28956965662021522 0 -0.26792751193251091 -0.28139844079955562 0 -0.2484323970602714 -0.27706385987730509 0 -0.2709678639136075 -0.30238435136382452 0 -0.25718459078837252 -0.29759752524363881 0 -0.26792751193251091 -0.28139844079955562 0 -0.28742262680475061 -0.28573302172180548 0 -0.26792751193251091 -0.28139844079955562 0 -0.28158089536532038 -0.29680102193740848 0 -0.2709678639136075 -0.30238435136382452 0 -0.26792751193251091 -0.28139844079955562 0 -0.28742262680475061 -0.28573302172180548 0 -0.28158089536532038 -0.29680102193740848 0 -0.26792751193251091 -0.28139844079955562 0 -0.26792751193251091 -0.28139844079955562 0 -0.27965676560653041 -0.27550351800418249 0 -0.27506057922854799 -0.26523935036500679 0 -0.28742262680475061 -0.28573302172180548 0 -0.26792751193251091 -0.28139844079955562 0 -0.27965676560653041 -0.27550351800418249 0 -0.26792751193251091 -0.28139844079955562 0 -0.26170023695288303 -0.26848976391570201 0 -0.27506057922854799 -0.26523935036500679 0 -0.27965676560653041 -0.27550351800418249 0 -0.27506057922854799 -0.26523935036500679 0 -0.28821634446031208 -0.2696432591303618 0 -0.26792751193251091 -0.28139844079955562 0 -0.2484323970602714 -0.27706385987730509 0 -0.26792751193251091 -0.28139844079955562 0 -0.26170023695288303 -0.26848976391570201 0 -0.2484323970602714 -0.27706385987730509 0 -0.26170023695288303 -0.26848976391570201 0 -0.25309751137434572 -0.26289123234143091 0 -0.2484323970602714 -0.27706385987730509 0 -0.2565674865322034 -0.25340195958415102 0 -0.26524553468775469 -0.25886506807255583 0 -0.27383001930629169 -0.24744255459442921 0 -0.2565674865322034 -0.25340195958415102 0 -0.27383001930629169 -0.24744255459442921 0 -0.2565674865322034 -0.25340195958415102 0 -0.25309751137434572 -0.26289123234143091 0 -0.24233717299785959 -0.25960849866204011 0 -0.2565674865322034 -0.25340195958415102 0 -0.25309751137434572 -0.26289123234143091 0 -0.26524553468775469 -0.25886506807255583 0 -0.26170023695288303 -0.26848976391570201 0 -0.25309751137434572 -0.26289123234143091 0 -0.26524553468775469 -0.25886506807255583 0 -0.27506057922854799 -0.26523935036500679 0 -0.28942662192718172 -0.25357945894426132 0 -0.27383001930629169 -0.24744255459442921 0 -0.26524553468775469 -0.25886506807255583 0 -0.27506057922854799 -0.26523935036500679 0 -0.27383001930629169 -0.24744255459442921 0 -0.26170023695288303 -0.26848976391570201 0 -0.26524553468775469 -0.25886506807255583 0 -0.27506057922854799 -0.26523935036500679 0 -0.28942662192718172 -0.25357945894426132 0 -0.29569431645386429 -0.26311293363000732 0 -0.28821634446031208 -0.2696432591303618 0 -0.28942662192718172 -0.25357945894426132 0 -0.27383001930629169 -0.24744255459442921 0 -0.27506057922854799 -0.26523935036500679 0 -0.28942662192718172 -0.25357945894426132 0 -0.28821634446031208 -0.2696432591303618 0 -0.28942662192718172 -0.25357945894426132 0 -0.29569431645386429 -0.26311293363000732 0 -0.30502322454807101 -0.25971636329409542 0 -0.29569431645386429 -0.26311293363000732 0 -0.28821634446031208 -0.2696432591303618 0 -0.30425539613548452 -0.26814017253042433 0 -0.28742262680475061 -0.28573302172180548 0 -0.27965676560653041 -0.27550351800418249 0 -0.28821634446031208 -0.2696432591303618 0 -0.28742262680475061 -0.28573302172180548 0 -0.28821634446031208 -0.2696432591303618 0 -0.30425539613548452 -0.26814017253042433 0 -0.28742262680475061 -0.28573302172180548 0 -0.30425539613548452 -0.26814017253042433 0 -0.31480478096024378 -0.27564718726691712 0 -0.30234930147786221 -0.28905184696057518 0 -0.30425539613548452 -0.26814017253042433 0 -0.30234930147786221 -0.28905184696057518 0 -0.30425539613548452 -0.26814017253042433 0 -0.30234930147786221 -0.28905184696057518 0 -0.28742262680475061 -0.28573302172180548 0 -0.30425539613548452 -0.26814017253042433 0 -0.31480478096024378 -0.27564718726691712 0 -0.30425539613548452 -0.26814017253042433 0 -0.31032083431566337 -0.26180085087236171 0 -0.30425539613548452 -0.26814017253042433 0 -0.31032083431566337 -0.26180085087236171 0 -0.30502322454807101 -0.25971636329409542 0 -0.28942662192718172 -0.25357945894426132 0 -0.30538593138510828 -0.25573712372202267 0 -0.29948497002523827 -0.2483657822867901 0 -0.28942662192718172 -0.25357945894426132 0 -0.30502322454807101 -0.25971636329409542 0 -0.30538593138510828 -0.25573712372202267 0 -0.30425539613548452 -0.26814017253042433 0 -0.31032083431566337 -0.26180085087236171 0 -0.31032083431566337 -0.26180085087236171 0 -0.30502322454807101 -0.25971636329409542 0 -0.31032083431566337 -0.26180085087236171 0 -0.30502322454807101 -0.25971636329409542 0 -0.30538593138510828 -0.25573712372202267 0 -0.31283906540333922 -0.25031215033235238 0 -0.31032083431566337 -0.26180085087236171 0 -0.30538593138510828 -0.25573712372202267 0 -0.31283906540333922 -0.25031215033235238 0 -0.30538593138510828 -0.25573712372202267 0 -0.30623861516307299 -0.24935013043731349 0 -0.30502322454807101 -0.25971636329409542 0 -0.30538593138510828 -0.25573712372202267 0 -0.28942662192718172 -0.25357945894426132 0 -0.30502322454807101 -0.25971636329409542 0 -0.30538593138510828 -0.25573712372202267 0 -0.29948497002523827 -0.2483657822867901 0 -0.30623861516307299 -0.24935013043731349 0 -0.30425539613548452 -0.26814017253042433 0 -0.30502322454807101 -0.25971636329409542 0 -0.29569431645386429 -0.26311293363000732 0 -0.30425539613548452 -0.26814017253042433 0 -0.30502322454807101 -0.25971636329409542 0 -0.33143192801526428 -0.45396038638140679 0 -0.33152258580119082 -0.46633970128806979 0 -0.34296165509457921 -0.45730971557378147 0 -0.34069406563311189 -0.44566521365826578 0 -0.32492704317595772 -0.44077768091168912 0 -0.33812272201467081 -0.43047089330918592 0 -0.33143192801526428 -0.45396038638140679 0 -0.34069406563311189 -0.44566521365826578 0 -0.32492704317595772 -0.44077768091168912 0 -0.33143192801526428 -0.45396038638140679 0 -0.34296165509457921 -0.45730971557378147 0 -0.34069406563311189 -0.44566521365826578 0 -0.33143192801526428 -0.45396038638140679 0 -0.32492704317595772 -0.44077768091168912 0 -0.31987457796333868 -0.4551426725204325 0 -0.32492704317595772 -0.44077768091168912 0 -0.31987457796333868 -0.4551426725204325 0 -0.31015853372433788 -0.44544301337781073 0 -0.33152258580119082 -0.46633970128806979 0 -0.30592196819360068 -0.46328971004504182 0 -0.33152258580119082 -0.46633970128806979 0 -0.31987457796333868 -0.4551426725204325 0 -0.30592196819360068 -0.46328971004504182 0 -0.33152258580119082 -0.46633970128806979 0 -0.32094261384274558 -0.46854088973335889 0 -0.30592196819360068 -0.46328971004504182 0 -0.33143192801526428 -0.45396038638140679 0 -0.33152258580119082 -0.46633970128806979 0 -0.31987457796333868 -0.4551426725204325 0 -0.33152258580119082 -0.46633970128806979 0 -0.32094261384274558 -0.46854088973335889 0 -0.32966732857214198 -0.4835879285261328 0 -0.32094261384274558 -0.46854088973335889 0 -0.32966732857214198 -0.4835879285261328 0 -0.31208929727375578 -0.48491526738579699 0 -0.32221211863154181 -0.5 0 -0.32966732857214198 -0.4835879285261328 0 -0.31208929727375578 -0.48491526738579699 0 -0.32221211863154181 -0.5 0 -0.32966732857214198 -0.4835879285261328 0 -0.34860848031248309 -0.5 0 -0.32966732857214198 -0.4835879285261328 0 -0.34707385437868848 -0.48052394199199022 0 -0.34860848031248309 -0.5 0 -0.33152258580119082 -0.46633970128806979 0 -0.32966732857214198 -0.4835879285261328 0 -0.34707385437868848 -0.48052394199199022 0 -0.33152258580119082 -0.46633970128806979 0 -0.3571232034087809 -0.46938969253109791 0 -0.34707385437868848 -0.48052394199199022 0 -0.3571232034087809 -0.46938969253109791 0 -0.34707385437868848 -0.48052394199199022 0 -0.36652141413456929 -0.48474993749143802 0 -0.34707385437868848 -0.48052394199199022 0 -0.34860848031248309 -0.5 0 -0.36652141413456929 -0.48474993749143802 0 -0.37500484199342449 -0.5 0 -0.34860848031248309 -0.5 0 -0.36652141413456929 -0.48474993749143802 0 -0.38272382101637098 -0.47243968377412587 0 -0.3571232034087809 -0.46938969253109791 0 -0.36652141413456929 -0.48474993749143802 0 -0.38272382101637098 -0.47243968377412587 0 -0.3571232034087809 -0.46938969253109791 0 -0.38265619596279349 -0.45813348326120767 0 -0.38272382101637098 -0.47243968377412587 0 -0.3571232034087809 -0.46938969253109791 0 -0.38265619596279349 -0.45813348326120767 0 -0.3571232034087809 -0.46938969253109791 0 -0.35544663641047641 -0.4489101100326689 0 -0.38265619596279349 -0.45813348326120767 0 -0.35544663641047641 -0.4489101100326689 0 -0.34296165509457921 -0.45730971557378147 0 -0.3571232034087809 -0.46938969253109791 0 -0.35544663641047641 -0.4489101100326689 0 -0.33152258580119082 -0.46633970128806979 0 -0.3571232034087809 -0.46938969253109791 0 -0.33152258580119082 -0.46633970128806979 0 -0.34296165509457921 -0.45730971557378147 0 -0.3571232034087809 -0.46938969253109791 0 -0.34069406563311189 -0.44566521365826578 0 -0.35544663641047641 -0.4489101100326689 0 -0.35372302635176472 -0.43532257313283612 0 -0.34296165509457921 -0.45730971557378147 0 -0.34069406563311189 -0.44566521365826578 0 -0.35544663641047641 -0.4489101100326689 0 -0.35544663641047641 -0.4489101100326689 0 -0.3723601590800425 -0.44005613486137668 0 -0.35372302635176472 -0.43532257313283612 0 -0.38265619596279349 -0.45813348326120767 0 -0.35544663641047641 -0.4489101100326689 0 -0.3723601590800425 -0.44005613486137668 0 -0.38028594703985957 -0.42392304976487449 0 -0.3723601590800425 -0.44005613486137668 0 -0.36423780173753523 -0.4264797532188066 0 -0.3723601590800425 -0.44005613486137668 0 -0.36423780173753523 -0.4264797532188066 0 -0.35372302635176472 -0.43532257313283612 0 -0.38028594703985957 -0.42392304976487449 0 -0.36423780173753523 -0.4264797532188066 0 -0.36590226101420908 -0.41270082520662749 0 -0.36423780173753523 -0.4264797532188066 0 -0.36590226101420908 -0.41270082520662749 0 -0.35147677323475168 -0.42035333371671318 0 -0.36590226101420908 -0.41270082520662749 0 -0.35147677323475168 -0.42035333371671318 0 -0.35184044830027089 -0.40346733636007898 0 -0.35147677323475168 -0.42035333371671318 0 -0.35184044830027089 -0.40346733636007898 0 -0.33675831632547681 -0.41105613646481343 0 -0.35147677323475168 -0.42035333371671318 0 -0.35372302635176472 -0.43532257313283612 0 -0.33812272201467081 -0.43047089330918592 0 -0.34069406563311189 -0.44566521365826578 0 -0.35372302635176472 -0.43532257313283612 0 -0.33812272201467081 -0.43047089330918592 0 -0.36423780173753523 -0.4264797532188066 0 -0.35147677323475168 -0.42035333371671318 0 -0.35372302635176472 -0.43532257313283612 0 -0.37549160074202448 -0.3732971907138336 0 -0.36544727141479139 -0.39026932065168712 0 -0.37549160074202448 -0.3732971907138336 0 -0.36544727141479139 -0.39026932065168712 0 -0.35302350150803719 -0.38208755235937009 0 -0.36590226101420908 -0.41270082520662749 0 -0.36544727141479139 -0.39026932065168712 0 -0.35184044830027089 -0.40346733636007898 0 -0.38114412328536468 -0.40833987260765031 0 -0.36590226101420908 -0.41270082520662749 0 -0.36544727141479139 -0.39026932065168712 0 -0.35184044830027089 -0.40346733636007898 0 -0.35302350150803719 -0.38208755235937009 0 -0.34082557137486691 -0.39523504024196021 0 -0.36544727141479139 -0.39026932065168712 0 -0.35184044830027089 -0.40346733636007898 0 -0.35302350150803719 -0.38208755235937009 0 -0.34413293857164062 -0.37054757780120701 0 -0.35302350150803719 -0.38208755235937009 0 -0.33519042443293379 -0.3802220457599616 0 -0.35302350150803719 -0.38208755235937009 0 -0.33519042443293379 -0.3802220457599616 0 -0.34082557137486691 -0.39523504024196021 0 -0.33519042443293379 -0.3802220457599616 0 -0.32808226850220168 -0.39240284671641351 0 -0.3247168406287716 -0.38559411673624039 0 -0.33519042443293379 -0.3802220457599616 0 -0.34082557137486691 -0.39523504024196021 0 -0.32808226850220168 -0.39240284671641351 0 -0.34082557137486691 -0.39523504024196021 0 -0.32808226850220168 -0.39240284671641351 0 -0.33675831632547681 -0.41105613646481343 0 -0.32808226850220168 -0.39240284671641351 0 -0.33675831632547681 -0.41105613646481343 0 -0.3206477944579052 -0.41019310838576051 0 -0.35184044830027089 -0.40346733636007898 0 -0.34082557137486691 -0.39523504024196021 0 -0.33675831632547681 -0.41105613646481343 0 -0.32808226850220168 -0.39240284671641351 0 -0.31437491003333667 -0.39021680895226152 0 -0.3206477944579052 -0.41019310838576051 0 -0.32808226850220168 -0.39240284671641351 0 -0.3247168406287716 -0.38559411673624039 0 -0.31437491003333667 -0.39021680895226152 0 -0.31437491003333667 -0.39021680895226152 0 -0.32046337790252549 -0.37915946928209171 0 -0.30588070030683939 -0.38181824174751872 0 -0.3247168406287716 -0.38559411673624039 0 -0.31437491003333667 -0.39021680895226152 0 -0.32046337790252549 -0.37915946928209171 0 -0.31437491003333667 -0.39021680895226152 0 -0.32046337790252549 -0.37915946928209171 0 -0.33519042443293379 -0.3802220457599616 0 -0.3247168406287716 -0.38559411673624039 0 -0.32046337790252549 -0.37915946928209171 0 -0.32492704317595772 -0.44077768091168912 0 -0.33812272201467081 -0.43047089330918592 0 -0.32670905357880831 -0.42305010768611329 0 -0.35147677323475168 -0.42035333371671318 0 -0.33812272201467081 -0.43047089330918592 0 -0.33675831632547681 -0.41105613646481343 0 -0.33812272201467081 -0.43047089330918592 0 -0.33675831632547681 -0.41105613646481343 0 -0.32670905357880831 -0.42305010768611329 0 -0.33675831632547681 -0.41105613646481343 0 -0.3206477944579052 -0.41019310838576051 0 -0.32670905357880831 -0.42305010768611329 0 -0.3206477944579052 -0.41019310838576051 0 -0.31307232924124478 -0.42559811140412351 0 -0.32670905357880831 -0.42305010768611329 0 -0.32492704317595772 -0.44077768091168912 0 -0.31307232924124478 -0.42559811140412351 0 -0.31015853372433788 -0.44544301337781073 0 -0.32492704317595772 -0.44077768091168912 0 -0.31307232924124478 -0.42559811140412351 0 -0.32670905357880831 -0.42305010768611329 0 -0.31307232924124478 -0.42559811140412351 0 -0.29907098912325059 -0.43374406761790368 0 -0.29851577765410048 -0.41098608612968202 0 -0.31307232924124478 -0.42559811140412351 0 -0.29907098912325059 -0.43374406761790368 0 -0.31015853372433788 -0.44544301337781073 0 -0.3206477944579052 -0.41019310838576051 0 -0.31307232924124478 -0.42559811140412351 0 -0.29851577765410048 -0.41098608612968202 0 -0.3206477944579052 -0.41019310838576051 0 -0.29851577765410048 -0.41098608612968202 0 -0.29851577765410048 -0.41098608612968202 0 -0.27638376085029581 -0.41177906387360241 0 -0.29851577765410048 -0.41098608612968202 0 -0.28520748594282241 -0.3960441440340734 0 -0.27638376085029581 -0.41177906387360241 0 -0.29851577765410048 -0.41098608612968202 0 -0.28540276919059199 -0.42535658303670731 0 -0.27638376085029581 -0.41177906387360241 0 -0.29907098912325059 -0.43374406761790368 0 -0.29851577765410048 -0.41098608612968202 0 -0.28540276919059199 -0.42535658303670731 0 -0.28540276919059199 -0.42535658303670731 0 -0.27848929033898201 -0.43669604725877897 0 -0.28902284908971709 -0.44016681433255572 0 -0.29907098912325059 -0.43374406761790368 0 -0.28540276919059199 -0.42535658303670731 0 -0.28902284908971709 -0.44016681433255572 0 -0.3002892316592175 -0.36914960035789463 0 -0.32046337790252549 -0.37915946928209171 0 -0.30588070030683939 -0.38181824174751872 0 -0.3002892316592175 -0.36914960035789463 0 -0.29819443980788141 -0.38001079285233907 0 -0.30588070030683939 -0.38181824174751872 0 -0.3002892316592175 -0.36914960035789463 0 -0.29819443980788141 -0.38001079285233907 0 -0.29403121103535113 -0.38030922419454549 0 -0.31437491003333667 -0.39021680895226152 0 -0.30588070030683939 -0.38181824174751872 0 -0.30232780815510779 -0.39560758766926629 0 -0.29819443980788141 -0.38001079285233907 0 -0.30588070030683939 -0.38181824174751872 0 -0.29681739610749358 -0.387616864260033 0 -0.30588070030683939 -0.38181824174751872 0 -0.30232780815510779 -0.39560758766926629 0 -0.29681739610749358 -0.387616864260033 0 -0.31437491003333667 -0.39021680895226152 0 -0.3206477944579052 -0.41019310838576051 0 -0.30232780815510779 -0.39560758766926629 0 -0.3206477944579052 -0.41019310838576051 0 -0.29851577765410048 -0.41098608612968202 0 -0.30232780815510779 -0.39560758766926629 0 -0.30232780815510779 -0.39560758766926629 0 -0.28520748594282241 -0.3960441440340734 0 -0.29681739610749358 -0.387616864260033 0 -0.29851577765410048 -0.41098608612968202 0 -0.30232780815510779 -0.39560758766926629 0 -0.28520748594282241 -0.3960441440340734 0 -0.28520748594282241 -0.3960441440340734 0 -0.28484606126690931 -0.38205101510008821 0 -0.29403121103535113 -0.38030922419454549 0 -0.28520748594282241 -0.3960441440340734 0 -0.29403121103535113 -0.38030922419454549 0 -0.28520748594282241 -0.3960441440340734 0 -0.29681739610749358 -0.387616864260033 0 -0.29403121103535113 -0.38030922419454549 0 -0.28520748594282241 -0.3960441440340734 0 -0.28484606126690931 -0.38205101510008821 0 -0.2742629371717063 -0.37916463673385931 0 -0.28588261091775702 -0.37268605543787447 0 -0.28484606126690931 -0.38205101510008821 0 -0.2742629371717063 -0.37916463673385931 0 -0.28588261091775702 -0.37268605543787447 0 -0.28484606126690931 -0.38205101510008821 0 -0.29403121103535113 -0.38030922419454549 0 -0.29819443980788141 -0.38001079285233907 0 -0.29681739610749358 -0.387616864260033 0 -0.29403121103535113 -0.38030922419454549 0 -0.28520748594282241 -0.3960441440340734 0 -0.2742629371717063 -0.37916463673385931 0 -0.26755910350718881 -0.39582792531461569 0 -0.2742629371717063 -0.37916463673385931 0 -0.26755910350718881 -0.39582792531461569 0 -0.26281209396899169 -0.38517470131063508 0 -0.28520748594282241 -0.3960441440340734 0 -0.27638376085029581 -0.41177906387360241 0 -0.28520748594282241 -0.3960441440340734 0 -0.26755910350718881 -0.39582792531461569 0 -0.27638376085029581 -0.41177906387360241 0 -0.26755910350718881 -0.39582792531461569 0 -0.25033509129523179 -0.39094719032673231 0 -0.25487024651921952 -0.41254988102096568 0 -0.26755910350718881 -0.39582792531461569 0 -0.25033509129523179 -0.39094719032673231 0 -0.26281209396899169 -0.38517470131063508 0 -0.25909124390184018 -0.37475905286733341 0 -0.25033509129523179 -0.39094719032673231 0 -0.26281209396899169 -0.38517470131063508 0 -0.25909124390184018 -0.37475905286733341 0 -0.25033509129523179 -0.39094719032673231 0 -0.24748772700216881 -0.3717564301773445 0 -0.25909124390184018 -0.37475905286733341 0 -0.2742629371717063 -0.37916463673385931 0 -0.26281209396899169 -0.38517470131063508 0 -0.26911429951178012 -0.42474234074800371 0 -0.27848929033898201 -0.43669604725877897 0 -0.26690007516498948 -0.44242471351124879 0 -0.28540276919059199 -0.42535658303670731 0 -0.26911429951178012 -0.42474234074800371 0 -0.27848929033898201 -0.43669604725877897 0 -0.27638376085029581 -0.41177906387360241 0 -0.25487024651921952 -0.41254988102096568 0 -0.28540276919059199 -0.42535658303670731 0 -0.26911429951178012 -0.42474234074800371 0 -0.27638376085029581 -0.41177906387360241 0 -0.26911429951178012 -0.42474234074800371 0 -0.27638376085029581 -0.41177906387360241 0 -0.25487024651921952 -0.41254988102096568 0 -0.26755910350718881 -0.39582792531461569 0 -0.27638376085029581 -0.41177906387360241 0 -0.25487024651921952 -0.41254988102096568 0 -0.26911429951178012 -0.42474234074800371 0 -0.27638376085029581 -0.41177906387360241 0 -0.26911429951178012 -0.42474234074800371 0 -0.25908880606166329 -0.43064529781943001 0 -0.26690007516498948 -0.44242471351124879 0 -0.25487024651921952 -0.41254988102096568 0 -0.25908880606166329 -0.43064529781943001 0 -0.2468605885266735 -0.43014712497011809 0 -0.26911429951178012 -0.42474234074800371 0 -0.25487024651921952 -0.41254988102096568 0 -0.25908880606166329 -0.43064529781943001 0 -0.25908880606166329 -0.43064529781943001 0 -0.25479397652280911 -0.44050862113911837 0 -0.2468605885266735 -0.43014712497011809 0 -0.25479397652280911 -0.44050862113911837 0 -0.2546108597688766 -0.45375703833677078 0 -0.2450571310604201 -0.44414202720417628 0 -0.25479397652280911 -0.44050862113911837 0 -0.2546108597688766 -0.45375703833677078 0 -0.26690007516498948 -0.44242471351124879 0 -0.2546108597688766 -0.45375703833677078 0 -0.26838297633475061 -0.45652413347846638 0 -0.26690007516498948 -0.44242471351124879 0 -0.25908880606166329 -0.43064529781943001 0 -0.25479397652280911 -0.44050862113911837 0 -0.26690007516498948 -0.44242471351124879 0 -0.25109629719050858 -0.46406488014867903 0 -0.2546108597688766 -0.45375703833677078 0 -0.26079873433517492 -0.46936342421069649 0 -0.2546108597688766 -0.45375703833677078 0 -0.26838297633475061 -0.45652413347846638 0 -0.26079873433517492 -0.46936342421069649 0 -0.27799569035848881 -0.46687050799545499 0 -0.26838297633475061 -0.45652413347846638 0 -0.26079873433517492 -0.46936342421069649 0 -0.27799569035848881 -0.46687050799545499 0 -0.26838297633475061 -0.45652413347846638 0 -0.28160952204622303 -0.450204983338161 0 -0.26838297633475061 -0.45652413347846638 0 -0.26690007516498948 -0.44242471351124879 0 -0.28160952204622303 -0.450204983338161 0 -0.27848929033898201 -0.43669604725877897 0 -0.26690007516498948 -0.44242471351124879 0 -0.28160952204622303 -0.450204983338161 0 -0.29907098912325059 -0.43374406761790368 0 -0.28902284908971709 -0.44016681433255572 0 -0.29708038679871529 -0.44973292283788502 0 -0.27848929033898201 -0.43669604725877897 0 -0.28902284908971709 -0.44016681433255572 0 -0.28160952204622303 -0.450204983338161 0 -0.28902284908971709 -0.44016681433255572 0 -0.28160952204622303 -0.450204983338161 0 -0.29708038679871529 -0.44973292283788502 0 -0.27799569035848881 -0.46687050799545499 0 -0.29150619976335518 -0.46129715127825488 0 -0.29492343141974797 -0.47638763217473168 0 -0.27799569035848881 -0.46687050799545499 0 -0.28160952204622303 -0.450204983338161 0 -0.29150619976335518 -0.46129715127825488 0 -0.28160952204622303 -0.450204983338161 0 -0.29150619976335518 -0.46129715127825488 0 -0.29708038679871529 -0.44973292283788502 0 -0.29150619976335518 -0.46129715127825488 0 -0.30592196819360068 -0.46328971004504182 0 -0.29708038679871529 -0.44973292283788502 0 -0.31987457796333868 -0.4551426725204325 0 -0.30592196819360068 -0.46328971004504182 0 -0.31015853372433788 -0.44544301337781073 0 -0.29150619976335518 -0.46129715127825488 0 -0.30592196819360068 -0.46328971004504182 0 -0.29492343141974797 -0.47638763217473168 0 -0.29907098912325059 -0.43374406761790368 0 -0.31015853372433788 -0.44544301337781073 0 -0.29708038679871529 -0.44973292283788502 0 -0.30592196819360068 -0.46328971004504182 0 -0.31015853372433788 -0.44544301337781073 0 -0.29708038679871529 -0.44973292283788502 0 -0.31208929727375578 -0.48491526738579699 0 -0.29492343141974797 -0.47638763217473168 0 -0.29581575695060047 -0.5 0 -0.32221211863154181 -0.5 0 -0.31208929727375578 -0.48491526738579699 0 -0.29581575695060047 -0.5 0 -0.32094261384274558 -0.46854088973335889 0 -0.30592196819360068 -0.46328971004504182 0 -0.29492343141974797 -0.47638763217473168 0 -0.32094261384274558 -0.46854088973335889 0 -0.29492343141974797 -0.47638763217473168 0 -0.32094261384274558 -0.46854088973335889 0 -0.31208929727375578 -0.48491526738579699 0 -0.29492343141974797 -0.47638763217473168 0 -0.29492343141974797 -0.47638763217473168 0 -0.26890424899675031 -0.48423437461610452 0 -0.29492343141974797 -0.47638763217473168 0 -0.28441593737837417 -0.48860776134254891 0 -0.26890424899675031 -0.48423437461610452 0 -0.29492343141974797 -0.47638763217473168 0 -0.28441593737837417 -0.48860776134254891 0 -0.29581575695060047 -0.5 0 -0.28441593737837417 -0.48860776134254891 0 -0.29581575695060047 -0.5 0 -0.26941939526965919 -0.5 0 -0.28441593737837417 -0.48860776134254891 0 -0.26941939526965919 -0.5 0 -0.26890424899675031 -0.48423437461610452 0 -0.27799569035848881 -0.46687050799545499 0 -0.29492343141974797 -0.47638763217473168 0 -0.26890424899675031 -0.48423437461610452 0 -0.27799569035848881 -0.46687050799545499 0 -0.26890424899675031 -0.48423437461610452 0 -0.26079873433517492 -0.46936342421069649 0 -0.26890424899675031 -0.48423437461610452 0 -0.26079873433517492 -0.46936342421069649 0 -0.25379328426056558 -0.48205965705463422 0 -0.26079873433517492 -0.46936342421069649 0 -0.25379328426056558 -0.48205965705463422 0 -0.250874604213362 -0.47391739130808008 0 -0.25109629719050858 -0.46406488014867903 0 -0.26079873433517492 -0.46936342421069649 0 -0.250874604213362 -0.47391739130808008 0 -0.26941939526965919 -0.5 0 -0.26890424899675031 -0.48423437461610452 0 -0.2544134183364497 -0.49413622749019132 0 -0.26941939526965919 -0.5 0 -0.2544134183364497 -0.49413622749019132 0 -0.2430230335887178 -0.5 0 -0.26890424899675031 -0.48423437461610452 0 -0.2544134183364497 -0.49413622749019132 0 -0.24288506657375261 -0.49208111705747781 0 -0.26890424899675031 -0.48423437461610452 0 -0.25379328426056558 -0.48205965705463422 0 -0.24288506657375261 -0.49208111705747781 0 -0.26890424899675031 -0.48423437461610452 0 -0.24288506657375261 -0.49208111705747781 0 -0.2544134183364497 -0.49413622749019132 0 -0.2430230335887178 -0.5 0 -0.24783534725336881 -0.49436564577737419 0 -0.2544134183364497 -0.49413622749019132 0 -0.24783534725336881 -0.49436564577737419 0 -0.24288506657375261 -0.49208111705747781 0 -0.2430230335887178 -0.5 0 -0.24783534725336881 -0.49436564577737419 0 -0.24288506657375261 -0.49208111705747781 0 -0.24783534725336881 -0.49436564577737419 0 -0.24288506657375261 -0.49208111705747781 0 -0.24288506657375261 -0.49208111705747781 0 -0.24429345028001889 -0.4821559175287794 0 -0.23457410743521059 -0.47899140825596259 0 -0.25379328426056558 -0.48205965705463422 0 -0.24288506657375261 -0.49208111705747781 0 -0.24429345028001889 -0.4821559175287794 0 -0.25379328426056558 -0.48205965705463422 0 -0.250874604213362 -0.47391739130808008 0 -0.24429345028001889 -0.4821559175287794 0 -0.24429345028001889 -0.4821559175287794 0 -0.2443912550005416 -0.47194307759761112 0 -0.2395637252682277 -0.47605318874815389 0 -0.25109629719050858 -0.46406488014867903 0 -0.250874604213362 -0.47391739130808008 0 -0.2443912550005416 -0.47194307759761112 0 -0.250874604213362 -0.47391739130808008 0 -0.24429345028001889 -0.4821559175287794 0 -0.2443912550005416 -0.47194307759761112 0 -0.2443912550005416 -0.47194307759761112 0 -0.2395637252682277 -0.47605318874815389 0 -0.23499608835713959 -0.47112235161026261 0 -0.2395637252682277 -0.47605318874815389 0 -0.23499608835713959 -0.47112235161026261 0 -0.23457410743521059 -0.47899140825596259 0 -0.24429345028001889 -0.4821559175287794 0 -0.2395637252682277 -0.47605318874815389 0 -0.23457410743521059 -0.47899140825596259 0 -0.23457410743521059 -0.47899140825596259 0 -0.2250369990674011 -0.47003999804886298 0 -0.2204246459600448 -0.48171575006642248 0 -0.24288506657375261 -0.49208111705747781 0 -0.23457410743521059 -0.47899140825596259 0 -0.2204246459600448 -0.48171575006642248 0 -0.23499608835713959 -0.47112235161026261 0 -0.23457410743521059 -0.47899140825596259 0 -0.2250369990674011 -0.47003999804886298 0 -0.2430230335887178 -0.5 0 -0.24288506657375261 -0.49208111705747781 0 -0.21662667190777651 -0.49999999999999939 0 -0.24288506657375261 -0.49208111705747781 0 -0.21662667190777651 -0.49999999999999939 0 -0.24288506657375261 -0.49208111705747781 0 -0.2204246459600448 -0.48171575006642248 0 -0.24288506657375261 -0.49208111705747781 0 -0.2204246459600448 -0.48171575006642248 0 -0.21662667190777651 -0.49999999999999939 0 -0.2450571310604201 -0.44414202720417628 0 -0.23716380350122879 -0.45645441389937441 0 -0.23280677558438309 -0.43386548686292281 0 -0.2546108597688766 -0.45375703833677078 0 -0.2450571310604201 -0.44414202720417628 0 -0.23716380350122879 -0.45645441389937441 0 -0.25479397652280911 -0.44050862113911837 0 -0.2450571310604201 -0.44414202720417628 0 -0.2468605885266735 -0.43014712497011809 0 -0.25109629719050858 -0.46406488014867903 0 -0.2546108597688766 -0.45375703833677078 0 -0.23716380350122879 -0.45645441389937441 0 -0.25109629719050858 -0.46406488014867903 0 -0.2443912550005416 -0.47194307759761112 0 -0.23716380350122879 -0.45645441389937441 0 -0.2443912550005416 -0.47194307759761112 0 -0.23499608835713959 -0.47112235161026261 0 -0.23716380350122879 -0.45645441389937441 0 -0.2250369990674011 -0.47003999804886298 0 -0.21844010846223411 -0.44206575668227449 0 -0.2250369990674011 -0.47003999804886298 0 -0.23716380350122879 -0.45645441389937441 0 -0.21844010846223411 -0.44206575668227449 0 -0.23499608835713959 -0.47112235161026261 0 -0.2250369990674011 -0.47003999804886298 0 -0.23716380350122879 -0.45645441389937441 0 -0.23716380350122879 -0.45645441389937441 0 -0.21844010846223411 -0.44206575668227449 0 -0.23280677558438309 -0.43386548686292281 0 -0.21844010846223411 -0.44206575668227449 0 -0.21054881561508179 -0.46151962797655111 0 -0.19087809923939161 -0.44242625200982799 0 -0.2250369990674011 -0.47003999804886298 0 -0.21844010846223411 -0.44206575668227449 0 -0.21054881561508179 -0.46151962797655111 0 -0.21054881561508179 -0.46151962797655111 0 -0.19087809923939161 -0.44242625200982799 0 -0.1979642253463372 -0.47135038307536692 0 -0.19087809923939161 -0.44242625200982799 0 -0.1979642253463372 -0.47135038307536692 0 -0.17550380473262961 -0.46098501608431119 0 -0.2039060436575347 -0.48788306012054039 0 -0.21662667190777651 -0.49999999999999939 0 -0.191185415407293 -0.5 0 -0.2204246459600448 -0.48171575006642248 0 -0.2039060436575347 -0.48788306012054039 0 -0.21662667190777651 -0.49999999999999939 0 -0.2250369990674011 -0.47003999804886298 0 -0.2204246459600448 -0.48171575006642248 0 -0.21054881561508179 -0.46151962797655111 0 -0.2204246459600448 -0.48171575006642248 0 -0.2039060436575347 -0.48788306012054039 0 -0.1979642253463372 -0.47135038307536692 0 -0.2204246459600448 -0.48171575006642248 0 -0.1979642253463372 -0.47135038307536692 0 -0.2204246459600448 -0.48171575006642248 0 -0.21054881561508179 -0.46151962797655111 0 -0.1979642253463372 -0.47135038307536692 0 -0.2039060436575347 -0.48788306012054039 0 -0.1979642253463372 -0.47135038307536692 0 -0.18170511770794731 -0.48283447360099019 0 -0.2039060436575347 -0.48788306012054039 0 -0.191185415407293 -0.5 0 -0.18170511770794731 -0.48283447360099019 0 -0.191185415407293 -0.5 0 -0.16574415890680941 -0.5 0 -0.18170511770794731 -0.48283447360099019 0 -0.16574415890680941 -0.5 0 -0.18170511770794731 -0.48283447360099019 0 -0.1559270581970803 -0.47678838232572268 0 -0.18170511770794731 -0.48283447360099019 0 -0.17550380473262961 -0.46098501608431119 0 -0.1559270581970803 -0.47678838232572268 0 -0.1979642253463372 -0.47135038307536692 0 -0.18170511770794731 -0.48283447360099019 0 -0.17550380473262961 -0.46098501608431119 0 -0.1979642253463372 -0.47135038307536692 0 -0.17550380473262961 -0.46098501608431119 0 -0.19087809923939161 -0.44242625200982799 0 -0.17550380473262961 -0.46098501608431119 0 -0.16487953686040341 -0.43668708651363358 0 -0.17550380473262961 -0.46098501608431119 0 -0.15866236735209521 -0.45377864165300308 0 -0.16487953686040341 -0.43668708651363358 0 -0.17550380473262961 -0.46098501608431119 0 -0.15866236735209521 -0.45377864165300308 0 -0.1559270581970803 -0.47678838232572268 0 -0.15866236735209521 -0.45377864165300308 0 -0.14280129841846509 -0.46103953978105727 0 -0.1559270581970803 -0.47678838232572268 0 -0.15866236735209521 -0.45377864165300308 0 -0.14280129841846509 -0.46103953978105727 0 -0.1438484805828521 -0.43705968193712769 0 -0.15866236735209521 -0.45377864165300308 0 -0.1438484805828521 -0.43705968193712769 0 -0.16487953686040341 -0.43668708651363358 0 -0.14280129841846509 -0.46103953978105727 0 -0.13093011984253891 -0.44972195681556543 0 -0.1438484805828521 -0.43705968193712769 0 -0.13093011984253891 -0.44972195681556543 0 -0.1438484805828521 -0.43705968193712769 0 -0.123519809913229 -0.43733662075251151 0 -0.14280129841846509 -0.46103953978105727 0 -0.13093011984253891 -0.44972195681556543 0 -0.12704973474613379 -0.46277216333596533 0 -0.14280129841846509 -0.46103953978105727 0 -0.12704973474613379 -0.46277216333596533 0 -0.13010403334985379 -0.48000251283874379 0 -0.13010403334985379 -0.48000251283874379 0 -0.1403029024063259 -0.5 0 -0.1148616459058424 -0.5 0 -0.16574415890680941 -0.5 0 -0.1403029024063259 -0.5 0 -0.1559270581970803 -0.47678838232572268 0 -0.13010403334985379 -0.48000251283874379 0 -0.1403029024063259 -0.5 0 -0.1559270581970803 -0.47678838232572268 0 -0.14280129841846509 -0.46103953978105727 0 -0.13010403334985379 -0.48000251283874379 0 -0.1559270581970803 -0.47678838232572268 0 -0.13724659116883831 -0.38156720383825199 0 -0.13696324729183901 -0.40051159333262831 0 -0.1562511533772393 -0.40085091578326698 0 -0.13696324729183901 -0.40051159333262831 0 -0.14428023194946249 -0.41611080081516499 0 -0.1562511533772393 -0.40085091578326698 0 -0.13724659116883831 -0.38156720383825199 0 -0.1562511533772393 -0.40085091578326698 0 -0.1663441030446621 -0.37717300760659073 0 -0.13724659116883831 -0.38156720383825199 0 -0.11827115974421661 -0.40327967795429231 0 -0.13724659116883831 -0.38156720383825199 0 -0.13696324729183901 -0.40051159333262831 0 -0.11827115974421661 -0.40327967795429231 0 -0.13696324729183901 -0.40051159333262831 0 -0.12597911368703019 -0.41952469120143437 0 -0.14428023194946249 -0.41611080081516499 0 -0.13696324729183901 -0.40051159333262831 0 -0.12597911368703019 -0.41952469120143437 0 -0.11827115974421661 -0.40327967795429231 0 -0.12597911368703019 -0.41952469120143437 0 -0.1438484805828521 -0.43705968193712769 0 -0.123519809913229 -0.43733662075251151 0 -0.12597911368703019 -0.41952469120143437 0 -0.1438484805828521 -0.43705968193712769 0 -0.14428023194946249 -0.41611080081516499 0 -0.1438484805828521 -0.43705968193712769 0 -0.16487953686040341 -0.43668708651363358 0 -0.1579375607246061 -0.42228606781690858 0 -0.1438484805828521 -0.43705968193712769 0 -0.14428023194946249 -0.41611080081516499 0 -0.1579375607246061 -0.42228606781690858 0 -0.14428023194946249 -0.41611080081516499 0 -0.1579375607246061 -0.42228606781690858 0 -0.1562511533772393 -0.40085091578326698 0 -0.1717517290487513 -0.41486076781395709 0 -0.1579375607246061 -0.42228606781690858 0 -0.1562511533772393 -0.40085091578326698 0 -0.1717517290487513 -0.41486076781395709 0 -0.16487953686040341 -0.43668708651363358 0 -0.1579375607246061 -0.42228606781690858 0 -0.1717517290487513 -0.41486076781395709 0 -0.16487953686040341 -0.43668708651363358 0 -0.19087809923939161 -0.44242625200982799 0 -0.16487953686040341 -0.43668708651363358 0 -0.18049207608238291 -0.42812424827546058 0 -0.1717517290487513 -0.41486076781395709 0 -0.16487953686040341 -0.43668708651363358 0 -0.18049207608238291 -0.42812424827546058 0 -0.1717517290487513 -0.41486076781395709 0 -0.18680736564207029 -0.41498853585306777 0 -0.17862392123709919 -0.39303444911428059 0 -0.1717517290487513 -0.41486076781395709 0 -0.18049207608238291 -0.42812424827546058 0 -0.18680736564207029 -0.41498853585306777 0 -0.18680736564207029 -0.41498853585306777 0 -0.17862392123709919 -0.39303444911428059 0 -0.19656737959219739 -0.40219111980173922 0 -0.1717517290487513 -0.41486076781395709 0 -0.17862392123709919 -0.39303444911428059 0 -0.1717517290487513 -0.41486076781395709 0 -0.17862392123709919 -0.39303444911428059 0 -0.1562511533772393 -0.40085091578326698 0 -0.17862392123709919 -0.39303444911428059 0 -0.1562511533772393 -0.40085091578326698 0 -0.1663441030446621 -0.37717300760659073 0 -0.17862392123709919 -0.39303444911428059 0 -0.1663441030446621 -0.37717300760659073 0 -0.1854961134254472 -0.37120813041460421 0 -0.17862392123709919 -0.39303444911428059 0 -0.1854961134254472 -0.37120813041460421 0 -0.17862392123709919 -0.39303444911428059 0 -0.20527564977482679 -0.38624161667098289 0 -0.1854961134254472 -0.37120813041460421 0 -0.17862392123709919 -0.39303444911428059 0 -0.19656737959219739 -0.40219111980173922 0 -0.20527564977482679 -0.38624161667098289 0 -0.20527564977482679 -0.38624161667098289 0 -0.2118432178570665 -0.41409151531568628 0 -0.2281799985799623 -0.39436158075255778 0 -0.19656737959219739 -0.40219111980173922 0 -0.20527564977482679 -0.38624161667098289 0 -0.2118432178570665 -0.41409151531568628 0 -0.20527564977482679 -0.38624161667098289 0 -0.2118432178570665 -0.41409151531568628 0 -0.20527564977482679 -0.38624161667098289 0 -0.22195794658956111 -0.37463091785279867 0 -0.21168543115216709 -0.36681117402183649 0 -0.20527564977482679 -0.38624161667098289 0 -0.2281799985799623 -0.39436158075255778 0 -0.22195794658956111 -0.37463091785279867 0 -0.18049207608238291 -0.42812424827546058 0 -0.18680736564207029 -0.41498853585306777 0 -0.19899408631087909 -0.4269358685541359 0 -0.19087809923939161 -0.44242625200982799 0 -0.18049207608238291 -0.42812424827546058 0 -0.19899408631087909 -0.4269358685541359 0 -0.21844010846223411 -0.44206575668227449 0 -0.19087809923939161 -0.44242625200982799 0 -0.19899408631087909 -0.4269358685541359 0 -0.18680736564207029 -0.41498853585306777 0 -0.19656737959219739 -0.40219111980173922 0 -0.2118432178570665 -0.41409151531568628 0 -0.18680736564207029 -0.41498853585306777 0 -0.19899408631087909 -0.4269358685541359 0 -0.2118432178570665 -0.41409151531568628 0 -0.18680736564207029 -0.41498853585306777 0 -0.2118432178570665 -0.41409151531568628 0 -0.21844010846223411 -0.44206575668227449 0 -0.19899408631087909 -0.4269358685541359 0 -0.2118432178570665 -0.41409151531568628 0 -0.21844010846223411 -0.44206575668227449 0 -0.2118432178570665 -0.41409151531568628 0 -0.21844010846223411 -0.44206575668227449 0 -0.2118432178570665 -0.41409151531568628 0 -0.23280677558438309 -0.43386548686292281 0 -0.2118432178570665 -0.41409151531568628 0 -0.23335673218814301 -0.41332069816832789 0 -0.2281799985799623 -0.39436158075255778 0 -0.2118432178570665 -0.41409151531568628 0 -0.23335673218814301 -0.41332069816832789 0 -0.2118432178570665 -0.41409151531568628 0 -0.23280677558438309 -0.43386548686292281 0 -0.23335673218814301 -0.41332069816832789 0 -0.25487024651921952 -0.41254988102096568 0 -0.23335673218814301 -0.41332069816832789 0 -0.25487024651921952 -0.41254988102096568 0 -0.23335673218814301 -0.41332069816832789 0 -0.24168551714563921 -0.4027948375671459 0 -0.25487024651921952 -0.41254988102096568 0 -0.23335673218814301 -0.41332069816832789 0 -0.2468605885266735 -0.43014712497011809 0 -0.23280677558438309 -0.43386548686292281 0 -0.23335673218814301 -0.41332069816832789 0 -0.2468605885266735 -0.43014712497011809 0 -0.2450571310604201 -0.44414202720417628 0 -0.23280677558438309 -0.43386548686292281 0 -0.2468605885266735 -0.43014712497011809 0 -0.2281799985799623 -0.39436158075255778 0 -0.2359431282162788 -0.37698905115118858 0 -0.22195794658956111 -0.37463091785279867 0 -0.25033509129523179 -0.39094719032673231 0 -0.2281799985799623 -0.39436158075255778 0 -0.24168551714563921 -0.4027948375671459 0 -0.25033509129523179 -0.39094719032673231 0 -0.25487024651921952 -0.41254988102096568 0 -0.24168551714563921 -0.4027948375671459 0 -0.23335673218814301 -0.41332069816832789 0 -0.2281799985799623 -0.39436158075255778 0 -0.24168551714563921 -0.4027948375671459 0 -0.25033509129523179 -0.39094719032673231 0 -0.2359431282162788 -0.37698905115118858 0 -0.24748772700216881 -0.3717564301773445 0 -0.25033509129523179 -0.39094719032673231 0 -0.2281799985799623 -0.39436158075255778 0 -0.2359431282162788 -0.37698905115118858 0 -0.25494538795031141 -0.36273054802101118 0 -0.24748772700216881 -0.3717564301773445 0 -0.24521251836493849 -0.35951647641646678 0 -0.24748772700216881 -0.3717564301773445 0 -0.24521251836493849 -0.35951647641646678 0 -0.23939899228441261 -0.3655962622813349 0 -0.23939899228441261 -0.3655962622813349 0 -0.23024759562621139 -0.36380396142485888 0 -0.23761117654761921 -0.35850429625613017 0 -0.24521251836493849 -0.35951647641646678 0 -0.23939899228441261 -0.3655962622813349 0 -0.23761117654761921 -0.35850429625613017 0 -0.2359431282162788 -0.37698905115118858 0 -0.23939899228441261 -0.3655962622813349 0 -0.23024759562621139 -0.36380396142485888 0 -0.2359431282162788 -0.37698905115118858 0 -0.24748772700216881 -0.3717564301773445 0 -0.23939899228441261 -0.3655962622813349 0 -0.2359431282162788 -0.37698905115118858 0 -0.23024759562621139 -0.36380396142485888 0 -0.22195794658956111 -0.37463091785279867 0 -0.23024759562621139 -0.36380396142485888 0 -0.22135664398937441 -0.36020929429952131 0 -0.2310785660723691 -0.35440187846705151 0 -0.23024759562621139 -0.36380396142485888 0 -0.22135664398937441 -0.36020929429952131 0 -0.22195794658956111 -0.37463091785279867 0 -0.22135664398937441 -0.36020929429952131 0 -0.22331676928072861 -0.34527245129667988 0 -0.2310785660723691 -0.35440187846705151 0 -0.23024759562621139 -0.36380396142485888 0 -0.2310785660723691 -0.35440187846705151 0 -0.23761117654761921 -0.35850429625613017 0 -0.22331676928072861 -0.34527245129667988 0 -0.2337118992122327 -0.34903918396608452 0 -0.23708401688859529 -0.34365007901650441 0 -0.22331676928072861 -0.34527245129667988 0 -0.2310785660723691 -0.35440187846705151 0 -0.2337118992122327 -0.34903918396608452 0 -0.26017799311385281 -0.35268912854855933 0 -0.24808760514302669 -0.3536558827211943 0 -0.2404133442166683 -0.34213832018255058 0 -0.2310785660723691 -0.35440187846705151 0 -0.2337118992122327 -0.34903918396608452 0 -0.2396887820693627 -0.35120494043738398 0 -0.26017799311385281 -0.35268912854855933 0 -0.24325210797206609 -0.34084931319650169 0 -0.2404133442166683 -0.34213832018255058 0 -0.2396887820693627 -0.35120494043738398 0 -0.23708401688859529 -0.34365007901650441 0 -0.2404133442166683 -0.34213832018255058 0 -0.2337118992122327 -0.34903918396608452 0 -0.2396887820693627 -0.35120494043738398 0 -0.23708401688859529 -0.34365007901650441 0 -0.2310785660723691 -0.35440187846705151 0 -0.2396887820693627 -0.35120494043738398 0 -0.23761117654761921 -0.35850429625613017 0 -0.24521251836493849 -0.35951647641646678 0 -0.2396887820693627 -0.35120494043738398 0 -0.23761117654761921 -0.35850429625613017 0 -0.24521251836493849 -0.35951647641646678 0 -0.2396887820693627 -0.35120494043738398 0 -0.24808760514302669 -0.3536558827211943 0 -0.25494538795031141 -0.36273054802101118 0 -0.24521251836493849 -0.35951647641646678 0 -0.24808760514302669 -0.3536558827211943 0 -0.2396887820693627 -0.35120494043738398 0 -0.24808760514302669 -0.3536558827211943 0 -0.2404133442166683 -0.34213832018255058 0 -0.24325210797206609 -0.34084931319650169 0 -0.24518994726652291 -0.33234415230164399 0 -0.23958942898634211 -0.33903199036576709 0 -0.24518994726652291 -0.33234415230164399 0 -0.23560348244150561 -0.32909319502054812 0 -0.23958942898634211 -0.33903199036576709 0 -0.23708401688859529 -0.34365007901650441 0 -0.2404133442166683 -0.34213832018255058 0 -0.24325210797206609 -0.34084931319650169 0 -0.2404133442166683 -0.34213832018255058 0 -0.23958942898634211 -0.33903199036576709 0 -0.24325210797206609 -0.34084931319650169 0 -0.2404133442166683 -0.34213832018255058 0 -0.24325210797206609 -0.34084931319650169 0 -0.23958942898634211 -0.33903199036576709 0 -0.25915672867891859 -0.31415112243359272 0 -0.24308922262768951 -0.32099342612622928 0 -0.24047089863443691 -0.30798947189970438 0 -0.24518994726652291 -0.33234415230164399 0 -0.23560348244150561 -0.32909319502054812 0 -0.24308922262768951 -0.32099342612622928 0 -0.23560348244150561 -0.32909319502054812 0 -0.24308922262768951 -0.32099342612622928 0 -0.22938765682563561 -0.32144886021699343 0 -0.24308922262768951 -0.32099342612622928 0 -0.22938765682563561 -0.32144886021699343 0 -0.23158309368585001 -0.31181085789310747 0 -0.24308922262768951 -0.32099342612622928 0 -0.24047089863443691 -0.30798947189970438 0 -0.23158309368585001 -0.31181085789310747 0 -0.22938765682563561 -0.32144886021699343 0 -0.23158309368585001 -0.31181085789310747 0 -0.22249387381410951 -0.31123320620709588 0 -0.23560348244150561 -0.32909319502054812 0 -0.22938765682563561 -0.32144886021699343 0 -0.22076115650133771 -0.33164754609210678 0 -0.22938765682563561 -0.32144886021699343 0 -0.22076115650133771 -0.33164754609210678 0 -0.2180259411870723 -0.31620608063285149 0 -0.22938765682563561 -0.32144886021699343 0 -0.2180259411870723 -0.31620608063285149 0 -0.22249387381410951 -0.31123320620709588 0 -0.22331676928072861 -0.34527245129667988 0 -0.23708401688859529 -0.34365007901650441 0 -0.22076115650133771 -0.33164754609210678 0 -0.23560348244150561 -0.32909319502054812 0 -0.23958942898634211 -0.33903199036576709 0 -0.22076115650133771 -0.33164754609210678 0 -0.2404133442166683 -0.34213832018255058 0 -0.22076115650133771 -0.33164754609210678 0 -0.2404133442166683 -0.34213832018255058 0 -0.23958942898634211 -0.33903199036576709 0 -0.22076115650133771 -0.33164754609210678 0 -0.23708401688859529 -0.34365007901650441 0 -0.2404133442166683 -0.34213832018255058 0 -0.22076115650133771 -0.33164754609210678 0 -0.22331676928072861 -0.34527245129667988 0 -0.22076115650133771 -0.33164754609210678 0 -0.20784983644103361 -0.34097302903627591 0 -0.22076115650133771 -0.33164754609210678 0 -0.20348412114368319 -0.33156666209817831 0 -0.20784983644103361 -0.34097302903627591 0 -0.2180259411870723 -0.31620608063285149 0 -0.19974136112887431 -0.31343603927203523 0 -0.20110896878600679 -0.32115677200166343 0 -0.22076115650133771 -0.33164754609210678 0 -0.2180259411870723 -0.31620608063285149 0 -0.20110896878600679 -0.32115677200166343 0 -0.22076115650133771 -0.33164754609210678 0 -0.20348412114368319 -0.33156666209817831 0 -0.20110896878600679 -0.32115677200166343 0 -0.22076115650133771 -0.33164754609210678 0 -0.20110896878600679 -0.32115677200166343 0 -0.2180259411870723 -0.31620608063285149 0 -0.19974136112887431 -0.31343603927203523 0 -0.20904493575850211 -0.30938578927939081 0 -0.2180259411870723 -0.31620608063285149 0 -0.19974136112887431 -0.31343603927203523 0 -0.19974136112887431 -0.31343603927203523 0 -0.20110896878600679 -0.32115677200166343 0 -0.1814567810706762 -0.3106659979112194 0 -0.20110896878600679 -0.32115677200166343 0 -0.1814567810706762 -0.3106659979112194 0 -0.20110896878600679 -0.32115677200166343 0 -0.19214051361034601 -0.33054181938157612 0 -0.1814567810706762 -0.3106659979112194 0 -0.20348412114368319 -0.33156666209817831 0 -0.20110896878600679 -0.32115677200166343 0 -0.19214051361034601 -0.33054181938157612 0 -0.20348412114368319 -0.33156666209817831 0 -0.20784983644103361 -0.34097302903627591 0 -0.19214051361034601 -0.33054181938157612 0 -0.20784983644103361 -0.34097302903627591 0 -0.19214051361034601 -0.33054181938157612 0 -0.20232946575910341 -0.34593351830387509 0 -0.19214051361034601 -0.33054181938157612 0 -0.19236830561379509 -0.34938181171492771 0 -0.18622265824693729 -0.34003474470360739 0 -0.19214051361034601 -0.33054181938157612 0 -0.19236830561379509 -0.34938181171492771 0 -0.19870808169258641 -0.35839171802627962 0 -0.19214051361034601 -0.33054181938157612 0 -0.19870808169258641 -0.35839171802627962 0 -0.19214051361034601 -0.33054181938157612 0 -0.20232946575910341 -0.34593351830387509 0 -0.19870808169258641 -0.35839171802627962 0 -0.19236830561379509 -0.34938181171492771 0 -0.1854961134254472 -0.37120813041460421 0 -0.20527564977482679 -0.38624161667098289 0 -0.19870808169258641 -0.35839171802627962 0 -0.20527564977482679 -0.38624161667098289 0 -0.19870808169258641 -0.35839171802627962 0 -0.1854961134254472 -0.37120813041460421 0 -0.19236830561379509 -0.34938181171492771 0 -0.19870808169258641 -0.35839171802627962 0 -0.1854961134254472 -0.37120813041460421 0 -0.20527564977482679 -0.38624161667098289 0 -0.19870808169258641 -0.35839171802627962 0 -0.21168543115216709 -0.36681117402183649 0 -0.19870808169258641 -0.35839171802627962 0 -0.21168543115216709 -0.36681117402183649 0 -0.21061943129244759 -0.3538275067713687 0 -0.22135664398937441 -0.36020929429952131 0 -0.22195794658956111 -0.37463091785279867 0 -0.21168543115216709 -0.36681117402183649 0 -0.22135664398937441 -0.36020929429952131 0 -0.21168543115216709 -0.36681117402183649 0 -0.21061943129244759 -0.3538275067713687 0 -0.22135664398937441 -0.36020929429952131 0 -0.22331676928072861 -0.34527245129667988 0 -0.21061943129244759 -0.3538275067713687 0 -0.22331676928072861 -0.34527245129667988 0 -0.20784983644103361 -0.34097302903627591 0 -0.21061943129244759 -0.3538275067713687 0 -0.20784983644103361 -0.34097302903627591 0 -0.20232946575910341 -0.34593351830387509 0 -0.21061943129244759 -0.3538275067713687 0 -0.20232946575910341 -0.34593351830387509 0 -0.19870808169258641 -0.35839171802627962 0 -0.21061943129244759 -0.3538275067713687 0 -0.22866545068461799 -0.25948943059043711 0 -0.21759888839251429 -0.26212753750200368 0 -0.22025275826160279 -0.2471257797298928 0 -0.22866545068461799 -0.25948943059043711 0 -0.22398633244919169 -0.27132847136955079 0 -0.21759888839251429 -0.26212753750200368 0 -0.22866545068461799 -0.25948943059043711 0 -0.23442911476228809 -0.24683612341654529 0 -0.22025275826160279 -0.2471257797298928 0 -0.22866545068461799 -0.25948943059043711 0 -0.24233717299785959 -0.25960849866204011 0 -0.23442911476228809 -0.24683612341654529 0 -0.2565674865322034 -0.25340195958415102 0 -0.24233717299785959 -0.25960849866204011 0 -0.25018128361314113 -0.24746468840205441 0 -0.22866545068461799 -0.25948943059043711 0 -0.24233717299785959 -0.25960849866204011 0 -0.2333815926018066 -0.27110706845475141 0 -0.24233717299785959 -0.25960849866204011 0 -0.2333815926018066 -0.27110706845475141 0 -0.24140403581614819 -0.28379898528087227 0 -0.24233717299785959 -0.25960849866204011 0 -0.24140403581614819 -0.28379898528087227 0 -0.24233717299785959 -0.25960849866204011 0 -0.2484323970602714 -0.27706385987730509 0 -0.24140403581614819 -0.28379898528087227 0 -0.25309751137434572 -0.26289123234143091 0 -0.24233717299785959 -0.25960849866204011 0 -0.2484323970602714 -0.27706385987730509 0 -0.2333815926018066 -0.27110706845475141 0 -0.2300547693907766 -0.28178467995593781 0 -0.24140403581614819 -0.28379898528087227 0 -0.2333815926018066 -0.27110706845475141 0 -0.22398633244919169 -0.27132847136955079 0 -0.2300547693907766 -0.28178467995593781 0 -0.22866545068461799 -0.25948943059043711 0 -0.2333815926018066 -0.27110706845475141 0 -0.22398633244919169 -0.27132847136955079 0 -0.22398633244919169 -0.27132847136955079 0 -0.21947311754018139 -0.28174823216008099 0 -0.2300547693907766 -0.28178467995593781 0 -0.21947311754018139 -0.28174823216008099 0 -0.22569627159534009 -0.29064390563822362 0 -0.2300547693907766 -0.28178467995593781 0 -0.21947311754018139 -0.28174823216008099 0 -0.22569627159534009 -0.29064390563822362 0 -0.21595054291829549 -0.29285447433738648 0 -0.22569627159534009 -0.29064390563822362 0 -0.22453607640027501 -0.29842387346705762 0 -0.21595054291829549 -0.29285447433738648 0 -0.22569627159534009 -0.29064390563822362 0 -0.2341156104824163 -0.28973116501788848 0 -0.23104294706112549 -0.29817392722980551 0 -0.22569627159534009 -0.29064390563822362 0 -0.23104294706112549 -0.29817392722980551 0 -0.22453607640027501 -0.29842387346705762 0 -0.22569627159534009 -0.29064390563822362 0 -0.2341156104824163 -0.28973116501788848 0 -0.2300547693907766 -0.28178467995593781 0 -0.25108388684634803 -0.28956965662021522 0 -0.24140403581614819 -0.28379898528087227 0 -0.24047089863443691 -0.30798947189970438 0 -0.2341156104824163 -0.28973116501788848 0 -0.24140403581614819 -0.28379898528087227 0 -0.24047089863443691 -0.30798947189970438 0 -0.24140403581614819 -0.28379898528087227 0 -0.24047089863443691 -0.30798947189970438 0 -0.2341156104824163 -0.28973116501788848 0 -0.2300547693907766 -0.28178467995593781 0 -0.24140403581614819 -0.28379898528087227 0 -0.25108388684634803 -0.28956965662021522 0 -0.2484323970602714 -0.27706385987730509 0 -0.24140403581614819 -0.28379898528087227 0 -0.25718459078837252 -0.29759752524363881 0 -0.25108388684634803 -0.28956965662021522 0 -0.24047089863443691 -0.30798947189970438 0 -0.2341156104824163 -0.28973116501788848 0 -0.24047089863443691 -0.30798947189970438 0 -0.23104294706112549 -0.29817392722980551 0 -0.24047089863443691 -0.30798947189970438 0 -0.23158309368585001 -0.31181085789310747 0 -0.2303958781931594 -0.30408122012615352 0 -0.23158309368585001 -0.31181085789310747 0 -0.2303958781931594 -0.30408122012615352 0 -0.2249978911063876 -0.30539226771637512 0 -0.24047089863443691 -0.30798947189970438 0 -0.23104294706112549 -0.29817392722980551 0 -0.2303958781931594 -0.30408122012615352 0 -0.23104294706112549 -0.29817392722980551 0 -0.2303958781931594 -0.30408122012615352 0 -0.22453607640027501 -0.29842387346705762 0 -0.2303958781931594 -0.30408122012615352 0 -0.22453607640027501 -0.29842387346705762 0 -0.2249978911063876 -0.30539226771637512 0 -0.22453607640027501 -0.29842387346705762 0 -0.2249978911063876 -0.30539226771637512 0 -0.21872282414136721 -0.30136563651957121 0 -0.22453607640027501 -0.29842387346705762 0 -0.21872282414136721 -0.30136563651957121 0 -0.21595054291829549 -0.29285447433738648 0 -0.22249387381410951 -0.31123320620709588 0 -0.2249978911063876 -0.30539226771637512 0 -0.21872282414136721 -0.30136563651957121 0 -0.23158309368585001 -0.31181085789310747 0 -0.22249387381410951 -0.31123320620709588 0 -0.2249978911063876 -0.30539226771637512 0 -0.22249387381410951 -0.31123320620709588 0 -0.20819654573008861 -0.30010144335043992 0 -0.2180259411870723 -0.31620608063285149 0 -0.2144403241224431 -0.30923162986744451 0 -0.20904493575850211 -0.30938578927939081 0 -0.22249387381410951 -0.31123320620709588 0 -0.2144403241224431 -0.30923162986744451 0 -0.20819654573008861 -0.30010144335043992 0 -0.2180259411870723 -0.31620608063285149 0 -0.22249387381410951 -0.31123320620709588 0 -0.2144403241224431 -0.30923162986744451 0 -0.21872282414136721 -0.30136563651957121 0 -0.20819654573008861 -0.30010144335043992 0 -0.21595054291829549 -0.29285447433738648 0 -0.22249387381410951 -0.31123320620709588 0 -0.21872282414136721 -0.30136563651957121 0 -0.20819654573008861 -0.30010144335043992 0 -0.20819654573008861 -0.30010144335043992 0 -0.20288915614788011 -0.30684576889979082 0 -0.200327377448308 -0.30070497350852549 0 -0.19974136112887431 -0.31343603927203523 0 -0.20904493575850211 -0.30938578927939081 0 -0.20288915614788011 -0.30684576889979082 0 -0.2144403241224431 -0.30923162986744451 0 -0.20819654573008861 -0.30010144335043992 0 -0.20904493575850211 -0.30938578927939081 0 -0.20819654573008861 -0.30010144335043992 0 -0.20904493575850211 -0.30938578927939081 0 -0.20288915614788011 -0.30684576889979082 0 -0.19974136112887431 -0.31343603927203523 0 -0.1814567810706762 -0.3106659979112194 0 -0.19974136112887431 -0.31343603927203523 0 -0.20288915614788011 -0.30684576889979082 0 -0.19308950921137841 -0.30535425612401718 0 -0.19974136112887431 -0.31343603927203523 0 -0.19308950921137841 -0.30535425612401718 0 -0.1814567810706762 -0.3106659979112194 0 -0.19308950921137841 -0.30535425612401718 0 -0.1899902243989981 -0.29832565749187118 0 -0.1817779539512053 -0.30255714357571323 0 -0.19308950921137841 -0.30535425612401718 0 -0.1899902243989981 -0.29832565749187118 0 -0.200327377448308 -0.30070497350852549 0 -0.20288915614788011 -0.30684576889979082 0 -0.19308950921137841 -0.30535425612401718 0 -0.200327377448308 -0.30070497350852549 0 -0.20819654573008861 -0.30010144335043992 0 -0.19389921764606771 -0.28896968049378402 0 -0.200327377448308 -0.30070497350852549 0 -0.19389921764606771 -0.28896968049378402 0 -0.20819654573008861 -0.30010144335043992 0 -0.200327377448308 -0.30070497350852549 0 -0.19389921764606771 -0.28896968049378402 0 -0.20819654573008861 -0.30010144335043992 0 -0.19389921764606771 -0.28896968049378402 0 -0.2049502680629153 -0.28953974020436019 0 -0.1899902243989981 -0.29832565749187118 0 -0.19389921764606771 -0.28896968049378402 0 -0.18066470514172869 -0.29420676669921531 0 -0.1899902243989981 -0.29832565749187118 0 -0.200327377448308 -0.30070497350852549 0 -0.19389921764606771 -0.28896968049378402 0 -0.19389921764606771 -0.28896968049378402 0 -0.18643891475010321 -0.2753500999052107 0 -0.19389921764606771 -0.28896968049378402 0 -0.1815972113741586 -0.27939145610981342 0 -0.19389921764606771 -0.28896968049378402 0 -0.2049502680629153 -0.28953974020436019 0 -0.20163083764207049 -0.27816255368004889 0 -0.2099333729274668 -0.28317129254800538 0 -0.2049502680629153 -0.28953974020436019 0 -0.20163083764207049 -0.27816255368004889 0 -0.2099333729274668 -0.28317129254800538 0 -0.2049502680629153 -0.28953974020436019 0 -0.21595054291829549 -0.29285447433738648 0 -0.20819654573008861 -0.30010144335043992 0 -0.2049502680629153 -0.28953974020436019 0 -0.21595054291829549 -0.29285447433738648 0 -0.21947311754018139 -0.28174823216008099 0 -0.2099333729274668 -0.28317129254800538 0 -0.21595054291829549 -0.29285447433738648 0 -0.2117440640613063 -0.2714560660025862 0 -0.20163083764207049 -0.27816255368004889 0 -0.20334583650585281 -0.26123793981755161 0 -0.22398633244919169 -0.27132847136955079 0 -0.21947311754018139 -0.28174823216008099 0 -0.2117440640613063 -0.2714560660025862 0 -0.21947311754018139 -0.28174823216008099 0 -0.2099333729274668 -0.28317129254800538 0 -0.2117440640613063 -0.2714560660025862 0 -0.22398633244919169 -0.27132847136955079 0 -0.2117440640613063 -0.2714560660025862 0 -0.21759888839251429 -0.26212753750200368 0 -0.2099333729274668 -0.28317129254800538 0 -0.2117440640613063 -0.2714560660025862 0 -0.20163083764207049 -0.27816255368004889 0 -0.20163083764207049 -0.27816255368004889 0 -0.20334583650585281 -0.26123793981755161 0 -0.18643891475010321 -0.2753500999052107 0 -0.20334583650585281 -0.26123793981755161 0 -0.18643891475010321 -0.2753500999052107 0 -0.1892261620383611 -0.26071341320317981 0 -0.20334583650585281 -0.26123793981755161 0 -0.18643891475010321 -0.2753500999052107 0 -0.19389921764606771 -0.28896968049378402 0 -0.20163083764207049 -0.27816255368004889 0 -0.18643891475010321 -0.2753500999052107 0 -0.1892261620383611 -0.26071341320317981 0 -0.20334583650585281 -0.26123793981755161 0 -0.1971211098569064 -0.2485562144643311 0 -0.20334583650585281 -0.26123793981755161 0 -0.21759888839251429 -0.26212753750200368 0 -0.22025275826160279 -0.2471257797298928 0 -0.20334583650585281 -0.26123793981755161 0 -0.22025275826160279 -0.2471257797298928 0 -0.20334583650585281 -0.26123793981755161 0 -0.1971211098569064 -0.2485562144643311 0 -0.22025275826160279 -0.2471257797298928 0 -0.2117440640613063 -0.2714560660025862 0 -0.20334583650585281 -0.26123793981755161 0 -0.21759888839251429 -0.26212753750200368 0 -0.15821309250511281 -0.26118480488572993 0 -0.17536452169406261 -0.25513261131262932 0 -0.1815972113741586 -0.27939145610981342 0 -0.15821309250511281 -0.26118480488572993 0 -0.17536452169406261 -0.25513261131262932 0 -0.15566934165753701 -0.24482136105764621 0 -0.1892261620383611 -0.26071341320317981 0 -0.17536452169406261 -0.25513261131262932 0 -0.1971211098569064 -0.2485562144643311 0 -0.1892261620383611 -0.26071341320317981 0 -0.17536452169406261 -0.25513261131262932 0 -0.18643891475010321 -0.2753500999052107 0 -0.17536452169406261 -0.25513261131262932 0 -0.18643891475010321 -0.2753500999052107 0 -0.17536452169406261 -0.25513261131262932 0 -0.18643891475010321 -0.2753500999052107 0 -0.1815972113741586 -0.27939145610981342 0 -0.19389921764606771 -0.28896968049378402 0 -0.18643891475010321 -0.2753500999052107 0 -0.1815972113741586 -0.27939145610981342 0 -0.18643891475010321 -0.2753500999052107 0 -0.1815972113741586 -0.27939145610981342 0 -0.15821309250511281 -0.26118480488572993 0 -0.1815972113741586 -0.27939145610981342 0 -0.1605334253196628 -0.27705414769848019 0 -0.15821309250511281 -0.26118480488572993 0 -0.1815972113741586 -0.27939145610981342 0 -0.1605334253196628 -0.27705414769848019 0 -0.16662117086531369 -0.29189191504570172 0 -0.1460397447830028 -0.28392096720827609 0 -0.1815972113741586 -0.27939145610981342 0 -0.1605334253196628 -0.27705414769848019 0 -0.16662117086531369 -0.29189191504570172 0 -0.16662117086531369 -0.29189191504570172 0 -0.18066470514172869 -0.29420676669921531 0 -0.16807172941449361 -0.30108874618849107 0 -0.1815972113741586 -0.27939145610981342 0 -0.16662117086531369 -0.29189191504570172 0 -0.1815972113741586 -0.27939145610981342 0 -0.16662117086531369 -0.29189191504570172 0 -0.18066470514172869 -0.29420676669921531 0 -0.19389921764606771 -0.28896968049378402 0 -0.1815972113741586 -0.27939145610981342 0 -0.18066470514172869 -0.29420676669921531 0 -0.18066470514172869 -0.29420676669921531 0 -0.1817779539512053 -0.30255714357571323 0 -0.16807172941449361 -0.30108874618849107 0 -0.1817779539512053 -0.30255714357571323 0 -0.17538193411824851 -0.30742310974349601 0 -0.16807172941449361 -0.30108874618849107 0 -0.1899902243989981 -0.29832565749187118 0 -0.18066470514172869 -0.29420676669921531 0 -0.1817779539512053 -0.30255714357571323 0 -0.19308950921137841 -0.30535425612401718 0 -0.1817779539512053 -0.30255714357571323 0 -0.1814567810706762 -0.3106659979112194 0 -0.1817779539512053 -0.30255714357571323 0 -0.1814567810706762 -0.3106659979112194 0 -0.17538193411824851 -0.30742310974349601 0 -0.1814567810706762 -0.3106659979112194 0 -0.17538193411824851 -0.30742310974349601 0 -0.1814567810706762 -0.3106659979112194 0 -0.17538193411824851 -0.30742310974349601 0 -0.1521471234576928 -0.30622570102712859 0 -0.16662117086531369 -0.29189191504570172 0 -0.16807172941449361 -0.30108874618849107 0 -0.15164513035647001 -0.30439237398159158 0 -0.17538193411824851 -0.30742310974349601 0 -0.16807172941449361 -0.30108874618849107 0 -0.1521471234576928 -0.30622570102712859 0 -0.16807172941449361 -0.30108874618849107 0 -0.1521471234576928 -0.30622570102712859 0 -0.15164513035647001 -0.30439237398159158 0 -0.1814567810706762 -0.3106659979112194 0 -0.1521471234576928 -0.30622570102712859 0 -0.16662117086531369 -0.29189191504570172 0 -0.15164513035647001 -0.30439237398159158 0 -0.14986325126998301 -0.30587970344869631 0 -0.1472482395654931 -0.30806244637126978 0 -0.13137693926794269 -0.30307910049847142 0 -0.14986325126998301 -0.30587970344869631 0 -0.13137693926794269 -0.30307910049847142 0 -0.14191197011226919 -0.29595195204747682 0 -0.1521471234576928 -0.30622570102712859 0 -0.15536928910057479 -0.31799335959440589 0 -0.1521471234576928 -0.30622570102712859 0 -0.1472482395654931 -0.30806244637126978 0 -0.1481744133336001 -0.31559103279323952 0 -0.1521471234576928 -0.30622570102712859 0 -0.14986325126998301 -0.30587970344869631 0 -0.1472482395654931 -0.30806244637126978 0 -0.1521471234576928 -0.30622570102712859 0 -0.14986325126998301 -0.30587970344869631 0 -0.15164513035647001 -0.30439237398159158 0 -0.1521471234576928 -0.30622570102712859 0 -0.14986325126998301 -0.30587970344869631 0 -0.1521471234576928 -0.30622570102712859 0 -0.15164513035647001 -0.30439237398159158 0 -0.14986325126998301 -0.30587970344869631 0 -0.15164513035647001 -0.30439237398159158 0 -0.14986325126998301 -0.30587970344869631 0 -0.1472482395654931 -0.30806244637126978 0 -0.14986325126998301 -0.30587970344869631 0 -0.15164513035647001 -0.30439237398159158 0 -0.14191197011226919 -0.29595195204747682 0 -0.1472482395654931 -0.30806244637126978 0 -0.13676428411235661 -0.311985534419285 0 -0.1481744133336001 -0.31559103279323952 0 -0.14986325126998301 -0.30587970344869631 0 -0.13137693926794269 -0.30307910049847142 0 -0.1472482395654931 -0.30806244637126978 0 -0.13676428411235661 -0.311985534419285 0 -0.13137693926794269 -0.30307910049847142 0 -0.13137693926794269 -0.30307910049847142 0 -0.14191197011226919 -0.29595195204747682 0 -0.12354370332633501 -0.29237215235494779 0 -0.13676428411235661 -0.311985534419285 0 -0.13137693926794269 -0.30307910049847142 0 -0.12202825811921469 -0.30947938976295097 0 -0.1460397447830028 -0.28392096720827609 0 -0.14191197011226919 -0.29595195204747682 0 -0.13317406737037779 -0.2802173890703723 0 -0.14191197011226919 -0.29595195204747682 0 -0.13317406737037779 -0.2802173890703723 0 -0.12354370332633501 -0.29237215235494779 0 -0.13317406737037779 -0.2802173890703723 0 -0.121176560474238 -0.27855216134530347 0 -0.12354370332633501 -0.29237215235494779 0 -0.16662117086531369 -0.29189191504570172 0 -0.15164513035647001 -0.30439237398159158 0 -0.1460397447830028 -0.28392096720827609 0 -0.15164513035647001 -0.30439237398159158 0 -0.1460397447830028 -0.28392096720827609 0 -0.14191197011226919 -0.29595195204747682 0 -0.15164513035647001 -0.30439237398159158 0 -0.1460397447830028 -0.28392096720827609 0 -0.1460397447830028 -0.28392096720827609 0 -0.14043435920953651 -0.26344956043496021 0 -0.1605334253196628 -0.27705414769848019 0 -0.1460397447830028 -0.28392096720827609 0 -0.14043435920953651 -0.26344956043496021 0 -0.15821309250511281 -0.26118480488572993 0 -0.1605334253196628 -0.27705414769848019 0 -0.14043435920953651 -0.26344956043496021 0 -0.13317406737037779 -0.2802173890703723 0 -0.1259380663168852 -0.26705754103126977 0 -0.14043435920953651 -0.26344956043496021 0 -0.1460397447830028 -0.28392096720827609 0 -0.13317406737037779 -0.2802173890703723 0 -0.14043435920953651 -0.26344956043496021 0 -0.13317406737037779 -0.2802173890703723 0 -0.1259380663168852 -0.26705754103126977 0 -0.121176560474238 -0.27855216134530347 0 -0.14043435920953651 -0.26344956043496021 0 -0.1283361407779757 -0.25159171728621699 0 -0.13482897363606841 -0.24297815366164491 0 -0.14043435920953651 -0.26344956043496021 0 -0.13482897363606841 -0.24297815366164491 0 -0.1259380663168852 -0.26705754103126977 0 -0.14043435920953651 -0.26344956043496021 0 -0.1283361407779757 -0.25159171728621699 0 -0.15821309250511281 -0.26118480488572993 0 -0.13482897363606841 -0.24297815366164491 0 -0.15821309250511281 -0.26118480488572993 0 -0.14043435920953651 -0.26344956043496021 0 -0.13482897363606841 -0.24297815366164491 0 -0.17697510949039719 -0.35596577996135209 0 -0.17519745401808179 -0.33814225560617162 0 -0.1562220225934601 -0.35985472972221177 0 -0.17519745401808179 -0.33814225560617162 0 -0.1532624182972378 -0.33871633494107939 0 -0.1562220225934601 -0.35985472972221177 0 -0.17519745401808179 -0.33814225560617162 0 -0.1562220225934601 -0.35985472972221177 0 -0.1663441030446621 -0.37717300760659073 0 -0.17697510949039719 -0.35596577996135209 0 -0.1562220225934601 -0.35985472972221177 0 -0.1663441030446621 -0.37717300760659073 0 -0.1854961134254472 -0.37120813041460421 0 -0.17697510949039719 -0.35596577996135209 0 -0.19236830561379509 -0.34938181171492771 0 -0.1854961134254472 -0.37120813041460421 0 -0.17697510949039719 -0.35596577996135209 0 -0.17697510949039719 -0.35596577996135209 0 -0.17519745401808179 -0.33814225560617162 0 -0.18622265824693729 -0.34003474470360739 0 -0.19236830561379509 -0.34938181171492771 0 -0.17697510949039719 -0.35596577996135209 0 -0.18622265824693729 -0.34003474470360739 0 -0.19214051361034601 -0.33054181938157612 0 -0.17519745401808179 -0.33814225560617162 0 -0.18622265824693729 -0.34003474470360739 0 -0.19214051361034601 -0.33054181938157612 0 -0.17519745401808179 -0.33814225560617162 0 -0.17075841890319021 -0.32267991232295651 0 -0.19214051361034601 -0.33054181938157612 0 -0.1814567810706762 -0.3106659979112194 0 -0.17075841890319021 -0.32267991232295651 0 -0.1814567810706762 -0.3106659979112194 0 -0.1521471234576928 -0.30622570102712859 0 -0.17075841890319021 -0.32267991232295651 0 -0.1521471234576928 -0.30622570102712859 0 -0.17075841890319021 -0.32267991232295651 0 -0.15536928910057479 -0.31799335959440589 0 -0.17075841890319021 -0.32267991232295651 0 -0.15536928910057479 -0.31799335959440589 0 -0.15041885550205389 -0.32708722206771829 0 -0.17519745401808179 -0.33814225560617162 0 -0.17075841890319021 -0.32267991232295651 0 -0.1532624182972378 -0.33871633494107939 0 -0.17075841890319021 -0.32267991232295651 0 -0.1532624182972378 -0.33871633494107939 0 -0.15041885550205389 -0.32708722206771829 0 -0.1532624182972378 -0.33871633494107939 0 -0.15041885550205389 -0.32708722206771829 0 -0.13403844172661231 -0.33095488736429202 0 -0.15041885550205389 -0.32708722206771829 0 -0.14028103823900179 -0.32077908792264309 0 -0.13403844172661231 -0.33095488736429202 0 -0.15536928910057479 -0.31799335959440589 0 -0.15041885550205389 -0.32708722206771829 0 -0.1481744133336001 -0.31559103279323952 0 -0.1521471234576928 -0.30622570102712859 0 -0.15536928910057479 -0.31799335959440589 0 -0.1481744133336001 -0.31559103279323952 0 -0.15041885550205389 -0.32708722206771829 0 -0.1481744133336001 -0.31559103279323952 0 -0.14028103823900179 -0.32077908792264309 0 -0.13676428411235661 -0.311985534419285 0 -0.1481744133336001 -0.31559103279323952 0 -0.14028103823900179 -0.32077908792264309 0 -0.13676428411235661 -0.311985534419285 0 -0.14028103823900179 -0.32077908792264309 0 -0.12839564496088529 -0.32005881249807028 0 -0.14028103823900179 -0.32077908792264309 0 -0.12839564496088529 -0.32005881249807028 0 -0.13403844172661231 -0.33095488736429202 0 -0.12839564496088529 -0.32005881249807028 0 -0.13403844172661231 -0.33095488736429202 0 -0.1231279148664025 -0.32697127933959502 0 -0.13676428411235661 -0.311985534419285 0 -0.12839564496088529 -0.32005881249807028 0 -0.12202825811921469 -0.30947938976295097 0 -0.13403844172661231 -0.33095488736429202 0 -0.13290241802702499 -0.35265178330474523 0 -0.1166361947753133 -0.33638206822001748 0 -0.1532624182972378 -0.33871633494107939 0 -0.13403844172661231 -0.33095488736429202 0 -0.13290241802702499 -0.35265178330474523 0 -0.1532624182972378 -0.33871633494107939 0 -0.13290241802702499 -0.35265178330474523 0 -0.1562220225934601 -0.35985472972221177 0 -0.13724659116883831 -0.38156720383825199 0 -0.13290241802702499 -0.35265178330474523 0 -0.1562220225934601 -0.35985472972221177 0 -0.13724659116883831 -0.38156720383825199 0 -0.1663441030446621 -0.37717300760659073 0 -0.1562220225934601 -0.35985472972221177 0 -0.13724659116883831 -0.38156720383825199 0 -0.1562220225934601 -0.35985472972221177 0 -0.13724659116883831 -0.38156720383825199 0 -0.13290241802702499 -0.35265178330474523 0 -0.1192781490478088 -0.36668410834504778 0 -0.1192781490478088 -0.36668410834504778 0 -0.1016352808315869 -0.36700177770792092 0 -0.11220573075163159 -0.38220411347121069 0 -0.1192781490478088 -0.36668410834504778 0 -0.1016352808315869 -0.36700177770792092 0 -0.1099844304083452 -0.35257743562026572 0 -0.1016352808315869 -0.36700177770792092 0 -0.091783481537845241 -0.36974840743822202 0 -0.093334558199797538 -0.36412034719781128 0 -0.1016352808315869 -0.36700177770792092 0 -0.094364811557621053 -0.35389299716276579 0 -0.093334558199797538 -0.36412034719781128 0 -0.1016352808315869 -0.36700177770792092 0 -0.091783481537845241 -0.36974840743822202 0 -0.093814789784828018 -0.38091150164421111 0 -0.094364811557621053 -0.35389299716276579 0 -0.1099844304083452 -0.35257743562026572 0 -0.096042697554356071 -0.3397062417384924 0 -0.1016352808315869 -0.36700177770792092 0 -0.094364811557621053 -0.35389299716276579 0 -0.1099844304083452 -0.35257743562026572 0 -0.13290241802702499 -0.35265178330474523 0 -0.1099844304083452 -0.35257743562026572 0 -0.1166361947753133 -0.33638206822001748 0 -0.13290241802702499 -0.35265178330474523 0 -0.1192781490478088 -0.36668410834504778 0 -0.1099844304083452 -0.35257743562026572 0 -0.13403844172661231 -0.33095488736429202 0 -0.1166361947753133 -0.33638206822001748 0 -0.1231279148664025 -0.32697127933959502 0 -0.1166361947753133 -0.33638206822001748 0 -0.1152881905332649 -0.31967160768574748 0 -0.098893476597157901 -0.32632392269665411 0 -0.1166361947753133 -0.33638206822001748 0 -0.1231279148664025 -0.32697127933959502 0 -0.1152881905332649 -0.31967160768574748 0 -0.12839564496088529 -0.32005881249807028 0 -0.1152881905332649 -0.31967160768574748 0 -0.12202825811921469 -0.30947938976295097 0 -0.12839564496088529 -0.32005881249807028 0 -0.1231279148664025 -0.32697127933959502 0 -0.1152881905332649 -0.31967160768574748 0 -0.1152881905332649 -0.31967160768574748 0 -0.11397155121489801 -0.30848478901155318 0 -0.10823649018657309 -0.3106210867482716 0 -0.1152881905332649 -0.31967160768574748 0 -0.12202825811921469 -0.30947938976295097 0 -0.11397155121489801 -0.30848478901155318 0 -0.1152881905332649 -0.31967160768574748 0 -0.098893476597157901 -0.32632392269665411 0 -0.10823649018657309 -0.3106210867482716 0 -0.1166361947753133 -0.33638206822001748 0 -0.098893476597157901 -0.32632392269665411 0 -0.096042697554356071 -0.3397062417384924 0 -0.1099844304083452 -0.35257743562026572 0 -0.1166361947753133 -0.33638206822001748 0 -0.096042697554356071 -0.3397062417384924 0 -0.081273045807338212 -0.32012122354728773 0 -0.072383893537199012 -0.33396092306611819 0 -0.082523744249277803 -0.34494336359321798 0 -0.081273045807338212 -0.32012122354728773 0 -0.082523744249277803 -0.34494336359321798 0 -0.096042697554356071 -0.3397062417384924 0 -0.081273045807338212 -0.32012122354728773 0 -0.082523744249277803 -0.34494336359321798 0 -0.098893476597157901 -0.32632392269665411 0 -0.096042697554356071 -0.3397062417384924 0 -0.081273045807338212 -0.32012122354728773 0 -0.098893476597157901 -0.32632392269665411 0 -0.081273045807338212 -0.32012122354728773 0 -0.088490963390462057 -0.3073149594937738 0 -0.081273045807338212 -0.32012122354728773 0 -0.06349485352407537 -0.31994243130957151 0 -0.072383893537199012 -0.33396092306611819 0 -0.081273045807338212 -0.32012122354728773 0 -0.06349485352407537 -0.31994243130957151 0 -0.071882199735688629 -0.30989172464331072 0 -0.06349485352407537 -0.31994243130957151 0 -0.072383893537199012 -0.33396092306611819 0 -0.062587044379988993 -0.33886333000968721 0 -0.072383893537199012 -0.33396092306611819 0 -0.072040779725314613 -0.34593426687082662 0 -0.082523744249277803 -0.34494336359321798 0 -0.072383893537199012 -0.33396092306611819 0 -0.062587044379988993 -0.33886333000968721 0 -0.072040779725314613 -0.34593426687082662 0 -0.062587044379988993 -0.33886333000968721 0 -0.072040779725314613 -0.34593426687082662 0 -0.05778126825204781 -0.35817517109810632 0 -0.081484465201393491 -0.35485127927681481 0 -0.05778126825204781 -0.35817517109810632 0 -0.072289445743601369 -0.36429171085611578 0 -0.081484465201393491 -0.35485127927681481 0 -0.05778126825204781 -0.35817517109810632 0 -0.072040779725314613 -0.34593426687082662 0 -0.081484465201393491 -0.35485127927681481 0 -0.05778126825204781 -0.35817517109810632 0 -0.066117606829746781 -0.37437488941039382 0 -0.072289445743601369 -0.36429171085611578 0 -0.05778126825204781 -0.35817517109810632 0 -0.066117606829746781 -0.37437488941039382 0 -0.072289445743601369 -0.36429171085611578 0 -0.083774442691217046 -0.36976550363914829 0 -0.072289445743601369 -0.36429171085611578 0 -0.083774442691217046 -0.36976550363914829 0 -0.081484465201393491 -0.35485127927681481 0 -0.085554658872136979 -0.36583820648233678 0 -0.083774442691217046 -0.36976550363914829 0 -0.082523744249277803 -0.34494336359321798 0 -0.085554658872136979 -0.36583820648233678 0 -0.083774442691217046 -0.36976550363914829 0 -0.083774442691217046 -0.36976550363914829 0 -0.091783481537845241 -0.36974840743822202 0 -0.093814789784828018 -0.38091150164421111 0 -0.085554658872136979 -0.36583820648233678 0 -0.083774442691217046 -0.36976550363914829 0 -0.091783481537845241 -0.36974840743822202 0 -0.094364811557621053 -0.35389299716276579 0 -0.085554658872136979 -0.36583820648233678 0 -0.093334558199797538 -0.36412034719781128 0 -0.085554658872136979 -0.36583820648233678 0 -0.091783481537845241 -0.36974840743822202 0 -0.093334558199797538 -0.36412034719781128 0 -0.094364811557621053 -0.35389299716276579 0 -0.085554658872136979 -0.36583820648233678 0 -0.082523744249277803 -0.34494336359321798 0 -0.083774442691217046 -0.36976550363914829 0 -0.082523744249277803 -0.34494336359321798 0 -0.083774442691217046 -0.36976550363914829 0 -0.082523744249277803 -0.34494336359321798 0 -0.081484465201393491 -0.35485127927681481 0 -0.094364811557621053 -0.35389299716276579 0 -0.096042697554356071 -0.3397062417384924 0 -0.082523744249277803 -0.34494336359321798 0 -0.072040779725314613 -0.34593426687082662 0 -0.082523744249277803 -0.34494336359321798 0 -0.081484465201393491 -0.35485127927681481 0 -0.101475907254733 -0.26829823342826459 0 -0.093680051977193257 -0.25300014610948141 0 -0.1025516661405015 -0.24412656761791199 0 -0.1097432552782682 -0.2572086698476283 0 -0.101475907254733 -0.26829823342826459 0 -0.1025516661405015 -0.24412656761791199 0 -0.101475907254733 -0.26829823342826459 0 -0.1025516661405015 -0.24412656761791199 0 -0.101475907254733 -0.26829823342826459 0 -0.092490388530258719 -0.26367462890309928 0 -0.093680051977193257 -0.25300014610948141 0 -0.1097432552782682 -0.2572086698476283 0 -0.11415052326640381 -0.26847741843797612 0 -0.101475907254733 -0.26829823342826459 0 -0.1097432552782682 -0.2572086698476283 0 -0.1183855941197941 -0.25651062511641259 0 -0.1121525856099083 -0.24863050463757599 0 -0.1283361407779757 -0.25159171728621699 0 -0.1183855941197941 -0.25651062511641259 0 -0.11992695639240671 -0.24305274461581289 0 -0.1259380663168852 -0.26705754103126977 0 -0.1183855941197941 -0.25651062511641259 0 -0.11415052326640381 -0.26847741843797612 0 -0.1259380663168852 -0.26705754103126977 0 -0.1283361407779757 -0.25159171728621699 0 -0.1183855941197941 -0.25651062511641259 0 -0.1097432552782682 -0.2572086698476283 0 -0.1183855941197941 -0.25651062511641259 0 -0.11415052326640381 -0.26847741843797612 0 -0.1259380663168852 -0.26705754103126977 0 -0.11415052326640381 -0.26847741843797612 0 -0.121176560474238 -0.27855216134530347 0 -0.11415052326640381 -0.26847741843797612 0 -0.121176560474238 -0.27855216134530347 0 -0.112272911659429 -0.28340806039222649 0 -0.101475907254733 -0.26829823342826459 0 -0.1004001483689636 -0.29246989923861699 0 -0.089806853404465051 -0.2713401455271785 0 -0.101475907254733 -0.26829823342826459 0 -0.1004001483689636 -0.29246989923861699 0 -0.11415052326640381 -0.26847741843797612 0 -0.101475907254733 -0.26829823342826459 0 -0.112272911659429 -0.28340806039222649 0 -0.101475907254733 -0.26829823342826459 0 -0.089806853404465051 -0.2713401455271785 0 -0.092490388530258719 -0.26367462890309928 0 -0.1004001483689636 -0.29246989923861699 0 -0.112272911659429 -0.28340806039222649 0 -0.11289062726590229 -0.30027849754824781 0 -0.101475907254733 -0.26829823342826459 0 -0.1004001483689636 -0.29246989923861699 0 -0.112272911659429 -0.28340806039222649 0 -0.1004001483689636 -0.29246989923861699 0 -0.10013860532164209 -0.29834661679915908 0 -0.1004001483689636 -0.29246989923861699 0 -0.11289062726590229 -0.30027849754824781 0 -0.112272911659429 -0.28340806039222649 0 -0.12354370332633501 -0.29237215235494779 0 -0.11289062726590229 -0.30027849754824781 0 -0.121176560474238 -0.27855216134530347 0 -0.112272911659429 -0.28340806039222649 0 -0.12354370332633501 -0.29237215235494779 0 -0.13137693926794269 -0.30307910049847142 0 -0.11289062726590229 -0.30027849754824781 0 -0.13137693926794269 -0.30307910049847142 0 -0.11289062726590229 -0.30027849754824781 0 -0.12202825811921469 -0.30947938976295097 0 -0.13137693926794269 -0.30307910049847142 0 -0.12354370332633501 -0.29237215235494779 0 -0.11289062726590229 -0.30027849754824781 0 -0.11289062726590229 -0.30027849754824781 0 -0.11397155121489801 -0.30848478901155318 0 -0.10823649018657309 -0.3106210867482716 0 -0.11289062726590229 -0.30027849754824781 0 -0.12202825811921469 -0.30947938976295097 0 -0.11397155121489801 -0.30848478901155318 0 -0.098893476597157901 -0.32632392269665411 0 -0.10013860532164209 -0.29834661679915908 0 -0.098893476597157901 -0.32632392269665411 0 -0.10013860532164209 -0.29834661679915908 0 -0.088490963390462057 -0.3073149594937738 0 -0.098893476597157901 -0.32632392269665411 0 -0.10823649018657309 -0.3106210867482716 0 -0.10013860532164209 -0.29834661679915908 0 -0.11289062726590229 -0.30027849754824781 0 -0.10013860532164209 -0.29834661679915908 0 -0.1004001483689636 -0.29246989923861699 0 -0.11289062726590229 -0.30027849754824781 0 -0.10013860532164209 -0.29834661679915908 0 -0.11289062726590229 -0.30027849754824781 0 -0.10823649018657309 -0.3106210867482716 0 -0.10013860532164209 -0.29834661679915908 0 -0.081273045807338212 -0.32012122354728773 0 -0.075730545320634307 -0.30237183499028841 0 -0.080022347365398816 -0.29529908350135742 0 -0.081273045807338212 -0.32012122354728773 0 -0.088490963390462057 -0.3073149594937738 0 -0.080022347365398816 -0.29529908350135742 0 -0.10013860532164209 -0.29834661679915908 0 -0.088490963390462057 -0.3073149594937738 0 -0.080022347365398816 -0.29529908350135742 0 -0.081273045807338212 -0.32012122354728773 0 -0.080022347365398816 -0.29529908350135742 0 -0.06349485352407537 -0.31994243130957151 0 -0.067929239438661637 -0.29744245220773302 0 -0.06349485352407537 -0.31994243130957151 0 -0.067929239438661637 -0.29744245220773302 0 -0.05709164511789562 -0.30596989755068921 0 -0.081273045807338212 -0.32012122354728773 0 -0.071882199735688629 -0.30989172464331072 0 -0.075730545320634307 -0.30237183499028841 0 -0.06349485352407537 -0.31994243130957151 0 -0.071882199735688629 -0.30989172464331072 0 -0.067929239438661637 -0.29744245220773302 0 -0.067929239438661637 -0.29744245220773302 0 -0.075730545320634307 -0.30237183499028841 0 -0.074800211398343183 -0.29676828128919502 0 -0.071882199735688629 -0.30989172464331072 0 -0.067929239438661637 -0.29744245220773302 0 -0.075730545320634307 -0.30237183499028841 0 -0.075730545320634307 -0.30237183499028841 0 -0.074800211398343183 -0.29676828128919502 0 -0.080022347365398816 -0.29529908350135742 0 -0.067929239438661637 -0.29744245220773302 0 -0.072363625353247057 -0.27494247310589431 0 -0.074800211398343183 -0.29676828128919502 0 -0.075988861669628593 -0.29203098004520328 0 -0.080022347365398816 -0.29529908350135742 0 -0.067929239438661637 -0.29744245220773302 0 -0.063481929201992804 -0.28659419931659808 0 -0.072363625353247057 -0.27494247310589431 0 -0.067929239438661637 -0.29744245220773302 0 -0.075162920182542767 -0.28731555611229459 0 -0.072363625353247057 -0.27494247310589431 0 -0.075988861669628593 -0.29203098004520328 0 -0.075162920182542767 -0.28731555611229459 0 -0.080022347365398816 -0.29529908350135742 0 -0.067929239438661637 -0.29744245220773302 0 -0.075988861669628593 -0.29203098004520328 0 -0.075162920182542767 -0.28731555611229459 0 -0.067929239438661637 -0.29744245220773302 0 -0.074800211398343183 -0.29676828128919502 0 -0.075988861669628593 -0.29203098004520328 0 -0.067929239438661637 -0.29744245220773302 0 -0.063481929201992804 -0.28659419931659808 0 -0.057157199652218327 -0.29433345841048941 0 -0.1004001483689636 -0.29246989923861699 0 -0.079212385277153408 -0.27922407156230239 0 -0.10013860532164209 -0.29834661679915908 0 -0.080022347365398816 -0.29529908350135742 0 -0.075162920182542767 -0.28731555611229459 0 -0.080022347365398816 -0.29529908350135742 0 -0.079212385277153408 -0.27922407156230239 0 -0.1004001483689636 -0.29246989923861699 0 -0.080022347365398816 -0.29529908350135742 0 -0.079212385277153408 -0.27922407156230239 0 -0.1004001483689636 -0.29246989923861699 0 -0.10013860532164209 -0.29834661679915908 0 -0.080022347365398816 -0.29529908350135742 0 -0.080022347365398816 -0.29529908350135742 0 -0.079212385277153408 -0.27922407156230239 0 -0.1004001483689636 -0.29246989923861699 0 -0.089806853404465051 -0.2713401455271785 0 -0.079212385277153408 -0.27922407156230239 0 -0.089806853404465051 -0.2713401455271785 0 -0.084998741484643592 -0.26205999054747281 0 -0.092490388530258719 -0.26367462890309928 0 -0.089806853404465051 -0.2713401455271785 0 -0.078429256909339093 -0.26368161834739218 0 -0.084998741484643592 -0.26205999054747281 0 -0.079212385277153408 -0.27922407156230239 0 -0.078429256909339093 -0.26368161834739218 0 -0.089806853404465051 -0.2713401455271785 0 -0.079212385277153408 -0.27922407156230239 0 -0.078429256909339093 -0.26368161834739218 0 -0.075162920182542767 -0.28731555611229459 0 -0.079212385277153408 -0.27922407156230239 0 -0.072363625353247057 -0.27494247310589431 0 -0.072363625353247057 -0.27494247310589431 0 -0.052651973256824323 -0.26261945695013877 0 -0.072363625353247057 -0.27494247310589431 0 -0.065594040539757301 -0.27326720108960889 0 -0.052651973256824323 -0.26261945695013877 0 -0.079212385277153408 -0.27922407156230239 0 -0.072363625353247057 -0.27494247310589431 0 -0.072363625353247057 -0.27494247310589431 0 -0.065594040539757301 -0.27326720108960889 0 -0.061663959528748452 -0.27997783588547598 0 -0.063481929201992804 -0.28659419931659808 0 -0.072363625353247057 -0.27494247310589431 0 -0.061663959528748452 -0.27997783588547598 0 -0.079212385277153408 -0.27922407156230239 0 -0.072363625353247057 -0.27494247310589431 0 -0.078429256909339093 -0.26368161834739218 0 -0.072363625353247057 -0.27494247310589431 0 -0.077646128541525 -0.24813916513248199 0 -0.072363625353247057 -0.27494247310589431 0 -0.078429256909339093 -0.26368161834739218 0 -0.077646128541525 -0.24813916513248199 0 -0.072363625353247057 -0.27494247310589431 0 -0.052651973256824323 -0.26261945695013877 0 -0.077646128541525 -0.24813916513248199 0 -0.078429256909339093 -0.26368161834739218 0 -0.077646128541525 -0.24813916513248199 0 -0.084998741484643592 -0.26205999054747281 0 -0.088104632666654803 -0.24175912157342011 0 -0.084998741484643592 -0.26205999054747281 0 -0.093680051977193257 -0.25300014610948141 0 -0.088104632666654803 -0.24175912157342011 0 -0.084998741484643592 -0.26205999054747281 0 -0.088104632666654803 -0.24175912157342011 0 -0.077646128541525 -0.24813916513248199 0 -0.078429256909339093 -0.26368161834739218 0 -0.084998741484643592 -0.26205999054747281 0 -0.077646128541525 -0.24813916513248199 0 -0.084998741484643592 -0.26205999054747281 0 -0.092490388530258719 -0.26367462890309928 0 -0.093680051977193257 -0.25300014610948141 0 -0.032940321160402269 -0.25029644079438251 0 -0.052651973256824323 -0.26261945695013877 0 -0.050902643065861071 -0.24349095896983161 0 -0.032940321160402269 -0.25029644079438251 0 -0.052651973256824323 -0.26261945695013877 0 -0.030801127425925001 -0.25680016795848581 0 -0.032940321160402269 -0.25029644079438251 0 -0.052651973256824323 -0.26261945695013877 0 -0.052651973256824323 -0.26261945695013877 0 -0.048838748996681343 -0.27669498093657302 0 -0.030801127425925001 -0.25680016795848581 0 -0.032940321160402269 -0.25029644079438251 0 -0.030801127425925001 -0.25680016795848581 0 -0.052651973256824323 -0.26261945695013877 0 -0.050902643065861071 -0.24349095896983161 0 -0.077646128541525 -0.24813916513248199 0 -0.065594040539757301 -0.27326720108960889 0 -0.048838748996681343 -0.27669498093657302 0 -0.065594040539757301 -0.27326720108960889 0 -0.052651973256824323 -0.26261945695013877 0 -0.048838748996681343 -0.27669498093657302 0 -0.065594040539757301 -0.27326720108960889 0 -0.061663959528748452 -0.27997783588547598 0 -0.048838748996681343 -0.27669498093657302 0 -0.061663959528748452 -0.27997783588547598 0 -0.048838748996681343 -0.27669498093657302 0 -0.054451087829631463 -0.28288517796522222 0 -0.048838748996681343 -0.27669498093657302 0 -0.054451087829631463 -0.28288517796522222 0 -0.048838748996681343 -0.27669498093657302 0 -0.030801127425925001 -0.25680016795848581 0 -0.048838748996681343 -0.27669498093657302 0 -0.02248395618448398 -0.28208661661419232 0 -0.030801127425925001 -0.25680016795848581 0 -0.048838748996681343 -0.27669498093657302 0 -0.02248395618448398 -0.28208661661419232 0 -0.048838748996681343 -0.27669498093657302 0 -0.041077846387481028 -0.28937070966441081 0 -0.02248395618448398 -0.28208661661419232 0 -0.041077846387481028 -0.28937070966441081 0 -0.037109865356421391 -0.29952186761000271 0 -0.029468436869721851 -0.29252598106650862 0 -0.041077846387481028 -0.28937070966441081 0 -0.04975385330497957 -0.2890306135367654 0 -0.047244383658885593 -0.30186874070713182 0 -0.048838748996681343 -0.27669498093657302 0 -0.041077846387481028 -0.28937070966441081 0 -0.04975385330497957 -0.2890306135367654 0 -0.048838748996681343 -0.27669498093657302 0 -0.04975385330497957 -0.2890306135367654 0 -0.054451087829631463 -0.28288517796522222 0 -0.04975385330497957 -0.2890306135367654 0 -0.054451087829631463 -0.28288517796522222 0 -0.057157199652218327 -0.29433345841048941 0 -0.063481929201992804 -0.28659419931659808 0 -0.054451087829631463 -0.28288517796522222 0 -0.057157199652218327 -0.29433345841048941 0 -0.063481929201992804 -0.28659419931659808 0 -0.061663959528748452 -0.27997783588547598 0 -0.054451087829631463 -0.28288517796522222 0 -0.04975385330497957 -0.2890306135367654 0 -0.057157199652218327 -0.29433345841048941 0 -0.047244383658885593 -0.30186874070713182 0 -0.057157199652218327 -0.29433345841048941 0 -0.047244383658885593 -0.30186874070713182 0 -0.05709164511789562 -0.30596989755068921 0 -0.067929239438661637 -0.29744245220773302 0 -0.057157199652218327 -0.29433345841048941 0 -0.05709164511789562 -0.30596989755068921 0 -0.047244383658885593 -0.30186874070713182 0 -0.05709164511789562 -0.30596989755068921 0 -0.049632549315637188 -0.31626240511852 0 -0.047244383658885593 -0.30186874070713182 0 -0.049632549315637188 -0.31626240511852 0 -0.036505516356473318 -0.31400569198040618 0 -0.047244383658885593 -0.30186874070713182 0 -0.037109865356421391 -0.29952186761000271 0 -0.036505516356473318 -0.31400569198040618 0 -0.041077846387481028 -0.28937070966441081 0 -0.047244383658885593 -0.30186874070713182 0 -0.037109865356421391 -0.29952186761000271 0 -0.037109865356421391 -0.29952186761000271 0 -0.02678144107749017 -0.30078470409936309 0 -0.036505516356473318 -0.31400569198040618 0 -0.02678144107749017 -0.30078470409936309 0 -0.021312585502779081 -0.32213078764647213 0 -0.02678144107749017 -0.30078470409936309 0 -0.036505516356473318 -0.31400569198040618 0 -0.021312585502779081 -0.32213078764647213 0 -0.02678144107749017 -0.30078470409936309 0 -0.01630762940426286 -0.3038502133106713 0 -0.021312585502779081 -0.32213078764647213 0 -0.037109865356421391 -0.29952186761000271 0 -0.02678144107749017 -0.30078470409936309 0 -0.029468436869721851 -0.29252598106650862 0 -0.02678144107749017 -0.30078470409936309 0 -0.01630762940426286 -0.3038502133106713 0 -0.01957434403417008 -0.29093262400193609 0 -0.0063780240591087903 -0.31078717533589839 0 -0.0074917523477661804 -0.29461577546968681 0 0.013051880611257029 -0.30817184754300292 0 -0.01630762940426286 -0.3038502133106713 0 -0.0063780240591087903 -0.31078717533589839 0 -0.021312585502779081 -0.32213078764647213 0 -0.01630762940426286 -0.3038502133106713 0 -0.0063780240591087903 -0.31078717533589839 0 -0.0074917523477661804 -0.29461577546968681 0 -0.02248395618448398 -0.28208661661419232 0 0.0027723556212477219 -0.28725352620772771 0 -0.01075429771457371 -0.28163518560512563 0 -0.02248395618448398 -0.28208661661419232 0 0.0027723556212477219 -0.28725352620772771 0 -0.0074917523477661804 -0.29461577546968681 0 -0.02248395618448398 -0.28208661661419232 0 0.0027723556212477219 -0.28725352620772771 0 -0.01630762940426286 -0.3038502133106713 0 -0.0074917523477661804 -0.29461577546968681 0 -0.01957434403417008 -0.29093262400193609 0 -0.01075429771457371 -0.28163518560512563 0 -0.0017476628817073611 -0.27805551369469472 0 0.0027723556212477219 -0.28725352620772771 0 -0.041077846387481028 -0.28937070966441081 0 -0.02248395618448398 -0.28208661661419232 0 -0.029468436869721851 -0.29252598106650862 0 -0.02248395618448398 -0.28208661661419232 0 -0.01957434403417008 -0.29093262400193609 0 -0.0074917523477661804 -0.29461577546968681 0 -0.02248395618448398 -0.28208661661419232 0 -0.01957434403417008 -0.29093262400193609 0 -0.02678144107749017 -0.30078470409936309 0 -0.01957434403417008 -0.29093262400193609 0 -0.029468436869721851 -0.29252598106650862 0 -0.02248395618448398 -0.28208661661419232 0 -0.01957434403417008 -0.29093262400193609 0 -0.029468436869721851 -0.29252598106650862 0 -0.02248395618448398 -0.28208661661419232 0 -0.030801127425925001 -0.25680016795848581 0 -0.02248395618448398 -0.28208661661419232 0 -0.01520552987642871 -0.27187005660595642 0 -0.030801127425925001 -0.25680016795848581 0 -0.01075429771457371 -0.28163518560512563 0 -0.02248395618448398 -0.28208661661419232 0 -0.01520552987642871 -0.27187005660595642 0 -0.0017476628817073611 -0.27805551369469472 0 -0.01024060517545407 -0.26077279915728391 0 0.0057386521092319797 -0.26220041049146298 0 -0.0017476628817073611 -0.27805551369469472 0 -0.01520552987642871 -0.27187005660595642 0 -0.01024060517545407 -0.26077279915728391 0 -0.0017476628817073611 -0.27805551369469472 0 -0.01024060517545407 -0.26077279915728391 0 -0.01075429771457371 -0.28163518560512563 0 -0.0017476628817073611 -0.27805551369469472 0 -0.01520552987642871 -0.27187005660595642 0 -0.01075429771457371 -0.28163518560512563 0 -0.0017476628817073611 -0.27805551369469472 0 -0.01024060517545407 -0.26077279915728391 0 0.0057386521092319797 -0.26220041049146298 0 0.0025328853753160741 -0.24958102673793139 0 -0.01024060517545407 -0.26077279915728391 0 -0.018733547469201091 -0.24349008461987329 0 -0.01024060517545407 -0.26077279915728391 0 -0.018733547469201091 -0.24349008461987329 0 0.0025328853753160741 -0.24958102673793139 0 -0.01024060517545407 -0.26077279915728391 0 -0.030801127425925001 -0.25680016795848581 0 -0.018733547469201091 -0.24349008461987329 0 -0.01520552987642871 -0.27187005660595642 0 -0.01024060517545407 -0.26077279915728391 0 -0.030801127425925001 -0.25680016795848581 0 -0.032940321160402269 -0.25029644079438251 0 -0.030801127425925001 -0.25680016795848581 0 -0.026871719323301121 -0.24650256912316601 0 -0.030801127425925001 -0.25680016795848581 0 -0.018733547469201091 -0.24349008461987329 0 -0.034078071302702163 -0.36149906291939787 0 -0.05778126825204781 -0.35817517109810632 0 -0.044598414929564491 -0.33459332569111688 0 -0.034078071302702163 -0.36149906291939787 0 -0.044598414929564491 -0.33459332569111688 0 -0.02963630761074966 -0.34409655343526241 0 -0.034078071302702163 -0.36149906291939787 0 -0.05778126825204781 -0.35817517109810632 0 -0.034078071302702163 -0.36149906291939787 0 -0.031733352269984409 -0.37630872523495079 0 -0.04671422923235316 -0.37926911911211442 0 -0.034078071302702163 -0.36149906291939787 0 -0.05778126825204781 -0.35817517109810632 0 -0.04671422923235316 -0.37926911911211442 0 -0.066117606829746781 -0.37437488941039382 0 -0.05778126825204781 -0.35817517109810632 0 -0.04671422923235316 -0.37926911911211442 0 -0.062587044379988993 -0.33886333000968721 0 -0.05778126825204781 -0.35817517109810632 0 -0.044598414929564491 -0.33459332569111688 0 -0.06349485352407537 -0.31994243130957151 0 -0.062587044379988993 -0.33886333000968721 0 -0.044598414929564491 -0.33459332569111688 0 -0.06349485352407537 -0.31994243130957151 0 -0.049632549315637188 -0.31626240511852 0 -0.044598414929564491 -0.33459332569111688 0 -0.06349485352407537 -0.31994243130957151 0 -0.05709164511789562 -0.30596989755068921 0 -0.049632549315637188 -0.31626240511852 0 -0.049632549315637188 -0.31626240511852 0 -0.036505516356473318 -0.31400569198040618 0 -0.044598414929564491 -0.33459332569111688 0 -0.036505516356473318 -0.31400569198040618 0 -0.044598414929564491 -0.33459332569111688 0 -0.021312585502779081 -0.32213078764647213 0 -0.044598414929564491 -0.33459332569111688 0 -0.021312585502779081 -0.32213078764647213 0 -0.02963630761074966 -0.34409655343526241 0 -0.015843729928067991 -0.34347687119358122 0 -0.021312585502779081 -0.32213078764647213 0 -0.02963630761074966 -0.34409655343526241 0 -0.015843729928067991 -0.34347687119358122 0 -0.021312585502779081 -0.32213078764647213 0 -0.0063780240591087903 -0.31078717533589839 0 -0.021312585502779081 -0.32213078764647213 0 3.5896068887442723e-05 -0.32803491845883598 0 -0.015843729928067991 -0.34347687119358122 0 -0.00014080085946228561 -0.35082738964002957 0 3.5896068887442723e-05 -0.32803491845883598 0 -0.015843729928067991 -0.34347687119358122 0 -0.021312585502779081 -0.32213078764647213 0 3.5896068887442723e-05 -0.32803491845883598 0 -0.015843729928067991 -0.34347687119358122 0 -0.00014080085946228561 -0.35082738964002957 0 -0.01037487435335663 -0.3648229547406901 0 -0.015843729928067991 -0.34347687119358122 0 -0.01037487435335663 -0.3648229547406901 0 -0.015843729928067991 -0.34347687119358122 0 -0.02275820373048933 -0.35362182208710219 0 -0.02963630761074966 -0.34409655343526241 0 -0.015843729928067991 -0.34347687119358122 0 -0.02275820373048933 -0.35362182208710219 0 -0.01037487435335663 -0.3648229547406901 0 -0.034078071302702163 -0.36149906291939787 0 -0.02275820373048933 -0.35362182208710219 0 -0.02963630761074966 -0.34409655343526241 0 -0.034078071302702163 -0.36149906291939787 0 -0.02215424893162643 -0.37111505202744122 0 -0.01037487435335663 -0.3648229547406901 0 -0.034078071302702163 -0.36149906291939787 0 -0.01037487435335663 -0.3648229547406901 0 -0.034078071302702163 -0.36149906291939787 0 -0.02275820373048933 -0.35362182208710219 0 -0.01037487435335663 -0.3648229547406901 0 -0.034078071302702163 -0.36149906291939787 0 -0.02215424893162643 -0.37111505202744122 0 -0.031733352269984409 -0.37630872523495079 0 -0.02215424893162643 -0.37111505202744122 0 -0.016772253886492949 -0.37410089839641808 0 -0.01404568160319189 -0.3712617873641948 0 -0.01404568160319189 -0.3712617873641948 0 -0.0094265442937821464 -0.37378457166277412 0 -0.01319259440905524 -0.37623554315916408 0 -0.0078283346885702904 -0.37476262999778609 0 -0.0094265442937821464 -0.37378457166277412 0 -0.01037487435335663 -0.3648229547406901 0 -0.02215424893162643 -0.37111505202744122 0 -0.01404568160319189 -0.3712617873641948 0 -0.01037487435335663 -0.3648229547406901 0 -0.01037487435335663 -0.3648229547406901 0 0.0058490520874761691 -0.36709803082098191 0 -0.016772253886492949 -0.37410089839641808 0 -0.01404568160319189 -0.3712617873641948 0 -0.01319259440905524 -0.37623554315916408 0 -0.00014080085946228561 -0.35082738964002957 0 -0.01037487435335663 -0.3648229547406901 0 0.0058490520874761691 -0.36709803082098191 0 -0.0078283346885702904 -0.37476262999778609 0 -0.01037487435335663 -0.3648229547406901 0 0.0058490520874761691 -0.36709803082098191 0 -0.0078283346885702904 -0.37476262999778609 0 -0.01037487435335663 -0.3648229547406901 0 -0.01404568160319189 -0.3712617873641948 0 -0.0094265442937821464 -0.37378457166277412 0 -0.01037487435335663 -0.3648229547406901 0 -0.0078283346885702904 -0.37476262999778609 0 -0.0094265442937821464 -0.37378457166277412 0 -0.0078283346885702904 -0.37476262999778609 0 -0.0023576536845698339 -0.39611583857600319 0 -0.0078283346885702904 -0.37476262999778609 0 -0.011142097151610131 -0.38172381805447092 0 -0.0023576536845698339 -0.39611583857600319 0 -0.011142097151610131 -0.38172381805447092 0 -0.0023576536845698339 -0.39611583857600319 0 -0.01587325479487519 -0.38723674351337972 0 -0.011142097151610131 -0.38172381805447092 0 -0.01610234460482865 -0.37998891207167063 0 -0.01587325479487519 -0.38723674351337972 0 -0.01319259440905524 -0.37623554315916408 0 -0.011142097151610131 -0.38172381805447092 0 -0.01610234460482865 -0.37998891207167063 0 -0.016772253886492949 -0.37410089839641808 0 -0.01319259440905524 -0.37623554315916408 0 -0.01610234460482865 -0.37998891207167063 0 -0.01319259440905524 -0.37623554315916408 0 -0.010397392635754449 -0.37662664071854879 0 -0.011142097151610131 -0.38172381805447092 0 -0.0078283346885702904 -0.37476262999778609 0 -0.010397392635754449 -0.37662664071854879 0 -0.011142097151610131 -0.38172381805447092 0 -0.0094265442937821464 -0.37378457166277412 0 -0.01319259440905524 -0.37623554315916408 0 -0.010397392635754449 -0.37662664071854879 0 -0.0078283346885702904 -0.37476262999778609 0 -0.0094265442937821464 -0.37378457166277412 0 -0.010397392635754449 -0.37662664071854879 0 -0.0023576536845698339 -0.39611583857600319 0 -0.016854849126784088 -0.39742738565483049 0 -0.01587325479487519 -0.38723674351337972 0 -0.0023576536845698339 -0.39611583857600319 0 -0.016854849126784088 -0.39742738565483049 0 -0.0081630895937607941 -0.41129335178386173 0 -0.016854849126784088 -0.39742738565483049 0 -0.023392714889338931 -0.39064901327928331 0 -0.029305467632274609 -0.40049385546170407 0 -0.016854849126784088 -0.39742738565483049 0 -0.023392714889338931 -0.39064901327928331 0 -0.01587325479487519 -0.38723674351337972 0 -0.023392714889338931 -0.39064901327928331 0 -0.029305467632274609 -0.40049385546170407 0 -0.032188689101130562 -0.38901283488088068 0 -0.02215424893162643 -0.37111505202744122 0 -0.016772253886492949 -0.37410089839641808 0 -0.02353152278210973 -0.38064755723492022 0 -0.016772253886492949 -0.37410089839641808 0 -0.01610234460482865 -0.37998891207167063 0 -0.02353152278210973 -0.38064755723492022 0 -0.01610234460482865 -0.37998891207167063 0 -0.01587325479487519 -0.38723674351337972 0 -0.02353152278210973 -0.38064755723492022 0 -0.023392714889338931 -0.39064901327928331 0 -0.01587325479487519 -0.38723674351337972 0 -0.02353152278210973 -0.38064755723492022 0 -0.023392714889338931 -0.39064901327928331 0 -0.02353152278210973 -0.38064755723492022 0 -0.032188689101130562 -0.38901283488088068 0 -0.02353152278210973 -0.38064755723492022 0 -0.031733352269984409 -0.37630872523495079 0 -0.032188689101130562 -0.38901283488088068 0 -0.02215424893162643 -0.37111505202744122 0 -0.02353152278210973 -0.38064755723492022 0 -0.031733352269984409 -0.37630872523495079 0 -0.031733352269984409 -0.37630872523495079 0 -0.04671422923235316 -0.37926911911211442 0 -0.032188689101130562 -0.38901283488088068 0 -0.04671422923235316 -0.37926911911211442 0 -0.032188689101130562 -0.38901283488088068 0 -0.044289202763444772 -0.39135289085216762 0 -0.032188689101130562 -0.38901283488088068 0 -0.041257957344308177 -0.40487627914437913 0 -0.044289202763444772 -0.39135289085216762 0 -0.029305467632274609 -0.40049385546170407 0 -0.032188689101130562 -0.38901283488088068 0 -0.041257957344308177 -0.40487627914437913 0 -0.056230819367541693 -0.39440183914975269 0 -0.051493530029743613 -0.41277891791385168 0 -0.065747409502729032 -0.40953455918739179 0 -0.041257957344308177 -0.40487627914437913 0 -0.056230819367541693 -0.39440183914975269 0 -0.051493530029743613 -0.41277891791385168 0 -0.041257957344308177 -0.40487627914437913 0 -0.044289202763444772 -0.39135289085216762 0 -0.056230819367541693 -0.39440183914975269 0 -0.056230819367541693 -0.39440183914975269 0 -0.065747409502729032 -0.40953455918739179 0 -0.066117606829746781 -0.37437488941039382 0 -0.04671422923235316 -0.37926911911211442 0 -0.056230819367541693 -0.39440183914975269 0 -0.04671422923235316 -0.37926911911211442 0 -0.044289202763444772 -0.39135289085216762 0 -0.056230819367541693 -0.39440183914975269 0 -0.04671422923235316 -0.37926911911211442 0 -0.056230819367541693 -0.39440183914975269 0 -0.057674512383022389 -0.42734400629007657 0 -0.049601615263317987 -0.44515345339276252 0 -0.057674512383022389 -0.42734400629007657 0 -0.051493530029743613 -0.41277891791385168 0 -0.065747409502729032 -0.40953455918739179 0 -0.057674512383022389 -0.42734400629007657 0 -0.065747409502729032 -0.40953455918739179 0 -0.057674512383022389 -0.42734400629007657 0 -0.051493530029743613 -0.41277891791385168 0 -0.03322823219505102 -0.42129041952379648 0 -0.029305467632274609 -0.40049385546170407 0 -0.041257957344308177 -0.40487627914437913 0 -0.03322823219505102 -0.42129041952379648 0 -0.041257957344308177 -0.40487627914437913 0 -0.051493530029743613 -0.41277891791385168 0 -0.03322823219505102 -0.42129041952379648 0 -0.03322823219505102 -0.42129041952379648 0 -0.02439234541253921 -0.43490569650885758 0 -0.049601615263317987 -0.44515345339276252 0 -0.03322823219505102 -0.42129041952379648 0 -0.049601615263317987 -0.44515345339276252 0 -0.057674512383022389 -0.42734400629007657 0 -0.03322823219505102 -0.42129041952379648 0 -0.049601615263317987 -0.44515345339276252 0 -0.03322823219505102 -0.42129041952379648 0 -0.02439234541253921 -0.43490569650885758 0 -0.010818991714530671 -0.42579448288144173 0 -0.016854849126784088 -0.39742738565483049 0 -0.03322823219505102 -0.42129041952379648 0 -0.03322823219505102 -0.42129041952379648 0 -0.0081630895937607941 -0.41129335178386173 0 -0.010818991714530671 -0.42579448288144173 0 -0.016854849126784088 -0.39742738565483049 0 -0.029305467632274609 -0.40049385546170407 0 -0.03322823219505102 -0.42129041952379648 0 -0.016854849126784088 -0.39742738565483049 0 -0.03322823219505102 -0.42129041952379648 0 -0.0081630895937607941 -0.41129335178386173 0 -0.0081630895937607941 -0.41129335178386173 0 -0.010818991714530671 -0.42579448288144173 0 0.0026957591361241309 -0.41958824334712869 0 -0.02439234541253921 -0.43490569650885758 0 -0.010818991714530671 -0.42579448288144173 0 -0.01027783979290609 -0.4450418277695869 0 -0.010818991714530671 -0.42579448288144173 0 -0.01027783979290609 -0.4450418277695869 0 0.003851027954898749 -0.43172418954792041 0 -0.010818991714530671 -0.42579448288144173 0 0.0026957591361241309 -0.41958824334712869 0 0.003851027954898749 -0.43172418954792041 0 -0.01027783979290609 -0.4450418277695869 0 -0.011038280792740629 -0.46258843223684681 0 0.0031349746952128348 -0.45732154608844711 0 -0.01027783979290609 -0.4450418277695869 0 -0.011038280792740629 -0.46258843223684681 0 -0.02289260566061898 -0.45897742689034388 0 -0.011038280792740629 -0.46258843223684681 0 -0.00094907817261298132 -0.47112804672216879 0 0.0031349746952128348 -0.45732154608844711 0 -0.02289260566061898 -0.45897742689034388 0 -0.029356635895327849 -0.44930438287917762 0 -0.040413005672661102 -0.46542425011239508 0 -0.02289260566061898 -0.45897742689034388 0 -0.023377266149459251 -0.47252824145371342 0 -0.040413005672661102 -0.46542425011239508 0 -0.011038280792740629 -0.46258843223684681 0 -0.02289260566061898 -0.45897742689034388 0 -0.023377266149459251 -0.47252824145371342 0 -0.02439234541253921 -0.43490569650885758 0 -0.01027783979290609 -0.4450418277695869 0 -0.029356635895327849 -0.44930438287917762 0 -0.01027783979290609 -0.4450418277695869 0 -0.02289260566061898 -0.45897742689034388 0 -0.029356635895327849 -0.44930438287917762 0 -0.0023310323066341181 -0.5 0 -0.0043793089323552817 -0.49170101865338262 0 -0.02815109917196898 -0.49861636840837392 0 -0.0043793089323552817 -0.49170101865338262 0 -0.0043176495648967151 -0.48070428616945038 0 0.0053352152350804568 -0.4807791696356124 0 -0.0043793089323552817 -0.49170101865338262 0 -0.0106231170010091 -0.48419136288379427 0 -0.0043176495648967151 -0.48070428616945038 0 -0.0043793089323552817 -0.49170101865338262 0 -0.0106231170010091 -0.48419136288379427 0 -0.017950876149337221 -0.4893641285520216 0 -0.0106231170010091 -0.48419136288379427 0 -0.01097195895358667 -0.47572183295229409 0 -0.019957514846631629 -0.48311391022826639 0 -0.0106231170010091 -0.48419136288379427 0 -0.0043176495648967151 -0.48070428616945038 0 -0.01097195895358667 -0.47572183295229409 0 -0.011038280792740629 -0.46258843223684681 0 -0.00094907817261298132 -0.47112804672216879 0 -0.01097195895358667 -0.47572183295229409 0 -0.0043176495648967151 -0.48070428616945038 0 -0.00094907817261298132 -0.47112804672216879 0 -0.01097195895358667 -0.47572183295229409 0 -0.011038280792740629 -0.46258843223684681 0 -0.01097195895358667 -0.47572183295229409 0 -0.023377266149459251 -0.47252824145371342 0 -0.023377266149459251 -0.47252824145371342 0 -0.019957514846631629 -0.48311391022826639 0 -0.031224396082004221 -0.48569504683202769 0 -0.01097195895358667 -0.47572183295229409 0 -0.023377266149459251 -0.47252824145371342 0 -0.019957514846631629 -0.48311391022826639 0 -0.0023310323066341181 -0.5 0 -0.02815109917196898 -0.49861636840837392 0 -0.031360818006208928 -0.5 0 -0.0043793089323552817 -0.49170101865338262 0 -0.017950876149337221 -0.4893641285520216 0 -0.02815109917196898 -0.49861636840837392 0 -0.0043793089323552817 -0.49170101865338262 0 -0.02815109917196898 -0.49861636840837392 0 -0.0106231170010091 -0.48419136288379427 0 -0.019957514846631629 -0.48311391022826639 0 -0.017950876149337221 -0.4893641285520216 0 -0.019957514846631629 -0.48311391022826639 0 -0.017950876149337221 -0.4893641285520216 0 -0.025597474744393309 -0.49118284869574791 0 -0.019957514846631629 -0.48311391022826639 0 -0.031224396082004221 -0.48569504683202769 0 -0.025597474744393309 -0.49118284869574791 0 -0.025597474744393309 -0.49118284869574791 0 -0.02815109917196898 -0.49861636840837392 0 -0.031360818006208928 -0.5 0 -0.031224396082004221 -0.48569504683202769 0 -0.025597474744393309 -0.49118284869574791 0 -0.031360818006208928 -0.5 0 -0.017950876149337221 -0.4893641285520216 0 -0.025597474744393309 -0.49118284869574791 0 -0.02815109917196898 -0.49861636840837392 0 -0.031360818006208928 -0.5 0 -0.048343055904351132 -0.4819359294639956 0 -0.060390603705783863 -0.5 0 -0.031224396082004221 -0.48569504683202769 0 -0.031360818006208928 -0.5 0 -0.048343055904351132 -0.4819359294639956 0 -0.031224396082004221 -0.48569504683202769 0 -0.040413005672661102 -0.46542425011239508 0 -0.031224396082004221 -0.48569504683202769 0 -0.048343055904351132 -0.4819359294639956 0 -0.040413005672661102 -0.46542425011239508 0 -0.023377266149459251 -0.47252824145371342 0 -0.031224396082004221 -0.48569504683202769 0 -0.040413005672661102 -0.46542425011239508 0 -0.048343055904351132 -0.4819359294639956 0 -0.040413005672661102 -0.46542425011239508 0 -0.061868527913120197 -0.46303160055449383 0 -0.048343055904351132 -0.4819359294639956 0 -0.061868527913120197 -0.46303160055449383 0 -0.067715258758524743 -0.48343239441089819 0 -0.048343055904351132 -0.4819359294639956 0 -0.060390603705783863 -0.5 0 -0.067715258758524743 -0.48343239441089819 0 -0.02439234541253921 -0.43490569650885758 0 -0.029356635895327849 -0.44930438287917762 0 -0.049601615263317987 -0.44515345339276252 0 -0.029356635895327849 -0.44930438287917762 0 -0.040413005672661102 -0.46542425011239508 0 -0.049601615263317987 -0.44515345339276252 0 -0.040413005672661102 -0.46542425011239508 0 -0.049601615263317987 -0.44515345339276252 0 -0.040413005672661102 -0.46542425011239508 0 -0.061868527913120197 -0.46303160055449383 0 -0.049601615263317987 -0.44515345339276252 0 -0.061868527913120197 -0.46303160055449383 0 -0.049601615263317987 -0.44515345339276252 0 -0.057674512383022389 -0.42734400629007657 0 -0.049601615263317987 -0.44515345339276252 0 -0.067687044322660692 -0.44438888407200389 0 -0.061868527913120197 -0.46303160055449383 0 -0.049601615263317987 -0.44515345339276252 0 -0.067687044322660692 -0.44438888407200389 0 -0.067687044322660692 -0.44438888407200389 0 -0.087522951364224152 -0.44416074083195012 0 -0.076635180433477057 -0.42684765000967062 0 -0.067687044322660692 -0.44438888407200389 0 -0.078553716864009776 -0.47219444203600192 0 -0.067687044322660692 -0.44438888407200389 0 -0.080483752515153384 -0.45444307226959779 0 -0.078553716864009776 -0.47219444203600192 0 -0.061868527913120197 -0.46303160055449383 0 -0.067687044322660692 -0.44438888407200389 0 -0.078553716864009776 -0.47219444203600192 0 -0.088171297509719124 -0.45702822213843508 0 -0.078553716864009776 -0.47219444203600192 0 -0.094850460920166413 -0.46755552228499719 0 -0.080483752515153384 -0.45444307226959779 0 -0.088171297509719124 -0.45702822213843508 0 -0.078553716864009776 -0.47219444203600192 0 -0.088171297509719124 -0.45702822213843508 0 -0.092026296169145899 -0.451321693988255 0 -0.09646742034415963 -0.45806785732742278 0 -0.088171297509719124 -0.45702822213843508 0 -0.09646742034415963 -0.45806785732742278 0 -0.094850460920166413 -0.46755552228499719 0 -0.067687044322660692 -0.44438888407200389 0 -0.080483752515153384 -0.45444307226959779 0 -0.087522951364224152 -0.44416074083195012 0 -0.088171297509719124 -0.45702822213843508 0 -0.087522951364224152 -0.44416074083195012 0 -0.088171297509719124 -0.45702822213843508 0 -0.092026296169145899 -0.451321693988255 0 -0.087522951364224152 -0.44416074083195012 0 -0.092026296169145899 -0.451321693988255 0 -0.087522951364224152 -0.44416074083195012 0 -0.080483752515153384 -0.45444307226959779 0 -0.088171297509719124 -0.45702822213843508 0 -0.087522951364224152 -0.44416074083195012 0 -0.060390603705783863 -0.5 0 -0.067715258758524743 -0.48343239441089819 0 -0.089420389405358791 -0.49999999999999978 0 -0.061868527913120197 -0.46303160055449383 0 -0.067715258758524743 -0.48343239441089819 0 -0.078553716864009776 -0.47219444203600192 0 -0.078553716864009776 -0.47219444203600192 0 -0.098208235557426499 -0.48290520710575457 0 -0.094850460920166413 -0.46755552228499719 0 -0.067715258758524743 -0.48343239441089819 0 -0.078553716864009776 -0.47219444203600192 0 -0.089420389405358791 -0.49999999999999978 0 -0.078553716864009776 -0.47219444203600192 0 -0.089420389405358791 -0.49999999999999978 0 -0.078553716864009776 -0.47219444203600192 0 -0.089420389405358791 -0.49999999999999978 0 -0.098208235557426499 -0.48290520710575457 0 -0.098208235557426499 -0.48290520710575457 0 -0.1125398430852395 -0.48112820013538338 0 -0.1148616459058424 -0.5 0 -0.089420389405358791 -0.49999999999999978 0 -0.098208235557426499 -0.48290520710575457 0 -0.1148616459058424 -0.5 0 -0.098208235557426499 -0.48290520710575457 0 -0.1051850434628086 -0.47275710198064308 0 -0.1125398430852395 -0.48112820013538338 0 -0.098208235557426499 -0.48290520710575457 0 -0.1051850434628086 -0.47275710198064308 0 -0.094850460920166413 -0.46755552228499719 0 -0.12704973474613379 -0.46277216333596533 0 -0.13010403334985379 -0.48000251283874379 0 -0.1157083509407465 -0.46985326695645979 0 -0.13010403334985379 -0.48000251283874379 0 -0.1157083509407465 -0.46985326695645979 0 -0.1125398430852395 -0.48112820013538338 0 -0.1051850434628086 -0.47275710198064308 0 -0.1157083509407465 -0.46985326695645979 0 -0.1125398430852395 -0.48112820013538338 0 -0.13010403334985379 -0.48000251283874379 0 -0.1125398430852395 -0.48112820013538338 0 -0.1148616459058424 -0.5 0 -0.10267072031130239 -0.4520905348048061 0 -0.102335674083258 -0.43919792399196639 0 -0.11570487117906469 -0.45324354028800051 0 -0.092026296169145899 -0.451321693988255 0 -0.087522951364224152 -0.44416074083195012 0 -0.102335674083258 -0.43919792399196639 0 -0.092026296169145899 -0.451321693988255 0 -0.10267072031130239 -0.4520905348048061 0 -0.102335674083258 -0.43919792399196639 0 -0.10267072031130239 -0.4520905348048061 0 -0.09646742034415963 -0.45806785732742278 0 -0.1046183268104643 -0.46234331342062063 0 -0.092026296169145899 -0.451321693988255 0 -0.10267072031130239 -0.4520905348048061 0 -0.09646742034415963 -0.45806785732742278 0 -0.1051850434628086 -0.47275710198064308 0 -0.094850460920166413 -0.46755552228499719 0 -0.1046183268104643 -0.46234331342062063 0 -0.09646742034415963 -0.45806785732742278 0 -0.094850460920166413 -0.46755552228499719 0 -0.1046183268104643 -0.46234331342062063 0 -0.1051850434628086 -0.47275710198064308 0 -0.1157083509407465 -0.46985326695645979 0 -0.1046183268104643 -0.46234331342062063 0 -0.10267072031130239 -0.4520905348048061 0 -0.1046183268104643 -0.46234331342062063 0 -0.11570487117906469 -0.45324354028800051 0 -0.12704973474613379 -0.46277216333596533 0 -0.1157083509407465 -0.46985326695645979 0 -0.11570487117906469 -0.45324354028800051 0 -0.1157083509407465 -0.46985326695645979 0 -0.1046183268104643 -0.46234331342062063 0 -0.11570487117906469 -0.45324354028800051 0 -0.13093011984253891 -0.44972195681556543 0 -0.12704973474613379 -0.46277216333596533 0 -0.11570487117906469 -0.45324354028800051 0 -0.13093011984253891 -0.44972195681556543 0 -0.11570487117906469 -0.45324354028800051 0 -0.123519809913229 -0.43733662075251151 0 -0.102335674083258 -0.43919792399196639 0 -0.11570487117906469 -0.45324354028800051 0 -0.123519809913229 -0.43733662075251151 0 -0.102335674083258 -0.43919792399196639 0 -0.123519809913229 -0.43733662075251151 0 -0.1073839645685936 -0.41867419567875119 0 -0.12597911368703019 -0.41952469120143437 0 -0.123519809913229 -0.43733662075251151 0 -0.1073839645685936 -0.41867419567875119 0 -0.102335674083258 -0.43919792399196639 0 -0.1073839645685936 -0.41867419567875119 0 -0.086273448473222103 -0.4193623284343494 0 -0.1073839645685936 -0.41867419567875119 0 -0.1004955064841186 -0.39983262220326049 0 -0.086273448473222103 -0.4193623284343494 0 -0.1073839645685936 -0.41867419567875119 0 -0.11827115974421661 -0.40327967795429231 0 -0.1004955064841186 -0.39983262220326049 0 -0.12597911368703019 -0.41952469120143437 0 -0.1073839645685936 -0.41867419567875119 0 -0.11827115974421661 -0.40327967795429231 0 -0.11827115974421661 -0.40327967795429231 0 -0.11220573075163159 -0.38220411347121069 0 -0.1004955064841186 -0.39983262220326049 0 -0.13724659116883831 -0.38156720383825199 0 -0.1192781490478088 -0.36668410834504778 0 -0.11220573075163159 -0.38220411347121069 0 -0.13724659116883831 -0.38156720383825199 0 -0.11827115974421661 -0.40327967795429231 0 -0.11220573075163159 -0.38220411347121069 0 -0.11220573075163159 -0.38220411347121069 0 -0.093814789784828018 -0.38091150164421111 0 -0.1004955064841186 -0.39983262220326049 0 -0.1016352808315869 -0.36700177770792092 0 -0.11220573075163159 -0.38220411347121069 0 -0.093814789784828018 -0.38091150164421111 0 -0.093814789784828018 -0.38091150164421111 0 -0.1004955064841186 -0.39983262220326049 0 -0.085023945582219762 -0.39456391603674879 0 -0.085023945582219762 -0.39456391603674879 0 -0.074760926096971728 -0.38965003141326948 0 -0.077688182017724178 -0.40799169701628579 0 -0.1004955064841186 -0.39983262220326049 0 -0.085023945582219762 -0.39456391603674879 0 -0.086273448473222103 -0.4193623284343494 0 -0.083774442691217046 -0.36976550363914829 0 -0.093814789784828018 -0.38091150164421111 0 -0.085023945582219762 -0.39456391603674879 0 -0.083774442691217046 -0.36976550363914829 0 -0.085023945582219762 -0.39456391603674879 0 -0.074760926096971728 -0.38965003141326948 0 -0.083774442691217046 -0.36976550363914829 0 -0.085023945582219762 -0.39456391603674879 0 -0.083774442691217046 -0.36976550363914829 0 -0.074760926096971728 -0.38965003141326948 0 -0.066117606829746781 -0.37437488941039382 0 -0.083774442691217046 -0.36976550363914829 0 -0.074760926096971728 -0.38965003141326948 0 -0.066117606829746781 -0.37437488941039382 0 -0.056230819367541693 -0.39440183914975269 0 -0.074760926096971728 -0.38965003141326948 0 -0.074760926096971728 -0.38965003141326948 0 -0.065747409502729032 -0.40953455918739179 0 -0.056230819367541693 -0.39440183914975269 0 -0.074760926096971728 -0.38965003141326948 0 -0.065747409502729032 -0.40953455918739179 0 -0.074760926096971728 -0.38965003141326948 0 -0.077688182017724178 -0.40799169701628579 0 -0.065747409502729032 -0.40953455918739179 0 -0.057674512383022389 -0.42734400629007657 0 -0.065747409502729032 -0.40953455918739179 0 -0.076635180433477057 -0.42684765000967062 0 -0.065747409502729032 -0.40953455918739179 0 -0.076635180433477057 -0.42684765000967062 0 -0.077688182017724178 -0.40799169701628579 0 -0.065747409502729032 -0.40953455918739179 0 -0.076635180433477057 -0.42684765000967062 0 -0.057674512383022389 -0.42734400629007657 0 -0.067687044322660692 -0.44438888407200389 0 -0.076635180433477057 -0.42684765000967062 0 -0.087522951364224152 -0.44416074083195012 0 -0.102335674083258 -0.43919792399196639 0 -0.086273448473222103 -0.4193623284343494 0 -0.087522951364224152 -0.44416074083195012 0 -0.076635180433477057 -0.42684765000967062 0 -0.087522951364224152 -0.44416074083195012 0 -0.086273448473222103 -0.4193623284343494 0 -0.087522951364224152 -0.44416074083195012 0 -0.076635180433477057 -0.42684765000967062 0 -0.086273448473222103 -0.4193623284343494 0 -0.077688182017724178 -0.40799169701628579 0 -0.076635180433477057 -0.42684765000967062 0 -0.086273448473222103 -0.4193623284343494 0 -0.085023945582219762 -0.39456391603674879 0 -0.086273448473222103 -0.4193623284343494 0 -0.085023945582219762 -0.39456391603674879 0 -0.077688182017724178 -0.40799169701628579 0 -0.086273448473222103 -0.4193623284343494 0 -0.088492877882569029 -0.082108210476901852 0 -0.076927128592812144 -0.088910799915979499 0 -0.09750588448509391 -0.094492999713411269 0 -0.088492877882569029 -0.082108210476901852 0 -0.079577064860946206 -0.073577453582062496 0 -0.076927128592812144 -0.088910799915979499 0 -0.079577064860946206 -0.073577453582062496 0 -0.0985919344824224 -0.072778756797164931 0 -0.087769009107716192 -0.046193724725750278 0 -0.088492877882569029 -0.082108210476901852 0 -0.079577064860946206 -0.073577453582062496 0 -0.0985919344824224 -0.072778756797164931 0 -0.079577064860946206 -0.073577453582062496 0 -0.068797467898171552 -0.064113028811232264 0 -0.064240921843242857 -0.078969573753286809 0 -0.068797467898171552 -0.064113028811232264 0 -0.064240921843242857 -0.078969573753286809 0 -0.05461803829180413 -0.069755112608578862 0 -0.064240921843242857 -0.078969573753286809 0 -0.065719917437320752 -0.085301382988547655 0 -0.071622236241637716 -0.082994103557465768 0 -0.079577064860946206 -0.073577453582062496 0 -0.064240921843242857 -0.078969573753286809 0 -0.071622236241637716 -0.082994103557465768 0 -0.079577064860946206 -0.073577453582062496 0 -0.071622236241637716 -0.082994103557465768 0 -0.076927128592812144 -0.088910799915979499 0 -0.076927128592812144 -0.088910799915979499 0 -0.070013937980536456 -0.090181036700446429 0 -0.073360588416105155 -0.101926594449817 0 -0.071622236241637716 -0.082994103557465768 0 -0.076927128592812144 -0.088910799915979499 0 -0.070013937980536456 -0.090181036700446429 0 -0.065719917437320752 -0.085301382988547655 0 -0.070013937980536456 -0.090181036700446429 0 -0.057002573683865979 -0.089060817942991616 0 -0.065719917437320752 -0.085301382988547655 0 -0.071622236241637716 -0.082994103557465768 0 -0.070013937980536456 -0.090181036700446429 0 -0.073360588416105155 -0.101926594449817 0 -0.064648045787775776 -0.1114736180136202 0 -0.083029262804162729 -0.11173362360677321 0 -0.076927128592812144 -0.088910799915979499 0 -0.073360588416105155 -0.101926594449817 0 -0.083029262804162729 -0.11173362360677321 0 -0.070013937980536456 -0.090181036700446429 0 -0.064167586873575405 -0.098824988458513688 0 -0.073360588416105155 -0.101926594449817 0 -0.064167586873575405 -0.098824988458513688 0 -0.073360588416105155 -0.101926594449817 0 -0.064648045787775776 -0.1114736180136202 0 -0.064648045787775776 -0.1114736180136202 0 -0.083029262804162729 -0.11173362360677321 0 -0.072915517223638954 -0.12670463451369329 0 -0.064648045787775776 -0.1114736180136202 0 -0.060928146748241367 -0.123537549367131 0 -0.072915517223638954 -0.12670463451369329 0 -0.083029262804162729 -0.11173362360677321 0 -0.089131397015513494 -0.13455644729756691 0 -0.072915517223638954 -0.12670463451369329 0 -0.083029262804162729 -0.11173362360677321 0 -0.089131397015513494 -0.13455644729756691 0 -0.083029262804162729 -0.11173362360677321 0 -0.099989791654964619 -0.11261170107408 0 -0.089131397015513494 -0.13455644729756691 0 -0.076927128592812144 -0.088910799915979499 0 -0.083029262804162729 -0.11173362360677321 0 -0.076927128592812144 -0.088910799915979499 0 -0.083029262804162729 -0.11173362360677321 0 -0.09750588448509391 -0.094492999713411269 0 -0.083029262804162729 -0.11173362360677321 0 -0.09750588448509391 -0.094492999713411269 0 -0.099989791654964619 -0.11261170107408 0 -0.09750588448509391 -0.094492999713411269 0 -0.099989791654964619 -0.11261170107408 0 -0.11605893441195141 -0.10185107539240761 0 -0.099989791654964619 -0.11261170107408 0 -0.11422347955810171 -0.1204243593602408 0 -0.089131397015513494 -0.13455644729756691 0 -0.11422347955810171 -0.1204243593602408 0 -0.11605893441195141 -0.10185107539240761 0 -0.13931556210068971 -0.10629227142291391 0 -0.099989791654964619 -0.11261170107408 0 -0.11422347955810171 -0.1204243593602408 0 -0.11605893441195141 -0.10185107539240761 0 -0.09750588448509391 -0.094492999713411269 0 -0.11605893441195141 -0.10185107539240761 0 -0.121811479392537 -0.084095963505499416 0 -0.09750588448509391 -0.094492999713411269 0 -0.121811479392537 -0.084095963505499416 0 -0.0985919344824224 -0.072778756797164931 0 -0.088492877882569029 -0.082108210476901852 0 -0.09750588448509391 -0.094492999713411269 0 -0.0985919344824224 -0.072778756797164931 0 -0.121811479392537 -0.084095963505499416 0 -0.0985919344824224 -0.072778756797164931 0 -0.12197003300458489 -0.067133964797042034 0 -0.0985919344824224 -0.072778756797164931 0 -0.12197003300458489 -0.067133964797042034 0 -0.11173313641422659 -0.051099137712197359 0 -0.12197003300458489 -0.067133964797042034 0 -0.11173313641422659 -0.051099137712197359 0 -0.13241258759658719 -0.044529255409706578 0 -0.11719553878173181 -0.037741673539740471 0 -0.12411398995058071 -0.026208981462584841 0 -0.13241258759658719 -0.044529255409706578 0 -0.11173313641422659 -0.051099137712197359 0 -0.11719553878173181 -0.037741673539740471 0 -0.13241258759658719 -0.044529255409706578 0 -0.11719553878173181 -0.037741673539740471 0 -0.1033935341420949 -0.036608907929656417 0 -0.1118019010511415 -0.027957019938586129 0 -0.11173313641422659 -0.051099137712197359 0 -0.11719553878173181 -0.037741673539740471 0 -0.1033935341420949 -0.036608907929656417 0 -0.11173313641422659 -0.051099137712197359 0 -0.1033935341420949 -0.036608907929656417 0 -0.087769009107716192 -0.046193724725750278 0 -0.1033935341420949 -0.036608907929656417 0 -0.091700817231413184 -0.028161456197506499 0 -0.087769009107716192 -0.046193724725750278 0 -0.0985919344824224 -0.072778756797164931 0 -0.11173313641422659 -0.051099137712197359 0 -0.087769009107716192 -0.046193724725750278 0 -0.1152652699767374 -0.0044733142422073097 0 -0.1278640484455188 -0.012334690821253821 0 -0.1273771369441013 0.0023450629401116992 0 -0.1152652699767374 -0.0044733142422073097 0 -0.11303603589243651 -0.016818202060669259 0 -0.1278640484455188 -0.012334690821253821 0 -0.1152652699767374 -0.0044733142422073097 0 -0.11303603589243651 -0.016818202060669259 0 -0.1012139958851531 -0.0082010901258140791 0 -0.11303603589243651 -0.016818202060669259 0 -0.12411398995058071 -0.026208981462584841 0 -0.1278640484455188 -0.012334690821253821 0 -0.11719553878173181 -0.037741673539740471 0 -0.12411398995058071 -0.026208981462584841 0 -0.1118019010511415 -0.027957019938586129 0 -0.11303603589243651 -0.016818202060669259 0 -0.12411398995058071 -0.026208981462584841 0 -0.1118019010511415 -0.027957019938586129 0 -0.1033935341420949 -0.036608907929656417 0 -0.1118019010511415 -0.027957019938586129 0 -0.10074487633177411 -0.021927112774035699 0 -0.1033935341420949 -0.036608907929656417 0 -0.10074487633177411 -0.021927112774035699 0 -0.091700817231413184 -0.028161456197506499 0 -0.10074487633177411 -0.021927112774035699 0 -0.089359217900845153 -0.01537750648633354 0 -0.091700817231413184 -0.028161456197506499 0 -0.11303603589243651 -0.016818202060669259 0 -0.10074487633177411 -0.021927112774035699 0 -0.1012139958851531 -0.0082010901258140791 0 -0.11303603589243651 -0.016818202060669259 0 -0.1118019010511415 -0.027957019938586129 0 -0.10074487633177411 -0.021927112774035699 0 -0.10074487633177411 -0.021927112774035699 0 -0.1012139958851531 -0.0082010901258140791 0 -0.089359217900845153 -0.01537750648633354 0 -0.1012139958851531 -0.0082010901258140791 0 -0.089124004628701792 -0.0040277377021705899 0 -0.097507665945787692 0.0040820149966005574 0 -0.1012139958851531 -0.0082010901258140791 0 -0.097507665945787692 0.0040820149966005574 0 -0.1058521268010089 0.00073384547527136773 0 -0.1152652699767374 -0.0044733142422073097 0 -0.1012139958851531 -0.0082010901258140791 0 -0.1058521268010089 0.00073384547527136773 0 -0.079764572027605563 -0.001208843295517239 0 -0.089124004628701792 -0.0040277377021705899 0 -0.080379206648835008 -0.009775819102595687 0 -0.089124004628701792 -0.0040277377021705899 0 -0.089359217900845153 -0.01537750648633354 0 -0.080379206648835008 -0.009775819102595687 0 -0.1012139958851531 -0.0082010901258140791 0 -0.089124004628701792 -0.0040277377021705899 0 -0.089359217900845153 -0.01537750648633354 0 -0.089359217900845153 -0.01537750648633354 0 -0.080379206648835008 -0.009775819102595687 0 -0.076946083733010012 -0.019608692654335649 0 -0.089359217900845153 -0.01537750648633354 0 -0.091700817231413184 -0.028161456197506499 0 -0.076946083733010012 -0.019608692654335649 0 -0.066439508831189667 -0.02875513821822643 0 -0.076946083733010012 -0.019608692654335649 0 -0.073396792324475907 -0.036549185213838799 0 -0.066439508831189667 -0.02875513821822643 0 -0.068530762808199294 -0.019938962024248611 0 -0.056338296441182101 -0.027044179732367449 0 -0.066439508831189667 -0.02875513821822643 0 -0.068530762808199294 -0.019938962024248611 0 -0.076946083733010012 -0.019608692654335649 0 -0.080379206648835008 -0.009775819102595687 0 -0.076946083733010012 -0.019608692654335649 0 -0.066123158358303874 0.0069763394170788487 0 -0.079764572027605563 -0.001208843295517239 0 -0.080379206648835008 -0.009775819102595687 0 -0.066123158358303874 0.0069763394170788487 0 -0.076946083733010012 -0.019608692654335649 0 -0.059664616745900671 -0.0040500510012267867 0 -0.066123158358303874 0.0069763394170788487 0 -0.068530762808199294 -0.019938962024248611 0 -0.059664616745900671 -0.0040500510012267867 0 -0.068530762808199294 -0.019938962024248611 0 -0.076946083733010012 -0.019608692654335649 0 -0.059664616745900671 -0.0040500510012267867 0 -0.076946083733010012 -0.019608692654335649 0 -0.066123158358303874 0.0069763394170788487 0 -0.079577064860946206 -0.073577453582062496 0 -0.068797467898171552 -0.064113028811232264 0 -0.087769009107716192 -0.046193724725750278 0 -0.0985919344824224 -0.072778756797164931 0 -0.087769009107716192 -0.046193724725750278 0 -0.076946083733010012 -0.019608692654335649 0 -0.087769009107716192 -0.046193724725750278 0 -0.073396792324475907 -0.036549185213838799 0 -0.091700817231413184 -0.028161456197506499 0 -0.076946083733010012 -0.019608692654335649 0 -0.087769009107716192 -0.046193724725750278 0 -0.076946083733010012 -0.019608692654335649 0 -0.087769009107716192 -0.046193724725750278 0 -0.073396792324475907 -0.036549185213838799 0 -0.062271996897588083 -0.052791321925605532 0 -0.056985608849081007 -0.04063467146634165 0 -0.087769009107716192 -0.046193724725750278 0 -0.073396792324475907 -0.036549185213838799 0 -0.062271996897588083 -0.052791321925605532 0 -0.066439508831189667 -0.02875513821822643 0 -0.073396792324475907 -0.036549185213838799 0 -0.056985608849081007 -0.04063467146634165 0 -0.068797467898171552 -0.064113028811232264 0 -0.087769009107716192 -0.046193724725750278 0 -0.062271996897588083 -0.052791321925605532 0 -0.050876123791686781 -0.0557005837010279 0 -0.062271996897588083 -0.052791321925605532 0 -0.05461803829180413 -0.069755112608578862 0 -0.068797467898171552 -0.064113028811232264 0 -0.062271996897588083 -0.052791321925605532 0 -0.05461803829180413 -0.069755112608578862 0 -0.050876123791686781 -0.0557005837010279 0 -0.04125611079489349 -0.061033813963863537 0 -0.05461803829180413 -0.069755112608578862 0 -0.050876123791686781 -0.0557005837010279 0 -0.056985608849081007 -0.04063467146634165 0 -0.043217803893324663 -0.046983348469378128 0 -0.050876123791686781 -0.0557005837010279 0 -0.062271996897588083 -0.052791321925605532 0 -0.056985608849081007 -0.04063467146634165 0 -0.066439508831189667 -0.02875513821822643 0 -0.056985608849081007 -0.04063467146634165 0 -0.056338296441182101 -0.027044179732367449 0 -0.056985608849081007 -0.04063467146634165 0 -0.048013312662868769 -0.034084565957593307 0 -0.056338296441182101 -0.027044179732367449 0 -0.056985608849081007 -0.04063467146634165 0 -0.048013312662868769 -0.034084565957593307 0 -0.043217803893324663 -0.046983348469378128 0 -0.034747022969916552 -0.036023397885302497 0 -0.03178279228815796 -0.053256275703554248 0 -0.043217803893324663 -0.046983348469378128 0 -0.048013312662868769 -0.034084565957593307 0 -0.034747022969916552 -0.036023397885302497 0 -0.043217803893324663 -0.046983348469378128 0 -0.03178279228815796 -0.053256275703554248 0 -0.04125611079489349 -0.061033813963863537 0 -0.027189616291661511 -0.068956488044421491 0 -0.03178279228815796 -0.053256275703554248 0 -0.04125611079489349 -0.061033813963863537 0 -0.043217803893324663 -0.046983348469378128 0 -0.050876123791686781 -0.0557005837010279 0 -0.04125611079489349 -0.061033813963863537 0 -0.043217803893324663 -0.046983348469378128 0 -0.068530762808199294 -0.019938962024248611 0 -0.059664616745900671 -0.0040500510012267867 0 -0.057625718948113309 -0.01560592069947127 0 -0.047617207273071643 -0.0035118018543059538 0 -0.059664616745900671 -0.0040500510012267867 0 -0.057625718948113309 -0.01560592069947127 0 -0.047617207273071643 -0.0035118018543059538 0 -0.057625718948113309 -0.01560592069947127 0 -0.044435943862541481 -0.018862463730406901 0 -0.057625718948113309 -0.01560592069947127 0 -0.056338296441182101 -0.027044179732367449 0 -0.044435943862541481 -0.018862463730406901 0 -0.068530762808199294 -0.019938962024248611 0 -0.057625718948113309 -0.01560592069947127 0 -0.056338296441182101 -0.027044179732367449 0 -0.048013312662868769 -0.034084565957593307 0 -0.056338296441182101 -0.027044179732367449 0 -0.044435943862541481 -0.018862463730406901 0 -0.048013312662868769 -0.034084565957593307 0 -0.034747022969916552 -0.036023397885302497 0 -0.044435943862541481 -0.018862463730406901 0 -0.034747022969916552 -0.036023397885302497 0 -0.044435943862541481 -0.018862463730406901 0 -0.029096019340949839 -0.020089153358083849 0 -0.044435943862541481 -0.018862463730406901 0 -0.037331614038931003 -0.0090830911405071785 0 -0.029096019340949839 -0.020089153358083849 0 -0.047617207273071643 -0.0035118018543059538 0 -0.044435943862541481 -0.018862463730406901 0 -0.037331614038931003 -0.0090830911405071785 0 -0.047617207273071643 -0.0035118018543059538 0 -0.044435943862541481 -0.018862463730406901 0 -0.037331614038931003 -0.0090830911405071785 0 -0.025670282478897081 -0.0054027298625421993 0 -0.03671052455766443 0.0037031618858211421 0 -0.047617207273071643 -0.0035118018543059538 0 -0.037331614038931003 -0.0090830911405071785 0 -0.03671052455766443 0.0037031618858211421 0 -0.025670282478897081 -0.0054027298625421993 0 -0.029096019340949839 -0.020089153358083849 0 -0.01201491237982177 -0.012697106039732861 0 -0.025670282478897081 -0.0054027298625421993 0 -0.01201491237982177 -0.012697106039732861 0 -0.010105069976996849 0.0023765649732562961 0 -0.037331614038931003 -0.0090830911405071785 0 -0.025670282478897081 -0.0054027298625421993 0 -0.029096019340949839 -0.020089153358083849 0 -0.034747022969916552 -0.036023397885302497 0 -0.029096019340949839 -0.020089153358083849 0 -0.01621539074153976 -0.030149579770640821 0 -0.029096019340949839 -0.020089153358083849 0 -0.01621539074153976 -0.030149579770640821 0 -0.01201491237982177 -0.012697106039732861 0 -0.01621539074153976 -0.030149579770640821 0 0.0026421611525163911 -0.019923693291100199 0 0.001114662024295677 -0.034644724797188199 0 -0.01621539074153976 -0.030149579770640821 0 -0.01201491237982177 -0.012697106039732861 0 0.0026421611525163911 -0.019923693291100199 0 -0.01201491237982177 -0.012697106039732861 0 0.0047038114401232534 -0.001040937293712483 0 0.0026421611525163911 -0.019923693291100199 0 -0.01201491237982177 -0.012697106039732861 0 -0.010105069976996849 0.0023765649732562961 0 0.0047038114401232534 -0.001040937293712483 0 -0.03178279228815796 -0.053256275703554248 0 -0.015718878272565229 -0.058792224196781109 0 -0.02130541942185268 -0.044498810144407437 0 -0.03178279228815796 -0.053256275703554248 0 -0.015718878272565229 -0.058792224196781109 0 -0.027189616291661511 -0.068956488044421491 0 -0.034747022969916552 -0.036023397885302497 0 -0.01621539074153976 -0.030149579770640821 0 -0.02130541942185268 -0.044498810144407437 0 -0.034747022969916552 -0.036023397885302497 0 -0.03178279228815796 -0.053256275703554248 0 -0.02130541942185268 -0.044498810144407437 0 -0.01621539074153976 -0.030149579770640821 0 -0.0092606153764647689 -0.044492254616565037 0 0.001114662024295677 -0.034644724797188199 0 -0.0092606153764647689 -0.044492254616565037 0 0.001114662024295677 -0.034644724797188199 0 0.003426744450576454 -0.054815297075420773 0 -0.01621539074153976 -0.030149579770640821 0 -0.02130541942185268 -0.044498810144407437 0 -0.0092606153764647689 -0.044492254616565037 0 -0.015718878272565229 -0.058792224196781109 0 -0.0092606153764647689 -0.044492254616565037 0 0.003426744450576454 -0.054815297075420773 0 -0.015718878272565229 -0.058792224196781109 0 -0.0072319765520409062 -0.068818796064575097 0 0.003426744450576454 -0.054815297075420773 0 -0.015718878272565229 -0.058792224196781109 0 -0.02130541942185268 -0.044498810144407437 0 -0.0092606153764647689 -0.044492254616565037 0 -0.0072319765520409062 -0.068818796064575097 0 -0.0056293594721457006 -0.082036805430144924 0 0.0054575408194632406 -0.073720759659108445 0 -0.0072319765520409062 -0.068818796064575097 0 -0.016531268938654212 -0.068489504758274394 0 -0.015984604638349179 -0.077390510727319894 0 -0.0072319765520409062 -0.068818796064575097 0 -0.0056293594721457006 -0.082036805430144924 0 -0.015984604638349179 -0.077390510727319894 0 -0.015718878272565229 -0.058792224196781109 0 -0.0072319765520409062 -0.068818796064575097 0 -0.016531268938654212 -0.068489504758274394 0 -0.0075898384642912086 -0.092772169897659226 0 -0.0056293594721457006 -0.082036805430144924 0 0.0072012692200917657 -0.09144049599341271 0 -0.0056293594721457006 -0.082036805430144924 0 -0.01562854721774792 -0.088078100238794171 0 -0.015984604638349179 -0.077390510727319894 0 -0.0075898384642912086 -0.092772169897659226 0 -0.0056293594721457006 -0.082036805430144924 0 -0.01562854721774792 -0.088078100238794171 0 -0.0075898384642912086 -0.092772169897659226 0 -0.01562854721774792 -0.088078100238794171 0 -0.015839401072447711 -0.097831294581907868 0 -0.01562854721774792 -0.088078100238794171 0 -0.02305577581672685 -0.083163458542690943 0 -0.024670005891415589 -0.092262667611894875 0 -0.01562854721774792 -0.088078100238794171 0 -0.024670005891415589 -0.092262667611894875 0 -0.015839401072447711 -0.097831294581907868 0 -0.01562854721774792 -0.088078100238794171 0 -0.02305577581672685 -0.083163458542690943 0 -0.015984604638349179 -0.077390510727319894 0 -0.02305577581672685 -0.083163458542690943 0 -0.024670005891415589 -0.092262667611894875 0 -0.031754510724464793 -0.081253108138323094 0 -0.024670005891415589 -0.092262667611894875 0 -0.031754510724464793 -0.081253108138323094 0 -0.03344051123233422 -0.092098432850847969 0 -0.015718878272565229 -0.058792224196781109 0 -0.016531268938654212 -0.068489504758274394 0 -0.027189616291661511 -0.068956488044421491 0 -0.016531268938654212 -0.068489504758274394 0 -0.015984604638349179 -0.077390510727319894 0 -0.027189616291661511 -0.068956488044421491 0 -0.02305577581672685 -0.083163458542690943 0 -0.015984604638349179 -0.077390510727319894 0 -0.027189616291661511 -0.068956488044421491 0 -0.02305577581672685 -0.083163458542690943 0 -0.027189616291661511 -0.068956488044421491 0 -0.031754510724464793 -0.081253108138323094 0 -0.04125611079489349 -0.061033813963863537 0 -0.027189616291661511 -0.068956488044421491 0 -0.04053175759116228 -0.071452392996033218 0 -0.04125611079489349 -0.061033813963863537 0 -0.04053175759116228 -0.071452392996033218 0 -0.05461803829180413 -0.069755112608578862 0 -0.04053175759116228 -0.071452392996033218 0 -0.04331800788480706 -0.080321541169751709 0 -0.05461803829180413 -0.069755112608578862 0 -0.027189616291661511 -0.068956488044421491 0 -0.04053175759116228 -0.071452392996033218 0 -0.031754510724464793 -0.081253108138323094 0 -0.04053175759116228 -0.071452392996033218 0 -0.031754510724464793 -0.081253108138323094 0 -0.04331800788480706 -0.080321541169751709 0 -0.031754510724464793 -0.081253108138323094 0 -0.037920360895102763 -0.086728863392239786 0 -0.04331800788480706 -0.080321541169751709 0 -0.031754510724464793 -0.081253108138323094 0 -0.03344051123233422 -0.092098432850847969 0 -0.037920360895102763 -0.086728863392239786 0 -0.03344051123233422 -0.092098432850847969 0 -0.037920360895102763 -0.086728863392239786 0 -0.039477100495342581 -0.093081883261144749 0 -0.043535591074226332 -0.088659540190963698 0 -0.052607434978589038 -0.084605160310905272 0 -0.044151246104392423 -0.095288874830203096 0 -0.039477100495342581 -0.093081883261144749 0 -0.043535591074226332 -0.088659540190963698 0 -0.044151246104392423 -0.095288874830203096 0 -0.037920360895102763 -0.086728863392239786 0 -0.039477100495342581 -0.093081883261144749 0 -0.043535591074226332 -0.088659540190963698 0 -0.043535591074226332 -0.088659540190963698 0 -0.044151246104392423 -0.095288874830203096 0 -0.037920360895102763 -0.086728863392239786 0 -0.043535591074226332 -0.088659540190963698 0 -0.04331800788480706 -0.080321541169751709 0 -0.043535591074226332 -0.088659540190963698 0 -0.04331800788480706 -0.080321541169751709 0 -0.052607434978589038 -0.084605160310905272 0 -0.04331800788480706 -0.080321541169751709 0 -0.052607434978589038 -0.084605160310905272 0 -0.05461803829180413 -0.069755112608578862 0 -0.070013937980536456 -0.090181036700446429 0 -0.057002573683865979 -0.089060817942991616 0 -0.04460455598339258 -0.10017008709341529 0 -0.052607434978589038 -0.084605160310905272 0 -0.044151246104392423 -0.095288874830203096 0 -0.052607434978589038 -0.084605160310905272 0 -0.057002573683865979 -0.089060817942991616 0 -0.044151246104392423 -0.095288874830203096 0 -0.064240921843242857 -0.078969573753286809 0 -0.065719917437320752 -0.085301382988547655 0 -0.057002573683865979 -0.089060817942991616 0 -0.064240921843242857 -0.078969573753286809 0 -0.052607434978589038 -0.084605160310905272 0 -0.057002573683865979 -0.089060817942991616 0 -0.064240921843242857 -0.078969573753286809 0 -0.052607434978589038 -0.084605160310905272 0 -0.05461803829180413 -0.069755112608578862 0 -0.064648045787775776 -0.1114736180136202 0 -0.054889055151619223 -0.1064960745062641 0 -0.046573596299020338 -0.1213725893565638 0 -0.064648045787775776 -0.1114736180136202 0 -0.060928146748241367 -0.123537549367131 0 -0.046573596299020338 -0.1213725893565638 0 -0.064167586873575405 -0.098824988458513688 0 -0.054889055151619223 -0.1064960745062641 0 -0.04460455598339258 -0.10017008709341529 0 -0.054889055151619223 -0.1064960745062641 0 -0.04460455598339258 -0.10017008709341529 0 -0.046573596299020338 -0.1213725893565638 0 -0.070013937980536456 -0.090181036700446429 0 -0.04460455598339258 -0.10017008709341529 0 -0.070013937980536456 -0.090181036700446429 0 -0.064167586873575405 -0.098824988458513688 0 -0.04460455598339258 -0.10017008709341529 0 -0.064167586873575405 -0.098824988458513688 0 -0.064648045787775776 -0.1114736180136202 0 -0.054889055151619223 -0.1064960745062641 0 -0.057002573683865979 -0.089060817942991616 0 -0.044151246104392423 -0.095288874830203096 0 -0.04460455598339258 -0.10017008709341529 0 -0.04460455598339258 -0.10017008709341529 0 -0.038337793170655582 -0.1026337050414691 0 -0.046573596299020338 -0.1213725893565638 0 -0.039477100495342581 -0.093081883261144749 0 -0.044151246104392423 -0.095288874830203096 0 -0.038337793170655582 -0.1026337050414691 0 -0.044151246104392423 -0.095288874830203096 0 -0.04460455598339258 -0.10017008709341529 0 -0.044151246104392423 -0.095288874830203096 0 -0.038337793170655582 -0.1026337050414691 0 -0.04460455598339258 -0.10017008709341529 0 -0.038337793170655582 -0.1026337050414691 0 -0.044151246104392423 -0.095288874830203096 0 -0.04460455598339258 -0.10017008709341529 0 -0.038337793170655582 -0.1026337050414691 0 -0.03344051123233422 -0.092098432850847969 0 -0.039477100495342581 -0.093081883261144749 0 -0.038337793170655582 -0.1026337050414691 0 -0.03344051123233422 -0.092098432850847969 0 -0.038337793170655582 -0.1026337050414691 0 -0.030143021990877521 -0.097413384547063803 0 -0.038337793170655582 -0.1026337050414691 0 -0.046573596299020338 -0.1213725893565638 0 -0.032898799107638058 -0.1301455039054305 0 -0.04460455598339258 -0.10017008709341529 0 -0.046573596299020338 -0.1213725893565638 0 -0.038337793170655582 -0.1026337050414691 0 -0.02075820173733281 -0.1248441049076035 0 -0.038337793170655582 -0.1026337050414691 0 -0.02075820173733281 -0.1248441049076035 0 -0.032898799107638058 -0.1301455039054305 0 -0.038337793170655582 -0.1026337050414691 0 -0.02075820173733281 -0.1248441049076035 0 -0.013304609286582791 -0.1124748627422944 0 -0.038337793170655582 -0.1026337050414691 0 -0.013304609286582791 -0.1124748627422944 0 -0.038337793170655582 -0.1026337050414691 0 -0.024123777669104458 -0.10265873268404301 0 -0.013304609286582791 -0.1124748627422944 0 -0.038337793170655582 -0.1026337050414691 0 -0.030143021990877521 -0.097413384547063803 0 -0.024123777669104458 -0.10265873268404301 0 -0.024670005891415589 -0.092262667611894875 0 -0.030143021990877521 -0.097413384547063803 0 -0.024123777669104458 -0.10265873268404301 0 -0.024670005891415589 -0.092262667611894875 0 -0.03344051123233422 -0.092098432850847969 0 -0.030143021990877521 -0.097413384547063803 0 -0.024123777669104458 -0.10265873268404301 0 -0.015994782990863529 -0.1079378035875192 0 -0.013304609286582791 -0.1124748627422944 0 -0.024123777669104458 -0.10265873268404301 0 -0.015994782990863529 -0.1079378035875192 0 -0.015839401072447711 -0.097831294581907868 0 -0.024670005891415589 -0.092262667611894875 0 -0.024123777669104458 -0.10265873268404301 0 -0.015839401072447711 -0.097831294581907868 0 -0.0070294542012635762 -0.10327829347153671 0 -0.013304609286582791 -0.1124748627422944 0 0.0046245275045138064 -0.1076828264142336 0 -0.0075898384642912086 -0.092772169897659226 0 -0.015839401072447711 -0.097831294581907868 0 -0.0070294542012635762 -0.10327829347153671 0 -0.015994782990863529 -0.1079378035875192 0 -0.015839401072447711 -0.097831294581907868 0 -0.0070294542012635762 -0.10327829347153671 0 -0.015994782990863529 -0.1079378035875192 0 -0.0070294542012635762 -0.10327829347153671 0 -0.013304609286582791 -0.1124748627422944 0 -0.0075898384642912086 -0.092772169897659226 0 -0.0070294542012635762 -0.10327829347153671 0 0.0072012692200917657 -0.09144049599341271 0 -0.02075820173733281 -0.1248441049076035 0 -0.013304609286582791 -0.1124748627422944 0 -0.00221818493688669 -0.13117245205018849 0 -0.013304609286582791 -0.1124748627422944 0 -0.00221818493688669 -0.13117245205018849 0 0.014197789575412951 -0.12328672932727321 0 -0.013304609286582791 -0.1124748627422944 0 -0.00221818493688669 -0.13117245205018849 0 -0.015994782990863529 -0.1079378035875192 0 -0.013304609286582791 -0.1124748627422944 0 -0.02075820173733281 -0.1248441049076035 0 -0.0137133242766358 -0.14598078836242959 0 -0.0031786103040098569 -0.14705450477373769 0 -0.02075820173733281 -0.1248441049076035 0 -0.0031786103040098569 -0.14705450477373769 0 -0.02075820173733281 -0.1248441049076035 0 -0.00221818493688669 -0.13117245205018849 0 -0.0031786103040098569 -0.14705450477373769 0 -0.02075820173733281 -0.1248441049076035 0 -0.02657462786173766 -0.13400490724319661 0 -0.021326083532184278 -0.14069250208886769 0 -0.02075820173733281 -0.1248441049076035 0 -0.021326083532184278 -0.14069250208886769 0 -0.0137133242766358 -0.14598078836242959 0 -0.02657462786173766 -0.13400490724319661 0 -0.032898799107638058 -0.1301455039054305 0 -0.031315427069795509 -0.14033751807088471 0 -0.02657462786173766 -0.13400490724319661 0 -0.021326083532184278 -0.14069250208886769 0 -0.031315427069795509 -0.14033751807088471 0 -0.02075820173733281 -0.1248441049076035 0 -0.02657462786173766 -0.13400490724319661 0 -0.032898799107638058 -0.1301455039054305 0 -0.026655807174363451 -0.14845120392719069 0 -0.02210874630731275 -0.1561964137015745 0 -0.031495029160766817 -0.15509855920566379 0 -0.026655807174363451 -0.14845120392719069 0 -0.03449156258747036 -0.148917707105098 0 -0.031495029160766817 -0.15509855920566379 0 -0.026655807174363451 -0.14845120392719069 0 -0.021326083532184278 -0.14069250208886769 0 -0.031315427069795509 -0.14033751807088471 0 -0.026655807174363451 -0.14845120392719069 0 -0.031315427069795509 -0.14033751807088471 0 -0.03449156258747036 -0.148917707105098 0 -0.021326083532184278 -0.14069250208886769 0 -0.019449426413567759 -0.15004718796545319 0 -0.0137133242766358 -0.14598078836242959 0 -0.026655807174363451 -0.14845120392719069 0 -0.021326083532184278 -0.14069250208886769 0 -0.019449426413567759 -0.15004718796545319 0 -0.019449426413567759 -0.15004718796545319 0 -0.01542317820397726 -0.15505006264073101 0 -0.0137133242766358 -0.14598078836242959 0 -0.026655807174363451 -0.14845120392719069 0 -0.019449426413567759 -0.15004718796545319 0 -0.02210874630731275 -0.1561964137015745 0 -0.019449426413567759 -0.15004718796545319 0 -0.02210874630731275 -0.1561964137015745 0 -0.01542317820397726 -0.15505006264073101 0 -0.0137133242766358 -0.14598078836242959 0 -0.0031786103040098569 -0.14705450477373769 0 -0.0072073677341612146 -0.1544888065361133 0 -0.01542317820397726 -0.15505006264073101 0 -0.0137133242766358 -0.14598078836242959 0 -0.0072073677341612146 -0.1544888065361133 0 -0.0031786103040098569 -0.14705450477373769 0 -0.0072073677341612146 -0.1544888065361133 0 -0.0025999653858941639 -0.16131422913783491 0 -0.01542317820397726 -0.15505006264073101 0 -0.0084927016390539001 -0.17431231470194719 0 -0.01542317820397726 -0.15505006264073101 0 -0.0025999653858941639 -0.16131422913783491 0 -0.0084927016390539001 -0.17431231470194719 0 -0.01542317820397726 -0.15505006264073101 0 -0.0084927016390539001 -0.17431231470194719 0 -0.018600123305710169 -0.16452936741983731 0 -0.0025999653858941639 -0.16131422913783491 0 -0.0084927016390539001 -0.17431231470194719 0 0.0067086063528142403 -0.16809244781376179 0 -0.0084927016390539001 -0.17431231470194719 0 -0.019446339186483811 -0.17229591455881449 0 -0.018600123305710169 -0.16452936741983731 0 -0.01542317820397726 -0.15505006264073101 0 -0.0072073677341612146 -0.1544888065361133 0 -0.0025999653858941639 -0.16131422913783491 0 -0.0084927016390539001 -0.17431231470194719 0 -0.0015622250741301779 -0.1935745667631632 0 -0.01452589755716127 -0.18854972137590889 0 -0.0084927016390539001 -0.17431231470194719 0 -0.0015622250741301779 -0.1935745667631632 0 -0.0084927016390539001 -0.17431231470194719 0 -0.0015622250741301779 -0.1935745667631632 0 0.0091962193441852118 -0.18107109871456811 0 -0.0084927016390539001 -0.17431231470194719 0 -0.019789997202817391 -0.17944929683230451 0 -0.01452589755716127 -0.18854972137590889 0 -0.019789997202817391 -0.17944929683230451 0 -0.01452589755716127 -0.18854972137590889 0 -0.02459459850908961 -0.18853055632871979 0 -0.0084927016390539001 -0.17431231470194719 0 -0.019789997202817391 -0.17944929683230451 0 -0.019446339186483811 -0.17229591455881449 0 -0.019789997202817391 -0.17944929683230451 0 -0.019446339186483811 -0.17229591455881449 0 -0.025875972540285681 -0.17494695229964419 0 -0.019789997202817391 -0.17944929683230451 0 -0.025875972540285681 -0.17494695229964419 0 -0.028761852805915141 -0.18157091371807699 0 -0.025875972540285681 -0.17494695229964419 0 -0.032240004386850082 -0.17024588421870079 0 -0.032480769472988377 -0.1765838753595764 0 -0.025875972540285681 -0.17494695229964419 0 -0.028761852805915141 -0.18157091371807699 0 -0.032480769472988377 -0.1765838753595764 0 -0.028761852805915141 -0.18157091371807699 0 -0.032920373861235572 -0.18696580359983689 0 -0.02459459850908961 -0.18853055632871979 0 -0.019789997202817391 -0.17944929683230451 0 -0.028761852805915141 -0.18157091371807699 0 -0.02459459850908961 -0.18853055632871979 0 -0.02210874630731275 -0.1561964137015745 0 -0.02334206205745518 -0.16321350683772101 0 -0.018600123305710169 -0.16452936741983731 0 -0.02210874630731275 -0.1561964137015745 0 -0.01542317820397726 -0.15505006264073101 0 -0.018600123305710169 -0.16452936741983731 0 -0.019446339186483811 -0.17229591455881449 0 -0.018600123305710169 -0.16452936741983731 0 -0.024472901244551901 -0.1682416415403396 0 -0.019446339186483811 -0.17229591455881449 0 -0.025875972540285681 -0.17494695229964419 0 -0.024472901244551901 -0.1682416415403396 0 -0.02334206205745518 -0.16321350683772101 0 -0.018600123305710169 -0.16452936741983731 0 -0.024472901244551901 -0.1682416415403396 0 -0.02334206205745518 -0.16321350683772101 0 -0.024472901244551901 -0.1682416415403396 0 -0.028186477372245909 -0.16388660468913291 0 -0.025875972540285681 -0.17494695229964419 0 -0.024472901244551901 -0.1682416415403396 0 -0.032240004386850082 -0.17024588421870079 0 -0.024472901244551901 -0.1682416415403396 0 -0.028186477372245909 -0.16388660468913291 0 -0.032240004386850082 -0.17024588421870079 0 -0.02210874630731275 -0.1561964137015745 0 -0.036601677587355427 -0.1631254910080501 0 -0.02210874630731275 -0.1561964137015745 0 -0.028186477372245909 -0.16388660468913291 0 -0.036601677587355427 -0.1631254910080501 0 -0.02210874630731275 -0.1561964137015745 0 -0.036601677587355427 -0.1631254910080501 0 -0.031495029160766817 -0.15509855920566379 0 -0.02210874630731275 -0.1561964137015745 0 -0.02334206205745518 -0.16321350683772101 0 -0.028186477372245909 -0.16388660468913291 0 -0.036601677587355427 -0.1631254910080501 0 -0.031495029160766817 -0.15509855920566379 0 -0.03757233301838208 -0.1561293615731485 0 -0.036601677587355427 -0.1631254910080501 0 -0.042683024331232992 -0.16071659108817879 0 -0.03757233301838208 -0.1561293615731485 0 -0.036601677587355427 -0.1631254910080501 0 -0.032240004386850082 -0.17024588421870079 0 -0.040990311010288182 -0.1707810542940659 0 -0.028186477372245909 -0.16388660468913291 0 -0.036601677587355427 -0.1631254910080501 0 -0.032240004386850082 -0.17024588421870079 0 -0.036601677587355427 -0.1631254910080501 0 -0.040990311010288182 -0.1707810542940659 0 -0.051094608867397598 -0.17005456831452659 0 -0.036601677587355427 -0.1631254910080501 0 -0.042683024331232992 -0.16071659108817879 0 -0.051094608867397598 -0.17005456831452659 0 -0.036601677587355427 -0.1631254910080501 0 -0.051094608867397598 -0.17005456831452659 0 -0.042683024331232992 -0.16071659108817879 0 -0.03757233301838208 -0.1561293615731485 0 -0.042590371425084809 -0.152788459458752 0 -0.042683024331232992 -0.16071659108817879 0 -0.049852416986034973 -0.1566787242717059 0 -0.042590371425084809 -0.152788459458752 0 -0.042683024331232992 -0.16071659108817879 0 -0.049852416986034973 -0.1566787242717059 0 -0.032920373861235572 -0.18696580359983689 0 -0.035662893679222471 -0.1808176818492459 0 -0.039648887306358682 -0.18457447877016059 0 -0.028761852805915141 -0.18157091371807699 0 -0.032920373861235572 -0.18696580359983689 0 -0.035662893679222471 -0.1808176818492459 0 -0.032240004386850082 -0.17024588421870079 0 -0.040990311010288182 -0.1707810542940659 0 -0.038331319031698619 -0.1753090981098179 0 -0.035662893679222471 -0.1808176818492459 0 -0.038331319031698619 -0.1753090981098179 0 -0.042134054383572032 -0.1794085226548284 0 -0.035662893679222471 -0.1808176818492459 0 -0.032480769472988377 -0.1765838753595764 0 -0.038331319031698619 -0.1753090981098179 0 -0.028761852805915141 -0.18157091371807699 0 -0.035662893679222471 -0.1808176818492459 0 -0.032480769472988377 -0.1765838753595764 0 -0.032240004386850082 -0.17024588421870079 0 -0.032480769472988377 -0.1765838753595764 0 -0.038331319031698619 -0.1753090981098179 0 -0.040990311010288182 -0.1707810542940659 0 -0.045496547127059937 -0.17528527585558801 0 -0.051094608867397598 -0.17005456831452659 0 -0.040990311010288182 -0.1707810542940659 0 -0.038331319031698619 -0.1753090981098179 0 -0.045496547127059937 -0.17528527585558801 0 -0.045496547127059937 -0.17528527585558801 0 -0.042134054383572032 -0.1794085226548284 0 -0.049232931697160941 -0.18142535687920061 0 -0.038331319031698619 -0.1753090981098179 0 -0.045496547127059937 -0.17528527585558801 0 -0.042134054383572032 -0.1794085226548284 0 -0.042134054383572032 -0.1794085226548284 0 -0.039648887306358682 -0.18457447877016059 0 -0.049232931697160941 -0.18142535687920061 0 -0.039648887306358682 -0.18457447877016059 0 -0.049232931697160941 -0.18142535687920061 0 -0.037513132105194948 -0.19164621715467339 0 -0.035662893679222471 -0.1808176818492459 0 -0.042134054383572032 -0.1794085226548284 0 -0.039648887306358682 -0.18457447877016059 0 -0.052530262953744307 -0.18551360121156771 0 -0.064566778430722005 -0.1899668467895553 0 -0.070259181001566293 -0.17921715932508539 0 -0.052530262953744307 -0.18551360121156771 0 -0.051094608867397598 -0.17005456831452659 0 -0.070259181001566293 -0.17921715932508539 0 -0.051094608867397598 -0.17005456831452659 0 -0.070259181001566293 -0.17921715932508539 0 -0.052530262953744307 -0.18551360121156771 0 -0.049232931697160941 -0.18142535687920061 0 -0.051094608867397598 -0.17005456831452659 0 -0.052530262953744307 -0.18551360121156771 0 -0.051094608867397598 -0.17005456831452659 0 -0.045496547127059937 -0.17528527585558801 0 -0.049232931697160941 -0.18142535687920061 0 -0.051094608867397598 -0.17005456831452659 0 -0.051094608867397598 -0.17005456831452659 0 -0.061817946007188637 -0.1647032604190713 0 -0.070259181001566293 -0.17921715932508539 0 -0.049852416986034973 -0.1566787242717059 0 -0.051094608867397598 -0.17005456831452659 0 -0.061817946007188637 -0.1647032604190713 0 -0.042683024331232992 -0.16071659108817879 0 -0.049852416986034973 -0.1566787242717059 0 -0.051094608867397598 -0.17005456831452659 0 -0.049852416986034973 -0.1566787242717059 0 -0.051094608867397598 -0.17005456831452659 0 -0.049852416986034973 -0.1566787242717059 0 -0.061817946007188637 -0.1647032604190713 0 -0.059473492795946999 -0.1512600473178678 0 -0.049852416986034973 -0.1566787242717059 0 -0.059473492795946999 -0.1512600473178678 0 -0.049852416986034973 -0.1566787242717059 0 -0.048542636614648908 -0.14257509161971199 0 -0.042590371425084809 -0.152788459458752 0 -0.049852416986034973 -0.1566787242717059 0 -0.059473492795946999 -0.1512600473178678 0 -0.048542636614648908 -0.14257509161971199 0 -0.049852416986034973 -0.1566787242717059 0 -0.048542636614648908 -0.14257509161971199 0 -0.059473492795946999 -0.1512600473178678 0 -0.048542636614648908 -0.14257509161971199 0 -0.059473492795946999 -0.1512600473178678 0 -0.048542636614648908 -0.14257509161971199 0 -0.061100100412547438 -0.13647315015658409 0 -0.046573596299020338 -0.1213725893565638 0 -0.048542636614648908 -0.14257509161971199 0 -0.061100100412547438 -0.13647315015658409 0 -0.046573596299020338 -0.1213725893565638 0 -0.048542636614648908 -0.14257509161971199 0 -0.060928146748241367 -0.123537549367131 0 -0.046573596299020338 -0.1213725893565638 0 -0.061100100412547438 -0.13647315015658409 0 -0.046573596299020338 -0.1213725893565638 0 -0.048542636614648908 -0.14257509161971199 0 -0.032898799107638058 -0.1301455039054305 0 -0.048542636614648908 -0.14257509161971199 0 -0.032898799107638058 -0.1301455039054305 0 -0.031315427069795509 -0.14033751807088471 0 -0.048542636614648908 -0.14257509161971199 0 -0.032898799107638058 -0.1301455039054305 0 -0.048542636614648908 -0.14257509161971199 0 -0.031315427069795509 -0.14033751807088471 0 -0.03449156258747036 -0.148917707105098 0 -0.03449156258747036 -0.148917707105098 0 -0.03757233301838208 -0.1561293615731485 0 -0.042590371425084809 -0.152788459458752 0 -0.03449156258747036 -0.148917707105098 0 -0.031495029160766817 -0.15509855920566379 0 -0.03757233301838208 -0.1561293615731485 0 -0.048542636614648908 -0.14257509161971199 0 -0.03449156258747036 -0.148917707105098 0 -0.042590371425084809 -0.152788459458752 0 -0.030801127425925001 -0.25680016795848581 0 -0.026871719323301121 -0.24650256912316601 0 -0.018733547469201091 -0.24349008461987329 0 -0.032940321160402269 -0.25029644079438251 0 -0.026871719323301121 -0.24650256912316601 0 -0.030857658388656541 -0.2362056796655021 0 -0.032940321160402269 -0.25029644079438251 0 -0.026871719323301121 -0.24650256912316601 0 -0.026871719323301121 -0.24650256912316601 0 -0.030857658388656541 -0.2362056796655021 0 -0.018733547469201091 -0.24349008461987329 0 -0.018733547469201091 -0.24349008461987329 0 0.0010854142569982001 -0.23807309260292489 0 0.0025328853753160741 -0.24958102673793139 0 -0.018733547469201091 -0.24349008461987329 0 -0.0061584899570064598 -0.22962027277065361 0 0.0010854142569982001 -0.23807309260292489 0 -0.018733547469201091 -0.24349008461987329 0 -0.0061584899570064598 -0.22962027277065361 0 -0.018733547469201091 -0.24349008461987329 0 -0.0061584899570064598 -0.22962027277065361 0 -0.014959502272226489 -0.22084886391346231 0 -0.0061584899570064598 -0.22962027277065361 0 -0.0054289760133702037 -0.21457987404047249 0 0.0064165675551885711 -0.21575046092143421 0 -0.0061584899570064598 -0.22962027277065361 0 -0.014959502272226489 -0.22084886391346231 0 -0.0054289760133702037 -0.21457987404047249 0 -0.018733547469201091 -0.24349008461987329 0 -0.02919644603132129 -0.2221986071991269 0 -0.02714058579554627 -0.22330174697438809 0 -0.018733547469201091 -0.24349008461987329 0 -0.02919644603132129 -0.2221986071991269 0 -0.018733547469201091 -0.24349008461987329 0 -0.014959502272226489 -0.22084886391346231 0 -0.02714058579554627 -0.22330174697438809 0 -0.030857658388656541 -0.2362056796655021 0 -0.018733547469201091 -0.24349008461987329 0 -0.02919644603132129 -0.2221986071991269 0 -0.02919644603132129 -0.2221986071991269 0 -0.02714058579554627 -0.22330174697438809 0 -0.023298310508535151 -0.21367384618425 0 -0.02883797433537726 -0.20835292232393379 0 -0.020914866328615171 -0.2008213059726579 0 -0.039659344593441261 -0.20090712977838049 0 -0.02919644603132129 -0.2221986071991269 0 -0.02883797433537726 -0.20835292232393379 0 -0.023298310508535151 -0.21367384618425 0 -0.02883797433537726 -0.20835292232393379 0 -0.023298310508535151 -0.21367384618425 0 -0.020914866328615171 -0.2008213059726579 0 -0.023298310508535151 -0.21367384618425 0 -0.014351405434837939 -0.2084381568687759 0 -0.020914866328615171 -0.2008213059726579 0 -0.02714058579554627 -0.22330174697438809 0 -0.014351405434837939 -0.2084381568687759 0 -0.014959502272226489 -0.22084886391346231 0 -0.02714058579554627 -0.22330174697438809 0 -0.014351405434837939 -0.2084381568687759 0 -0.02714058579554627 -0.22330174697438809 0 -0.023298310508535151 -0.21367384618425 0 -0.014351405434837939 -0.2084381568687759 0 -0.014959502272226489 -0.22084886391346231 0 -0.0054289760133702037 -0.21457987404047249 0 -0.014351405434837939 -0.2084381568687759 0 -0.0054289760133702037 -0.21457987404047249 0 -0.014351405434837939 -0.2084381568687759 0 -0.0015622250741301779 -0.1935745667631632 0 -0.0054289760133702037 -0.21457987404047249 0 -0.0015622250741301779 -0.1935745667631632 0 0.0064165675551885711 -0.21575046092143421 0 -0.014351405434837939 -0.2084381568687759 0 -0.0015622250741301779 -0.1935745667631632 0 -0.014351405434837939 -0.2084381568687759 0 -0.01223217889679739 -0.19705511845509929 0 -0.0015622250741301779 -0.1935745667631632 0 -0.01223217889679739 -0.19705511845509929 0 -0.0015622250741301779 -0.1935745667631632 0 -0.01452589755716127 -0.18854972137590889 0 -0.020914866328615171 -0.2008213059726579 0 -0.039659344593441261 -0.20090712977838049 0 -0.01452589755716127 -0.18854972137590889 0 -0.020914866328615171 -0.2008213059726579 0 -0.02459459850908961 -0.18853055632871979 0 -0.020914866328615171 -0.2008213059726579 0 -0.030654603298793132 -0.19382629647353339 0 -0.039659344593441261 -0.20090712977838049 0 -0.014351405434837939 -0.2084381568687759 0 -0.01223217889679739 -0.19705511845509929 0 -0.020914866328615171 -0.2008213059726579 0 -0.01223217889679739 -0.19705511845509929 0 -0.01452589755716127 -0.18854972137590889 0 -0.020914866328615171 -0.2008213059726579 0 -0.020914866328615171 -0.2008213059726579 0 -0.030654603298793132 -0.19382629647353339 0 -0.02459459850908961 -0.18853055632871979 0 -0.032920373861235572 -0.18696580359983689 0 -0.030654603298793132 -0.19382629647353339 0 -0.02459459850908961 -0.18853055632871979 0 -0.049232931697160941 -0.18142535687920061 0 -0.037513132105194948 -0.19164621715467339 0 -0.039659344593441261 -0.20090712977838049 0 -0.049232931697160941 -0.18142535687920061 0 -0.039659344593441261 -0.20090712977838049 0 -0.032920373861235572 -0.18696580359983689 0 -0.039648887306358682 -0.18457447877016059 0 -0.037513132105194948 -0.19164621715467339 0 -0.032920373861235572 -0.18696580359983689 0 -0.030654603298793132 -0.19382629647353339 0 -0.037513132105194948 -0.19164621715467339 0 -0.030654603298793132 -0.19382629647353339 0 -0.037513132105194948 -0.19164621715467339 0 -0.039659344593441261 -0.20090712977838049 0 -0.039659344593441261 -0.20090712977838049 0 -0.049171036143441697 -0.20095068018059209 0 -0.052530262953744307 -0.18551360121156771 0 -0.053965917040092279 -0.20097263410860849 0 -0.052530262953744307 -0.18551360121156771 0 -0.049232931697160941 -0.18142535687920061 0 -0.039659344593441261 -0.20090712977838049 0 -0.052530262953744307 -0.18551360121156771 0 -0.053965917040092279 -0.20097263410860849 0 -0.064566778430722005 -0.1899668467895553 0 -0.052530262953744307 -0.18551360121156771 0 -0.039659344593441261 -0.20090712977838049 0 -0.049171036143441697 -0.20095068018059209 0 -0.053965917040092279 -0.20097263410860849 0 -0.049171036143441697 -0.20095068018059209 0 -0.052530262953744307 -0.18551360121156771 0 -0.053965917040092279 -0.20097263410860849 0 -0.049171036143441697 -0.20095068018059209 0 -0.049171036143441697 -0.20095068018059209 0 -0.054685660498906767 -0.208722786400212 0 -0.041055678651922348 -0.2256235604874875 0 -0.053965917040092279 -0.20097263410860849 0 -0.054685660498906767 -0.208722786400212 0 -0.075274492420391248 -0.20107019793555661 0 -0.054685660498906767 -0.208722786400212 0 -0.058782723788501128 -0.22597342721149569 0 -0.066300796797188796 -0.21509277327032089 0 -0.053965917040092279 -0.20097263410860849 0 -0.049171036143441697 -0.20095068018059209 0 -0.054685660498906767 -0.208722786400212 0 -0.053965917040092279 -0.20097263410860849 0 -0.054685660498906767 -0.208722786400212 0 -0.049171036143441697 -0.20095068018059209 0 -0.041055678651922348 -0.2256235604874875 0 -0.02919644603132129 -0.2221986071991269 0 -0.039659344593441261 -0.20090712977838049 0 -0.02919644603132129 -0.2221986071991269 0 -0.02883797433537726 -0.20835292232393379 0 -0.039659344593441261 -0.20090712977838049 0 -0.039659344593441261 -0.20090712977838049 0 -0.049171036143441697 -0.20095068018059209 0 -0.041055678651922348 -0.2256235604874875 0 -0.02919644603132129 -0.2221986071991269 0 -0.039659344593441261 -0.20090712977838049 0 -0.041055678651922348 -0.2256235604874875 0 -0.030857658388656541 -0.2362056796655021 0 -0.02919644603132129 -0.2221986071991269 0 -0.041055678651922348 -0.2256235604874875 0 -0.041055678651922348 -0.2256235604874875 0 -0.058782723788501128 -0.22597342721149569 0 -0.050902643065861071 -0.24349095896983161 0 -0.054685660498906767 -0.208722786400212 0 -0.041055678651922348 -0.2256235604874875 0 -0.058782723788501128 -0.22597342721149569 0 -0.058782723788501128 -0.22597342721149569 0 -0.050902643065861071 -0.24349095896983161 0 -0.077646128541525 -0.24813916513248199 0 -0.032940321160402269 -0.25029644079438251 0 -0.041055678651922348 -0.2256235604874875 0 -0.050902643065861071 -0.24349095896983161 0 -0.032940321160402269 -0.25029644079438251 0 -0.030857658388656541 -0.2362056796655021 0 -0.041055678651922348 -0.2256235604874875 0 -0.032940321160402269 -0.25029644079438251 0 -0.041055678651922348 -0.2256235604874875 0 -0.077646128541525 -0.24813916513248199 0 -0.082279147983734507 -0.22463132376819159 0 -0.088104632666654803 -0.24175912157342011 0 -0.077646128541525 -0.24813916513248199 0 -0.082279147983734507 -0.22463132376819159 0 -0.077646128541525 -0.24813916513248199 0 -0.076460310480956056 -0.22460468153401941 0 -0.058782723788501128 -0.22597342721149569 0 -0.077646128541525 -0.24813916513248199 0 -0.076460310480956056 -0.22460468153401941 0 -0.058782723788501128 -0.22597342721149569 0 -0.076460310480956056 -0.22460468153401941 0 -0.066300796797188796 -0.21509277327032089 0 -0.077646128541525 -0.24813916513248199 0 -0.076460310480956056 -0.22460468153401941 0 -0.082279147983734507 -0.22463132376819159 0 -0.088104632666654803 -0.24175912157342011 0 -0.091210523848666042 -0.22145825259936749 0 -0.096373561920523113 -0.2318247108995648 0 -0.088104632666654803 -0.24175912157342011 0 -0.082279147983734507 -0.22463132376819159 0 -0.091210523848666042 -0.22145825259936749 0 -0.088104632666654803 -0.24175912157342011 0 -0.091210523848666042 -0.22145825259936749 0 -0.082279147983734507 -0.22463132376819159 0 -0.075274492420391248 -0.20107019793555661 0 -0.086912167425944153 -0.20112348240390099 0 -0.082279147983734507 -0.22463132376819159 0 -0.091210523848666042 -0.22145825259936749 0 -0.086912167425944153 -0.20112348240390099 0 -0.091210523848666042 -0.22145825259936749 0 -0.094316415030678002 -0.20115738362531499 0 -0.091210523848666042 -0.22145825259936749 0 -0.086912167425944153 -0.20112348240390099 0 -0.094316415030678002 -0.20115738362531499 0 -0.082279147983734507 -0.22463132376819159 0 -0.086912167425944153 -0.20112348240390099 0 -0.076460310480956056 -0.22460468153401941 0 -0.066300796797188796 -0.21509277327032089 0 -0.075274492420391248 -0.20107019793555661 0 -0.054685660498906767 -0.208722786400212 0 -0.066300796797188796 -0.21509277327032089 0 -0.075274492420391248 -0.20107019793555661 0 -0.076460310480956056 -0.22460468153401941 0 -0.082279147983734507 -0.22463132376819159 0 -0.075274492420391248 -0.20107019793555661 0 -0.076460310480956056 -0.22460468153401941 0 -0.075274492420391248 -0.20107019793555661 0 -0.053965917040092279 -0.20097263410860849 0 -0.075274492420391248 -0.20107019793555661 0 -0.070100108945259781 -0.19629415080948229 0 -0.053965917040092279 -0.20097263410860849 0 -0.070100108945259781 -0.19629415080948229 0 -0.064566778430722005 -0.1899668467895553 0 -0.053965917040092279 -0.20097263410860849 0 -0.075274492420391248 -0.20107019793555661 0 -0.075274492420391248 -0.20107019793555661 0 -0.075113373652805612 -0.19571605274700751 0 -0.079733979793737045 -0.19605477611637959 0 -0.075274492420391248 -0.20107019793555661 0 -0.075113373652805612 -0.19571605274700751 0 -0.070100108945259781 -0.19629415080948229 0 -0.070100108945259781 -0.19629415080948229 0 -0.064566778430722005 -0.1899668467895553 0 -0.075377056328755521 -0.19008301367616509 0 -0.075113373652805612 -0.19571605274700751 0 -0.070100108945259781 -0.19629415080948229 0 -0.075377056328755521 -0.19008301367616509 0 -0.075113373652805612 -0.19571605274700751 0 -0.075377056328755521 -0.19008301367616509 0 -0.079733979793737045 -0.19605477611637959 0 -0.075377056328755521 -0.19008301367616509 0 -0.079733979793737045 -0.19605477611637959 0 -0.089423753135733974 -0.18837975033564619 0 -0.079733979793737045 -0.19605477611637959 0 -0.086912167425944153 -0.20112348240390099 0 -0.089423753135733974 -0.18837975033564619 0 -0.075274492420391248 -0.20107019793555661 0 -0.086912167425944153 -0.20112348240390099 0 -0.075274492420391248 -0.20107019793555661 0 -0.079733979793737045 -0.19605477611637959 0 -0.086912167425944153 -0.20112348240390099 0 -0.086912167425944153 -0.20112348240390099 0 -0.095804572093432044 -0.1914304229002349 0 -0.094316415030678002 -0.20115738362531499 0 -0.086912167425944153 -0.20112348240390099 0 -0.094316415030678002 -0.20115738362531499 0 -0.086912167425944153 -0.20112348240390099 0 -0.089423753135733974 -0.18837975033564619 0 -0.086912167425944153 -0.20112348240390099 0 -0.089423753135733974 -0.18837975033564619 0 -0.095804572093432044 -0.1914304229002349 0 -0.089423753135733974 -0.18837975033564619 0 -0.095804572093432044 -0.1914304229002349 0 -0.090500110278716836 -0.18291833725845449 0 -0.089423753135733974 -0.18837975033564619 0 -0.095804572093432044 -0.1914304229002349 0 -0.095804572093432044 -0.1914304229002349 0 -0.1055884512206339 -0.19610810014299959 0 -0.099028938128851704 -0.1826882615985625 0 -0.095804572093432044 -0.1914304229002349 0 -0.1055884512206339 -0.19610810014299959 0 -0.095804572093432044 -0.1914304229002349 0 -0.099726318276372988 -0.19712665769699661 0 -0.1055884512206339 -0.19610810014299959 0 -0.094316415030678002 -0.20115738362531499 0 -0.099726318276372988 -0.19712665769699661 0 -0.1069539478940484 -0.20121524606085259 0 -0.095804572093432044 -0.1914304229002349 0 -0.094316415030678002 -0.20115738362531499 0 -0.095804572093432044 -0.1914304229002349 0 -0.094316415030678002 -0.20115738362531499 0 -0.099726318276372988 -0.19712665769699661 0 -0.094316415030678002 -0.20115738362531499 0 -0.1069539478940484 -0.20121524606085259 0 -0.1006154135170836 -0.20550376286944089 0 -0.094316415030678002 -0.20115738362531499 0 -0.1069539478940484 -0.20121524606085259 0 -0.099726318276372988 -0.19712665769699661 0 -0.1069539478940484 -0.20121524606085259 0 -0.1055884512206339 -0.19610810014299959 0 -0.1069539478940484 -0.20121524606085259 0 -0.1055884512206339 -0.19610810014299959 0 -0.1143022105317214 -0.19176920984990589 0 -0.1234142843990034 -0.20129061165398179 0 -0.118443644943155 -0.18313735869921541 0 -0.1234142843990034 -0.20129061165398179 0 -0.118443644943155 -0.18313735869921541 0 -0.12836978379805469 -0.19505845874684749 0 -0.1055884512206339 -0.19610810014299959 0 -0.1143022105317214 -0.19176920984990589 0 -0.1095912747331507 -0.1796343382558257 0 -0.1234142843990034 -0.20129061165398179 0 -0.118443644943155 -0.18313735869921541 0 -0.1234142843990034 -0.20129061165398179 0 -0.11636069704563699 -0.20125831597190941 0 -0.12446659453658469 -0.2051337493999616 0 -0.1143022105317214 -0.19176920984990589 0 -0.1234142843990034 -0.20129061165398179 0 -0.11636069704563699 -0.20125831597190941 0 -0.1234142843990034 -0.20129061165398179 0 -0.11636069704563699 -0.20125831597190941 0 -0.1055884512206339 -0.19610810014299959 0 -0.1143022105317214 -0.19176920984990589 0 -0.11636069704563699 -0.20125831597190941 0 -0.1055884512206339 -0.19610810014299959 0 -0.11636069704563699 -0.20125831597190941 0 -0.1069539478940484 -0.20121524606085259 0 -0.11636069704563699 -0.20125831597190941 0 -0.116503442890511 -0.20615462214379501 0 -0.1069539478940484 -0.20121524606085259 0 -0.1055884512206339 -0.19610810014299959 0 -0.11636069704563699 -0.20125831597190941 0 -0.1069539478940484 -0.20121524606085259 0 -0.11636069704563699 -0.20125831597190941 0 -0.1069539478940484 -0.20121524606085259 0 -0.1182325320857732 -0.21701117714245771 0 -0.1146322195844853 -0.229933041338924 0 -0.1069539478940484 -0.20121524606085259 0 -0.1146322195844853 -0.229933041338924 0 -0.12446659453658469 -0.2051337493999616 0 -0.1182325320857732 -0.21701117714245771 0 -0.12964778408632779 -0.2240559515308029 0 -0.1069539478940484 -0.20121524606085259 0 -0.116503442890511 -0.20615462214379501 0 -0.1182325320857732 -0.21701117714245771 0 -0.116503442890511 -0.20615462214379501 0 -0.12446659453658469 -0.2051337493999616 0 -0.1182325320857732 -0.21701117714245771 0 -0.11636069704563699 -0.20125831597190941 0 -0.116503442890511 -0.20615462214379501 0 -0.12446659453658469 -0.2051337493999616 0 -0.11636069704563699 -0.20125831597190941 0 -0.12446659453658469 -0.2051337493999616 0 -0.1234142843990034 -0.20129061165398179 0 -0.12446659453658469 -0.2051337493999616 0 -0.1069539478940484 -0.20121524606085259 0 -0.1039432587622498 -0.21234961129803451 0 -0.1146322195844853 -0.229933041338924 0 -0.091210523848666042 -0.22145825259936749 0 -0.094316415030678002 -0.20115738362531499 0 -0.098742607236989521 -0.21208478243994361 0 -0.1039432587622498 -0.21234961129803451 0 -0.098742607236989521 -0.21208478243994361 0 -0.10362742502627011 -0.2199549018075595 0 -0.1069539478940484 -0.20121524606085259 0 -0.1039432587622498 -0.21234961129803451 0 -0.1006154135170836 -0.20550376286944089 0 -0.1039432587622498 -0.21234961129803451 0 -0.1006154135170836 -0.20550376286944089 0 -0.098742607236989521 -0.21208478243994361 0 -0.094316415030678002 -0.20115738362531499 0 -0.1006154135170836 -0.20550376286944089 0 -0.098742607236989521 -0.21208478243994361 0 -0.091210523848666042 -0.22145825259936749 0 -0.098742607236989521 -0.21208478243994361 0 -0.10362742502627011 -0.2199549018075595 0 -0.096373561920523113 -0.2318247108995648 0 -0.10362742502627011 -0.2199549018075595 0 -0.1025516661405015 -0.24412656761791199 0 -0.1039432587622498 -0.21234961129803451 0 -0.10362742502627011 -0.2199549018075595 0 -0.1146322195844853 -0.229933041338924 0 -0.10362742502627011 -0.2199549018075595 0 -0.1025516661405015 -0.24412656761791199 0 -0.10362742502627011 -0.2199549018075595 0 -0.11057817055071439 -0.23713955200355691 0 -0.1025516661405015 -0.24412656761791199 0 -0.091210523848666042 -0.22145825259936749 0 -0.096373561920523113 -0.2318247108995648 0 -0.10362742502627011 -0.2199549018075595 0 -0.10362742502627011 -0.2199549018075595 0 -0.1146322195844853 -0.229933041338924 0 -0.11057817055071439 -0.23713955200355691 0 -0.1182325320857732 -0.21701117714245771 0 -0.1146322195844853 -0.229933041338924 0 -0.12964778408632779 -0.2240559515308029 0 -0.1146322195844853 -0.229933041338924 0 -0.12594535918601221 -0.23537450645762351 0 -0.12964778408632779 -0.2240559515308029 0 -0.1146322195844853 -0.229933041338924 0 -0.11057817055071439 -0.23713955200355691 0 -0.11992695639240671 -0.24305274461581289 0 -0.1146322195844853 -0.229933041338924 0 -0.11992695639240671 -0.24305274461581289 0 -0.12594535918601221 -0.23537450645762351 0 -0.11992695639240671 -0.24305274461581289 0 -0.12594535918601221 -0.23537450645762351 0 -0.1270777831465402 -0.24161244513161839 0 -0.11057817055071439 -0.23713955200355691 0 -0.11992695639240671 -0.24305274461581289 0 -0.1121525856099083 -0.24863050463757599 0 -0.1183855941197941 -0.25651062511641259 0 -0.11992695639240671 -0.24305274461581289 0 -0.1121525856099083 -0.24863050463757599 0 -0.1097432552782682 -0.2572086698476283 0 -0.1121525856099083 -0.24863050463757599 0 -0.1025516661405015 -0.24412656761791199 0 -0.11057817055071439 -0.23713955200355691 0 -0.1121525856099083 -0.24863050463757599 0 -0.1025516661405015 -0.24412656761791199 0 -0.088104632666654803 -0.24175912157342011 0 -0.096373561920523113 -0.2318247108995648 0 -0.1025516661405015 -0.24412656761791199 0 -0.093680051977193257 -0.25300014610948141 0 -0.088104632666654803 -0.24175912157342011 0 -0.1025516661405015 -0.24412656761791199 0 -0.091208904987890735 -0.14232661368977559 0 -0.087323419063827665 -0.1566704494577609 0 -0.098398678104261977 -0.16921735691638781 0 -0.081276062778159672 -0.14883202435870879 0 -0.08710950077230438 -0.14178266396580899 0 -0.074302444905730333 -0.14290824730771751 0 -0.081276062778159672 -0.14883202435870879 0 -0.091208904987890735 -0.14232661368977559 0 -0.087323419063827665 -0.1566704494577609 0 -0.081276062778159672 -0.14883202435870879 0 -0.08710950077230438 -0.14178266396580899 0 -0.091208904987890735 -0.14232661368977559 0 -0.08710950077230438 -0.14178266396580899 0 -0.091208904987890735 -0.14232661368977559 0 -0.091208904987890735 -0.14232661368977559 0 -0.089131397015513494 -0.13455644729756691 0 -0.089131397015513494 -0.13455644729756691 0 -0.072915517223638954 -0.12670463451369329 0 -0.074302444905730333 -0.14290824730771751 0 -0.08710950077230438 -0.14178266396580899 0 -0.091208904987890735 -0.14232661368977559 0 -0.089131397015513494 -0.13455644729756691 0 -0.08710950077230438 -0.14178266396580899 0 -0.089131397015513494 -0.13455644729756691 0 -0.074302444905730333 -0.14290824730771751 0 -0.089131397015513494 -0.13455644729756691 0 -0.074302444905730333 -0.14290824730771751 0 -0.061100100412547438 -0.13647315015658409 0 -0.072915517223638954 -0.12670463451369329 0 -0.074302444905730333 -0.14290824730771751 0 -0.060928146748241367 -0.123537549367131 0 -0.061100100412547438 -0.13647315015658409 0 -0.072915517223638954 -0.12670463451369329 0 -0.059473492795946999 -0.1512600473178678 0 -0.081276062778159672 -0.14883202435870879 0 -0.074302444905730333 -0.14290824730771751 0 -0.059473492795946999 -0.1512600473178678 0 -0.081276062778159672 -0.14883202435870879 0 -0.078410030384998497 -0.16630580286617139 0 -0.059473492795946999 -0.1512600473178678 0 -0.074302444905730333 -0.14290824730771751 0 -0.059473492795946999 -0.1512600473178678 0 -0.061100100412547438 -0.13647315015658409 0 -0.074302444905730333 -0.14290824730771751 0 -0.061817946007188637 -0.1647032604190713 0 -0.070259181001566293 -0.17921715932508539 0 -0.078410030384998497 -0.16630580286617139 0 -0.059473492795946999 -0.1512600473178678 0 -0.078410030384998497 -0.16630580286617139 0 -0.061817946007188637 -0.1647032604190713 0 -0.059473492795946999 -0.1512600473178678 0 -0.078410030384998497 -0.16630580286617139 0 -0.064566778430722005 -0.1899668467895553 0 -0.075377056328755521 -0.19008301367616509 0 -0.070259181001566293 -0.17921715932508539 0 -0.070259181001566293 -0.17921715932508539 0 -0.08402443889557612 -0.1788939005998389 0 -0.078410030384998497 -0.16630580286617139 0 -0.089423753135733974 -0.18837975033564619 0 -0.070259181001566293 -0.17921715932508539 0 -0.075377056328755521 -0.19008301367616509 0 -0.089423753135733974 -0.18837975033564619 0 -0.070259181001566293 -0.17921715932508539 0 -0.078410030384998497 -0.16630580286617139 0 -0.098398678104261977 -0.16921735691638781 0 -0.097346567974052028 -0.18135155841447259 0 -0.078410030384998497 -0.16630580286617139 0 -0.097346567974052028 -0.18135155841447259 0 -0.08402443889557612 -0.1788939005998389 0 -0.078410030384998497 -0.16630580286617139 0 -0.097346567974052028 -0.18135155841447259 0 -0.089423753135733974 -0.18837975033564619 0 -0.070259181001566293 -0.17921715932508539 0 -0.08402443889557612 -0.1788939005998389 0 -0.089423753135733974 -0.18837975033564619 0 -0.08402443889557612 -0.1788939005998389 0 -0.090500110278716836 -0.18291833725845449 0 -0.08402443889557612 -0.1788939005998389 0 -0.090500110278716836 -0.18291833725845449 0 -0.097346567974052028 -0.18135155841447259 0 -0.089423753135733974 -0.18837975033564619 0 -0.090500110278716836 -0.18291833725845449 0 -0.081276062778159672 -0.14883202435870879 0 -0.078410030384998497 -0.16630580286617139 0 -0.087323419063827665 -0.1566704494577609 0 -0.078410030384998497 -0.16630580286617139 0 -0.087323419063827665 -0.1566704494577609 0 -0.098398678104261977 -0.16921735691638781 0 -0.098398678104261977 -0.16921735691638781 0 -0.1095912747331507 -0.1796343382558257 0 -0.1134730054873082 -0.16498410574444861 0 -0.098398678104261977 -0.16921735691638781 0 -0.1134730054873082 -0.16498410574444861 0 -0.1057127461594554 -0.15566112818699529 0 -0.1055884512206339 -0.19610810014299959 0 -0.098398678104261977 -0.16921735691638781 0 -0.099028938128851704 -0.1826882615985625 0 -0.1055884512206339 -0.19610810014299959 0 -0.098398678104261977 -0.16921735691638781 0 -0.1055884512206339 -0.19610810014299959 0 -0.098398678104261977 -0.16921735691638781 0 -0.1095912747331507 -0.1796343382558257 0 -0.095804572093432044 -0.1914304229002349 0 -0.097346567974052028 -0.18135155841447259 0 -0.099028938128851704 -0.1826882615985625 0 -0.095804572093432044 -0.1914304229002349 0 -0.090500110278716836 -0.18291833725845449 0 -0.097346567974052028 -0.18135155841447259 0 -0.095804572093432044 -0.1914304229002349 0 -0.097346567974052028 -0.18135155841447259 0 -0.097346567974052028 -0.18135155841447259 0 -0.099028938128851704 -0.1826882615985625 0 -0.098398678104261977 -0.16921735691638781 0 -0.097346567974052028 -0.18135155841447259 0 -0.099028938128851704 -0.1826882615985625 0 -0.118443644943155 -0.18313735869921541 0 -0.1134730054873082 -0.16498410574444861 0 -0.1288769000074067 -0.1787922372229141 0 -0.118443644943155 -0.18313735869921541 0 -0.1134730054873082 -0.16498410574444861 0 -0.1095912747331507 -0.1796343382558257 0 -0.118443644943155 -0.18313735869921541 0 -0.1134730054873082 -0.16498410574444861 0 -0.1143022105317214 -0.19176920984990589 0 -0.1095912747331507 -0.1796343382558257 0 -0.118443644943155 -0.18313735869921541 0 -0.1134730054873082 -0.16498410574444861 0 -0.1197703960583608 -0.14611643639736929 0 -0.1290470673658046 -0.1573335562640088 0 -0.1134730054873082 -0.16498410574444861 0 -0.1197703960583608 -0.14611643639736929 0 -0.1057127461594554 -0.15566112818699529 0 -0.091208904987890735 -0.14232661368977559 0 -0.1197703960583608 -0.14611643639736929 0 -0.1055319536065798 -0.13433424813048789 0 -0.091208904987890735 -0.14232661368977559 0 -0.1197703960583608 -0.14611643639736929 0 -0.091208904987890735 -0.14232661368977559 0 -0.098398678104261977 -0.16921735691638781 0 -0.091208904987890735 -0.14232661368977559 0 -0.1197703960583608 -0.14611643639736929 0 -0.1057127461594554 -0.15566112818699529 0 -0.091208904987890735 -0.14232661368977559 0 -0.098398678104261977 -0.16921735691638781 0 -0.1057127461594554 -0.15566112818699529 0 -0.11422347955810171 -0.1204243593602408 0 -0.089131397015513494 -0.13455644729756691 0 -0.1055319536065798 -0.13433424813048789 0 -0.091208904987890735 -0.14232661368977559 0 -0.089131397015513494 -0.13455644729756691 0 -0.1055319536065798 -0.13433424813048789 0 -0.11422347955810171 -0.1204243593602408 0 -0.089131397015513494 -0.13455644729756691 0 -0.11422347955810171 -0.1204243593602408 0 -0.1197703960583608 -0.14611643639736929 0 -0.13445671698849809 -0.1291024538471422 0 -0.11422347955810171 -0.1204243593602408 0 -0.1197703960583608 -0.14611643639736929 0 -0.1055319536065798 -0.13433424813048789 0 -0.1483318871288308 -0.14990625910496369 0 -0.16449988742022109 -0.13664022397910389 0 -0.1531014227808439 -0.1221458571451004 0 -0.13445671698849809 -0.1291024538471422 0 -0.1483318871288308 -0.14990625910496369 0 -0.1531014227808439 -0.1221458571451004 0 -0.1197703960583608 -0.14611643639736929 0 -0.1483318871288308 -0.14990625910496369 0 -0.1197703960583608 -0.14611643639736929 0 -0.13445671698849809 -0.1291024538471422 0 -0.1483318871288308 -0.14990625910496369 0 -0.1197703960583608 -0.14611643639736929 0 -0.1483318871288308 -0.14990625910496369 0 -0.1290470673658046 -0.1573335562640088 0 -0.1134730054873082 -0.16498410574444861 0 -0.13461298078871861 -0.16832742380925381 0 -0.1288769000074067 -0.1787922372229141 0 -0.1134730054873082 -0.16498410574444861 0 -0.1290470673658046 -0.1573335562640088 0 -0.13461298078871861 -0.16832742380925381 0 -0.1483318871288308 -0.14990625910496369 0 -0.1290470673658046 -0.1573335562640088 0 -0.13461298078871861 -0.16832742380925381 0 -0.1288769000074067 -0.1787922372229141 0 -0.13667151748925299 -0.18732448341615179 0 -0.12964513627792831 -0.18854704193980709 0 -0.118443644943155 -0.18313735869921541 0 -0.1288769000074067 -0.1787922372229141 0 -0.12964513627792831 -0.18854704193980709 0 -0.13461298078871861 -0.16832742380925381 0 -0.1288769000074067 -0.1787922372229141 0 -0.13971937495991149 -0.1792470101286355 0 -0.13971937495991149 -0.1792470101286355 0 -0.13667151748925299 -0.18732448341615179 0 -0.14496415935730611 -0.1865433765957375 0 -0.1288769000074067 -0.1787922372229141 0 -0.13971937495991149 -0.1792470101286355 0 -0.13667151748925299 -0.18732448341615179 0 -0.13461298078871861 -0.16832742380925381 0 -0.13971937495991149 -0.1792470101286355 0 -0.15185728900885839 -0.17281716391360821 0 -0.13971937495991149 -0.1792470101286355 0 -0.14496415935730611 -0.1865433765957375 0 -0.15185728900885839 -0.17281716391360821 0 -0.14496415935730611 -0.1865433765957375 0 -0.15185728900885839 -0.17281716391360821 0 -0.15433817598466459 -0.18776234762491931 0 -0.1483318871288308 -0.14990625910496369 0 -0.13461298078871861 -0.16832742380925381 0 -0.15185728900885839 -0.17281716391360821 0 -0.1483318871288308 -0.14990625910496369 0 -0.15185728900885839 -0.17281716391360821 0 -0.1768933781993007 -0.15369608181255809 0 -0.15185728900885839 -0.17281716391360821 0 -0.16517877359736971 -0.18077311964873491 0 -0.1768933781993007 -0.15369608181255809 0 -0.16517877359736971 -0.18077311964873491 0 -0.15433817598466459 -0.18776234762491931 0 -0.16707343948115469 -0.19329854854562631 0 -0.15185728900885839 -0.17281716391360821 0 -0.16517877359736971 -0.18077311964873491 0 -0.15433817598466459 -0.18776234762491931 0 -0.16517877359736971 -0.18077311964873491 0 -0.17993745220376059 -0.17895489523397801 0 -0.16707343948115469 -0.19329854854562631 0 -0.16517877359736971 -0.18077311964873491 0 -0.17993745220376059 -0.17895489523397801 0 -0.1768933781993007 -0.15369608181255809 0 -0.17993745220376059 -0.17895489523397801 0 -0.1768933781993007 -0.15369608181255809 0 -0.19905977422349169 -0.1755558360643551 0 -0.1768933781993007 -0.15369608181255809 0 -0.17856324423929071 -0.13411692648003359 0 -0.16449988742022109 -0.13664022397910389 0 -0.1768933781993007 -0.15369608181255809 0 -0.17856324423929071 -0.13411692648003359 0 -0.1900158864605431 -0.1418606691544825 0 -0.17856324423929071 -0.13411692648003359 0 -0.1912596026832544 -0.12883579632457359 0 -0.1900158864605431 -0.1418606691544825 0 -0.17856324423929071 -0.13411692648003359 0 -0.1912596026832544 -0.12883579632457359 0 -0.18212358698306741 -0.12142770117184561 0 -0.17856324423929071 -0.13411692648003359 0 -0.18212358698306741 -0.12142770117184561 0 -0.16904936396502779 -0.1225698900008125 0 -0.16449988742022109 -0.13664022397910389 0 -0.16904936396502779 -0.1225698900008125 0 -0.1531014227808439 -0.1221458571451004 0 -0.17856324423929071 -0.13411692648003359 0 -0.16449988742022109 -0.13664022397910389 0 -0.16904936396502779 -0.1225698900008125 0 -0.1483318871288308 -0.14990625910496369 0 -0.1768933781993007 -0.15369608181255809 0 -0.1483318871288308 -0.14990625910496369 0 -0.1768933781993007 -0.15369608181255809 0 -0.16449988742022109 -0.13664022397910389 0 -0.15566934165753701 -0.24482136105764621 0 -0.13482897363606841 -0.24297815366164491 0 -0.14564999181442231 -0.22989611270817639 0 -0.15566934165753701 -0.24482136105764621 0 -0.14564999181442231 -0.22989611270817639 0 -0.16429012863802009 -0.23491512272004891 0 -0.15821309250511281 -0.26118480488572993 0 -0.15566934165753701 -0.24482136105764621 0 -0.13482897363606841 -0.24297815366164491 0 -0.1283361407779757 -0.25159171728621699 0 -0.13482897363606841 -0.24297815366164491 0 -0.1310987251445577 -0.2446583467236331 0 -0.1283361407779757 -0.25159171728621699 0 -0.1310987251445577 -0.2446583467236331 0 -0.1270777831465402 -0.24161244513161839 0 -0.1283361407779757 -0.25159171728621699 0 -0.11992695639240671 -0.24305274461581289 0 -0.1270777831465402 -0.24161244513161839 0 -0.13482897363606841 -0.24297815366164491 0 -0.1310987251445577 -0.2446583467236331 0 -0.1270777831465402 -0.24161244513161839 0 -0.13482897363606841 -0.24297815366164491 0 -0.12594535918601221 -0.23537450645762351 0 -0.1270777831465402 -0.24161244513161839 0 -0.13482897363606841 -0.24297815366164491 0 -0.12964778408632779 -0.2240559515308029 0 -0.14564999181442231 -0.22989611270817639 0 -0.13482897363606841 -0.24297815366164491 0 -0.12594535918601221 -0.23537450645762351 0 -0.12964778408632779 -0.2240559515308029 0 -0.13482897363606841 -0.24297815366164491 0 -0.12964778408632779 -0.2240559515308029 0 -0.12964778408632779 -0.2240559515308029 0 -0.14564999181442231 -0.22989611270817639 0 -0.13906082520362789 -0.21424948005767519 0 -0.14564999181442231 -0.22989611270817639 0 -0.1532157355819776 -0.21469763412746851 0 -0.16429012863802009 -0.23491512272004891 0 -0.14564999181442231 -0.22989611270817639 0 -0.1532157355819776 -0.21469763412746851 0 -0.13906082520362789 -0.21424948005767519 0 -0.1532157355819776 -0.21469763412746851 0 -0.1421413425259351 -0.1944801455348881 0 -0.14344356041104711 -0.20138231805780499 0 -0.1532157355819776 -0.21469763412746851 0 -0.1421413425259351 -0.1944801455348881 0 -0.1532157355819776 -0.21469763412746851 0 -0.13906082520362789 -0.21424948005767519 0 -0.14344356041104711 -0.20138231805780499 0 -0.12964778408632779 -0.2240559515308029 0 -0.13906082520362789 -0.21424948005767519 0 -0.12775347419704111 -0.20670520812175669 0 -0.12446659453658469 -0.2051337493999616 0 -0.12964778408632779 -0.2240559515308029 0 -0.12775347419704111 -0.20670520812175669 0 -0.12446659453658469 -0.2051337493999616 0 -0.12964778408632779 -0.2240559515308029 0 -0.1234142843990034 -0.20129061165398179 0 -0.12775347419704111 -0.20670520812175669 0 -0.1342433848347403 -0.2059710501757869 0 -0.1234142843990034 -0.20129061165398179 0 -0.12446659453658469 -0.2051337493999616 0 -0.12775347419704111 -0.20670520812175669 0 -0.12446659453658469 -0.2051337493999616 0 -0.12775347419704111 -0.20670520812175669 0 -0.13906082520362789 -0.21424948005767519 0 -0.12775347419704111 -0.20670520812175669 0 -0.1342433848347403 -0.2059710501757869 0 -0.13906082520362789 -0.21424948005767519 0 -0.1342433848347403 -0.2059710501757869 0 -0.14344356041104711 -0.20138231805780499 0 -0.13448747671815081 -0.19705371152474219 0 -0.1421413425259351 -0.1944801455348881 0 -0.14344356041104711 -0.20138231805780499 0 -0.1234142843990034 -0.20129061165398179 0 -0.1342433848347403 -0.2059710501757869 0 -0.14344356041104711 -0.20138231805780499 0 -0.1234142843990034 -0.20129061165398179 0 -0.13448747671815081 -0.19705371152474219 0 -0.14344356041104711 -0.20138231805780499 0 -0.1234142843990034 -0.20129061165398179 0 -0.14344356041104711 -0.20138231805780499 0 -0.1234142843990034 -0.20129061165398179 0 -0.13448747671815081 -0.19705371152474219 0 -0.12836978379805469 -0.19505845874684749 0 -0.118443644943155 -0.18313735869921541 0 -0.12836978379805469 -0.19505845874684749 0 -0.12964513627792831 -0.18854704193980709 0 -0.12836978379805469 -0.19505845874684749 0 -0.12964513627792831 -0.18854704193980709 0 -0.1350684124567138 -0.19305702363018909 0 -0.13448747671815081 -0.19705371152474219 0 -0.12836978379805469 -0.19505845874684749 0 -0.1350684124567138 -0.19305702363018909 0 -0.13667151748925299 -0.18732448341615179 0 -0.12964513627792831 -0.18854704193980709 0 -0.1350684124567138 -0.19305702363018909 0 -0.13448747671815081 -0.19705371152474219 0 -0.1350684124567138 -0.19305702363018909 0 -0.1421413425259351 -0.1944801455348881 0 -0.13667151748925299 -0.18732448341615179 0 -0.1350684124567138 -0.19305702363018909 0 -0.1421413425259351 -0.1944801455348881 0 -0.1532157355819776 -0.21469763412746851 0 -0.1421413425259351 -0.1944801455348881 0 -0.15666351948114629 -0.1995899832452937 0 -0.13667151748925299 -0.18732448341615179 0 -0.14496415935730611 -0.1865433765957375 0 -0.1421413425259351 -0.1944801455348881 0 -0.14496415935730611 -0.1865433765957375 0 -0.1421413425259351 -0.1944801455348881 0 -0.15433817598466459 -0.18776234762491931 0 -0.1421413425259351 -0.1944801455348881 0 -0.15433817598466459 -0.18776234762491931 0 -0.15666351948114629 -0.1995899832452937 0 -0.15433817598466459 -0.18776234762491931 0 -0.15666351948114629 -0.1995899832452937 0 -0.16707343948115469 -0.19329854854562631 0 -0.15666351948114629 -0.1995899832452937 0 -0.16707343948115469 -0.19329854854562631 0 -0.16732224548458891 -0.20842311436722119 0 -0.16707343948115469 -0.19329854854562631 0 -0.17975878066101059 -0.20042989322362739 0 -0.16732224548458891 -0.20842311436722119 0 -0.17993745220376059 -0.17895489523397801 0 -0.17975878066101059 -0.20042989322362739 0 -0.19266467917721081 -0.1936257676085566 0 -0.17993745220376059 -0.17895489523397801 0 -0.16707343948115469 -0.19329854854562631 0 -0.17975878066101059 -0.20042989322362739 0 -0.17975878066101059 -0.20042989322362739 0 -0.18070391625864071 -0.21863984915545301 0 -0.19253239785726259 -0.2093467412910768 0 -0.17975878066101059 -0.20042989322362739 0 -0.18070391625864071 -0.21863984915545301 0 -0.16732224548458891 -0.20842311436722119 0 -0.1532157355819776 -0.21469763412746851 0 -0.15666351948114629 -0.1995899832452937 0 -0.16732224548458891 -0.20842311436722119 0 -0.1532157355819776 -0.21469763412746851 0 -0.16732224548458891 -0.20842311436722119 0 -0.16429012863802009 -0.23491512272004891 0 -0.1532157355819776 -0.21469763412746851 0 -0.16429012863802009 -0.23491512272004891 0 -0.18070391625864071 -0.21863984915545301 0 -0.16732224548458891 -0.20842311436722119 0 -0.16429012863802009 -0.23491512272004891 0 -0.18070391625864071 -0.21863984915545301 0 -0.18601458812680871 -0.23629827425452701 0 -0.16429012863802009 -0.23491512272004891 0 -0.18070391625864071 -0.21863984915545301 0 -0.18601458812680871 -0.23629827425452701 0 -0.19270158591305361 -0.22296204550849591 0 -0.17536452169406261 -0.25513261131262932 0 -0.18601458812680871 -0.23629827425452701 0 -0.1971211098569064 -0.2485562144643311 0 -0.17536452169406261 -0.25513261131262932 0 -0.18601458812680871 -0.23629827425452701 0 -0.16429012863802009 -0.23491512272004891 0 -0.17536452169406261 -0.25513261131262932 0 -0.16429012863802009 -0.23491512272004891 0 -0.17536452169406261 -0.25513261131262932 0 -0.15566934165753701 -0.24482136105764621 0 -0.16429012863802009 -0.23491512272004891 0 -0.2040044810152343 -0.23377727090047351 0 -0.22181314593257209 -0.22697511150882529 0 -0.22025275826160279 -0.2471257797298928 0 -0.1971211098569064 -0.2485562144643311 0 -0.2040044810152343 -0.23377727090047351 0 -0.22025275826160279 -0.2471257797298928 0 -0.18601458812680871 -0.23629827425452701 0 -0.1971211098569064 -0.2485562144643311 0 -0.2040044810152343 -0.23377727090047351 0 -0.18601458812680871 -0.23629827425452701 0 -0.19270158591305361 -0.22296204550849591 0 -0.2040044810152343 -0.23377727090047351 0 -0.19270158591305361 -0.22296204550849591 0 -0.20646661184779291 -0.2209366033754204 0 -0.2040044810152343 -0.23377727090047351 0 -0.20646661184779291 -0.2209366033754204 0 -0.2040044810152343 -0.23377727090047351 0 -0.22181314593257209 -0.22697511150882529 0 -0.20646661184779291 -0.2209366033754204 0 -0.22181314593257209 -0.22697511150882529 0 -0.20646661184779291 -0.2209366033754204 0 -0.21966781828876961 -0.21222017746694699 0 -0.22181314593257209 -0.22697511150882529 0 -0.20646661184779291 -0.2209366033754204 0 -0.20611948272011121 -0.20304611138236681 0 -0.21966781828876961 -0.21222017746694699 0 -0.20611948272011121 -0.20304611138236681 0 -0.21897926871800019 -0.19669337567287831 0 -0.21966781828876961 -0.21222017746694699 0 -0.20646661184779291 -0.2209366033754204 0 -0.19253239785726259 -0.2093467412910768 0 -0.20611948272011121 -0.20304611138236681 0 -0.19270158591305361 -0.22296204550849591 0 -0.20646661184779291 -0.2209366033754204 0 -0.19253239785726259 -0.2093467412910768 0 -0.18070391625864071 -0.21863984915545301 0 -0.19270158591305361 -0.22296204550849591 0 -0.19253239785726259 -0.2093467412910768 0 -0.19266467917721081 -0.1936257676085566 0 -0.20611948272011121 -0.20304611138236681 0 -0.2083219237785757 -0.1873320277690235 0 -0.17975878066101059 -0.20042989322362739 0 -0.19253239785726259 -0.2093467412910768 0 -0.19266467917721081 -0.1936257676085566 0 -0.19253239785726259 -0.2093467412910768 0 -0.19266467917721081 -0.1936257676085566 0 -0.20611948272011121 -0.20304611138236681 0 -0.20611948272011121 -0.20304611138236681 0 -0.21897926871800019 -0.19669337567287831 0 -0.2083219237785757 -0.1873320277690235 0 -0.21897926871800019 -0.19669337567287831 0 -0.23230424975577199 -0.20503470769258789 0 -0.23313215691775949 -0.18450877018534409 0 -0.2448317244682672 -0.19494017856122331 0 -0.23230424975577199 -0.20503470769258789 0 -0.23313215691775949 -0.18450877018534409 0 -0.2448317244682672 -0.19494017856122331 0 -0.24405101732391901 -0.2151790953022156 0 -0.23230424975577199 -0.20503470769258789 0 -0.2448317244682672 -0.19494017856122331 0 -0.24405101732391901 -0.2151790953022156 0 -0.24405101732391901 -0.2151790953022156 0 -0.23230424975577199 -0.20503470769258789 0 -0.23232415075836929 -0.22063515516960361 0 -0.23230424975577199 -0.20503470769258789 0 -0.21966781828876961 -0.21222017746694699 0 -0.23232415075836929 -0.22063515516960361 0 -0.21897926871800019 -0.19669337567287831 0 -0.23230424975577199 -0.20503470769258789 0 -0.21966781828876961 -0.21222017746694699 0 -0.21966781828876961 -0.21222017746694699 0 -0.22181314593257209 -0.22697511150882529 0 -0.23232415075836929 -0.22063515516960361 0 -0.22181314593257209 -0.22697511150882529 0 -0.23232415075836929 -0.22063515516960361 0 -0.2371596800173508 -0.23301361964223161 0 -0.22181314593257209 -0.22697511150882529 0 -0.2371596800173508 -0.23301361964223161 0 -0.24405101732391901 -0.2151790953022156 0 -0.24327031017957049 -0.23541801204320789 0 -0.24405101732391901 -0.2151790953022156 0 -0.24327031017957049 -0.23541801204320789 0 -0.25588924886857078 -0.22577026586403889 0 -0.24405101732391901 -0.2151790953022156 0 -0.23232415075836929 -0.22063515516960361 0 -0.23916826383476761 -0.23133706037317611 0 -0.24405101732391901 -0.2151790953022156 0 -0.23916826383476761 -0.23133706037317611 0 -0.24327031017957049 -0.23541801204320789 0 -0.23916826383476761 -0.23133706037317611 0 -0.2371596800173508 -0.23301361964223161 0 -0.24327031017957049 -0.23541801204320789 0 -0.2371596800173508 -0.23301361964223161 0 -0.24327031017957049 -0.23541801204320789 0 -0.23232415075836929 -0.22063515516960361 0 -0.23916826383476761 -0.23133706037317611 0 -0.2371596800173508 -0.23301361964223161 0 -0.23916826383476761 -0.23133706037317611 0 -0.2371596800173508 -0.23301361964223161 0 -0.24233717299785959 -0.25960849866204011 0 -0.24327031017957049 -0.23541801204320789 0 -0.23442911476228809 -0.24683612341654529 0 -0.24233717299785959 -0.25960849866204011 0 -0.24327031017957049 -0.23541801204320789 0 -0.25018128361314113 -0.24746468840205441 0 -0.2371596800173508 -0.23301361964223161 0 -0.24327031017957049 -0.23541801204320789 0 -0.23442911476228809 -0.24683612341654529 0 -0.24233717299785959 -0.25960849866204011 0 -0.24327031017957049 -0.23541801204320789 0 -0.2371596800173508 -0.23301361964223161 0 -0.22025275826160279 -0.2471257797298928 0 -0.2371596800173508 -0.23301361964223161 0 -0.23442911476228809 -0.24683612341654529 0 -0.22025275826160279 -0.2471257797298928 0 -0.22181314593257209 -0.22697511150882529 0 -0.2371596800173508 -0.23301361964223161 0 -0.22025275826160279 -0.2471257797298928 0 -0.21260261997950849 -0.1372892749024191 0 -0.20545486926977061 -0.1574859045201529 0 -0.21260261997950849 -0.1372892749024191 0 -0.20545486926977061 -0.1574859045201529 0 -0.22601880180638709 -0.14497793796819641 0 -0.21260261997950849 -0.1372892749024191 0 -0.20085213665154589 -0.13643960324073179 0 -0.20545486926977061 -0.1574859045201529 0 -0.21260261997950849 -0.1372892749024191 0 -0.2197503706892443 -0.1170926452846846 0 -0.20366324778073339 -0.1226314006036201 0 -0.21260261997950849 -0.1372892749024191 0 -0.2197503706892443 -0.1170926452846846 0 -0.21260261997950849 -0.1372892749024191 0 -0.20085213665154589 -0.13643960324073179 0 -0.20366324778073339 -0.1226314006036201 0 -0.20085213665154589 -0.13643960324073179 0 -0.1912596026832544 -0.12883579632457359 0 -0.20366324778073339 -0.1226314006036201 0 -0.20085213665154589 -0.13643960324073179 0 -0.1912596026832544 -0.12883579632457359 0 -0.1900158864605431 -0.1418606691544825 0 -0.1768933781993007 -0.15369608181255809 0 -0.1900158864605431 -0.1418606691544825 0 -0.20545486926977061 -0.1574859045201529 0 -0.1768933781993007 -0.15369608181255809 0 -0.20545486926977061 -0.1574859045201529 0 -0.20085213665154589 -0.13643960324073179 0 -0.1900158864605431 -0.1418606691544825 0 -0.20545486926977061 -0.1574859045201529 0 -0.1768933781993007 -0.15369608181255809 0 -0.19905977422349169 -0.1755558360643551 0 -0.20545486926977061 -0.1574859045201529 0 -0.19905977422349169 -0.1755558360643551 0 -0.20545486926977061 -0.1574859045201529 0 -0.19266467917721081 -0.1936257676085566 0 -0.19905977422349169 -0.1755558360643551 0 -0.19266467917721081 -0.1936257676085566 0 -0.19905977422349169 -0.1755558360643551 0 -0.2083219237785757 -0.1873320277690235 0 -0.17993745220376059 -0.17895489523397801 0 -0.19266467917721081 -0.1936257676085566 0 -0.19905977422349169 -0.1755558360643551 0 -0.21897926871800019 -0.19669337567287831 0 -0.2083219237785757 -0.1873320277690235 0 -0.21860002285518379 -0.17692462022396371 0 -0.19905977422349169 -0.1755558360643551 0 -0.2083219237785757 -0.1873320277690235 0 -0.21860002285518379 -0.17692462022396371 0 -0.19905977422349169 -0.1755558360643551 0 -0.21860002285518379 -0.17692462022396371 0 -0.20545486926977061 -0.1574859045201529 0 -0.21860002285518379 -0.17692462022396371 0 -0.20545486926977061 -0.1574859045201529 0 -0.2334194436613071 -0.16119652238585741 0 -0.20545486926977061 -0.1574859045201529 0 -0.2334194436613071 -0.16119652238585741 0 -0.21860002285518379 -0.17692462022396371 0 -0.2334194436613071 -0.16119652238585741 0 -0.23313215691775949 -0.18450877018534409 0 -0.21897926871800019 -0.19669337567287831 0 -0.21860002285518379 -0.17692462022396371 0 -0.23313215691775949 -0.18450877018534409 0 -0.2448317244682672 -0.19494017856122331 0 -0.24561243161261531 -0.1747012618202311 0 -0.2448317244682672 -0.19494017856122331 0 -0.23313215691775949 -0.18450877018534409 0 -0.24561243161261531 -0.1747012618202311 0 -0.2334194436613071 -0.16119652238585741 0 -0.23313215691775949 -0.18450877018534409 0 -0.24561243161261531 -0.1747012618202311 0 -0.2334194436613071 -0.16119652238585741 0 -0.24768759332024501 -0.15288591991307249 0 -0.26138401805284373 -0.16490714025156239 0 -0.2334194436613071 -0.16119652238585741 0 -0.24561243161261531 -0.1747012618202311 0 -0.26138401805284373 -0.16490714025156239 0 -0.2334194436613071 -0.16119652238585741 0 -0.26138401805284373 -0.16490714025156239 0 -0.24768759332024501 -0.15288591991307249 0 -0.24035206963199701 -0.13773520297616959 0 -0.25066558347885931 -0.13251764995053431 0 -0.23716828236838119 -0.14842713651880179 0 -0.22601880180638709 -0.14497793796819641 0 -0.24035206963199701 -0.13773520297616959 0 -0.24768759332024501 -0.15288591991307249 0 -0.23716828236838119 -0.14842713651880179 0 -0.24035206963199701 -0.13773520297616959 0 -0.2334194436613071 -0.16119652238585741 0 -0.24768759332024501 -0.15288591991307249 0 -0.23716828236838119 -0.14842713651880179 0 -0.20545486926977061 -0.1574859045201529 0 -0.2334194436613071 -0.16119652238585741 0 -0.22601880180638709 -0.14497793796819641 0 -0.2334194436613071 -0.16119652238585741 0 -0.23716828236838119 -0.14842713651880179 0 -0.22601880180638709 -0.14497793796819641 0 -0.21260261997950849 -0.1372892749024191 0 -0.22701037204806629 -0.12800517972509859 0 -0.2197503706892443 -0.1170926452846846 0 -0.22601880180638709 -0.14497793796819641 0 -0.22701037204806629 -0.12800517972509859 0 -0.24035206963199701 -0.13773520297616959 0 -0.21260261997950849 -0.1372892749024191 0 -0.22601880180638709 -0.14497793796819641 0 -0.22701037204806629 -0.12800517972509859 0 -0.22701037204806629 -0.12800517972509859 0 -0.23833475363582929 -0.12699719077821001 0 -0.24035206963199701 -0.13773520297616959 0 -0.23833475363582929 -0.12699719077821001 0 -0.24035206963199701 -0.13773520297616959 0 -0.25066558347885931 -0.13251764995053431 0 -0.23833475363582929 -0.12699719077821001 0 -0.2466021228926524 -0.1215603100838341 0 -0.25066558347885931 -0.13251764995053431 0 -0.2466021228926524 -0.1215603100838341 0 -0.23420880670407421 -0.115344861449812 0 -0.25028307647261949 -0.1119170655065333 0 -0.23833475363582929 -0.12699719077821001 0 -0.2466021228926524 -0.1215603100838341 0 -0.23420880670407421 -0.115344861449812 0 -0.23975108867161321 -0.096745383671773488 0 -0.23420880670407421 -0.115344861449812 0 -0.25028307647261949 -0.1119170655065333 0 -0.23975108867161321 -0.096745383671773488 0 -0.25028307647261949 -0.1119170655065333 0 -0.25454071313255938 -0.097810231909066098 0 -0.23975108867161321 -0.096745383671773488 0 -0.22550089202944229 -0.1008440162637169 0 -0.23125141336964011 -0.084595387242749231 0 -0.23975108867161321 -0.096745383671773488 0 -0.22550089202944229 -0.1008440162637169 0 -0.23420880670407421 -0.115344861449812 0 -0.22550089202944229 -0.1008440162637169 0 -0.23125141336964011 -0.084595387242749231 0 -0.20770402821161371 -0.098985744105056478 0 -0.22550089202944229 -0.1008440162637169 0 -0.2197503706892443 -0.1170926452846846 0 -0.22550089202944229 -0.1008440162637169 0 -0.2197503706892443 -0.1170926452846846 0 -0.23420880670407421 -0.115344861449812 0 -0.22701037204806629 -0.12800517972509859 0 -0.2197503706892443 -0.1170926452846846 0 -0.22701037204806629 -0.12800517972509859 0 -0.2197503706892443 -0.1170926452846846 0 -0.23420880670407421 -0.115344861449812 0 -0.22701037204806629 -0.12800517972509859 0 -0.23833475363582929 -0.12699719077821001 0 -0.23420880670407421 -0.115344861449812 0 -0.24621250417125429 -0.067242688607955695 0 -0.2359213828018043 -0.071399957410672343 0 -0.2460442741291925 -0.056732515276429897 0 -0.24101683233652779 -0.07862751170581421 0 -0.252754029676304 -0.071454636367457428 0 -0.24621250417125429 -0.067242688607955695 0 -0.24101683233652779 -0.07862751170581421 0 -0.252754029676304 -0.071454636367457428 0 -0.2359213828018043 -0.071399957410672343 0 -0.24101683233652779 -0.07862751170581421 0 -0.24621250417125429 -0.067242688607955695 0 -0.2359213828018043 -0.071399957410672343 0 -0.24101683233652779 -0.07862751170581421 0 -0.24101683233652779 -0.07862751170581421 0 -0.25454071313255938 -0.097810231909066098 0 -0.23975108867161321 -0.096745383671773488 0 -0.24101683233652779 -0.07862751170581421 0 -0.25454071313255938 -0.097810231909066098 0 -0.23975108867161321 -0.096745383671773488 0 -0.24101683233652779 -0.07862751170581421 0 -0.23125141336964011 -0.084595387242749231 0 -0.24101683233652779 -0.07862751170581421 0 -0.23125141336964011 -0.084595387242749231 0 -0.2359213828018043 -0.071399957410672343 0 -0.24101683233652779 -0.07862751170581421 0 -0.23125141336964011 -0.084595387242749231 0 -0.23125141336964011 -0.084595387242749231 0 -0.2244703125416819 -0.072794076224461268 0 -0.21310247649950159 -0.079773441579648038 0 -0.23125141336964011 -0.084595387242749231 0 -0.20770402821161371 -0.098985744105056478 0 -0.22550089202944229 -0.1008440162637169 0 -0.23125141336964011 -0.084595387242749231 0 -0.2359213828018043 -0.071399957410672343 0 -0.2235514570548072 -0.053854045248439182 0 -0.2244703125416819 -0.072794076224461268 0 -0.21482267827762841 -0.069082647852091478 0 -0.2235514570548072 -0.053854045248439182 0 -0.2359213828018043 -0.071399957410672343 0 -0.2244703125416819 -0.072794076224461268 0 -0.2235514570548072 -0.053854045248439182 0 -0.2359213828018043 -0.071399957410672343 0 -0.23125141336964011 -0.084595387242749231 0 -0.2244703125416819 -0.072794076224461268 0 -0.2359213828018043 -0.071399957410672343 0 -0.23125141336964011 -0.084595387242749231 0 -0.20472732395068391 -0.070425609547595483 0 -0.21310247649950159 -0.079773441579648038 0 -0.1942101978544846 -0.078703118630565005 0 -0.21482267827762841 -0.069082647852091478 0 -0.20472732395068391 -0.070425609547595483 0 -0.20783277774853701 -0.056374475910446593 0 -0.2244703125416819 -0.072794076224461268 0 -0.21482267827762841 -0.069082647852091478 0 -0.21310247649950159 -0.079773441579648038 0 -0.21482267827762841 -0.069082647852091478 0 -0.20472732395068391 -0.070425609547595483 0 -0.21310247649950159 -0.079773441579648038 0 -0.23125141336964011 -0.084595387242749231 0 -0.21310247649950159 -0.079773441579648038 0 -0.20770402821161371 -0.098985744105056478 0 -0.21310247649950159 -0.079773441579648038 0 -0.1942101978544846 -0.078703118630565005 0 -0.20770402821161371 -0.098985744105056478 0 -0.1942101978544846 -0.078703118630565005 0 -0.20770402821161371 -0.098985744105056478 0 -0.1942101978544846 -0.078703118630565005 0 -0.20770402821161371 -0.098985744105056478 0 -0.19331927689223261 -0.094690670375105077 0 -0.1942101978544846 -0.078703118630565005 0 -0.19331927689223261 -0.094690670375105077 0 -0.1804061946459036 -0.0975656506999769 0 -0.1942101978544846 -0.078703118630565005 0 -0.1807163674973549 -0.058420493156073998 0 -0.19569491766720151 -0.061370611856350392 0 -0.20472732395068391 -0.070425609547595483 0 -0.1942101978544846 -0.078703118630565005 0 -0.19569491766720151 -0.061370611856350392 0 -0.20472732395068391 -0.070425609547595483 0 -0.19569491766720151 -0.061370611856350392 0 -0.20783277774853701 -0.056374475910446593 0 -0.2197503706892443 -0.1170926452846846 0 -0.20366324778073339 -0.1226314006036201 0 -0.20770402821161371 -0.098985744105056478 0 -0.22550089202944229 -0.1008440162637169 0 -0.2197503706892443 -0.1170926452846846 0 -0.20770402821161371 -0.098985744105056478 0 -0.2197503706892443 -0.1170926452846846 0 -0.20770402821161371 -0.098985744105056478 0 -0.20770402821161371 -0.098985744105056478 0 -0.19331927689223261 -0.094690670375105077 0 -0.18400427859456039 -0.1134692144457318 0 -0.20770402821161371 -0.098985744105056478 0 -0.18400427859456039 -0.1134692144457318 0 -0.20770402821161371 -0.098985744105056478 0 -0.19170728544238649 -0.1194909919475228 0 -0.18400427859456039 -0.1134692144457318 0 -0.20366324778073339 -0.1226314006036201 0 -0.20770402821161371 -0.098985744105056478 0 -0.19170728544238649 -0.1194909919475228 0 -0.1912596026832544 -0.12883579632457359 0 -0.20366324778073339 -0.1226314006036201 0 -0.19170728544238649 -0.1194909919475228 0 -0.1912596026832544 -0.12883579632457359 0 -0.19170728544238649 -0.1194909919475228 0 -0.18212358698306741 -0.12142770117184561 0 -0.18212358698306741 -0.12142770117184561 0 -0.18400427859456039 -0.1134692144457318 0 -0.1804061946459036 -0.0975656506999769 0 -0.18212358698306741 -0.12142770117184561 0 -0.17231042801981861 -0.11010941660198729 0 -0.1804061946459036 -0.0975656506999769 0 -0.19170728544238649 -0.1194909919475228 0 -0.18212358698306741 -0.12142770117184561 0 -0.18400427859456039 -0.1134692144457318 0 -0.18212358698306741 -0.12142770117184561 0 -0.1804061946459036 -0.0975656506999769 0 -0.18212358698306741 -0.12142770117184561 0 -0.17231042801981861 -0.11010941660198729 0 -0.16904936396502779 -0.1225698900008125 0 -0.16904936396502779 -0.1225698900008125 0 -0.16303186383997401 -0.11054530689275879 0 -0.1531014227808439 -0.1221458571451004 0 -0.16303186383997401 -0.11054530689275879 0 -0.1531014227808439 -0.1221458571451004 0 -0.15302467802266631 -0.099964594768007481 0 -0.17231042801981861 -0.11010941660198729 0 -0.16904936396502779 -0.1225698900008125 0 -0.16303186383997401 -0.11054530689275879 0 -0.16694113066512001 -0.098438534244542714 0 -0.1583311292500037 -0.086155785580523059 0 -0.15302467802266631 -0.099964594768007481 0 -0.16303186383997401 -0.11054530689275879 0 -0.16694113066512001 -0.098438534244542714 0 -0.15302467802266631 -0.099964594768007481 0 -0.17231042801981861 -0.11010941660198729 0 -0.16303186383997401 -0.11054530689275879 0 -0.16694113066512001 -0.098438534244542714 0 -0.16694113066512001 -0.098438534244542714 0 -0.1804061946459036 -0.0975656506999769 0 -0.1699979234477183 -0.086164615643162509 0 -0.19331927689223261 -0.094690670375105077 0 -0.18400427859456039 -0.1134692144457318 0 -0.1804061946459036 -0.0975656506999769 0 -0.17231042801981861 -0.11010941660198729 0 -0.16694113066512001 -0.098438534244542714 0 -0.1804061946459036 -0.0975656506999769 0 -0.1942101978544846 -0.078703118630565005 0 -0.1804061946459036 -0.0975656506999769 0 -0.17868880230873979 -0.073703600228108263 0 -0.1804061946459036 -0.0975656506999769 0 -0.17868880230873979 -0.073703600228108263 0 -0.1804061946459036 -0.0975656506999769 0 -0.17868880230873979 -0.073703600228108263 0 -0.1699979234477183 -0.086164615643162509 0 -0.1942101978544846 -0.078703118630565005 0 -0.17868880230873979 -0.073703600228108263 0 -0.1807163674973549 -0.058420493156073998 0 -0.1942101978544846 -0.078703118630565005 0 -0.1807163674973549 -0.058420493156073998 0 -0.17868880230873979 -0.073703600228108263 0 -0.16456215259537851 -0.07423447470758808 0 -0.1687761726195266 -0.062055246708151823 0 -0.16456215259537851 -0.07423447470758808 0 -0.1601060057786266 -0.063048208625582775 0 -0.1687761726195266 -0.062055246708151823 0 -0.17868880230873979 -0.073703600228108263 0 -0.16456215259537851 -0.07423447470758808 0 -0.1699979234477183 -0.086164615643162509 0 -0.16456215259537851 -0.07423447470758808 0 -0.1601060057786266 -0.063048208625582775 0 -0.15147288216765581 -0.074279391460000108 0 -0.16694113066512001 -0.098438534244542714 0 -0.1699979234477183 -0.086164615643162509 0 -0.1583311292500037 -0.086155785580523059 0 -0.16456215259537851 -0.07423447470758808 0 -0.1699979234477183 -0.086164615643162509 0 -0.1583311292500037 -0.086155785580523059 0 -0.16456215259537851 -0.07423447470758808 0 -0.1583311292500037 -0.086155785580523059 0 -0.15147288216765581 -0.074279391460000108 0 -0.1583311292500037 -0.086155785580523059 0 -0.1406917504718985 -0.083199174386461974 0 -0.15147288216765581 -0.074279391460000108 0 -0.1583311292500037 -0.086155785580523059 0 -0.1406917504718985 -0.083199174386461974 0 -0.15302467802266631 -0.099964594768007481 0 -0.1601060057786266 -0.063048208625582775 0 -0.15147288216765581 -0.074279391460000108 0 -0.14916280428309589 -0.053864076679432472 0 -0.15147288216765581 -0.074279391460000108 0 -0.13891648936515211 -0.064472249171247775 0 -0.14916280428309589 -0.053864076679432472 0 -0.1406917504718985 -0.083199174386461974 0 -0.15147288216765581 -0.074279391460000108 0 -0.13891648936515211 -0.064472249171247775 0 -0.12197003300458489 -0.067133964797042034 0 -0.1406917504718985 -0.083199174386461974 0 -0.13891648936515211 -0.064472249171247775 0 -0.121811479392537 -0.084095963505499416 0 -0.12197003300458489 -0.067133964797042034 0 -0.1406917504718985 -0.083199174386461974 0 -0.121811479392537 -0.084095963505499416 0 -0.1406917504718985 -0.083199174386461974 0 -0.13931556210068971 -0.10629227142291391 0 -0.11605893441195141 -0.10185107539240761 0 -0.121811479392537 -0.084095963505499416 0 -0.13931556210068971 -0.10629227142291391 0 -0.11422347955810171 -0.1204243593602408 0 -0.13931556210068971 -0.10629227142291391 0 -0.11422347955810171 -0.1204243593602408 0 -0.13445671698849809 -0.1291024538471422 0 -0.13931556210068971 -0.10629227142291391 0 -0.13445671698849809 -0.1291024538471422 0 -0.13931556210068971 -0.10629227142291391 0 -0.1531014227808439 -0.1221458571451004 0 -0.13931556210068971 -0.10629227142291391 0 -0.1531014227808439 -0.1221458571451004 0 -0.15302467802266631 -0.099964594768007481 0 -0.1406917504718985 -0.083199174386461974 0 -0.13931556210068971 -0.10629227142291391 0 -0.15302467802266631 -0.099964594768007481 0 -0.14079925107272581 -0.02334449083682992 0 -0.15349169287978739 -0.035208883327978051 0 -0.15939520176274349 -0.015620398581745401 0 -0.14079925107272581 -0.02334449083682992 0 -0.14275634286812811 -0.006203461430080404 0 -0.15939520176274349 -0.015620398581745401 0 -0.14275634286812811 -0.006203461430080404 0 -0.15939520176274349 -0.015620398581745401 0 -0.15796117991031841 -0.00029962151665172479 0 -0.14079925107272581 -0.02334449083682992 0 -0.14275634286812811 -0.006203461430080404 0 -0.1278640484455188 -0.012334690821253821 0 -0.14275634286812811 -0.006203461430080404 0 -0.1278640484455188 -0.012334690821253821 0 -0.1273771369441013 0.0023450629401116992 0 -0.12411398995058071 -0.026208981462584841 0 -0.14079925107272581 -0.02334449083682992 0 -0.1278640484455188 -0.012334690821253821 0 -0.12411398995058071 -0.026208981462584841 0 -0.14079925107272581 -0.02334449083682992 0 -0.13241258759658719 -0.044529255409706578 0 -0.13891648936515211 -0.064472249171247775 0 -0.13241258759658719 -0.044529255409706578 0 -0.14916280428309589 -0.053864076679432472 0 -0.12197003300458489 -0.067133964797042034 0 -0.13891648936515211 -0.064472249171247775 0 -0.13241258759658719 -0.044529255409706578 0 -0.14079925107272581 -0.02334449083682992 0 -0.13241258759658719 -0.044529255409706578 0 -0.15349169287978739 -0.035208883327978051 0 -0.14916280428309589 -0.053864076679432472 0 -0.15349169287978739 -0.035208883327978051 0 -0.16249228466986629 -0.048723367468166891 0 -0.13241258759658719 -0.044529255409706578 0 -0.14916280428309589 -0.053864076679432472 0 -0.15349169287978739 -0.035208883327978051 0 -0.15349169287978739 -0.035208883327978051 0 -0.16249228466986629 -0.048723367468166891 0 -0.17525401763441231 -0.025979499284370731 0 -0.16249228466986629 -0.048723367468166891 0 -0.17697140997157609 -0.049841549756239563 0 -0.17525401763441231 -0.025979499284370731 0 -0.1601060057786266 -0.063048208625582775 0 -0.14916280428309589 -0.053864076679432472 0 -0.16249228466986629 -0.048723367468166891 0 -0.1601060057786266 -0.063048208625582775 0 -0.16249228466986629 -0.048723367468166891 0 -0.1687761726195266 -0.062055246708151823 0 -0.16249228466986629 -0.048723367468166891 0 -0.1687761726195266 -0.062055246708151823 0 -0.17697140997157609 -0.049841549756239563 0 -0.17868880230873979 -0.073703600228108263 0 -0.17697140997157609 -0.049841549756239563 0 -0.17868880230873979 -0.073703600228108263 0 -0.17697140997157609 -0.049841549756239563 0 -0.1807163674973549 -0.058420493156073998 0 -0.17868880230873979 -0.073703600228108263 0 -0.1687761726195266 -0.062055246708151823 0 -0.17697140997157609 -0.049841549756239563 0 -0.17697140997157609 -0.049841549756239563 0 -0.187061179232277 -0.050545000195171969 0 -0.1807163674973549 -0.058420493156073998 0 -0.17697140997157609 -0.049841549756239563 0 -0.17525401763441231 -0.025979499284370731 0 -0.17697140997157609 -0.049841549756239563 0 -0.1844822702309237 -0.037308153316215523 0 -0.17525401763441231 -0.025979499284370731 0 -0.17697140997157609 -0.049841549756239563 0 -0.187061179232277 -0.050545000195171969 0 -0.1844822702309237 -0.037308153316215523 0 -0.1844822702309237 -0.037308153316215523 0 -0.17525401763441231 -0.025979499284370731 0 -0.19881160556081021 -0.01876222092397466 0 -0.17525401763441231 -0.025979499284370731 0 -0.17967452986780849 -0.0030086181600807401 0 -0.19881160556081021 -0.01876222092397466 0 -0.15349169287978739 -0.035208883327978051 0 -0.17525401763441231 -0.025979499284370731 0 -0.15939520176274349 -0.015620398581745401 0 -0.17525401763441231 -0.025979499284370731 0 -0.15939520176274349 -0.015620398581745401 0 -0.17967452986780849 -0.0030086181600807401 0 -0.15939520176274349 -0.015620398581745401 0 -0.15796117991031841 -0.00029962151665172479 0 -0.17967452986780849 -0.0030086181600807401 0 -0.17967452986780849 -0.0030086181600807401 0 -0.19881160556081021 -0.01876222092397466 0 -0.20680301002479959 -0.0020434230711429339 0 -0.1844822702309237 -0.037308153316215523 0 -0.19881160556081021 -0.01876222092397466 0 -0.19797908447346779 -0.034540675054344362 0 -0.19881160556081021 -0.01876222092397466 0 -0.19797908447346779 -0.034540675054344362 0 -0.2111815313078087 -0.036308133086206937 0 -0.19881160556081021 -0.01876222092397466 0 -0.2111815313078087 -0.036308133086206937 0 -0.19881160556081021 -0.01876222092397466 0 -0.2111815313078087 -0.036308133086206937 0 -0.21993326537292579 -0.016570742696256829 0 -0.19881160556081021 -0.01876222092397466 0 -0.20680301002479959 -0.0020434230711429339 0 -0.21993326537292579 -0.016570742696256829 0 -0.20680301002479959 -0.0020434230711429339 0 -0.21993326537292579 -0.016570742696256829 0 -0.22850437187820721 0.00061554774341724197 0 -0.187061179232277 -0.050545000195171969 0 -0.1807163674973549 -0.058420493156073998 0 -0.19569491766720151 -0.061370611856350392 0 -0.187061179232277 -0.050545000195171969 0 -0.19569491766720151 -0.061370611856350392 0 -0.1974409307943287 -0.045784192890980333 0 -0.19569491766720151 -0.061370611856350392 0 -0.1974409307943287 -0.045784192890980333 0 -0.20783277774853701 -0.056374475910446593 0 -0.187061179232277 -0.050545000195171969 0 -0.1844822702309237 -0.037308153316215523 0 -0.1974409307943287 -0.045784192890980333 0 -0.1844822702309237 -0.037308153316215523 0 -0.1974409307943287 -0.045784192890980333 0 -0.19797908447346779 -0.034540675054344362 0 -0.1974409307943287 -0.045784192890980333 0 -0.19797908447346779 -0.034540675054344362 0 -0.2111815313078087 -0.036308133086206937 0 -0.1974409307943287 -0.045784192890980333 0 -0.2111815313078087 -0.036308133086206937 0 -0.20783277774853701 -0.056374475910446593 0 -0.2111815313078087 -0.036308133086206937 0 -0.2235514570548072 -0.053854045248439182 0 -0.21482267827762841 -0.069082647852091478 0 -0.20783277774853701 -0.056374475910446593 0 -0.2235514570548072 -0.053854045248439182 0 -0.2111815313078087 -0.036308133086206937 0 -0.20783277774853701 -0.056374475910446593 0 -0.2235514570548072 -0.053854045248439182 0 -0.2359213828018043 -0.071399957410672343 0 -0.2235514570548072 -0.053854045248439182 0 -0.23385975453729951 -0.05448316257834377 0 -0.2235514570548072 -0.053854045248439182 0 -0.23385975453729951 -0.05448316257834377 0 -0.23195090370150159 -0.044148728843497582 0 -0.2111815313078087 -0.036308133086206937 0 -0.23195090370150159 -0.044148728843497582 0 -0.2330954250503823 -0.030605580137893669 0 -0.2111815313078087 -0.036308133086206937 0 -0.2235514570548072 -0.053854045248439182 0 -0.23195090370150159 -0.044148728843497582 0 -0.2440152745910836 -0.048529918810766987 0 -0.25210916638036568 -0.025659880210862549 0 -0.23195090370150159 -0.044148728843497582 0 -0.2440152745910836 -0.048529918810766987 0 -0.2330954250503823 -0.030605580137893669 0 -0.2440152745910836 -0.048529918810766987 0 -0.2330954250503823 -0.030605580137893669 0 -0.25210916638036568 -0.025659880210862549 0 -0.2359213828018043 -0.071399957410672343 0 -0.2440152745910836 -0.048529918810766987 0 -0.2460442741291925 -0.056732515276429897 0 -0.2359213828018043 -0.071399957410672343 0 -0.2440152745910836 -0.048529918810766987 0 -0.2359213828018043 -0.071399957410672343 0 -0.23385975453729951 -0.05448316257834377 0 -0.2440152745910836 -0.048529918810766987 0 -0.23385975453729951 -0.05448316257834377 0 -0.23195090370150159 -0.044148728843497582 0 -0.2440152745910836 -0.048529918810766987 0 -0.2440152745910836 -0.048529918810766987 0 -0.2460442741291925 -0.056732515276429897 0 -0.25586239660102372 -0.042106716883949957 0 -0.21993326537292579 -0.016570742696256829 0 -0.2409228609234593 -0.01213331886889705 0 -0.22850437187820721 0.00061554774341724197 0 -0.21993326537292579 -0.016570742696256829 0 -0.2330954250503823 -0.030605580137893669 0 -0.2409228609234593 -0.01213331886889705 0 -0.2111815313078087 -0.036308133086206937 0 -0.21993326537292579 -0.016570742696256829 0 -0.2330954250503823 -0.030605580137893669 0 -0.2330954250503823 -0.030605580137893669 0 -0.2409228609234593 -0.01213331886889705 0 -0.25210916638036568 -0.025659880210862549 0 -0.2409228609234593 -0.01213331886889705 0 -0.25132042997239518 0.0027134119798401068 0 -0.22850437187820721 0.00061554774341724197 0 -0.2409228609234593 -0.01213331886889705 0 -0.26431478179583978 -0.01186883573312463 0 -0.25132042997239518 0.0027134119798401068 0 -0.2409228609234593 -0.01213331886889705 0 -0.26431478179583978 -0.01186883573312463 0 -0.25210916638036568 -0.025659880210862549 0 -0.26431478179583978 -0.01186883573312463 0 -0.25210916638036568 -0.025659880210862549 0 -0.26885463380623098 -0.032431385670777198 0 -0.26431478179583978 -0.01186883573312463 0 -0.28272693982295583 -0.022072801118422261 0 -0.26885463380623098 -0.032431385670777198 0 -0.26431478179583978 -0.01186883573312463 0 -0.2820771903446922 -0.0013122005201030101 0 -0.28272693982295583 -0.022072801118422261 0 -0.26431478179583978 -0.01186883573312463 0 -0.2820771903446922 -0.0013122005201030101 0 -0.26646431581863778 0.01029557754540468 0 -0.2820771903446922 -0.0013122005201030101 0 -0.29531588189047731 -0.01459302740547606 0 -0.28272693982295583 -0.022072801118422261 0 -0.2820771903446922 -0.0013122005201030101 0 -0.29531588189047731 -0.01459302740547606 0 -0.30047775033007851 -0.00039401612408775783 0 -0.28272693982295583 -0.022072801118422261 0 -0.29548818451705972 -0.026431314805352931 0 -0.29006158744840338 -0.043009214960059237 0 -0.29531588189047731 -0.01459302740547606 0 -0.28272693982295583 -0.022072801118422261 0 -0.29548818451705972 -0.026431314805352931 0 -0.30546101391149699 -0.021623392358951481 0 -0.31536924438116293 -0.015921951660718081 0 -0.31269309410946189 -0.035953378537937578 0 -0.29531588189047731 -0.01459302740547606 0 -0.29548818451705972 -0.026431314805352931 0 -0.30546101391149699 -0.021623392358951481 0 -0.29548818451705972 -0.026431314805352931 0 -0.30546101391149699 -0.021623392358951481 0 -0.30306546886548719 -0.032455918975325043 0 -0.30546101391149699 -0.021623392358951481 0 -0.31269309410946189 -0.035953378537937578 0 -0.30546101391149699 -0.021623392358951481 0 -0.30306546886548719 -0.032455918975325043 0 -0.31269309410946189 -0.035953378537937578 0 -0.30546101391149699 -0.021623392358951481 0 -0.30702321298661528 -0.0098616365840560535 0 -0.31536924438116293 -0.015921951660718081 0 -0.30702321298661528 -0.0098616365840560535 0 -0.30047775033007851 -0.00039401612408775783 0 -0.31849217441985911 0.0032242046289520012 0 -0.29531588189047731 -0.01459302740547606 0 -0.30702321298661528 -0.0098616365840560535 0 -0.30047775033007851 -0.00039401612408775783 0 -0.29531588189047731 -0.01459302740547606 0 -0.30546101391149699 -0.021623392358951481 0 -0.30702321298661528 -0.0098616365840560535 0 -0.30785263576887473 -0.062005008750064983 0 -0.31269309410946189 -0.035953378537937578 0 -0.30785263576887473 -0.062005008750064983 0 -0.29006158744840338 -0.043009214960059237 0 -0.31269309410946189 -0.035953378537937578 0 -0.30306546886548719 -0.032455918975325043 0 -0.29006158744840338 -0.043009214960059237 0 -0.31269309410946189 -0.035953378537937578 0 -0.29006158744840338 -0.043009214960059237 0 -0.31269309410946189 -0.035953378537937578 0 -0.29548818451705972 -0.026431314805352931 0 -0.30306546886548719 -0.032455918975325043 0 -0.29006158744840338 -0.043009214960059237 0 -0.30785263576887473 -0.062005008750064983 0 -0.29006158744840338 -0.043009214960059237 0 -0.29043964680931811 -0.063340758069959313 0 -0.29006158744840338 -0.043009214960059237 0 -0.27571433008302992 -0.061323808156972907 0 -0.29043964680931811 -0.063340758069959313 0 -0.27571433008302992 -0.061323808156972907 0 -0.26805293078879788 -0.049870865118244581 0 -0.25908974683711639 -0.062912752445689821 0 -0.29006158744840338 -0.043009214960059237 0 -0.27571433008302992 -0.061323808156972907 0 -0.26805293078879788 -0.049870865118244581 0 -0.28272693982295583 -0.022072801118422261 0 -0.29006158744840338 -0.043009214960059237 0 -0.26885463380623098 -0.032431385670777198 0 -0.29006158744840338 -0.043009214960059237 0 -0.26805293078879788 -0.049870865118244581 0 -0.29006158744840338 -0.043009214960059237 0 -0.26805293078879788 -0.049870865118244581 0 -0.26885463380623098 -0.032431385670777198 0 -0.2440152745910836 -0.048529918810766987 0 -0.25210916638036568 -0.025659880210862549 0 -0.25586239660102372 -0.042106716883949957 0 -0.26805293078879788 -0.049870865118244581 0 -0.26885463380623098 -0.032431385670777198 0 -0.25586239660102372 -0.042106716883949957 0 -0.25210916638036568 -0.025659880210862549 0 -0.26885463380623098 -0.032431385670777198 0 -0.25586239660102372 -0.042106716883949957 0 -0.2460442741291925 -0.056732515276429897 0 -0.26805293078879788 -0.049870865118244581 0 -0.2460442741291925 -0.056732515276429897 0 -0.26805293078879788 -0.049870865118244581 0 -0.25908974683711639 -0.062912752445689821 0 -0.2460442741291925 -0.056732515276429897 0 -0.26805293078879788 -0.049870865118244581 0 -0.25586239660102372 -0.042106716883949957 0 -0.24621250417125429 -0.067242688607955695 0 -0.2460442741291925 -0.056732515276429897 0 -0.25908974683711639 -0.062912752445689821 0 -0.24621250417125429 -0.067242688607955695 0 -0.25908974683711639 -0.062912752445689821 0 -0.252754029676304 -0.071454636367457428 0 -0.24101683233652779 -0.07862751170581421 0 -0.252754029676304 -0.071454636367457428 0 -0.26402766811367417 -0.083484384069295273 0 -0.25908974683711639 -0.062912752445689821 0 -0.252754029676304 -0.071454636367457428 0 -0.26621243399467659 -0.070844567870559746 0 -0.252754029676304 -0.071454636367457428 0 -0.26402766811367417 -0.083484384069295273 0 -0.26621243399467659 -0.070844567870559746 0 -0.24101683233652779 -0.07862751170581421 0 -0.26402766811367417 -0.083484384069295273 0 -0.25454071313255938 -0.097810231909066098 0 -0.26402766811367417 -0.083484384069295273 0 -0.27094601368544552 -0.10060299140421709 0 -0.28369928052750421 -0.089996057638050242 0 -0.26402766811367417 -0.083484384069295273 0 -0.27947639526325851 -0.075047258313383283 0 -0.28369928052750421 -0.089996057638050242 0 -0.27571433008302992 -0.061323808156972907 0 -0.25908974683711639 -0.062912752445689821 0 -0.26621243399467659 -0.070844567870559746 0 -0.27571433008302992 -0.061323808156972907 0 -0.27947639526325851 -0.075047258313383283 0 -0.26621243399467659 -0.070844567870559746 0 -0.26402766811367417 -0.083484384069295273 0 -0.27947639526325851 -0.075047258313383283 0 -0.26621243399467659 -0.070844567870559746 0 -0.25700205454408459 -0.1228995308742117 0 -0.25028307647261949 -0.1119170655065333 0 -0.26806459392859111 -0.11699295211231781 0 -0.25700205454408459 -0.1228995308742117 0 -0.26806459392859111 -0.11699295211231781 0 -0.26633673802341562 -0.13121143084146969 0 -0.2466021228926524 -0.1215603100838341 0 -0.25700205454408459 -0.1228995308742117 0 -0.25028307647261949 -0.1119170655065333 0 -0.25454071313255938 -0.097810231909066098 0 -0.27094601368544552 -0.10060299140421709 0 -0.26806459392859111 -0.11699295211231781 0 -0.25028307647261949 -0.1119170655065333 0 -0.25454071313255938 -0.097810231909066098 0 -0.26806459392859111 -0.11699295211231781 0 -0.25454071313255938 -0.097810231909066098 0 -0.26806459392859111 -0.11699295211231781 0 -0.26402766811367417 -0.083484384069295273 0 -0.25454071313255938 -0.097810231909066098 0 -0.27094601368544552 -0.10060299140421709 0 -0.27094601368544552 -0.10060299140421709 0 -0.28498588272658609 -0.10953694176986691 0 -0.28369928052750421 -0.089996057638050242 0 -0.27094601368544552 -0.10060299140421709 0 -0.26806459392859111 -0.11699295211231781 0 -0.28498588272658609 -0.10953694176986691 0 -0.26806459392859111 -0.11699295211231781 0 -0.28498588272658609 -0.10953694176986691 0 -0.26633673802341562 -0.13121143084146969 0 -0.28498588272658609 -0.10953694176986691 0 -0.26633673802341562 -0.13121143084146969 0 -0.28390483366507108 -0.12795146285425149 0 -0.28498588272658609 -0.10953694176986691 0 -0.26633673802341562 -0.13121143084146969 0 -0.28498588272658609 -0.10953694176986691 0 -0.29939047470698632 -0.1138850881088251 0 -0.28390483366507108 -0.12795146285425149 0 -0.28498588272658609 -0.10953694176986691 0 -0.29939047470698632 -0.1138850881088251 0 -0.30363502742975002 -0.087862452698258112 0 -0.28498588272658609 -0.10953694176986691 0 -0.28369928052750421 -0.089996057638050242 0 -0.30363502742975002 -0.087862452698258112 0 -0.28498588272658609 -0.10953694176986691 0 -0.30363502742975002 -0.087862452698258112 0 -0.31112038415555038 -0.105912916312301 0 -0.30363502742975002 -0.087862452698258112 0 -0.31872509099925939 -0.09489525911115787 0 -0.29939047470698632 -0.1138850881088251 0 -0.30363502742975002 -0.087862452698258112 0 -0.31112038415555038 -0.105912916312301 0 -0.29939047470698632 -0.1138850881088251 0 -0.30363502742975002 -0.087862452698258112 0 -0.31112038415555038 -0.105912916312301 0 -0.29939047470698632 -0.1138850881088251 0 -0.3108150907057583 -0.123289039988229 0 -0.27571433008302992 -0.061323808156972907 0 -0.27947639526325851 -0.075047258313383283 0 -0.29043964680931811 -0.063340758069959313 0 -0.27947639526325851 -0.075047258313383283 0 -0.29326350469267087 -0.075637034816957854 0 -0.29043964680931811 -0.063340758069959313 0 -0.27947639526325851 -0.075047258313383283 0 -0.29326350469267087 -0.075637034816957854 0 -0.28369928052750421 -0.089996057638050242 0 -0.29326350469267087 -0.075637034816957854 0 -0.28369928052750421 -0.089996057638050242 0 -0.30363502742975002 -0.087862452698258112 0 -0.30363502742975002 -0.087862452698258112 0 -0.3147457864693044 -0.074949258596716542 0 -0.31872509099925939 -0.09489525911115787 0 -0.30363502742975002 -0.087862452698258112 0 -0.3147457864693044 -0.074949258596716542 0 -0.30785263576887473 -0.062005008750064983 0 -0.29326350469267087 -0.075637034816957854 0 -0.30363502742975002 -0.087862452698258112 0 -0.30785263576887473 -0.062005008750064983 0 -0.30363502742975002 -0.087862452698258112 0 -0.3147457864693044 -0.074949258596716542 0 -0.30785263576887473 -0.062005008750064983 0 -0.29326350469267087 -0.075637034816957854 0 -0.29043964680931811 -0.063340758069959313 0 -0.30785263576887473 -0.062005008750064983 0 -0.30363502742975002 -0.087862452698258112 0 -0.3147457864693044 -0.074949258596716542 0 -0.3258565455088529 -0.062036064495169851 0 -0.3147457864693044 -0.074949258596716542 0 -0.33306166037992252 -0.0763126202985034 0 -0.3258565455088529 -0.062036064495169851 0 -0.30785263576887473 -0.062005008750064983 0 -0.3147457864693044 -0.074949258596716542 0 -0.3258565455088529 -0.062036064495169851 0 -0.3147457864693044 -0.074949258596716542 0 -0.32890001459834822 -0.087516828956376788 0 -0.31872509099925939 -0.09489525911115787 0 -0.3147457864693044 -0.074949258596716542 0 -0.32890001459834822 -0.087516828956376788 0 -0.33306166037992252 -0.0763126202985034 0 -0.32890001459834822 -0.087516828956376788 0 -0.34026677525099192 -0.090589176101837157 0 -0.33306166037992252 -0.0763126202985034 0 -0.34026677525099192 -0.090589176101837157 0 -0.33306166037992252 -0.0763126202985034 0 -0.34026677525099192 -0.090589176101837157 0 -0.33306166037992252 -0.0763126202985034 0 -0.34512097989852569 -0.077376017677512551 0 -0.3363426704622316 -0.065040097883454634 0 -0.33306166037992252 -0.0763126202985034 0 -0.34512097989852569 -0.077376017677512551 0 -0.3363426704622316 -0.065040097883454634 0 -0.34775082305034588 -0.06364522302323769 0 -0.34512097989852569 -0.077376017677512551 0 -0.33306166037992252 -0.0763126202985034 0 -0.3258565455088529 -0.062036064495169851 0 -0.3363426704622316 -0.065040097883454634 0 -0.33306166037992252 -0.0763126202985034 0 -0.3258565455088529 -0.062036064495169851 0 -0.31112038415555038 -0.105912916312301 0 -0.3108150907057583 -0.123289039988229 0 -0.32269556115348802 -0.1134475374517785 0 -0.32269556115348802 -0.1134475374517785 0 -0.33213803149032362 -0.1206207689722909 0 -0.32288905220234743 -0.1288405143651869 0 -0.3108150907057583 -0.123289039988229 0 -0.32269556115348802 -0.1134475374517785 0 -0.32288905220234743 -0.1288405143651869 0 -0.32269556115348802 -0.1134475374517785 0 -0.31872509099925939 -0.09489525911115787 0 -0.33360553934550968 -0.1041906416325506 0 -0.31112038415555038 -0.105912916312301 0 -0.32269556115348802 -0.1134475374517785 0 -0.31872509099925939 -0.09489525911115787 0 -0.32890001459834822 -0.087516828956376788 0 -0.31872509099925939 -0.09489525911115787 0 -0.33360553934550968 -0.1041906416325506 0 -0.3434725512788051 -0.1026137903417853 0 -0.33360553934550968 -0.1041906416325506 0 -0.3466874303271234 -0.11958926053505441 0 -0.32890001459834822 -0.087516828956376788 0 -0.34026677525099192 -0.090589176101837157 0 -0.33360553934550968 -0.1041906416325506 0 -0.34026677525099192 -0.090589176101837157 0 -0.3434725512788051 -0.1026137903417853 0 -0.33360553934550968 -0.1041906416325506 0 -0.33360553934550968 -0.1041906416325506 0 -0.33213803149032362 -0.1206207689722909 0 -0.3466874303271234 -0.11958926053505441 0 -0.32269556115348802 -0.1134475374517785 0 -0.33360553934550968 -0.1041906416325506 0 -0.33213803149032362 -0.1206207689722909 0 -0.3466874303271234 -0.11958926053505441 0 -0.36980343247362518 -0.1100922289949047 0 -0.35999293180258313 -0.1258522389537349 0 -0.3466874303271234 -0.11958926053505441 0 -0.35333046019159542 -0.096086083097699004 0 -0.36980343247362518 -0.1100922289949047 0 -0.3434725512788051 -0.1026137903417853 0 -0.3466874303271234 -0.11958926053505441 0 -0.35333046019159542 -0.096086083097699004 0 -0.3466874303271234 -0.11958926053505441 0 -0.35333046019159542 -0.096086083097699004 0 -0.34026677525099192 -0.090589176101837157 0 -0.3434725512788051 -0.1026137903417853 0 -0.35333046019159542 -0.096086083097699004 0 -0.35333046019159542 -0.096086083097699004 0 -0.36980343247362518 -0.1100922289949047 0 -0.37347114863240299 -0.089088331268139143 0 -0.36980343247362518 -0.1100922289949047 0 -0.35999293180258313 -0.1258522389537349 0 -0.37152802352755399 -0.13164580699010159 0 -0.36980343247362518 -0.1100922289949047 0 -0.37152802352755399 -0.13164580699010159 0 -0.38235470820745771 -0.123978498660336 0 -0.34775082305034588 -0.06364522302323769 0 -0.35997349005606738 -0.07258290566034345 0 -0.36099236519079719 -0.058965157594587259 0 -0.34775082305034588 -0.06364522302323769 0 -0.34512097989852569 -0.077376017677512551 0 -0.35997349005606738 -0.07258290566034345 0 -0.35333046019159542 -0.096086083097699004 0 -0.35997349005606738 -0.07258290566034345 0 -0.35333046019159542 -0.096086083097699004 0 -0.34512097989852569 -0.077376017677512551 0 -0.35997349005606738 -0.07258290566034345 0 -0.34026677525099192 -0.090589176101837157 0 -0.35333046019159542 -0.096086083097699004 0 -0.34512097989852569 -0.077376017677512551 0 -0.35333046019159542 -0.096086083097699004 0 -0.37347114863240299 -0.089088331268139143 0 -0.35997349005606738 -0.07258290566034345 0 -0.37347114863240299 -0.089088331268139143 0 -0.35997349005606738 -0.07258290566034345 0 -0.37513495807632252 -0.068027960422620465 0 -0.35997349005606738 -0.07258290566034345 0 -0.36099236519079719 -0.058965157594587259 0 -0.37513495807632252 -0.068027960422620465 0 -0.37357085562444819 -0.050327950541553881 0 -0.36099236519079719 -0.058965157594587259 0 -0.37513495807632252 -0.068027960422620465 0 -0.37357085562444819 -0.050327950541553881 0 -0.36080282922430701 -0.047544586661118063 0 -0.36099236519079719 -0.058965157594587259 0 -0.34775082305034588 -0.06364522302323769 0 -0.36099236519079719 -0.058965157594587259 0 -0.34872123511329239 -0.051662319258650009 0 -0.36080282922430701 -0.047544586661118063 0 -0.36099236519079719 -0.058965157594587259 0 -0.34872123511329239 -0.051662319258650009 0 -0.34775082305034588 -0.06364522302323769 0 -0.34872123511329239 -0.051662319258650009 0 -0.33906118872719399 -0.055758100993783748 0 -0.35023980363822049 -0.040197400203048239 0 -0.3638826905141766 -0.035463803005797899 0 -0.34258176142245139 -0.029723406047678591 0 -0.35023980363822049 -0.040197400203048239 0 -0.34258176142245139 -0.029723406047678591 0 -0.35023980363822049 -0.040197400203048239 0 -0.34258176142245139 -0.029723406047678591 0 -0.33960488145915169 -0.038902248398748569 0 -0.34872123511329239 -0.051662319258650009 0 -0.35023980363822049 -0.040197400203048239 0 -0.33950963895876157 -0.046563850177851397 0 -0.36080282922430701 -0.047544586661118063 0 -0.35023980363822049 -0.040197400203048239 0 -0.3638826905141766 -0.035463803005797899 0 -0.36080282922430701 -0.047544586661118063 0 -0.34872123511329239 -0.051662319258650009 0 -0.35023980363822049 -0.040197400203048239 0 -0.37357085562444819 -0.050327950541553881 0 -0.3638826905141766 -0.035463803005797899 0 -0.38712728366555788 -0.02974425569958293 0 -0.37357085562444819 -0.050327950541553881 0 -0.36080282922430701 -0.047544586661118063 0 -0.3638826905141766 -0.035463803005797899 0 -0.3638826905141766 -0.035463803005797899 0 -0.36897360951007507 -0.015245218881805699 0 -0.38712728366555788 -0.02974425569958293 0 -0.36897360951007507 -0.015245218881805699 0 -0.38465333842141641 -0.0066435457767305304 0 -0.36979036210562988 0.0025511841975563729 0 -0.36897360951007507 -0.015245218881805699 0 -0.35319748844548088 -0.0026450940697062141 0 -0.36979036210562988 0.0025511841975563729 0 -0.36897360951007507 -0.015245218881805699 0 -0.35319748844548088 -0.0026450940697062141 0 -0.36897360951007507 -0.015245218881805699 0 -0.35319748844548088 -0.0026450940697062141 0 -0.34557514790129729 -0.01385186480739395 0 -0.35319748844548088 -0.0026450940697062141 0 -0.34557514790129729 -0.01385186480739395 0 -0.33742136738088668 0.0099550307423931228 0 -0.36897360951007507 -0.015245218881805699 0 -0.34557514790129729 -0.01385186480739395 0 -0.34258176142245139 -0.029723406047678591 0 -0.3638826905141766 -0.035463803005797899 0 -0.36897360951007507 -0.015245218881805699 0 -0.34258176142245139 -0.029723406047678591 0 -0.36897360951007507 -0.015245218881805699 0 -0.34258176142245139 -0.029723406047678591 0 -0.34258176142245139 -0.029723406047678591 0 -0.33053696792115572 -0.013249600709362951 0 -0.34557514790129729 -0.01385186480739395 0 -0.34258176142245139 -0.029723406047678591 0 -0.33053696792115572 -0.013249600709362951 0 -0.34258176142245139 -0.029723406047678591 0 -0.33123792958382192 -0.02655418191443467 0 -0.33053696792115572 -0.013249600709362951 0 -0.33123792958382192 -0.02655418191443467 0 -0.33053696792115572 -0.013249600709362951 0 -0.32518110448499649 -0.02265309324021984 0 -0.33123792958382192 -0.02655418191443467 0 -0.32494971957893121 -0.032132124138264453 0 -0.33294009451157502 -0.035012685436647553 0 -0.34258176142245139 -0.029723406047678591 0 -0.33123792958382192 -0.02655418191443467 0 -0.33294009451157502 -0.035012685436647553 0 -0.33053696792115572 -0.013249600709362951 0 -0.31849217441985911 0.0032242046289520012 0 -0.33742136738088668 0.0099550307423931228 0 -0.34557514790129729 -0.01385186480739395 0 -0.33053696792115572 -0.013249600709362951 0 -0.33742136738088668 0.0099550307423931228 0 -0.30702321298661528 -0.0098616365840560535 0 -0.31536924438116293 -0.015921951660718081 0 -0.31849217441985911 0.0032242046289520012 0 -0.31536924438116293 -0.015921951660718081 0 -0.31849217441985911 0.0032242046289520012 0 -0.33053696792115572 -0.013249600709362951 0 -0.31849217441985911 0.0032242046289520012 0 -0.33053696792115572 -0.013249600709362951 0 -0.31536924438116293 -0.015921951660718081 0 -0.31849217441985911 0.0032242046289520012 0 -0.31536924438116293 -0.015921951660718081 0 -0.31269309410946189 -0.035953378537937578 0 -0.31536924438116293 -0.015921951660718081 0 -0.3196636581113782 -0.026330909640423061 0 -0.31269309410946189 -0.035953378537937578 0 -0.33123792958382192 -0.02655418191443467 0 -0.32518110448499649 -0.02265309324021984 0 -0.32494971957893121 -0.032132124138264453 0 -0.32518110448499649 -0.02265309324021984 0 -0.3196636581113782 -0.026330909640423061 0 -0.32494971957893121 -0.032132124138264453 0 -0.33053696792115572 -0.013249600709362951 0 -0.32518110448499649 -0.02265309324021984 0 -0.31536924438116293 -0.015921951660718081 0 -0.32518110448499649 -0.02265309324021984 0 -0.31536924438116293 -0.015921951660718081 0 -0.3196636581113782 -0.026330909640423061 0 -0.31269309410946189 -0.035953378537937578 0 -0.32494971957893121 -0.032132124138264453 0 -0.3196636581113782 -0.026330909640423061 0 -0.31269309410946189 -0.035953378537937578 0 -0.32494971957893121 -0.032132124138264453 0 -0.32589239144387999 -0.038804272667940308 0 -0.32494971957893121 -0.032132124138264453 0 -0.33294009451157502 -0.035012685436647553 0 -0.31269309410946189 -0.035953378537937578 0 -0.32589239144387999 -0.038804272667940308 0 -0.32494971957893121 -0.032132124138264453 0 -0.31269309410946189 -0.035953378537937578 0 -0.32589239144387999 -0.038804272667940308 0 -0.32612594025468172 -0.0479092750983348 0 -0.31269309410946189 -0.035953378537937578 0 -0.3258565455088529 -0.062036064495169851 0 -0.32612594025468172 -0.0479092750983348 0 -0.30785263576887473 -0.062005008750064983 0 -0.31269309410946189 -0.035953378537937578 0 -0.3258565455088529 -0.062036064495169851 0 -0.31269309410946189 -0.035953378537937578 0 -0.3258565455088529 -0.062036064495169851 0 -0.3258565455088529 -0.062036064495169851 0 -0.32612594025468172 -0.0479092750983348 0 -0.32948021068586231 -0.057824552786275359 0 -0.3258565455088529 -0.062036064495169851 0 -0.32948021068586231 -0.057824552786275359 0 -0.33273312926745618 -0.050000536382928867 0 -0.32948021068586231 -0.057824552786275359 0 -0.33906118872719399 -0.055758100993783748 0 -0.32612594025468172 -0.0479092750983348 0 -0.33273312926745618 -0.050000536382928867 0 -0.32948021068586231 -0.057824552786275359 0 -0.32612594025468172 -0.0479092750983348 0 -0.33273312926745618 -0.050000536382928867 0 -0.33275310876475001 -0.043013900128517107 0 -0.3363426704622316 -0.065040097883454634 0 -0.32948021068586231 -0.057824552786275359 0 -0.33906118872719399 -0.055758100993783748 0 -0.3363426704622316 -0.065040097883454634 0 -0.3258565455088529 -0.062036064495169851 0 -0.32948021068586231 -0.057824552786275359 0 -0.3363426704622316 -0.065040097883454634 0 -0.34775082305034588 -0.06364522302323769 0 -0.33906118872719399 -0.055758100993783748 0 -0.34872123511329239 -0.051662319258650009 0 -0.33906118872719399 -0.055758100993783748 0 -0.33950963895876157 -0.046563850177851397 0 -0.33273312926745618 -0.050000536382928867 0 -0.33906118872719399 -0.055758100993783748 0 -0.33950963895876157 -0.046563850177851397 0 -0.35023980363822049 -0.040197400203048239 0 -0.33950963895876157 -0.046563850177851397 0 -0.33960488145915169 -0.038902248398748569 0 -0.33950963895876157 -0.046563850177851397 0 -0.33960488145915169 -0.038902248398748569 0 -0.33275310876475001 -0.043013900128517107 0 -0.34258176142245139 -0.029723406047678591 0 -0.33294009451157502 -0.035012685436647553 0 -0.34258176142245139 -0.029723406047678591 0 -0.33960488145915169 -0.038902248398748569 0 -0.33294009451157502 -0.035012685436647553 0 -0.32589239144387999 -0.038804272667940308 0 -0.33294009451157502 -0.035012685436647553 0 -0.33275310876475001 -0.043013900128517107 0 -0.33960488145915169 -0.038902248398748569 0 -0.33294009451157502 -0.035012685436647553 0 -0.33275310876475001 -0.043013900128517107 0 -0.32589239144387999 -0.038804272667940308 0 -0.32612594025468172 -0.0479092750983348 0 -0.33275310876475001 -0.043013900128517107 0 -0.33273312926745618 -0.050000536382928867 0 -0.33950963895876157 -0.046563850177851397 0 -0.33275310876475001 -0.043013900128517107 0 -0.3072444938386063 -0.24298546540808871 0 -0.29465074886808879 -0.2402547820199166 0 -0.31547147842988582 -0.2330670094454039 0 -0.29465074886808879 -0.2402547820199166 0 -0.31547147842988582 -0.2330670094454039 0 -0.31283906540333922 -0.25031215033235238 0 -0.3072444938386063 -0.24298546540808871 0 -0.31547147842988582 -0.2330670094454039 0 -0.29948497002523827 -0.2483657822867901 0 -0.3072444938386063 -0.24298546540808871 0 -0.29465074886808879 -0.2402547820199166 0 -0.29948497002523827 -0.2483657822867901 0 -0.3072444938386063 -0.24298546540808871 0 -0.30623861516307299 -0.24935013043731349 0 -0.31283906540333922 -0.25031215033235238 0 -0.3072444938386063 -0.24298546540808871 0 -0.30623861516307299 -0.24935013043731349 0 -0.30340245666429422 -0.2199120115188499 0 -0.29465074886808879 -0.2402547820199166 0 -0.31547147842988582 -0.2330670094454039 0 -0.30340245666429422 -0.2199120115188499 0 -0.31790591229007997 -0.21133065133653661 0 -0.31547147842988582 -0.2330670094454039 0 -0.30340245666429422 -0.2199120115188499 0 -0.29465074886808879 -0.2402547820199166 0 -0.28241226381596191 -0.21797562975109799 0 -0.29465074886808879 -0.2402547820199166 0 -0.27816771109320582 -0.2439982651616662 0 -0.28241226381596191 -0.21797562975109799 0 -0.29465074886808879 -0.2402547820199166 0 -0.27383001930629169 -0.24744255459442921 0 -0.28942662192718172 -0.25357945894426132 0 -0.29465074886808879 -0.2402547820199166 0 -0.27383001930629169 -0.24744255459442921 0 -0.29465074886808879 -0.2402547820199166 0 -0.27816771109320582 -0.2439982651616662 0 -0.27383001930629169 -0.24744255459442921 0 -0.28942662192718172 -0.25357945894426132 0 -0.29948497002523827 -0.2483657822867901 0 -0.29465074886808879 -0.2402547820199166 0 -0.27816771109320582 -0.2439982651616662 0 -0.27383001930629169 -0.24744255459442921 0 -0.26926560585898118 -0.2360615599669478 0 -0.27383001930629169 -0.24744255459442921 0 -0.26926560585898118 -0.2360615599669478 0 -0.25855016474293108 -0.24143028331881861 0 -0.27383001930629169 -0.24744255459442921 0 -0.25855016474293108 -0.24143028331881861 0 -0.2565674865322034 -0.25340195958415102 0 -0.27383001930629169 -0.24744255459442921 0 -0.25855016474293108 -0.24143028331881861 0 -0.26926560585898118 -0.2360615599669478 0 -0.25855016474293108 -0.24143028331881861 0 -0.25588924886857078 -0.22577026586403889 0 -0.24327031017957049 -0.23541801204320789 0 -0.25855016474293108 -0.24143028331881861 0 -0.24327031017957049 -0.23541801204320789 0 -0.25855016474293108 -0.24143028331881861 0 -0.25018128361314113 -0.24746468840205441 0 -0.2565674865322034 -0.25340195958415102 0 -0.25855016474293108 -0.24143028331881861 0 -0.25018128361314113 -0.24746468840205441 0 -0.24327031017957049 -0.23541801204320789 0 -0.25855016474293108 -0.24143028331881861 0 -0.25588924886857078 -0.22577026586403889 0 -0.26926560585898118 -0.2360615599669478 0 -0.25588924886857078 -0.22577026586403889 0 -0.26783798195298542 -0.22189041659364681 0 -0.27816771109320582 -0.2439982651616662 0 -0.26926560585898118 -0.2360615599669478 0 -0.28241226381596191 -0.21797562975109799 0 -0.26926560585898118 -0.2360615599669478 0 -0.26783798195298542 -0.22189041659364681 0 -0.28241226381596191 -0.21797562975109799 0 -0.27816771109320582 -0.2439982651616662 0 -0.28241226381596191 -0.21797562975109799 0 -0.26378480926842768 -0.2077542107925027 0 -0.286656816538718 -0.19195299434052959 0 -0.28241226381596191 -0.21797562975109799 0 -0.26783798195298542 -0.22189041659364681 0 -0.26378480926842768 -0.2077542107925027 0 -0.28241226381596191 -0.21797562975109799 0 -0.25588924886857078 -0.22577026586403889 0 -0.26783798195298542 -0.22189041659364681 0 -0.26378480926842768 -0.2077542107925027 0 -0.2448317244682672 -0.19494017856122331 0 -0.24405101732391901 -0.2151790953022156 0 -0.26378480926842768 -0.2077542107925027 0 -0.24405101732391901 -0.2151790953022156 0 -0.25588924886857078 -0.22577026586403889 0 -0.26378480926842768 -0.2077542107925027 0 -0.2448317244682672 -0.19494017856122331 0 -0.26378480926842768 -0.2077542107925027 0 -0.26312512204060101 -0.18530650416748581 0 -0.26378480926842768 -0.2077542107925027 0 -0.286656816538718 -0.19195299434052959 0 -0.26312512204060101 -0.18530650416748581 0 -0.286656816538718 -0.19195299434052959 0 -0.28241226381596191 -0.21797562975109799 0 -0.30591086076688379 -0.19847336016990141 0 -0.286656816538718 -0.19195299434052959 0 -0.28241226381596191 -0.21797562975109799 0 -0.30340245666429422 -0.2199120115188499 0 -0.28241226381596191 -0.21797562975109799 0 -0.30591086076688379 -0.19847336016990141 0 -0.30340245666429422 -0.2199120115188499 0 -0.30591086076688379 -0.19847336016990141 0 -0.31790591229007997 -0.21133065133653661 0 -0.286656816538718 -0.19195299434052959 0 -0.30591086076688379 -0.19847336016990141 0 -0.31180552805921091 -0.17430838359622669 0 -0.31180552805921091 -0.17430838359622669 0 -0.29090136926147409 -0.16593035892996141 0 -0.30878195228896921 -0.15303576335633209 0 -0.286656816538718 -0.19195299434052959 0 -0.29090136926147409 -0.16593035892996141 0 -0.286656816538718 -0.19195299434052959 0 -0.31180552805921091 -0.17430838359622669 0 -0.29090136926147409 -0.16593035892996141 0 -0.286656816538718 -0.19195299434052959 0 -0.29090136926147409 -0.16593035892996141 0 -0.27584707269233227 -0.1739466899300364 0 -0.27584707269233227 -0.1739466899300364 0 -0.26312512204060101 -0.18530650416748581 0 -0.26138401805284373 -0.16490714025156239 0 -0.286656816538718 -0.19195299434052959 0 -0.27584707269233227 -0.1739466899300364 0 -0.26312512204060101 -0.18530650416748581 0 -0.2448317244682672 -0.19494017856122331 0 -0.24561243161261531 -0.1747012618202311 0 -0.26312512204060101 -0.18530650416748581 0 -0.24561243161261531 -0.1747012618202311 0 -0.26312512204060101 -0.18530650416748581 0 -0.26138401805284373 -0.16490714025156239 0 -0.27584707269233227 -0.1739466899300364 0 -0.26138401805284373 -0.16490714025156239 0 -0.27641132505293098 -0.14990407015019561 0 -0.29090136926147409 -0.16593035892996141 0 -0.27584707269233227 -0.1739466899300364 0 -0.27641132505293098 -0.14990407015019561 0 -0.27641132505293098 -0.14990407015019561 0 -0.26295491861235881 -0.14972714028907499 0 -0.26633673802341562 -0.13121143084146969 0 -0.26138401805284373 -0.16490714025156239 0 -0.27641132505293098 -0.14990407015019561 0 -0.26295491861235881 -0.14972714028907499 0 -0.24768759332024501 -0.15288591991307249 0 -0.26633673802341562 -0.13121143084146969 0 -0.24768759332024501 -0.15288591991307249 0 -0.26295491861235881 -0.14972714028907499 0 -0.26633673802341562 -0.13121143084146969 0 -0.24768759332024501 -0.15288591991307249 0 -0.26138401805284373 -0.16490714025156239 0 -0.26295491861235881 -0.14972714028907499 0 -0.25700205454408459 -0.1228995308742117 0 -0.25066558347885931 -0.13251764995053431 0 -0.26633673802341562 -0.13121143084146969 0 -0.24768759332024501 -0.15288591991307249 0 -0.25066558347885931 -0.13251764995053431 0 -0.26633673802341562 -0.13121143084146969 0 -0.2466021228926524 -0.1215603100838341 0 -0.25700205454408459 -0.1228995308742117 0 -0.25066558347885931 -0.13251764995053431 0 -0.27641132505293098 -0.14990407015019561 0 -0.26633673802341562 -0.13121143084146969 0 -0.28390483366507108 -0.12795146285425149 0 -0.27641132505293098 -0.14990407015019561 0 -0.29514592198423018 -0.13990772351939329 0 -0.28390483366507108 -0.12795146285425149 0 -0.29939047470698632 -0.1138850881088251 0 -0.29514592198423018 -0.13990772351939329 0 -0.28390483366507108 -0.12795146285425149 0 -0.29090136926147409 -0.16593035892996141 0 -0.27641132505293098 -0.14990407015019561 0 -0.29514592198423018 -0.13990772351939329 0 -0.29090136926147409 -0.16593035892996141 0 -0.29514592198423018 -0.13990772351939329 0 -0.29514592198423018 -0.13990772351939329 0 -0.30878195228896921 -0.15303576335633209 0 -0.31204687939749698 -0.1371714365216575 0 -0.29090136926147409 -0.16593035892996141 0 -0.29514592198423018 -0.13990772351939329 0 -0.30878195228896921 -0.15303576335633209 0 -0.3108150907057583 -0.123289039988229 0 -0.29514592198423018 -0.13990772351939329 0 -0.31204687939749698 -0.1371714365216575 0 -0.29939047470698632 -0.1138850881088251 0 -0.3108150907057583 -0.123289039988229 0 -0.29514592198423018 -0.13990772351939329 0 -0.29939047470698632 -0.1138850881088251 0 -0.29514592198423018 -0.13990772351939329 0 -0.32288905220234743 -0.1288405143651869 0 -0.32258299715563782 -0.14068177926995709 0 -0.33321030378869931 -0.13646686722665249 0 -0.3108150907057583 -0.123289039988229 0 -0.31204687939749698 -0.1371714365216575 0 -0.32288905220234743 -0.1288405143651869 0 -0.31204687939749698 -0.1371714365216575 0 -0.32288905220234743 -0.1288405143651869 0 -0.32258299715563782 -0.14068177926995709 0 -0.30878195228896921 -0.15303576335633209 0 -0.32482557091518699 -0.15217937608711771 0 -0.32258299715563782 -0.14068177926995709 0 -0.30878195228896921 -0.15303576335633209 0 -0.31204687939749698 -0.1371714365216575 0 -0.32258299715563782 -0.14068177926995709 0 -0.32482557091518699 -0.15217937608711771 0 -0.32258299715563782 -0.14068177926995709 0 -0.33321030378869931 -0.13646686722665249 0 -0.32482557091518699 -0.15217937608711771 0 -0.34004440046265172 -0.14309243797241011 0 -0.33321030378869931 -0.13646686722665249 0 -0.34004440046265172 -0.14309243797241011 0 -0.35498504575946821 -0.15757720561970059 0 -0.3332048416520596 -0.1672909388971599 0 -0.34004440046265172 -0.14309243797241011 0 -0.3332048416520596 -0.1672909388971599 0 -0.32482557091518699 -0.15217937608711771 0 -0.34004440046265172 -0.14309243797241011 0 -0.3332048416520596 -0.1672909388971599 0 -0.3466874303271234 -0.11958926053505441 0 -0.34004440046265172 -0.14309243797241011 0 -0.33213803149032362 -0.1206207689722909 0 -0.32288905220234743 -0.1288405143651869 0 -0.33321030378869931 -0.13646686722665249 0 -0.33213803149032362 -0.1206207689722909 0 -0.3466874303271234 -0.11958926053505441 0 -0.33321030378869931 -0.13646686722665249 0 -0.3466874303271234 -0.11958926053505441 0 -0.34004440046265172 -0.14309243797241011 0 -0.33321030378869931 -0.13646686722665249 0 -0.34004440046265172 -0.14309243797241011 0 -0.33321030378869931 -0.13646686722665249 0 -0.3466874303271234 -0.11958926053505441 0 -0.35676717686891291 -0.14006723761877321 0 -0.35999293180258313 -0.1258522389537349 0 -0.3466874303271234 -0.11958926053505441 0 -0.34004440046265172 -0.14309243797241011 0 -0.35676717686891291 -0.14006723761877321 0 -0.35676717686891291 -0.14006723761877321 0 -0.37152802352755399 -0.13164580699010159 0 -0.37069541475874412 -0.1487336244607225 0 -0.35676717686891291 -0.14006723761877321 0 -0.35999293180258313 -0.1258522389537349 0 -0.37152802352755399 -0.13164580699010159 0 -0.35676717686891291 -0.14006723761877321 0 -0.37069541475874412 -0.1487336244607225 0 -0.35498504575946821 -0.15757720561970059 0 -0.37069541475874412 -0.1487336244607225 0 -0.35498504575946821 -0.15757720561970059 0 -0.37692746124962329 -0.16011968929401549 0 -0.37152802352755399 -0.13164580699010159 0 -0.37069541475874412 -0.1487336244607225 0 -0.38190833683646341 -0.1417380771930716 0 -0.34004440046265172 -0.14309243797241011 0 -0.35676717686891291 -0.14006723761877321 0 -0.35498504575946821 -0.15757720561970059 0 -0.34004440046265172 -0.14309243797241011 0 -0.35498504575946821 -0.15757720561970059 0 -0.35102499454429859 -0.17065527247529391 0 -0.35498504575946821 -0.15757720561970059 0 -0.36992569105628492 -0.1720619732669908 0 -0.35102499454429859 -0.17065527247529391 0 -0.35498504575946821 -0.15757720561970059 0 -0.3332048416520596 -0.1672909388971599 0 -0.35498504575946821 -0.15757720561970059 0 -0.36992569105628492 -0.1720619732669908 0 -0.37692746124962329 -0.16011968929401549 0 -0.35498504575946821 -0.15757720561970059 0 -0.36992569105628492 -0.1720619732669908 0 -0.36802329911298681 -0.18587483615006681 0 -0.36992569105628492 -0.1720619732669908 0 -0.38452179946839471 -0.1862127167391712 0 -0.36802329911298681 -0.18587483615006681 0 -0.36992569105628492 -0.1720619732669908 0 -0.34598439970938172 -0.18569097211732419 0 -0.35102499454429859 -0.17065527247529391 0 -0.36992569105628492 -0.1720619732669908 0 -0.34598439970938172 -0.18569097211732419 0 -0.36992569105628492 -0.1720619732669908 0 -0.34598439970938172 -0.18569097211732419 0 -0.35102499454429859 -0.17065527247529391 0 -0.34598439970938172 -0.18569097211732419 0 -0.3332048416520596 -0.1672909388971599 0 -0.34598439970938172 -0.18569097211732419 0 -0.3332048416520596 -0.1672909388971599 0 -0.32636528284146782 -0.19148943982190991 0 -0.3332048416520596 -0.1672909388971599 0 -0.32636528284146782 -0.19148943982190991 0 -0.31180552805921091 -0.17430838359622669 0 -0.32482557091518699 -0.15217937608711771 0 -0.3332048416520596 -0.1672909388971599 0 -0.31180552805921091 -0.17430838359622669 0 -0.30878195228896921 -0.15303576335633209 0 -0.32482557091518699 -0.15217937608711771 0 -0.31180552805921091 -0.17430838359622669 0 -0.3332048416520596 -0.1672909388971599 0 -0.32636528284146782 -0.19148943982190991 0 -0.30591086076688379 -0.19847336016990141 0 -0.32636528284146782 -0.19148943982190991 0 -0.31790591229007997 -0.21133065133653661 0 -0.30591086076688379 -0.19847336016990141 0 -0.31180552805921091 -0.17430838359622669 0 -0.32636528284146782 -0.19148943982190991 0 -0.32636528284146782 -0.19148943982190991 0 -0.31790591229007997 -0.21133065133653661 0 -0.33039187961118982 -0.20742389982875531 0 -0.31790591229007997 -0.21133065133653661 0 -0.33039187961118982 -0.20742389982875531 0 -0.32870803705144969 -0.21844997174213321 0 -0.33039187961118982 -0.20742389982875531 0 -0.32870803705144969 -0.21844997174213321 0 -0.33850246058748812 -0.21389845468103499 0 -0.32870803705144969 -0.21844997174213321 0 -0.33850246058748812 -0.21389845468103499 0 -0.33596699493009807 -0.21993263715474329 0 -0.33850246058748812 -0.21389845468103499 0 -0.34687159193856038 -0.2183762197826761 0 -0.3403652740897718 -0.22150288532491411 0 -0.33850246058748812 -0.21389845468103499 0 -0.3403652740897718 -0.22150288532491411 0 -0.33596699493009807 -0.21993263715474329 0 -0.33039187961118982 -0.20742389982875531 0 -0.33850246058748812 -0.21389845468103499 0 -0.34047770528546362 -0.2019509815621614 0 -0.33850246058748812 -0.21389845468103499 0 -0.34047770528546362 -0.2019509815621614 0 -0.34737571748628571 -0.2101963969508848 0 -0.34598439970938172 -0.18569097211732419 0 -0.32636528284146782 -0.19148943982190991 0 -0.34047770528546362 -0.2019509815621614 0 -0.32636528284146782 -0.19148943982190991 0 -0.33039187961118982 -0.20742389982875531 0 -0.34047770528546362 -0.2019509815621614 0 -0.34598439970938172 -0.18569097211732419 0 -0.35303310702934909 -0.20231631441727971 0 -0.36343771537771569 -0.19566750525459251 0 -0.34598439970938172 -0.18569097211732419 0 -0.34047770528546362 -0.2019509815621614 0 -0.35303310702934909 -0.20231631441727971 0 -0.36802329911298681 -0.18587483615006681 0 -0.34598439970938172 -0.18569097211732419 0 -0.36343771537771569 -0.19566750525459251 0 -0.35303310702934909 -0.20231631441727971 0 -0.36343771537771569 -0.19566750525459251 0 -0.36388592792924168 -0.20758305467352059 0 -0.36343771537771569 -0.19566750525459251 0 -0.37301156641091737 -0.20337184000283479 0 -0.36388592792924168 -0.20758305467352059 0 -0.36343771537771569 -0.19566750525459251 0 -0.37438048369549509 -0.19384422148204511 0 -0.37301156641091737 -0.20337184000283479 0 -0.36802329911298681 -0.18587483615006681 0 -0.36343771537771569 -0.19566750525459251 0 -0.37438048369549509 -0.19384422148204511 0 -0.37273312771996808 -0.21396345107145709 0 -0.37301156641091737 -0.20337184000283479 0 -0.36388592792924168 -0.20758305467352059 0 -0.37273312771996808 -0.21396345107145709 0 -0.36388592792924168 -0.20758305467352059 0 -0.36460053442081081 -0.21946742083422599 0 -0.36388592792924168 -0.20758305467352059 0 -0.35626724818121019 -0.21440977701126371 0 -0.36460053442081081 -0.21946742083422599 0 -0.35626724818121019 -0.21440977701126371 0 -0.34687159193856038 -0.2183762197826761 0 -0.35361393690670712 -0.22275298964725909 0 -0.35303310702934909 -0.20231631441727971 0 -0.36388592792924168 -0.20758305467352059 0 -0.35626724818121019 -0.21440977701126371 0 -0.35303310702934909 -0.20231631441727971 0 -0.35626724818121019 -0.21440977701126371 0 -0.34737571748628571 -0.2101963969508848 0 -0.34047770528546362 -0.2019509815621614 0 -0.35303310702934909 -0.20231631441727971 0 -0.34737571748628571 -0.2101963969508848 0 -0.33850246058748812 -0.21389845468103499 0 -0.34737571748628571 -0.2101963969508848 0 -0.34687159193856038 -0.2183762197826761 0 -0.35626724818121019 -0.21440977701126371 0 -0.34737571748628571 -0.2101963969508848 0 -0.34687159193856038 -0.2183762197826761 0 -0.34687159193856038 -0.2183762197826761 0 -0.3448729074691318 -0.22568858673477191 0 -0.3403652740897718 -0.22150288532491411 0 -0.34687159193856038 -0.2183762197826761 0 -0.3448729074691318 -0.22568858673477191 0 -0.35361393690670712 -0.22275298964725909 0 -0.3448729074691318 -0.22568858673477191 0 -0.35311939258201253 -0.23120947699362049 0 -0.35361393690670712 -0.22275298964725909 0 -0.3448729074691318 -0.22568858673477191 0 -0.35311939258201253 -0.23120947699362049 0 -0.3466300329275056 -0.23782645962689411 0 -0.35311939258201253 -0.23120947699362049 0 -0.35361393690670712 -0.22275298964725909 0 -0.36278739720748587 -0.22937453583313699 0 -0.35311939258201253 -0.23120947699362049 0 -0.36278739720748587 -0.22937453583313699 0 -0.35743223323550471 -0.2390192939344549 0 -0.35626724818121019 -0.21440977701126371 0 -0.35361393690670712 -0.22275298964725909 0 -0.36460053442081081 -0.21946742083422599 0 -0.36460053442081081 -0.21946742083422599 0 -0.36278739720748587 -0.22937453583313699 0 -0.37306962678156358 -0.22430756502184571 0 -0.35361393690670712 -0.22275298964725909 0 -0.36460053442081081 -0.21946742083422599 0 -0.36278739720748587 -0.22937453583313699 0 -0.36278739720748587 -0.22937453583313699 0 -0.37393716339703942 -0.23401667981853819 0 -0.37306962678156358 -0.22430756502184571 0 -0.36278739720748587 -0.22937453583313699 0 -0.37393716339703942 -0.23401667981853819 0 -0.36594725961251939 -0.23889039006825119 0 -0.37273312771996808 -0.21396345107145709 0 -0.36460053442081081 -0.21946742083422599 0 -0.37306962678156358 -0.22430756502184571 0 -0.37393540655460039 -0.25504906339868932 0 -0.37362469669529808 -0.24416340610428999 0 -0.363557814049559 -0.2486896754833777 0 -0.37362469669529808 -0.24416340610428999 0 -0.36594725961251939 -0.23889039006825119 0 -0.363557814049559 -0.2486896754833777 0 -0.37393716339703942 -0.23401667981853819 0 -0.37362469669529808 -0.24416340610428999 0 -0.36594725961251939 -0.23889039006825119 0 -0.36278739720748587 -0.22937453583313699 0 -0.36594725961251939 -0.23889039006825119 0 -0.35743223323550471 -0.2390192939344549 0 -0.36594725961251939 -0.23889039006825119 0 -0.363557814049559 -0.2486896754833777 0 -0.35743223323550471 -0.2390192939344549 0 -0.363557814049559 -0.2486896754833777 0 -0.35255150303394622 -0.24812522560144931 0 -0.35743223323550471 -0.2390192939344549 0 -0.35311939258201253 -0.23120947699362049 0 -0.35743223323550471 -0.2390192939344549 0 -0.3466300329275056 -0.23782645962689411 0 -0.35255150303394622 -0.24812522560144931 0 -0.35743223323550471 -0.2390192939344549 0 -0.3466300329275056 -0.23782645962689411 0 -0.35255150303394622 -0.24812522560144931 0 -0.3466300329275056 -0.23782645962689411 0 -0.3420777495351906 -0.24844208584564559 0 -0.33131030172746923 -0.25321851497678438 0 -0.33373364759712132 -0.2373308373461466 0 -0.32202724095639168 -0.2495658441092535 0 -0.33131030172746923 -0.25321851497678438 0 -0.33373364759712132 -0.2373308373461466 0 -0.33131030172746923 -0.25321851497678438 0 -0.3420777495351906 -0.24844208584564559 0 -0.33373364759712132 -0.2373308373461466 0 -0.3466300329275056 -0.23782645962689411 0 -0.3420777495351906 -0.24844208584564559 0 -0.33373364759712132 -0.2373308373461466 0 -0.3448729074691318 -0.22568858673477191 0 -0.33373364759712132 -0.2373308373461466 0 -0.33513500532203722 -0.22814340766163391 0 -0.3448729074691318 -0.22568858673477191 0 -0.33373364759712132 -0.2373308373461466 0 -0.3448729074691318 -0.22568858673477191 0 -0.3466300329275056 -0.23782645962689411 0 -0.33373364759712132 -0.2373308373461466 0 -0.3362922079916828 -0.22587923687089109 0 -0.33513500532203722 -0.22814340766163391 0 -0.31547147842988582 -0.2330670094454039 0 -0.3448729074691318 -0.22568858673477191 0 -0.3362922079916828 -0.22587923687089109 0 -0.33513500532203722 -0.22814340766163391 0 -0.3448729074691318 -0.22568858673477191 0 -0.3403652740897718 -0.22150288532491411 0 -0.3362922079916828 -0.22587923687089109 0 -0.3403652740897718 -0.22150288532491411 0 -0.3362922079916828 -0.22587923687089109 0 -0.33596699493009807 -0.21993263715474329 0 -0.32870803705144969 -0.21844997174213321 0 -0.3362922079916828 -0.22587923687089109 0 -0.33596699493009807 -0.21993263715474329 0 -0.33373364759712132 -0.2373308373461466 0 -0.33513500532203722 -0.22814340766163391 0 -0.31790591229007997 -0.21133065133653661 0 -0.32870803705144969 -0.21844997174213321 0 -0.31547147842988582 -0.2330670094454039 0 -0.3362922079916828 -0.22587923687089109 0 -0.31547147842988582 -0.2330670094454039 0 -0.32870803705144969 -0.21844997174213321 0 -0.3362922079916828 -0.22587923687089109 0 -0.31547147842988582 -0.2330670094454039 0 -0.33373364759712132 -0.2373308373461466 0 -0.33513500532203722 -0.22814340766163391 0 -0.31547147842988582 -0.2330670094454039 0 -0.33373364759712132 -0.2373308373461466 0 -0.31547147842988582 -0.2330670094454039 0 -0.32202724095639168 -0.2495658441092535 0 -0.31283906540333922 -0.25031215033235238 0 -0.31547147842988582 -0.2330670094454039 0 -0.32202724095639168 -0.2495658441092535 0 -0.33373364759712132 -0.2373308373461466 0 -0.32202724095639168 -0.2495658441092535 0 -0.42931567121415071 -0.25028064732030619 0 -0.41974440223132548 -0.2277223948390894 0 -0.42931567121415071 -0.25028064732030619 0 -0.43665732485841618 -0.24137016429136929 0 -0.41974440223132548 -0.2277223948390894 0 -0.43487007995442373 -0.25384069753834382 0 -0.42931567121415071 -0.25028064732030619 0 -0.43665732485841618 -0.24137016429136929 0 -0.43665732485841618 -0.24137016429136929 0 -0.41974440223132548 -0.2277223948390894 0 -0.44277641758923081 -0.23102430468348881 0 -0.43377720402095787 -0.21991138490827611 0 -0.41974440223132548 -0.2277223948390894 0 -0.44277641758923081 -0.23102430468348881 0 -0.43377720402095787 -0.21991138490827611 0 -0.41974440223132548 -0.2277223948390894 0 -0.42075205755079043 -0.21398522646416529 0 -0.41974440223132548 -0.2277223948390894 0 -0.40847937369743209 -0.24258689873782929 0 -0.40379864078896821 -0.22147517947459039 0 -0.42931567121415071 -0.25028064732030619 0 -0.41974440223132548 -0.2277223948390894 0 -0.40847937369743209 -0.24258689873782929 0 -0.3945867816951415 -0.25828321704239809 0 -0.40847937369743209 -0.24258689873782929 0 -0.3933004523496676 -0.24484402304582939 0 -0.40847937369743209 -0.24258689873782929 0 -0.3933004523496676 -0.24484402304582939 0 -0.39478669289115392 -0.23309544567896751 0 -0.3933004523496676 -0.24484402304582939 0 -0.38349803953804651 -0.2389949919606586 0 -0.38258347849844832 -0.24967798674395081 0 -0.3933004523496676 -0.24484402304582939 0 -0.38349803953804651 -0.2389949919606586 0 -0.39478669289115392 -0.23309544567896751 0 -0.37393716339703942 -0.23401667981853819 0 -0.37362469669529808 -0.24416340610428999 0 -0.38349803953804651 -0.2389949919606586 0 -0.37393540655460039 -0.25504906339868932 0 -0.37362469669529808 -0.24416340610428999 0 -0.38258347849844832 -0.24967798674395081 0 -0.37362469669529808 -0.24416340610428999 0 -0.38349803953804651 -0.2389949919606586 0 -0.38258347849844832 -0.24967798674395081 0 -0.37306962678156358 -0.22430756502184571 0 -0.38469596054732291 -0.22836918992304631 0 -0.38295547739377761 -0.21861943378263729 0 -0.37273312771996808 -0.21396345107145709 0 -0.37306962678156358 -0.22430756502184571 0 -0.38295547739377761 -0.21861943378263729 0 -0.37393716339703942 -0.23401667981853819 0 -0.38349803953804651 -0.2389949919606586 0 -0.38469596054732291 -0.22836918992304631 0 -0.37393716339703942 -0.23401667981853819 0 -0.37306962678156358 -0.22430756502184571 0 -0.38469596054732291 -0.22836918992304631 0 -0.38349803953804651 -0.2389949919606586 0 -0.38469596054732291 -0.22836918992304631 0 -0.39478669289115392 -0.23309544567896751 0 -0.38469596054732291 -0.22836918992304631 0 -0.39264909581396568 -0.2229573829789786 0 -0.38295547739377761 -0.21861943378263729 0 -0.39264909581396568 -0.2229573829789786 0 -0.39478669289115392 -0.23309544567896751 0 -0.40379864078896821 -0.22147517947459039 0 -0.40847937369743209 -0.24258689873782929 0 -0.39478669289115392 -0.23309544567896751 0 -0.40379864078896821 -0.22147517947459039 0 -0.40847937369743209 -0.24258689873782929 0 -0.40379864078896821 -0.22147517947459039 0 -0.39264909581396568 -0.2229573829789786 0 -0.40379864078896821 -0.22147517947459039 0 -0.39247153470499518 -0.2129117927155128 0 -0.38469596054732291 -0.22836918992304631 0 -0.39264909581396568 -0.2229573829789786 0 -0.39478669289115392 -0.23309544567896751 0 -0.40379864078896821 -0.22147517947459039 0 -0.39911790788050461 -0.2003634602113514 0 -0.40379864078896821 -0.22147517947459039 0 -0.39247153470499518 -0.2129117927155128 0 -0.39911790788050461 -0.2003634602113514 0 -0.40379864078896821 -0.22147517947459039 0 -0.40520524043689871 -0.20626505254016059 0 -0.39911790788050461 -0.2003634602113514 0 -0.40520524043689871 -0.20626505254016059 0 -0.39911790788050461 -0.2003634602113514 0 -0.41017313324850019 -0.2051641423578727 0 -0.40520524043689871 -0.20626505254016059 0 -0.39911790788050461 -0.2003634602113514 0 -0.39247153470499518 -0.2129117927155128 0 -0.38971867217429529 -0.20303686442097379 0 -0.39911790788050461 -0.2003634602113514 0 -0.39247153470499518 -0.2129117927155128 0 -0.38295547739377761 -0.21861943378263729 0 -0.38211351879485039 -0.2092072209849834 0 -0.39264909581396568 -0.2229573829789786 0 -0.39247153470499518 -0.2129117927155128 0 -0.38295547739377761 -0.21861943378263729 0 -0.38211351879485039 -0.2092072209849834 0 -0.38151862494823319 -0.19996558655041019 0 -0.38971867217429529 -0.20303686442097379 0 -0.39247153470499518 -0.2129117927155128 0 -0.38211351879485039 -0.2092072209849834 0 -0.38971867217429529 -0.20303686442097379 0 -0.37273312771996808 -0.21396345107145709 0 -0.37301156641091737 -0.20337184000283479 0 -0.38211351879485039 -0.2092072209849834 0 -0.37301156641091737 -0.20337184000283479 0 -0.38211351879485039 -0.2092072209849834 0 -0.38151862494823319 -0.19996558655041019 0 -0.37273312771996808 -0.21396345107145709 0 -0.38295547739377761 -0.21861943378263729 0 -0.38211351879485039 -0.2092072209849834 0 -0.36802329911298681 -0.18587483615006681 0 -0.37438048369549509 -0.19384422148204511 0 -0.38452179946839471 -0.1862127167391712 0 -0.38151862494823319 -0.19996558655041019 0 -0.38971867217429529 -0.20303686442097379 0 -0.38452179946839471 -0.1862127167391712 0 -0.37438048369549509 -0.19384422148204511 0 -0.38151862494823319 -0.19996558655041019 0 -0.38452179946839471 -0.1862127167391712 0 -0.37438048369549509 -0.19384422148204511 0 -0.37301156641091737 -0.20337184000283479 0 -0.38151862494823319 -0.19996558655041019 0 -0.39911790788050461 -0.2003634602113514 0 -0.39550730918059213 -0.18407841519480589 0 -0.38452179946839471 -0.1862127167391712 0 -0.39911790788050461 -0.2003634602113514 0 -0.40135005364381798 -0.19305297691017151 0 -0.39550730918059213 -0.18407841519480589 0 -0.39911790788050461 -0.2003634602113514 0 -0.39550730918059213 -0.18407841519480589 0 -0.38971867217429529 -0.20303686442097379 0 -0.39911790788050461 -0.2003634602113514 0 -0.38452179946839471 -0.1862127167391712 0 -0.41017313324850019 -0.2051641423578727 0 -0.40060186426567512 -0.18260588987665591 0 -0.40135005364381798 -0.19305297691017151 0 -0.41017313324850019 -0.2051641423578727 0 -0.40060186426567512 -0.18260588987665591 0 -0.39911790788050461 -0.2003634602113514 0 -0.38452179946839471 -0.1862127167391712 0 -0.39911790788050461 -0.2003634602113514 0 -0.40135005364381798 -0.19305297691017151 0 -0.41017313324850019 -0.2051641423578727 0 -0.40882722491020068 -0.19324634934951379 0 -0.40670914653930851 -0.1871811045826946 0 -0.40060186426567512 -0.18260588987665591 0 -0.40882722491020068 -0.19324634934951379 0 -0.41182634361573828 -0.18846823012601879 0 -0.40670914653930851 -0.1871811045826946 0 -0.40882722491020068 -0.19324634934951379 0 -0.41017313324850019 -0.2051641423578727 0 -0.40060186426567512 -0.18260588987665591 0 -0.40882722491020068 -0.19324634934951379 0 -0.41332632127240471 -0.19520135196246871 0 -0.41182634361573828 -0.18846823012601879 0 -0.41182634361573828 -0.18846823012601879 0 -0.42015528071935893 -0.19373976728588371 0 -0.42086010939994178 -0.18624419393877539 0 -0.41332632127240471 -0.19520135196246871 0 -0.41182634361573828 -0.18846823012601879 0 -0.42015528071935893 -0.19373976728588371 0 -0.42015528071935893 -0.19373976728588371 0 -0.41596892406105851 -0.2005599774501266 0 -0.4250272884910265 -0.2012921483654643 0 -0.41596892406105851 -0.2005599774501266 0 -0.41798035083784391 -0.20525037365940721 0 -0.4250272884910265 -0.2012921483654643 0 -0.41332632127240471 -0.19520135196246871 0 -0.42015528071935893 -0.19373976728588371 0 -0.41596892406105851 -0.2005599774501266 0 -0.41596892406105851 -0.2005599774501266 0 -0.41190905555667651 -0.19876129696974801 0 -0.41017313324850019 -0.2051641423578727 0 -0.40882722491020068 -0.19324634934951379 0 -0.41190905555667651 -0.19876129696974801 0 -0.41017313324850019 -0.2051641423578727 0 -0.40882722491020068 -0.19324634934951379 0 -0.41332632127240471 -0.19520135196246871 0 -0.41190905555667651 -0.19876129696974801 0 -0.41332632127240471 -0.19520135196246871 0 -0.41596892406105851 -0.2005599774501266 0 -0.41190905555667651 -0.19876129696974801 0 -0.41974440223132548 -0.2277223948390894 0 -0.40379864078896821 -0.22147517947459039 0 -0.41017313324850019 -0.2051641423578727 0 -0.41974440223132548 -0.2277223948390894 0 -0.41017313324850019 -0.2051641423578727 0 -0.42075205755079043 -0.21398522646416529 0 -0.40379864078896821 -0.22147517947459039 0 -0.40520524043689871 -0.20626505254016059 0 -0.41017313324850019 -0.2051641423578727 0 -0.41974440223132548 -0.2277223948390894 0 -0.41017313324850019 -0.2051641423578727 0 -0.41017313324850019 -0.2051641423578727 0 -0.42075205755079043 -0.21398522646416529 0 -0.41798035083784391 -0.20525037365940721 0 -0.42075205755079043 -0.21398522646416529 0 -0.41798035083784391 -0.20525037365940721 0 -0.4250272884910265 -0.2012921483654643 0 -0.41596892406105851 -0.2005599774501266 0 -0.41017313324850019 -0.2051641423578727 0 -0.41798035083784391 -0.20525037365940721 0 -0.42075205755079043 -0.21398522646416529 0 -0.43601245252430942 -0.20793643678791121 0 -0.4250272884910265 -0.2012921483654643 0 -0.43377720402095787 -0.21991138490827611 0 -0.42075205755079043 -0.21398522646416529 0 -0.43601245252430942 -0.20793643678791121 0 -0.42704416580793209 -0.1915833167308334 0 -0.4250272884910265 -0.2012921483654643 0 -0.43829012180726529 -0.19322062900912909 0 -0.43601245252430942 -0.20793643678791121 0 -0.4250272884910265 -0.2012921483654643 0 -0.43829012180726529 -0.19322062900912909 0 -0.42704416580793209 -0.1915833167308334 0 -0.43088802862206788 -0.18341984505491449 0 -0.43829012180726529 -0.19322062900912909 0 -0.42015528071935893 -0.19373976728588371 0 -0.42704416580793209 -0.1915833167308334 0 -0.42086010939994178 -0.18624419393877539 0 -0.42015528071935893 -0.19373976728588371 0 -0.42704416580793209 -0.1915833167308334 0 -0.4250272884910265 -0.2012921483654643 0 -0.4285734277027195 -0.1734756855885477 0 -0.43088802862206788 -0.18341984505491449 0 -0.41995474680429618 -0.17713819565942951 0 -0.42704416580793209 -0.1915833167308334 0 -0.43088802862206788 -0.18341984505491449 0 -0.42086010939994178 -0.18624419393877539 0 -0.43088802862206788 -0.18341984505491449 0 -0.41995474680429618 -0.17713819565942951 0 -0.42086010939994178 -0.18624419393877539 0 -0.43088802862206788 -0.18341984505491449 0 -0.44104422433457419 -0.1777922577957152 0 -0.43829012180726529 -0.19322062900912909 0 -0.4285734277027195 -0.1734756855885477 0 -0.43088802862206788 -0.18341984505491449 0 -0.44104422433457419 -0.1777922577957152 0 -0.4285734277027195 -0.1734756855885477 0 -0.4344270590450659 -0.1609053943072484 0 -0.44104422433457419 -0.1777922577957152 0 -0.4285734277027195 -0.1734756855885477 0 -0.4344270590450659 -0.1609053943072484 0 -0.4151480566294905 -0.1680004084026471 0 -0.4151480566294905 -0.1680004084026471 0 -0.40323096316088519 -0.16793215078578741 0 -0.41306883257355248 -0.1475019853524365 0 -0.4344270590450659 -0.1609053943072484 0 -0.4151480566294905 -0.1680004084026471 0 -0.41306883257355248 -0.1475019853524365 0 -0.4151480566294905 -0.1680004084026471 0 -0.40690801218449152 -0.1762036959065488 0 -0.40323096316088519 -0.16793215078578741 0 -0.4151480566294905 -0.1680004084026471 0 -0.40690801218449152 -0.1762036959065488 0 -0.4136865446123984 -0.1757543503219206 0 -0.40690801218449152 -0.1762036959065488 0 -0.4136865446123984 -0.1757543503219206 0 -0.41273536283131562 -0.1816751013190569 0 -0.4151480566294905 -0.1680004084026471 0 -0.4136865446123984 -0.1757543503219206 0 -0.41995474680429618 -0.17713819565942951 0 -0.4285734277027195 -0.1734756855885477 0 -0.4151480566294905 -0.1680004084026471 0 -0.41995474680429618 -0.17713819565942951 0 -0.4136865446123984 -0.1757543503219206 0 -0.41995474680429618 -0.17713819565942951 0 -0.41273536283131562 -0.1816751013190569 0 -0.41995474680429618 -0.17713819565942951 0 -0.42086010939994178 -0.18624419393877539 0 -0.41273536283131562 -0.1816751013190569 0 -0.41182634361573828 -0.18846823012601879 0 -0.42086010939994178 -0.18624419393877539 0 -0.41273536283131562 -0.1816751013190569 0 -0.41182634361573828 -0.18846823012601879 0 -0.41273536283131562 -0.1816751013190569 0 -0.4077561458873058 -0.18322680436219499 0 -0.40690801218449152 -0.1762036959065488 0 -0.41273536283131562 -0.1816751013190569 0 -0.4077561458873058 -0.18322680436219499 0 -0.41182634361573828 -0.18846823012601879 0 -0.4077561458873058 -0.18322680436219499 0 -0.40670914653930851 -0.1871811045826946 0 -0.39550730918059213 -0.18407841519480589 0 -0.38736231178750308 -0.177259124355894 0 -0.39189671048067998 -0.1677933701782604 0 -0.40135005364381798 -0.19305297691017151 0 -0.40060186426567512 -0.18260588987665591 0 -0.39550730918059213 -0.18407841519480589 0 -0.4077561458873058 -0.18322680436219499 0 -0.40670914653930851 -0.1871811045826946 0 -0.40060186426567512 -0.18260588987665591 0 -0.39550730918059213 -0.18407841519480589 0 -0.39189671048067998 -0.1677933701782604 0 -0.40060186426567512 -0.18260588987665591 0 -0.39550730918059213 -0.18407841519480589 0 -0.39189671048067998 -0.1677933701782604 0 -0.40690801218449152 -0.1762036959065488 0 -0.4077561458873058 -0.18322680436219499 0 -0.40060186426567512 -0.18260588987665591 0 -0.40690801218449152 -0.1762036959065488 0 -0.40060186426567512 -0.18260588987665591 0 -0.40323096316088519 -0.16793215078578741 0 -0.36992569105628492 -0.1720619732669908 0 -0.38736231178750308 -0.177259124355894 0 -0.39189671048067998 -0.1677933701782604 0 -0.36992569105628492 -0.1720619732669908 0 -0.38452179946839471 -0.1862127167391712 0 -0.38736231178750308 -0.177259124355894 0 -0.39550730918059213 -0.18407841519480589 0 -0.38452179946839471 -0.1862127167391712 0 -0.38736231178750308 -0.177259124355894 0 -0.36992569105628492 -0.1720619732669908 0 -0.38452179946839471 -0.1862127167391712 0 -0.36992569105628492 -0.1720619732669908 0 -0.37692746124962329 -0.16011968929401549 0 -0.39103059528285172 -0.16004763739543851 0 -0.36992569105628492 -0.1720619732669908 0 -0.39189671048067998 -0.1677933701782604 0 -0.39103059528285172 -0.16004763739543851 0 -0.36992569105628492 -0.1720619732669908 0 -0.39103059528285172 -0.16004763739543851 0 -0.37692746124962329 -0.16011968929401549 0 -0.39103059528285172 -0.16004763739543851 0 -0.38828980922767731 -0.15358795645443499 0 -0.39103059528285172 -0.16004763739543851 0 -0.38828980922767731 -0.15358795645443499 0 -0.40060186426567512 -0.18260588987665591 0 -0.39103059528285172 -0.16004763739543851 0 -0.40323096316088519 -0.16793215078578741 0 -0.40060186426567512 -0.18260588987665591 0 -0.39189671048067998 -0.1677933701782604 0 -0.39103059528285172 -0.16004763739543851 0 -0.40060186426567512 -0.18260588987665591 0 -0.39103059528285172 -0.16004763739543851 0 -0.39103059528285172 -0.16004763739543851 0 -0.40323096316088519 -0.16793215078578741 0 -0.41306883257355248 -0.1475019853524365 0 -0.39103059528285172 -0.16004763739543851 0 -0.39795981207507403 -0.14502431583870179 0 -0.41306883257355248 -0.1475019853524365 0 -0.39795981207507403 -0.14502431583870179 0 -0.40633267592073652 -0.13102661860532899 0 -0.41306883257355248 -0.1475019853524365 0 -0.39103059528285172 -0.16004763739543851 0 -0.41306883257355248 -0.1475019853524365 0 -0.39103059528285172 -0.16004763739543851 0 -0.39795981207507403 -0.14502431583870179 0 -0.38828980922767731 -0.15358795645443499 0 -0.39795981207507403 -0.14502431583870179 0 -0.38828980922767731 -0.15358795645443499 0 -0.38190833683646341 -0.1417380771930716 0 -0.38828980922767731 -0.15358795645443499 0 -0.38190833683646341 -0.1417380771930716 0 -0.37945525551812698 -0.15104483685056111 0 -0.37069541475874412 -0.1487336244607225 0 -0.38190833683646341 -0.1417380771930716 0 -0.37945525551812698 -0.15104483685056111 0 -0.37692746124962329 -0.16011968929401549 0 -0.38828980922767731 -0.15358795645443499 0 -0.37945525551812698 -0.15104483685056111 0 -0.37069541475874412 -0.1487336244607225 0 -0.37692746124962329 -0.16011968929401549 0 -0.37945525551812698 -0.15104483685056111 0 -0.37152802352755399 -0.13164580699010159 0 -0.38190833683646341 -0.1417380771930716 0 -0.38235470820745771 -0.123978498660336 0 -0.38190833683646341 -0.1417380771930716 0 -0.39228294530364349 -0.13316426080004001 0 -0.38235470820745771 -0.123978498660336 0 -0.39228294530364349 -0.13316426080004001 0 -0.40633267592073652 -0.13102661860532899 0 -0.39306930808202878 -0.1142539450673672 0 -0.39795981207507403 -0.14502431583870179 0 -0.38190833683646341 -0.1417380771930716 0 -0.39228294530364349 -0.13316426080004001 0 -0.39795981207507403 -0.14502431583870179 0 -0.39228294530364349 -0.13316426080004001 0 -0.40633267592073652 -0.13102661860532899 0 -0.40633267592073652 -0.13102661860532899 0 -0.42371591628165239 -0.12841039464220819 0 -0.41294233195137359 -0.116724400289887 0 -0.40633267592073652 -0.13102661860532899 0 -0.41306883257355248 -0.1475019853524365 0 -0.42371591628165239 -0.12841039464220819 0 -0.4344270590450659 -0.1609053943072484 0 -0.41306883257355248 -0.1475019853524365 0 -0.43782831476482847 -0.1415704877041897 0 -0.41306883257355248 -0.1475019853524365 0 -0.42371591628165239 -0.12841039464220819 0 -0.43782831476482847 -0.1415704877041897 0 -0.42371591628165239 -0.12841039464220819 0 -0.43782831476482847 -0.1415704877041897 0 -0.44295770465017009 -0.12292285668534771 0 -0.43782831476482847 -0.1415704877041897 0 -0.45407528277834919 -0.1346042898317954 0 -0.44295770465017009 -0.12292285668534771 0 -0.43782831476482847 -0.1415704877041897 0 -0.45305184803309972 -0.15210272433296521 0 -0.45407528277834919 -0.1346042898317954 0 -0.4344270590450659 -0.1609053943072484 0 -0.43782831476482847 -0.1415704877041897 0 -0.45305184803309972 -0.15210272433296521 0 -0.45305184803309972 -0.15210272433296521 0 -0.45407528277834919 -0.1346042898317954 0 -0.47213782278640881 -0.13623393318828281 0 -0.45305184803309972 -0.15210272433296521 0 -0.47213782278640881 -0.13623393318828281 0 -0.46702369577757719 -0.16066454859793791 0 -0.45407528277834919 -0.1346042898317954 0 -0.47213782278640881 -0.13623393318828281 0 -0.46296805171726468 -0.11640170438458371 0 -0.47213782278640881 -0.13623393318828281 0 -0.5 -0.14556247672259531 0 -0.48245330698995931 -0.121898764666846 0 -0.5 -0.14556247672259531 0 -0.48245330698995931 -0.121898764666846 0 -0.50000000000000089 -0.1198938119733675 0 -0.47213782278640881 -0.13623393318828281 0 -0.5 -0.14556247672259531 0 -0.48142521519093828 -0.15645589086587239 0 -0.47213782278640881 -0.13623393318828281 0 -0.48142521519093828 -0.15645589086587239 0 -0.47213782278640881 -0.13623393318828281 0 -0.48142521519093828 -0.15645589086587239 0 -0.46702369577757719 -0.16066454859793791 0 -0.48142521519093828 -0.15645589086587239 0 -0.47632052375980027 -0.17461649056753861 0 -0.46702369577757719 -0.16066454859793791 0 -0.48142521519093828 -0.15645589086587239 0 -0.49071260759546798 -0.17667784854346191 0 -0.47632052375980027 -0.17461649056753861 0 -0.47632052375980027 -0.17461649056753861 0 -0.46570520523623959 -0.1757931846103527 0 -0.46702369577757719 -0.16066454859793791 0 -0.48142521519093828 -0.15645589086587239 0 -0.49071260759546798 -0.17667784854346191 0 -0.5 -0.14556247672259531 0 -0.48142521519093828 -0.15645589086587239 0 -0.5 -0.17123114147182319 0 -0.48142521519093828 -0.15645589086587239 0 -0.5 -0.17123114147182319 0 -0.49071260759546798 -0.17667784854346191 0 -0.49071260759546798 -0.17667784854346191 0 -0.49999999999999861 -0.19689980622105099 0 -0.5 -0.17123114147182319 0 -0.49071260759546798 -0.17667784854346191 0 -0.49999999999999861 -0.19689980622105099 0 -0.49071260759546798 -0.17667784854346191 0 -0.47632052375980027 -0.17461649056753861 0 -0.47993034859498662 -0.18922987045237161 0 -0.47632052375980027 -0.17461649056753861 0 -0.46763136520864318 -0.18653340036078911 0 -0.46570520523623959 -0.1757931846103527 0 -0.47632052375980027 -0.17461649056753861 0 -0.46763136520864318 -0.18653340036078911 0 -0.47993034859498662 -0.18922987045237161 0 -0.46570520523623959 -0.1757931846103527 0 -0.45350155965897682 -0.1687850680226157 0 -0.45596312027128949 -0.18794868189772959 0 -0.46763136520864318 -0.18653340036078911 0 -0.46570520523623959 -0.1757931846103527 0 -0.45596312027128949 -0.18794868189772959 0 -0.45305184803309972 -0.15210272433296521 0 -0.46702369577757719 -0.16066454859793791 0 -0.45350155965897682 -0.1687850680226157 0 -0.46570520523623959 -0.1757931846103527 0 -0.46702369577757719 -0.16066454859793791 0 -0.45350155965897682 -0.1687850680226157 0 -0.4344270590450659 -0.1609053943072484 0 -0.45305184803309972 -0.15210272433296521 0 -0.45350155965897682 -0.1687850680226157 0 -0.4344270590450659 -0.1609053943072484 0 -0.45350155965897682 -0.1687850680226157 0 -0.44104422433457419 -0.1777922577957152 0 -0.45350155965897682 -0.1687850680226157 0 -0.44104422433457419 -0.1777922577957152 0 -0.45596312027128949 -0.18794868189772959 0 -0.44104422433457419 -0.1777922577957152 0 -0.43829012180726529 -0.19322062900912909 0 -0.45596312027128949 -0.18794868189772959 0 -0.45013906333809789 -0.2009404811944836 0 -0.43829012180726529 -0.19322062900912909 0 -0.45596312027128949 -0.18794868189772959 0 -0.43601245252430942 -0.20793643678791121 0 -0.45013906333809789 -0.2009404811944836 0 -0.43829012180726529 -0.19322062900912909 0 -0.43377720402095787 -0.21991138490827611 0 -0.43601245252430942 -0.20793643678791121 0 -0.45297794936819918 -0.2159919965998246 0 -0.43601245252430942 -0.20793643678791121 0 -0.45013906333809789 -0.2009404811944836 0 -0.45297794936819918 -0.2159919965998246 0 -0.45013906333809789 -0.2009404811944836 0 -0.45297794936819918 -0.2159919965998246 0 -0.46745167271942573 -0.1996046616778234 0 -0.45297794936819918 -0.2159919965998246 0 -0.46745167271942573 -0.1996046616778234 0 -0.46956062781061803 -0.21704188818370149 0 -0.45013906333809789 -0.2009404811944836 0 -0.46745167271942573 -0.1996046616778234 0 -0.45596312027128949 -0.18794868189772959 0 -0.46763136520864318 -0.18653340036078911 0 -0.46745167271942573 -0.1996046616778234 0 -0.45596312027128949 -0.18794868189772959 0 -0.46745167271942573 -0.1996046616778234 0 -0.47993034859498662 -0.18922987045237161 0 -0.48475058775642699 -0.21058337118561141 0 -0.46763136520864318 -0.18653340036078911 0 -0.46745167271942573 -0.1996046616778234 0 -0.47993034859498662 -0.18922987045237161 0 -0.47993034859498662 -0.18922987045237161 0 -0.49999999999999861 -0.19689980622105099 0 -0.48475058775642699 -0.21058337118561141 0 -0.49071260759546798 -0.17667784854346191 0 -0.47993034859498662 -0.18922987045237161 0 -0.49999999999999861 -0.19689980622105099 0 -0.49999999999999861 -0.19689980622105099 0 -0.48475058775642699 -0.21058337118561141 0 -0.50000000000000355 -0.22426693615016591 0 -0.46745167271942573 -0.1996046616778234 0 -0.48475058775642699 -0.21058337118561141 0 -0.46956062781061803 -0.21704188818370149 0 -0.46956062781061803 -0.21704188818370149 0 -0.47829002665147741 -0.2341248566128927 0 -0.46279731583591321 -0.22891002208815581 0 -0.48475058775642699 -0.21058337118561141 0 -0.46956062781061803 -0.21704188818370149 0 -0.47829002665147741 -0.2341248566128927 0 -0.47829002665147741 -0.2341248566128927 0 -0.49757451855253881 -0.23053548086278239 0 -0.50000000000000355 -0.22426693615016591 0 -0.48475058775642699 -0.21058337118561141 0 -0.47829002665147741 -0.2341248566128927 0 -0.50000000000000355 -0.22426693615016591 0 -0.47829002665147741 -0.2341248566128927 0 -0.50000000000000355 -0.22426693615016591 0 -0.47829002665147741 -0.2341248566128927 0 -0.49757451855253881 -0.23053548086278239 0 -0.47793059070477772 -0.24540990329775009 0 -0.5 -0.25006354863638108 0 -0.49757451855253881 -0.23053548086278239 0 -0.49068252501969761 -0.24549971615663649 0 -0.49757451855253881 -0.23053548086278239 0 -0.49068252501969761 -0.24549971615663649 0 -0.47793059070477772 -0.24540990329775009 0 -0.49757451855253881 -0.23053548086278239 0 -0.47793059070477772 -0.24540990329775009 0 -0.5 -0.25006354863638108 0 -0.49757451855253881 -0.23053548086278239 0 -0.50000000000000355 -0.22426693615016591 0 -0.4872249908214738 -0.25598993182963242 0 -0.49068252501969761 -0.24549971615663649 0 -0.47793059070477772 -0.24540990329775009 0 -0.47829002665147741 -0.2341248566128927 0 -0.47793059070477772 -0.24540990329775009 0 -0.45658005330295048 -0.2439827770756183 0 -0.45658005330295048 -0.2439827770756183 0 -0.46279731583591321 -0.22891002208815581 0 -0.44277641758923081 -0.23102430468348881 0 -0.47829002665147741 -0.2341248566128927 0 -0.45658005330295048 -0.2439827770756183 0 -0.45828666285701658 -0.26028432573271792 0 -0.47793059070477772 -0.24540990329775009 0 -0.45658005330295048 -0.2439827770756183 0 -0.47829002665147741 -0.2341248566128927 0 -0.45658005330295048 -0.2439827770756183 0 -0.46279731583591321 -0.22891002208815581 0 -0.45297794936819918 -0.2159919965998246 0 -0.46956062781061803 -0.21704188818370149 0 -0.46279731583591321 -0.22891002208815581 0 -0.45297794936819918 -0.2159919965998246 0 -0.46279731583591321 -0.22891002208815581 0 -0.44277641758923081 -0.23102430468348881 0 -0.43377720402095787 -0.21991138490827611 0 -0.45297794936819918 -0.2159919965998246 0 -0.44277641758923081 -0.23102430468348881 0 -0.43487007995442373 -0.25384069753834382 0 -0.45658005330295048 -0.2439827770756183 0 -0.43487007995442373 -0.25384069753834382 0 -0.43665732485841618 -0.24137016429136929 0 -0.45658005330295048 -0.2439827770756183 0 -0.43665732485841618 -0.24137016429136929 0 -0.45658005330295048 -0.2439827770756183 0 -0.44277641758923081 -0.23102430468348881 0 -0.42837915354319411 -0.040827216461995969 0 -0.4199205163048339 -0.024265820886729 0 -0.40528095782104068 -0.044243292517360297 0 -0.42343463197652342 -0.05874232933513765 0 -0.42837915354319411 -0.040827216461995969 0 -0.40528095782104068 -0.044243292517360297 0 -0.42343463197652342 -0.05874232933513765 0 -0.40528095782104068 -0.044243292517360297 0 -0.42343463197652342 -0.05874232933513765 0 -0.40528095782104068 -0.044243292517360297 0 -0.40670414160736479 -0.063195666982337848 0 -0.42343463197652342 -0.05874232933513765 0 -0.42837915354319411 -0.040827216461995969 0 -0.44094154444346079 -0.04995238034171972 0 -0.42343463197652342 -0.05874232933513765 0 -0.44158830613200611 -0.073241366152915127 0 -0.44094154444346079 -0.04995238034171972 0 -0.42837915354319411 -0.040827216461995969 0 -0.4342900889778567 -0.026770694848987801 0 -0.4453801544960031 -0.037531923181514312 0 -0.4342900889778567 -0.026770694848987801 0 -0.43033724725149269 -0.0037964727450953309 0 -0.4199205163048339 -0.024265820886729 0 -0.4342900889778567 -0.026770694848987801 0 -0.43033724725149269 -0.0037964727450953309 0 -0.44743337329375982 -0.027432040969604381 0 -0.42837915354319411 -0.040827216461995969 0 -0.4342900889778567 -0.026770694848987801 0 -0.4199205163048339 -0.024265820886729 0 -0.43033724725149269 -0.0037964727450953309 0 -0.4131572459017161 -0.004875649818797438 0 -0.4199205163048339 -0.024265820886729 0 -0.4131572459017161 -0.004875649818797438 0 -0.4199205163048339 -0.024265820886729 0 -0.40195427741026962 -0.018113178269922089 0 -0.4199205163048339 -0.024265820886729 0 -0.40195427741026962 -0.018113178269922089 0 -0.40528095782104068 -0.044243292517360297 0 -0.40195427741026962 -0.018113178269922089 0 -0.38465333842141641 -0.0066435457767305304 0 -0.38712728366555788 -0.02974425569958293 0 -0.40195427741026962 -0.018113178269922089 0 -0.38712728366555788 -0.02974425569958293 0 -0.40528095782104068 -0.044243292517360297 0 -0.40195427741026962 -0.018113178269922089 0 -0.38465333842141641 -0.0066435457767305304 0 -0.40033306733275759 0.0019581273283447299 0 -0.4131572459017161 -0.004875649818797438 0 -0.40195427741026962 -0.018113178269922089 0 -0.40033306733275759 0.0019581273283447299 0 -0.38465333842141641 -0.0066435457767305304 0 -0.40033306733275759 0.0019581273283447299 0 -0.36897360951007507 -0.015245218881805699 0 -0.38465333842141641 -0.0066435457767305304 0 -0.36897360951007507 -0.015245218881805699 0 -0.38465333842141641 -0.0066435457767305304 0 -0.38712728366555788 -0.02974425569958293 0 -0.36897360951007507 -0.015245218881805699 0 -0.38712728366555788 -0.02974425569958293 0 -0.37357085562444819 -0.050327950541553881 0 -0.38712728366555788 -0.02974425569958293 0 -0.39147992867528753 -0.058279446621744307 0 -0.38712728366555788 -0.02974425569958293 0 -0.40528095782104068 -0.044243292517360297 0 -0.38712728366555788 -0.02974425569958293 0 -0.40528095782104068 -0.044243292517360297 0 -0.39147992867528753 -0.058279446621744307 0 -0.40528095782104068 -0.044243292517360297 0 -0.39147992867528753 -0.058279446621744307 0 -0.40670414160736479 -0.063195666982337848 0 -0.37357085562444819 -0.050327950541553881 0 -0.39147992867528753 -0.058279446621744307 0 -0.37513495807632252 -0.068027960422620465 0 -0.39147992867528753 -0.058279446621744307 0 -0.37513495807632252 -0.068027960422620465 0 -0.3944429598887787 -0.078419500118194568 0 -0.37347114863240299 -0.089088331268139143 0 -0.37513495807632252 -0.068027960422620465 0 -0.3944429598887787 -0.078419500118194568 0 -0.37347114863240299 -0.089088331268139143 0 -0.3944429598887787 -0.078419500118194568 0 -0.38844874713165228 -0.097169733216879689 0 -0.3944429598887787 -0.078419500118194568 0 -0.38844874713165228 -0.097169733216879689 0 -0.40907098738890341 -0.097978282768044114 0 -0.39147992867528753 -0.058279446621744307 0 -0.3944429598887787 -0.078419500118194568 0 -0.40670414160736479 -0.063195666982337848 0 -0.3944429598887787 -0.078419500118194568 0 -0.41749625226094061 -0.077358517460495352 0 -0.40670414160736479 -0.063195666982337848 0 -0.39228294530364349 -0.13316426080004001 0 -0.38235470820745771 -0.123978498660336 0 -0.39306930808202878 -0.1142539450673672 0 -0.36980343247362518 -0.1100922289949047 0 -0.38235470820745771 -0.123978498660336 0 -0.39306930808202878 -0.1142539450673672 0 -0.36980343247362518 -0.1100922289949047 0 -0.37347114863240299 -0.089088331268139143 0 -0.38844874713165228 -0.097169733216879689 0 -0.36980343247362518 -0.1100922289949047 0 -0.38844874713165228 -0.097169733216879689 0 -0.39306930808202878 -0.1142539450673672 0 -0.38844874713165228 -0.097169733216879689 0 -0.39306930808202878 -0.1142539450673672 0 -0.40907098738890341 -0.097978282768044114 0 -0.39306930808202878 -0.1142539450673672 0 -0.41294233195137359 -0.116724400289887 0 -0.40907098738890341 -0.097978282768044114 0 -0.40633267592073652 -0.13102661860532899 0 -0.39306930808202878 -0.1142539450673672 0 -0.41294233195137359 -0.116724400289887 0 -0.41294233195137359 -0.116724400289887 0 -0.40907098738890341 -0.097978282768044114 0 -0.42916563782925382 -0.1107160192160596 0 -0.42916563782925382 -0.1107160192160596 0 -0.42904349786494111 -0.093106334976964328 0 -0.44668080241849201 -0.10304266906569499 0 -0.40907098738890341 -0.097978282768044114 0 -0.42916563782925382 -0.1107160192160596 0 -0.42904349786494111 -0.093106334976964328 0 -0.42371591628165239 -0.12841039464220819 0 -0.42916563782925382 -0.1107160192160596 0 -0.44295770465017009 -0.12292285668534771 0 -0.42371591628165239 -0.12841039464220819 0 -0.41294233195137359 -0.116724400289887 0 -0.42916563782925382 -0.1107160192160596 0 -0.42343463197652342 -0.05874232933513765 0 -0.41749625226094061 -0.077358517460495352 0 -0.40670414160736479 -0.063195666982337848 0 -0.40907098738890341 -0.097978282768044114 0 -0.41749625226094061 -0.077358517460495352 0 -0.42904349786494111 -0.093106334976964328 0 -0.3944429598887787 -0.078419500118194568 0 -0.40907098738890341 -0.097978282768044114 0 -0.41749625226094061 -0.077358517460495352 0 -0.41749625226094061 -0.077358517460495352 0 -0.42904349786494111 -0.093106334976964328 0 -0.44158830613200611 -0.073241366152915127 0 -0.42904349786494111 -0.093106334976964328 0 -0.44158830613200611 -0.073241366152915127 0 -0.42343463197652342 -0.05874232933513765 0 -0.44158830613200611 -0.073241366152915127 0 -0.42343463197652342 -0.05874232933513765 0 -0.41749625226094061 -0.077358517460495352 0 -0.44158830613200611 -0.073241366152915127 0 -0.44158830613200611 -0.073241366152915127 0 -0.46118581313569179 -0.071431252447136412 0 -0.45067286806919349 -0.058855770468984832 0 -0.44158830613200611 -0.073241366152915127 0 -0.45067286806919349 -0.058855770468984832 0 -0.44158830613200611 -0.073241366152915127 0 -0.44459286929252761 -0.089545637905493386 0 -0.46105887075467122 -0.088792181426399025 0 -0.42904349786494111 -0.093106334976964328 0 -0.44158830613200611 -0.073241366152915127 0 -0.44459286929252761 -0.089545637905493386 0 -0.44158830613200611 -0.073241366152915127 0 -0.46105887075467122 -0.088792181426399025 0 -0.46105887075467122 -0.088792181426399025 0 -0.46118581313569179 -0.071431252447136412 0 -0.48115195350555812 -0.076249636056848105 0 -0.44158830613200611 -0.073241366152915127 0 -0.46105887075467122 -0.088792181426399025 0 -0.46118581313569179 -0.071431252447136412 0 -0.44295770465017009 -0.12292285668534771 0 -0.44668080241849201 -0.10304266906569499 0 -0.46296805171726468 -0.11640170438458371 0 -0.42916563782925382 -0.1107160192160596 0 -0.44295770465017009 -0.12292285668534771 0 -0.44668080241849201 -0.10304266906569499 0 -0.44459286929252761 -0.089545637905493386 0 -0.46105887075467122 -0.088792181426399025 0 -0.44668080241849201 -0.10304266906569499 0 -0.42904349786494111 -0.093106334976964328 0 -0.44459286929252761 -0.089545637905493386 0 -0.44668080241849201 -0.10304266906569499 0 -0.46105887075467122 -0.088792181426399025 0 -0.46296805171726468 -0.11640170438458371 0 -0.48052943537733628 -0.1043429966998831 0 -0.46105887075467122 -0.088792181426399025 0 -0.44668080241849201 -0.10304266906569499 0 -0.46296805171726468 -0.11640170438458371 0 -0.45407528277834919 -0.1346042898317954 0 -0.44295770465017009 -0.12292285668534771 0 -0.46296805171726468 -0.11640170438458371 0 -0.46296805171726468 -0.11640170438458371 0 -0.48245330698995931 -0.121898764666846 0 -0.48052943537733628 -0.1043429966998831 0 -0.47213782278640881 -0.13623393318828281 0 -0.46296805171726468 -0.11640170438458371 0 -0.48245330698995931 -0.121898764666846 0 -0.46105887075467122 -0.088792181426399025 0 -0.48052943537733628 -0.1043429966998831 0 -0.48052943537733628 -0.1043429966998831 0 -0.50000000000000089 -0.1198938119733675 0 -0.5 -0.090898883536528308 0 -0.48245330698995931 -0.121898764666846 0 -0.48052943537733628 -0.1043429966998831 0 -0.50000000000000089 -0.1198938119733675 0 -0.48052943537733628 -0.1043429966998831 0 -0.50000000000000089 -0.1198938119733675 0 -0.46118581313569179 -0.071431252447136412 0 -0.48115195350555812 -0.076249636056848105 0 -0.46833584839527592 -0.05632992550213807 0 -0.48115195350555812 -0.076249636056848105 0 -0.48490864188954641 -0.055044389119401932 0 -0.46833584839527592 -0.05632992550213807 0 -0.46105887075467122 -0.088792181426399025 0 -0.48052943537733628 -0.1043429966998831 0 -0.48115195350555812 -0.076249636056848105 0 -0.48052943537733628 -0.1043429966998831 0 -0.48115195350555812 -0.076249636056848105 0 -0.5 -0.090898883536528308 0 -0.48115195350555812 -0.076249636056848105 0 -0.5 -0.090898883536528308 0 -0.5 -0.061903955099689163 0 -0.48115195350555812 -0.076249636056848105 0 -0.5 -0.061903955099689163 0 -0.48490864188954641 -0.055044389119401932 0 -0.5 -0.061903955099689163 0 -0.48490864188954641 -0.055044389119401932 0 -0.5 -0.032909026662849998 0 -0.48490864188954641 -0.055044389119401932 0 -0.5 -0.032909026662849998 0 -0.47623700986288742 -0.042296174380792313 0 -0.47623700986288742 -0.042296174380792313 0 -0.45975743000638192 -0.044470174785055258 0 -0.47133789178420182 -0.026132268992706809 0 -0.5 -0.032909026662849998 0 -0.47623700986288742 -0.042296174380792313 0 -0.47133789178420182 -0.026132268992706809 0 -0.48490864188954641 -0.055044389119401932 0 -0.47623700986288742 -0.042296174380792313 0 -0.46833584839527592 -0.05632992550213807 0 -0.46118581313569179 -0.071431252447136412 0 -0.46833584839527592 -0.05632992550213807 0 -0.45067286806919349 -0.058855770468984832 0 -0.47623700986288742 -0.042296174380792313 0 -0.46833584839527592 -0.05632992550213807 0 -0.45975743000638192 -0.044470174785055258 0 -0.46833584839527592 -0.05632992550213807 0 -0.45975743000638192 -0.044470174785055258 0 -0.45067286806919349 -0.058855770468984832 0 -0.45975743000638192 -0.044470174785055258 0 -0.45067286806919349 -0.058855770468984832 0 -0.46833584839527592 -0.05632992550213807 0 -0.45975743000638192 -0.044470174785055258 0 -0.45964620516156041 -0.031574428691672249 0 -0.45975743000638192 -0.044470174785055258 0 -0.44743337329375982 -0.027432040969604381 0 -0.45975743000638192 -0.044470174785055258 0 -0.44743337329375982 -0.027432040969604381 0 -0.45975743000638192 -0.044470174785055258 0 -0.47133789178420182 -0.026132268992706809 0 -0.45964620516156041 -0.031574428691672249 0 -0.45975743000638192 -0.044470174785055258 0 -0.47133789178420182 -0.026132268992706809 0 -0.45975743000638192 -0.044470174785055258 0 -0.4453801544960031 -0.037531923181514312 0 -0.44743337329375982 -0.027432040969604381 0 -0.45975743000638192 -0.044470174785055258 0 -0.4453801544960031 -0.037531923181514312 0 -0.44094154444346079 -0.04995238034171972 0 -0.42837915354319411 -0.040827216461995969 0 -0.4453801544960031 -0.037531923181514312 0 -0.44094154444346079 -0.04995238034171972 0 -0.4453801544960031 -0.037531923181514312 0 -0.44743337329375982 -0.027432040969604381 0 -0.44158830613200611 -0.073241366152915127 0 -0.44094154444346079 -0.04995238034171972 0 -0.45067286806919349 -0.058855770468984832 0 -0.45975743000638192 -0.044470174785055258 0 -0.44094154444346079 -0.04995238034171972 0 -0.45067286806919349 -0.058855770468984832 0 -0.43033724725149269 -0.0037964727450953309 0 -0.45268467479845531 -0.00160063580491273 0 -0.44743337329375982 -0.027432040969604381 0 -0.45268467479845531 -0.00160063580491273 0 -0.44743337329375982 -0.027432040969604381 0 -0.43033724725149269 -0.0037964727450953309 0 -0.44743337329375982 -0.027432040969604381 0 -0.4342900889778567 -0.026770694848987801 0 -0.4453801544960031 -0.037531923181514312 0 -0.44743337329375982 -0.027432040969604381 0 -0.45964620516156041 -0.031574428691672249 0 -0.44743337329375982 -0.027432040969604381 0 -0.46065164258955998 -0.015998841515816709 0 -0.45964620516156041 -0.031574428691672249 0 -0.46065164258955998 -0.015998841515816709 0 -0.47133789178420182 -0.026132268992706809 0 -0.45268467479845531 -0.00160063580491273 0 -0.46065164258955998 -0.015998841515816709 0 -0.47044579822050858 0.003730308873902122 0 -0.45268467479845531 -0.00160063580491273 0 -0.44743337329375982 -0.027432040969604381 0 -0.46065164258955998 -0.015998841515816709 0 -0.46065164258955998 -0.015998841515816709 0 -0.48291835356202167 -0.0077943632003582772 0 -0.47044579822050858 0.003730308873902122 0 -0.46065164258955998 -0.015998841515816709 0 -0.48291835356202167 -0.0077943632003582772 0 -0.47133789178420182 -0.026132268992706809 0 -0.48291835356202167 -0.0077943632003582772 0 -0.47133789178420182 -0.026132268992706809 0 -0.5 -0.032909026662849998 0 -0.48291835356202167 -0.0077943632003582772 0 -0.47133789178420182 -0.026132268992706809 0 -0.5 -0.032909026662849998 0 -0.48291835356202167 -0.0077943632003582772 0 -0.5 -0.0039140982260107426 0 -0.48291835356202167 -0.0077943632003582772 0 -0.5 -0.0039140982260107426 0 -0.48656778433615411 0.0071434676601368312 0 -0.5 -0.0039140982260107426 0 -0.48656778433615411 0.0071434676601368312 0 -0.5 0.02508083021082835 0 -0.5 0.02508083021082835 0 -0.47947476989823978 0.0186146606423227 0 -0.48053744464613157 0.038241937480116027 0 -0.48656778433615411 0.0071434676601368312 0 -0.5 0.02508083021082835 0 -0.47947476989823978 0.0186146606423227 0 -0.47947476989823978 0.0186146606423227 0 -0.48053744464613157 0.038241937480116027 0 -0.45793597630314969 0.024230769359779091 0 -0.48656778433615411 0.0071434676601368312 0 -0.47947476989823978 0.0186146606423227 0 -0.47044579822050858 0.003730308873902122 0 -0.48291835356202167 -0.0077943632003582772 0 -0.48656778433615411 0.0071434676601368312 0 -0.47044579822050858 0.003730308873902122 0 -0.47947476989823978 0.0186146606423227 0 -0.47044579822050858 0.003730308873902122 0 -0.45793597630314969 0.024230769359779091 0 -0.5 0.05407575864766756 0 -0.48053744464613157 0.038241937480116027 0 -0.48160115767747708 0.06010989829645641 0 -0.5 0.02508083021082835 0 -0.5 0.05407575864766756 0 -0.48053744464613157 0.038241937480116027 0 -0.48053744464613157 0.038241937480116027 0 -0.48160115767747708 0.06010989829645641 0 -0.4631872778078443 0.050062174524471058 0 -0.48160115767747708 0.06010989829645641 0 -0.4631872778078443 0.050062174524471058 0 -0.46843857931253879 0.07589357968916309 0 -0.4631872778078443 0.050062174524471058 0 -0.4467001814262947 0.061097152827744368 0 -0.46843857931253879 0.07589357968916309 0 -0.48053744464613157 0.038241937480116027 0 -0.4631872778078443 0.050062174524471058 0 -0.45793597630314969 0.024230769359779091 0 -0.4631872778078443 0.050062174524471058 0 -0.45793597630314969 0.024230769359779091 0 -0.4631872778078443 0.050062174524471058 0 -0.44755765064800451 0.039790068000500847 0 -0.45793597630314969 0.024230769359779091 0 -0.44755765064800451 0.039790068000500847 0 -0.43523671041618939 0.023434885238954581 0 -0.43070758581248142 0.047053180835022322 0 -0.4631872778078443 0.050062174524471058 0 -0.44755765064800451 0.039790068000500847 0 -0.4467001814262947 0.061097152827744368 0 -0.44755765064800451 0.039790068000500847 0 -0.4467001814262947 0.061097152827744368 0 -0.43070758581248142 0.047053180835022322 0 -0.45268467479845531 -0.00160063580491273 0 -0.45793597630314969 0.024230769359779091 0 -0.45268467479845531 -0.00160063580491273 0 -0.47044579822050858 0.003730308873902122 0 -0.45793597630314969 0.024230769359779091 0 -0.44755765064800451 0.039790068000500847 0 -0.45793597630314969 0.024230769359779091 0 -0.43523671041618939 0.023434885238954581 0 -0.45268467479845531 -0.00160063580491273 0 -0.45793597630314969 0.024230769359779091 0 -0.43523671041618939 0.023434885238954581 0 -0.43033724725149269 -0.0037964727450953309 0 -0.45268467479845531 -0.00160063580491273 0 -0.43523671041618939 0.023434885238954581 0 -0.43033724725149269 -0.0037964727450953309 0 -0.41324112120922679 0.019839095479414509 0 -0.43523671041618939 0.023434885238954581 0 -0.4131572459017161 -0.004875649818797438 0 -0.41324112120922679 0.019839095479414509 0 -0.40033306733275759 0.0019581273283447299 0 -0.43033724725149269 -0.0037964727450953309 0 -0.4131572459017161 -0.004875649818797438 0 -0.41324112120922679 0.019839095479414509 0 -0.43033724725149269 -0.0037964727450953309 0 -0.41324112120922679 0.019839095479414509 0 -0.41324112120922679 0.019839095479414509 0 -0.43523671041618939 0.023434885238954581 0 -0.4159879611894004 0.038538653043845933 0 -0.43523671041618939 0.023434885238954581 0 -0.43070758581248142 0.047053180835022322 0 -0.4159879611894004 0.038538653043845933 0 -0.4467001814262947 0.061097152827744368 0 -0.43070758581248142 0.047053180835022322 0 -0.43187545736445182 0.065921103617004775 0 -0.43070758581248142 0.047053180835022322 0 -0.41322656597679058 0.058941655142102069 0 -0.43187545736445182 0.065921103617004775 0 -0.43070758581248142 0.047053180835022322 0 -0.41322656597679058 0.058941655142102069 0 -0.4159879611894004 0.038538653043845933 0 -0.41322656597679058 0.058941655142102069 0 -0.4159879611894004 0.038538653043845933 0 -0.39614499516696089 0.04347466370392436 0 -0.41324112120922679 0.019839095479414509 0 -0.4159879611894004 0.038538653043845933 0 -0.39614499516696089 0.04347466370392436 0 -0.41324112120922679 0.019839095479414509 0 -0.39614499516696089 0.04347466370392436 0 -0.39614499516696089 0.04347466370392436 0 -0.37904886912469499 0.067110231928434197 0 -0.39695674231957478 0.074929810419583368 0 -0.41322656597679058 0.058941655142102069 0 -0.39614499516696089 0.04347466370392436 0 -0.39695674231957478 0.074929810419583368 0 -0.39614499516696089 0.04347466370392436 0 -0.37904886912469499 0.067110231928434197 0 -0.39614499516696089 0.04347466370392436 0 -0.37830855690199738 0.048851891747440382 0 -0.37904886912469499 0.067110231928434197 0 -0.37830855690199738 0.048851891747440382 0 -0.37904886912469499 0.067110231928434197 0 -0.37119345183321822 0.058853827639881867 0 -0.39614499516696089 0.04347466370392436 0 -0.37753126207020948 0.034899308803226177 0 -0.39262774316901877 0.02112007510405265 0 -0.39614499516696089 0.04347466370392436 0 -0.37830855690199738 0.048851891747440382 0 -0.37753126207020948 0.034899308803226177 0 -0.38389636562500351 0.0078670615218947963 0 -0.39262774316901877 0.02112007510405265 0 -0.37274578052696178 0.01868977009819147 0 -0.37753126207020948 0.034899308803226177 0 -0.39262774316901877 0.02112007510405265 0 -0.37274578052696178 0.01868977009819147 0 -0.38465333842141641 -0.0066435457767305304 0 -0.38389636562500351 0.0078670615218947963 0 -0.40033306733275759 0.0019581273283447299 0 -0.38389636562500351 0.0078670615218947963 0 -0.37274578052696178 0.01868977009819147 0 -0.36979036210562988 0.0025511841975563729 0 -0.38465333842141641 -0.0066435457767305304 0 -0.38389636562500351 0.0078670615218947963 0 -0.36979036210562988 0.0025511841975563729 0 -0.38389636562500351 0.0078670615218947963 0 -0.40033306733275759 0.0019581273283447299 0 -0.39262774316901877 0.02112007510405265 0 -0.41324112120922679 0.019839095479414509 0 -0.40033306733275759 0.0019581273283447299 0 -0.39262774316901877 0.02112007510405265 0 -0.41324112120922679 0.019839095479414509 0 -0.39614499516696089 0.04347466370392436 0 -0.39262774316901877 0.02112007510405265 0 -0.38940712396436111 0.098535478259042519 0 -0.39976920250104669 0.086913075381088473 0 -0.40655062222011962 0.096340958868671334 0 -0.39063101314785642 0.1199442217017349 0 -0.40655062222011962 0.096340958868671334 0 -0.40795026737523371 0.1101441825861223 0 -0.39063101314785642 0.1199442217017349 0 -0.38940712396436111 0.098535478259042519 0 -0.40655062222011962 0.096340958868671334 0 -0.39063101314785642 0.1199442217017349 0 -0.40655062222011962 0.096340958868671334 0 -0.39063101314785642 0.1199442217017349 0 -0.40795026737523371 0.1101441825861223 0 -0.40406865080306442 0.1250183431131778 0 -0.39063101314785642 0.1199442217017349 0 -0.37896648635229202 0.10715504183998489 0 -0.36716541190589658 0.118616890008602 0 -0.39063101314785642 0.1199442217017349 0 -0.37896648635229202 0.10715504183998489 0 -0.38940712396436111 0.098535478259042519 0 -0.37896648635229202 0.10715504183998489 0 -0.38940712396436111 0.098535478259042519 0 -0.37643332436138899 0.09558572737664002 0 -0.38119130922167832 0.078766060501995444 0 -0.3856317933390121 0.08567132342606161 0 -0.39695674231957478 0.074929810419583368 0 -0.37643332436138899 0.09558572737664002 0 -0.3856317933390121 0.08567132342606161 0 -0.37016311523106599 0.083751267223082917 0 -0.38119130922167832 0.078766060501995444 0 -0.3856317933390121 0.08567132342606161 0 -0.37016311523106599 0.083751267223082917 0 -0.38940712396436111 0.098535478259042519 0 -0.37643332436138899 0.09558572737664002 0 -0.3856317933390121 0.08567132342606161 0 -0.39695674231957478 0.074929810419583368 0 -0.37201358599706058 0.070711840939253895 0 -0.38119130922167832 0.078766060501995444 0 -0.39695674231957478 0.074929810419583368 0 -0.37201358599706058 0.070711840939253895 0 -0.37904886912469499 0.067110231928434197 0 -0.39695674231957478 0.074929810419583368 0 -0.37201358599706058 0.070711840939253895 0 -0.39695674231957478 0.074929810419583368 0 -0.39976920250104669 0.086913075381088473 0 -0.42189989864208899 0.079147779899912826 0 -0.38940712396436111 0.098535478259042519 0 -0.3856317933390121 0.08567132342606161 0 -0.39976920250104669 0.086913075381088473 0 -0.3856317933390121 0.08567132342606161 0 -0.39695674231957478 0.074929810419583368 0 -0.39976920250104669 0.086913075381088473 0 -0.42189989864208899 0.079147779899912826 0 -0.41823283762125668 0.10021421029095 0 -0.40655062222011962 0.096340958868671334 0 -0.39976920250104669 0.086913075381088473 0 -0.42189989864208899 0.079147779899912826 0 -0.40655062222011962 0.096340958868671334 0 -0.39695674231957478 0.074929810419583368 0 -0.42189989864208899 0.079147779899912826 0 -0.41322656597679058 0.058941655142102069 0 -0.39695674231957478 0.074929810419583368 0 -0.42189989864208899 0.079147779899912826 0 -0.43187545736445182 0.065921103617004775 0 -0.42189989864208899 0.079147779899912826 0 -0.44684305496460319 0.083365749380242285 0 -0.41322656597679058 0.058941655142102069 0 -0.43187545736445182 0.065921103617004775 0 -0.42189989864208899 0.079147779899912826 0 -0.42189989864208899 0.079147779899912826 0 -0.43230900050581528 0.10074033507248679 0 -0.44684305496460319 0.083365749380242285 0 -0.42189989864208899 0.079147779899912826 0 -0.43230900050581528 0.10074033507248679 0 -0.41823283762125668 0.10021421029095 0 -0.42189989864208899 0.079147779899912826 0 -0.44684305496460319 0.083365749380242285 0 -0.43230900050581528 0.10074033507248679 0 -0.41823283762125668 0.10021421029095 0 -0.42245439936302609 0.1146977950275566 0 -0.41823283762125668 0.10021421029095 0 -0.40795026737523371 0.1101441825861223 0 -0.42245439936302609 0.1146977950275566 0 -0.41823283762125668 0.10021421029095 0 -0.40655062222011962 0.096340958868671334 0 -0.40795026737523371 0.1101441825861223 0 -0.40795026737523371 0.1101441825861223 0 -0.42245439936302609 0.1146977950275566 0 -0.41854804079657681 0.1335618185962307 0 -0.40795026737523371 0.1101441825861223 0 -0.41854804079657681 0.1335618185962307 0 -0.40795026737523371 0.1101441825861223 0 -0.41854804079657681 0.1335618185962307 0 -0.40406865080306442 0.1250183431131778 0 -0.4361514068569779 0.1212930370016405 0 -0.42245439936302609 0.1146977950275566 0 -0.41854804079657681 0.1335618185962307 0 -0.43230900050581528 0.10074033507248679 0 -0.4361514068569779 0.1212930370016405 0 -0.42245439936302609 0.1146977950275566 0 -0.4361514068569779 0.1212930370016405 0 -0.45131059104818438 0.10389771754541841 0 -0.45603072582896947 0.12415654782577901 0 -0.43230900050581528 0.10074033507248679 0 -0.4361514068569779 0.1212930370016405 0 -0.45131059104818438 0.10389771754541841 0 -0.43230900050581528 0.10074033507248679 0 -0.45131059104818438 0.10389771754541841 0 -0.44684305496460319 0.083365749380242285 0 -0.45131059104818438 0.10389771754541841 0 -0.46040635620489312 0.091287960740373597 0 -0.47503319949424611 0.10199479634667059 0 -0.45131059104818438 0.10389771754541841 0 -0.45603072582896947 0.12415654782577901 0 -0.47503319949424611 0.10199479634667059 0 -0.4467001814262947 0.061097152827744368 0 -0.43187545736445182 0.065921103617004775 0 -0.44684305496460319 0.083365749380242285 0 -0.45131059104818438 0.10389771754541841 0 -0.44684305496460319 0.083365749380242285 0 -0.46040635620489312 0.091287960740373597 0 -0.46040635620489312 0.091287960740373597 0 -0.46843857931253879 0.07589357968916309 0 -0.47503319949424611 0.10199479634667059 0 -0.44684305496460319 0.083365749380242285 0 -0.46040635620489312 0.091287960740373597 0 -0.46843857931253879 0.07589357968916309 0 -0.4631872778078443 0.050062174524471058 0 -0.46843857931253879 0.07589357968916309 0 -0.4467001814262947 0.061097152827744368 0 -0.44684305496460319 0.083365749380242285 0 -0.46843857931253879 0.07589357968916309 0 -0.48160115767747708 0.06010989829645641 0 -0.46843857931253879 0.07589357968916309 0 -0.5 0.083070687084506711 0 -0.46843857931253879 0.07589357968916309 0 -0.5 0.083070687084506711 0 -0.47503319949424611 0.10199479634667059 0 -0.5 0.05407575864766756 0 -0.48160115767747708 0.06010989829645641 0 -0.5 0.083070687084506711 0 -0.45603072582896947 0.12415654782577901 0 -0.47503319949424611 0.10199479634667059 0 -0.47840746745339868 0.1318715347448986 0 -0.5 0.083070687084506711 0 -0.47503319949424611 0.10199479634667059 0 -0.5 0.11206561552134579 0 -0.47503319949424611 0.10199479634667059 0 -0.5 0.11206561552134579 0 -0.47840746745339868 0.1318715347448986 0 -0.5 0.11206561552134579 0 -0.47840746745339868 0.1318715347448986 0 -0.5 0.14106054395818479 0 -0.47840746745339868 0.1318715347448986 0 -0.4813713775429343 0.15534342778339541 0 -0.45584990199199521 0.14839652371063539 0 -0.47840746745339868 0.1318715347448986 0 -0.4813713775429343 0.15534342778339541 0 -0.5 0.14106054395818479 0 -0.4813713775429343 0.15534342778339541 0 -0.5 0.14106054395818479 0 -0.5 0.17005547239502389 0 -0.4813713775429343 0.15534342778339541 0 -0.5 0.17005547239502389 0 -0.47888983910924399 0.1833910978263659 0 -0.5 0.17005547239502389 0 -0.47888983910924399 0.1833910978263659 0 -0.49999999999999639 0.19905040083186301 0 -0.4813713775429343 0.15534342778339541 0 -0.47888983910924399 0.1833910978263659 0 -0.46013732273498392 0.17116473448995881 0 -0.4813713775429343 0.15534342778339541 0 -0.47888983910924399 0.1833910978263659 0 -0.4813713775429343 0.15534342778339541 0 -0.46013732273498392 0.17116473448995881 0 -0.45584990199199521 0.14839652371063539 0 -0.47888983910924399 0.1833910978263659 0 -0.46013732273498392 0.17116473448995881 0 -0.4553652866229031 0.19812390853730849 0 -0.46013732273498392 0.17116473448995881 0 -0.43974358763926291 0.18039709061644729 0 -0.4553652866229031 0.19812390853730849 0 -0.46013732273498392 0.17116473448995881 0 -0.45584990199199521 0.14839652371063539 0 -0.42914581421791992 0.156979454606339 0 -0.46013732273498392 0.17116473448995881 0 -0.43974358763926291 0.18039709061644729 0 -0.42914581421791992 0.156979454606339 0 -0.43890233478009338 0.1378395493323826 0 -0.45584990199199521 0.14839652371063539 0 -0.42914581421791992 0.156979454606339 0 -0.4361514068569779 0.1212930370016405 0 -0.45603072582896947 0.12415654782577901 0 -0.43890233478009338 0.1378395493323826 0 -0.45603072582896947 0.12415654782577901 0 -0.43890233478009338 0.1378395493323826 0 -0.45584990199199521 0.14839652371063539 0 -0.45603072582896947 0.12415654782577901 0 -0.47840746745339868 0.1318715347448986 0 -0.45584990199199521 0.14839652371063539 0 -0.48510068849613291 0.2464952989699998 0 -0.5 0.22952651967534751 0 -0.5 0.27058277969487637 0 -0.48510068849613291 0.2464952989699998 0 -0.47450648191078398 0.23293413722231679 0 -0.4662317729600568 0.24711617116125539 0 -0.48510068849613291 0.2464952989699998 0 -0.5 0.22952651967534751 0 -0.47450648191078398 0.23293413722231679 0 -0.5 0.22952651967534751 0 -0.47450648191078398 0.23293413722231679 0 -0.47640830067555312 0.21143876786933641 0 -0.47450648191078398 0.23293413722231679 0 -0.47640830067555312 0.21143876786933641 0 -0.47640830067555312 0.21143876786933641 0 -0.49999999999999639 0.19905040083186301 0 -0.5 0.22952651967534751 0 -0.47640830067555312 0.21143876786933641 0 -0.49999999999999639 0.19905040083186301 0 -0.47888983910924399 0.1833910978263659 0 -0.47640830067555312 0.21143876786933641 0 -0.49999999999999639 0.19905040083186301 0 -0.47888983910924399 0.1833910978263659 0 -0.47640830067555312 0.21143876786933641 0 -0.47888983910924399 0.1833910978263659 0 -0.47640830067555312 0.21143876786933641 0 -0.4553652866229031 0.19812390853730849 0 -0.43974358763926291 0.18039709061644729 0 -0.4553652866229031 0.19812390853730849 0 -0.43067986422853077 0.20940139548392031 0 -0.4553652866229031 0.19812390853730849 0 -0.45283971357182312 0.22381499832142371 0 -0.43067986422853077 0.20940139548392031 0 -0.47640830067555312 0.21143876786933641 0 -0.4553652866229031 0.19812390853730849 0 -0.45283971357182312 0.22381499832142371 0 -0.47640830067555312 0.21143876786933641 0 -0.45283971357182312 0.22381499832142371 0 -0.47450648191078398 0.23293413722231679 0 -0.45283971357182312 0.22381499832142371 0 -0.45078000859246359 0.24156244513336969 0 -0.47450648191078398 0.23293413722231679 0 -0.47640830067555312 0.21143876786933641 0 -0.45283971357182312 0.22381499832142371 0 -0.45283971357182312 0.22381499832142371 0 -0.43294786837480398 0.2404538296894207 0 -0.42927112646809362 0.23619122877351181 0 -0.45283971357182312 0.22381499832142371 0 -0.42927112646809362 0.23619122877351181 0 -0.45283971357182312 0.22381499832142371 0 -0.42927112646809362 0.23619122877351181 0 -0.43067986422853077 0.20940139548392031 0 -0.45283971357182312 0.22381499832142371 0 -0.45078000859246359 0.24156244513336969 0 -0.43294786837480398 0.2404538296894207 0 -0.43294786837480398 0.2404538296894207 0 -0.44957601688056159 0.25938839971938082 0 -0.45078000859246359 0.24156244513336969 0 -0.43294786837480398 0.2404538296894207 0 -0.44957601688056159 0.25938839971938082 0 -0.45078000859246359 0.24156244513336969 0 -0.4662317729600568 0.24711617116125539 0 -0.44957601688056159 0.25938839971938082 0 -0.47450648191078398 0.23293413722231679 0 -0.45078000859246359 0.24156244513336969 0 -0.4662317729600568 0.24711617116125539 0 -0.42927112646809362 0.23619122877351181 0 -0.40439403923729561 0.237116777479636 0 -0.40570253936436479 0.24856745922560119 0 -0.42927112646809362 0.23619122877351181 0 -0.40570253936436479 0.24856745922560119 0 -0.43294786837480398 0.2404538296894207 0 -0.42927112646809362 0.23619122877351181 0 -0.40570253936436479 0.24856745922560119 0 -0.42927112646809362 0.23619122877351181 0 -0.41099867150134572 0.22378265931279079 0 -0.43067986422853077 0.20940139548392031 0 -0.42927112646809362 0.23619122877351181 0 -0.41099867150134572 0.22378265931279079 0 -0.40439403923729561 0.237116777479636 0 -0.40693149157881192 0.20854646138297669 0 -0.43067986422853077 0.20940139548392031 0 -0.41468845130467291 0.19268004053423909 0 -0.41099867150134572 0.22378265931279079 0 -0.40693149157881192 0.20854646138297669 0 -0.43067986422853077 0.20940139548392031 0 -0.43974358763926291 0.18039709061644729 0 -0.43067986422853077 0.20940139548392031 0 -0.41468845130467291 0.19268004053423909 0 -0.40693149157881192 0.20854646138297669 0 -0.41468845130467291 0.19268004053423909 0 -0.3971577940731173 0.19827573187671929 0 -0.41468845130467291 0.19268004053423909 0 -0.3971577940731173 0.19827573187671929 0 -0.39721082993519219 0.18448993107768991 0 -0.3971577940731173 0.19827573187671929 0 -0.38589476142810619 0.19424352100093389 0 -0.39721082993519219 0.18448993107768991 0 -0.38589476142810619 0.19424352100093389 0 -0.37633455857784293 0.18261391494179069 0 -0.37360736010814782 0.20134128663860251 0 -0.38589476142810619 0.19424352100093389 0 -0.388204088430469 0.2080493245121296 0 -0.37360736010814782 0.20134128663860251 0 -0.3971577940731173 0.19827573187671929 0 -0.38589476142810619 0.19424352100093389 0 -0.388204088430469 0.2080493245121296 0 -0.388204088430469 0.2080493245121296 0 -0.37752279527241261 0.21261086987475841 0 -0.37360736010814782 0.20134128663860251 0 -0.388204088430469 0.2080493245121296 0 -0.39698893960476778 0.22105750592270679 0 -0.38334950790794681 0.2216260941536595 0 -0.388204088430469 0.2080493245121296 0 -0.37752279527241261 0.21261086987475841 0 -0.38334950790794681 0.2216260941536595 0 -0.40693149157881192 0.20854646138297669 0 -0.3971577940731173 0.19827573187671929 0 -0.388204088430469 0.2080493245121296 0 -0.40693149157881192 0.20854646138297669 0 -0.388204088430469 0.2080493245121296 0 -0.39698893960476778 0.22105750592270679 0 -0.41099867150134572 0.22378265931279079 0 -0.40693149157881192 0.20854646138297669 0 -0.39698893960476778 0.22105750592270679 0 -0.41099867150134572 0.22378265931279079 0 -0.39817935363044121 0.2307605800777236 0 -0.39698893960476778 0.22105750592270679 0 -0.41099867150134572 0.22378265931279079 0 -0.39817935363044121 0.2307605800777236 0 -0.40439403923729561 0.237116777479636 0 -0.39817935363044121 0.2307605800777236 0 -0.39698893960476778 0.22105750592270679 0 -0.38938082192181989 0.23429513208400299 0 -0.39698893960476778 0.22105750592270679 0 -0.38334950790794681 0.2216260941536595 0 -0.38938082192181989 0.23429513208400299 0 -0.37752279527241261 0.21261086987475841 0 -0.38334950790794681 0.2216260941536595 0 -0.37349668708843092 0.2226496950895116 0 -0.38334950790794681 0.2216260941536595 0 -0.37780308712422273 0.23309721308500589 0 -0.37349668708843092 0.2226496950895116 0 -0.38334950790794681 0.2216260941536595 0 -0.37780308712422273 0.23309721308500589 0 -0.38938082192181989 0.23429513208400299 0 -0.37780308712422273 0.23309721308500589 0 -0.38938082192181989 0.23429513208400299 0 -0.38455494932564349 0.24416718140159829 0 -0.38938082192181989 0.23429513208400299 0 -0.38455494932564349 0.24416718140159829 0 -0.39556747567899392 0.24292135359640349 0 -0.37780308712422273 0.23309721308500589 0 -0.37552267705158737 0.2431978490864326 0 -0.38455494932564349 0.24416718140159829 0 -0.37552267705158737 0.2431978490864326 0 -0.38455494932564349 0.24416718140159829 0 -0.37675611103540763 0.25409865512553548 0 -0.38455494932564349 0.24416718140159829 0 -0.39556747567899392 0.24292135359640349 0 -0.38900306751682168 0.25733661077056619 0 -0.39556747567899392 0.24292135359640349 0 -0.40570253936436479 0.24856745922560119 0 -0.38900306751682168 0.25733661077056619 0 -0.39817935363044121 0.2307605800777236 0 -0.38938082192181989 0.23429513208400299 0 -0.39556747567899392 0.24292135359640349 0 -0.39817935363044121 0.2307605800777236 0 -0.39556747567899392 0.24292135359640349 0 -0.40439403923729561 0.237116777479636 0 -0.39556747567899392 0.24292135359640349 0 -0.40439403923729561 0.237116777479636 0 -0.40570253936436479 0.24856745922560119 0 -0.40439403923729561 0.237116777479636 0 -0.40570253936436479 0.24856745922560119 0 -0.41854804079657681 0.1335618185962307 0 -0.42914581421791992 0.156979454606339 0 -0.40043471814444209 0.15516303321545699 0 -0.41854804079657681 0.1335618185962307 0 -0.39914528189259102 0.13642314956862331 0 -0.40406865080306442 0.1250183431131778 0 -0.4361514068569779 0.1212930370016405 0 -0.43890233478009338 0.1378395493323826 0 -0.41854804079657681 0.1335618185962307 0 -0.41854804079657681 0.1335618185962307 0 -0.42914581421791992 0.156979454606339 0 -0.43890233478009338 0.1378395493323826 0 -0.41854804079657681 0.1335618185962307 0 -0.42914581421791992 0.156979454606339 0 -0.43974358763926291 0.18039709061644729 0 -0.42914581421791992 0.156979454606339 0 -0.43974358763926291 0.18039709061644729 0 -0.42914581421791992 0.156979454606339 0 -0.41320507520050959 0.17295104721716609 0 -0.43974358763926291 0.18039709061644729 0 -0.41468845130467291 0.19268004053423909 0 -0.41320507520050959 0.17295104721716609 0 -0.41468845130467291 0.19268004053423909 0 -0.41320507520050959 0.17295104721716609 0 -0.39721082993519219 0.18448993107768991 0 -0.42914581421791992 0.156979454606339 0 -0.41320507520050959 0.17295104721716609 0 -0.40043471814444209 0.15516303321545699 0 -0.41320507520050959 0.17295104721716609 0 -0.39020731289493082 0.17075062011690681 0 -0.40043471814444209 0.15516303321545699 0 -0.41320507520050959 0.17295104721716609 0 -0.39721082993519219 0.18448993107768991 0 -0.39020731289493082 0.17075062011690681 0 -0.38589476142810619 0.19424352100093389 0 -0.39721082993519219 0.18448993107768991 0 -0.37633455857784293 0.18261391494179069 0 -0.39721082993519219 0.18448993107768991 0 -0.37633455857784293 0.18261391494179069 0 -0.39020731289493082 0.17075062011690681 0 -0.37604315808934557 0.1616159605326225 0 -0.39020731289493082 0.17075062011690681 0 -0.40043471814444209 0.15516303321545699 0 -0.37633455857784293 0.18261391494179069 0 -0.37604315808934557 0.1616159605326225 0 -0.39020731289493082 0.17075062011690681 0 -0.37604315808934557 0.1616159605326225 0 -0.40043471814444209 0.15516303321545699 0 -0.37471140407559322 0.1435474845347986 0 -0.40043471814444209 0.15516303321545699 0 -0.39914528189259102 0.13642314956862331 0 -0.37471140407559322 0.1435474845347986 0 -0.41854804079657681 0.1335618185962307 0 -0.40043471814444209 0.15516303321545699 0 -0.39914528189259102 0.13642314956862331 0 -0.39063101314785642 0.1199442217017349 0 -0.39914528189259102 0.13642314956862331 0 -0.40406865080306442 0.1250183431131778 0 -0.39063101314785642 0.1199442217017349 0 -0.37471140407559322 0.1435474845347986 0 -0.39063101314785642 0.1199442217017349 0 -0.39914528189259102 0.13642314956862331 0 -0.37471140407559322 0.1435474845347986 0 -0.39063101314785642 0.1199442217017349 0 -0.37471140407559322 0.1435474845347986 0 -0.36716541190589658 0.118616890008602 0 -0.35994195951422209 0.1344452768815545 0 -0.37471140407559322 0.1435474845347986 0 -0.36716541190589658 0.118616890008602 0 -0.35994195951422209 0.1344452768815545 0 -0.36716541190589658 0.118616890008602 0 -0.35352278934268327 0.12307152153672141 0 -0.34641309729257957 0.13731862859844601 0 -0.34013489564456101 0.1359120708212119 0 -0.34492978578452338 0.1096826786703838 0 -0.35994195951422209 0.1344452768815545 0 -0.34641309729257957 0.13731862859844601 0 -0.35352278934268327 0.12307152153672141 0 -0.35994195951422209 0.1344452768815545 0 -0.34641309729257957 0.13731862859844601 0 -0.35789709495435779 0.14967185972920441 0 -0.34641309729257957 0.13731862859844601 0 -0.34789640880063583 0.16495457852650819 0 -0.34475730797662613 0.16425129963789131 0 -0.34641309729257957 0.13731862859844601 0 -0.34789640880063583 0.16495457852650819 0 -0.34641309729257957 0.13731862859844601 0 -0.35789709495435779 0.14967185972920441 0 -0.34789640880063583 0.16495457852650819 0 -0.34641309729257957 0.13731862859844601 0 -0.34475730797662613 0.16425129963789131 0 -0.34013489564456101 0.1359120708212119 0 -0.35994195951422209 0.1344452768815545 0 -0.35789709495435779 0.14967185972920441 0 -0.37471140407559322 0.1435474845347986 0 -0.37471140407559322 0.1435474845347986 0 -0.35879179500333003 0.16715074736786231 0 -0.35789709495435779 0.14967185972920441 0 -0.37471140407559322 0.1435474845347986 0 -0.35879179500333003 0.16715074736786231 0 -0.37604315808934557 0.1616159605326225 0 -0.37471140407559322 0.1435474845347986 0 -0.35879179500333003 0.16715074736786231 0 -0.37604315808934557 0.1616159605326225 0 -0.36770080355277779 0.17295393471821821 0 -0.35879179500333003 0.16715074736786231 0 -0.37633455857784293 0.18261391494179069 0 -0.37604315808934557 0.1616159605326225 0 -0.36770080355277779 0.17295393471821821 0 -0.37633455857784293 0.18261391494179069 0 -0.36024484160731629 0.17922248672973989 0 -0.36412185028301147 0.19234279238731111 0 -0.37633455857784293 0.18261391494179069 0 -0.36770080355277779 0.17295393471821821 0 -0.36024484160731629 0.17922248672973989 0 -0.36770080355277779 0.17295393471821821 0 -0.36024484160731629 0.17922248672973989 0 -0.35879179500333003 0.16715074736786231 0 -0.34475730797662613 0.16425129963789131 0 -0.34937972030869158 0.1925905284545705 0 -0.34475730797662613 0.16425129963789131 0 -0.33955964773429331 0.17429409395644799 0 -0.34937972030869158 0.1925905284545705 0 -0.34789640880063583 0.16495457852650819 0 -0.34937972030869158 0.1925905284545705 0 -0.36024484160731629 0.17922248672973989 0 -0.34789640880063583 0.16495457852650819 0 -0.34937972030869158 0.1925905284545705 0 -0.34789640880063583 0.16495457852650819 0 -0.34475730797662613 0.16425129963789131 0 -0.34937972030869158 0.1925905284545705 0 -0.35789709495435779 0.14967185972920441 0 -0.35879179500333003 0.16715074736786231 0 -0.34789640880063583 0.16495457852650819 0 -0.36024484160731629 0.17922248672973989 0 -0.35879179500333003 0.16715074736786231 0 -0.34789640880063583 0.16495457852650819 0 -0.34475730797662613 0.16425129963789131 0 -0.33718479128260948 0.15937809544746401 0 -0.33738994680948231 0.15124435901621999 0 -0.34475730797662613 0.16425129963789131 0 -0.33718479128260948 0.15937809544746401 0 -0.33813633189250208 0.16634522180797001 0 -0.34475730797662613 0.16425129963789131 0 -0.33813633189250208 0.16634522180797001 0 -0.33955964773429331 0.17429409395644799 0 -0.33813633189250208 0.16634522180797001 0 -0.33104358057647992 0.16745739819007679 0 -0.33955964773429331 0.17429409395644799 0 -0.33718479128260948 0.15937809544746401 0 -0.33813633189250208 0.16634522180797001 0 -0.33104358057647992 0.16745739819007679 0 -0.33718479128260948 0.15937809544746401 0 -0.33104358057647992 0.16745739819007679 0 -0.33026858376101731 0.15190637449176561 0 -0.33104358057647992 0.16745739819007679 0 -0.33403331992976748 0.18227938602527921 0 -0.31962491903722229 0.18594758427241961 0 -0.33955964773429331 0.17429409395644799 0 -0.33403331992976748 0.18227938602527921 0 -0.34937972030869158 0.1925905284545705 0 -0.33104358057647992 0.16745739819007679 0 -0.33955964773429331 0.17429409395644799 0 -0.33403331992976748 0.18227938602527921 0 -0.31962491903722229 0.18594758427241961 0 -0.31796283648197832 0.1633337389314328 0 -0.30596240671843039 0.18080678990447141 0 -0.31962491903722229 0.18594758427241961 0 -0.31796283648197832 0.1633337389314328 0 -0.33104358057647992 0.16745739819007679 0 -0.31962491903722229 0.18594758427241961 0 -0.31796283648197832 0.1633337389314328 0 -0.33104358057647992 0.16745739819007679 0 -0.31796283648197832 0.1633337389314328 0 -0.33026858376101731 0.15190637449176561 0 -0.31796283648197832 0.1633337389314328 0 -0.31630075392673418 0.14071989359044609 0 -0.31796283648197832 0.1633337389314328 0 -0.31630075392673418 0.14071989359044609 0 -0.33026858376101731 0.15190637449176561 0 -0.31630075392673418 0.14071989359044609 0 -0.32855297285770901 0.13997743418302819 0 -0.33026858376101731 0.15190637449176561 0 -0.31630075392673418 0.14071989359044609 0 -0.30835875028686138 0.12836861128214669 0 -0.32196666651361477 0.12487749701900901 0 -0.31630075392673418 0.14071989359044609 0 -0.32855297285770901 0.13997743418302819 0 -0.32196666651361477 0.12487749701900901 0 -0.32855297285770901 0.13997743418302819 0 -0.33106980320980312 0.1246503866679774 0 -0.32196666651361477 0.12487749701900901 0 -0.32855297285770901 0.13997743418302819 0 -0.34013489564456101 0.1359120708212119 0 -0.3346041553825978 0.14477395468276741 0 -0.32855297285770901 0.13997743418302819 0 -0.34013489564456101 0.1359120708212119 0 -0.33106980320980312 0.1246503866679774 0 -0.34475730797662613 0.16425129963789131 0 -0.34013489564456101 0.1359120708212119 0 -0.34013489564456101 0.1359120708212119 0 -0.33738994680948231 0.15124435901621999 0 -0.3346041553825978 0.14477395468276741 0 -0.34475730797662613 0.16425129963789131 0 -0.34013489564456101 0.1359120708212119 0 -0.33738994680948231 0.15124435901621999 0 -0.33718479128260948 0.15937809544746401 0 -0.33738994680948231 0.15124435901621999 0 -0.33026858376101731 0.15190637449176561 0 -0.33738994680948231 0.15124435901621999 0 -0.33026858376101731 0.15190637449176561 0 -0.3346041553825978 0.14477395468276741 0 -0.32855297285770901 0.13997743418302819 0 -0.33026858376101731 0.15190637449176561 0 -0.3346041553825978 0.14477395468276741 0 -0.35208907389890948 0.24306917690434299 0 -0.33787454055877381 0.24529314191448051 0 -0.34142207509263922 0.25572960106260723 0 -0.35208907389890948 0.24306917690434299 0 -0.34508884738596168 0.2342440782649087 0 -0.33787454055877381 0.24529314191448051 0 -0.35689366634974828 0.23865726176967661 0 -0.35926376548055328 0.2486735779402334 0 -0.35208907389890948 0.24306917690434299 0 -0.35926376548055328 0.2486735779402334 0 -0.36665925593476811 0.2402392529692276 0 -0.36723308052532222 0.25309369692869038 0 -0.35689366634974828 0.23865726176967661 0 -0.35926376548055328 0.2486735779402334 0 -0.36665925593476811 0.2402392529692276 0 -0.37552267705158737 0.2431978490864326 0 -0.36665925593476811 0.2402392529692276 0 -0.36723308052532222 0.25309369692869038 0 -0.37780308712422273 0.23309721308500589 0 -0.37552267705158737 0.2431978490864326 0 -0.36665925593476811 0.2402392529692276 0 -0.37780308712422273 0.23309721308500589 0 -0.36665925593476811 0.2402392529692276 0 -0.36843053074319038 0.2307028505946831 0 -0.3637449320256837 0.23462317477255459 0 -0.36665925593476811 0.2402392529692276 0 -0.36843053074319038 0.2307028505946831 0 -0.35689366634974828 0.23865726176967661 0 -0.3637449320256837 0.23462317477255459 0 -0.36304404037139409 0.23042929735762199 0 -0.35689366634974828 0.23865726176967661 0 -0.3637449320256837 0.23462317477255459 0 -0.36665925593476811 0.2402392529692276 0 -0.35689366634974828 0.23865726176967661 0 -0.36304404037139409 0.23042929735762199 0 -0.36041387714694573 0.22521835140317789 0 -0.36304404037139409 0.23042929735762199 0 -0.36843053074319038 0.2307028505946831 0 -0.36573719559140289 0.222944848248018 0 -0.3637449320256837 0.23462317477255459 0 -0.36304404037139409 0.23042929735762199 0 -0.36843053074319038 0.2307028505946831 0 -0.37780308712422273 0.23309721308500589 0 -0.36843053074319038 0.2307028505946831 0 -0.37349668708843092 0.2226496950895116 0 -0.36843053074319038 0.2307028505946831 0 -0.37349668708843092 0.2226496950895116 0 -0.36573719559140289 0.222944848248018 0 -0.37349668708843092 0.2226496950895116 0 -0.36573719559140289 0.222944848248018 0 -0.36813700589141007 0.21491629458094519 0 -0.36304404037139409 0.23042929735762199 0 -0.36573719559140289 0.222944848248018 0 -0.36041387714694573 0.22521835140317789 0 -0.36573719559140289 0.222944848248018 0 -0.36041387714694573 0.22521835140317789 0 -0.36096209089537368 0.21759825830877291 0 -0.36041387714694573 0.22521835140317789 0 -0.35785158193032179 0.22427444164843771 0 -0.36096209089537368 0.21759825830877291 0 -0.35689366634974828 0.23865726176967661 0 -0.35785158193032179 0.22427444164843771 0 -0.35313669332921982 0.21562389511212349 0 -0.35785158193032179 0.22427444164843771 0 -0.35313669332921982 0.21562389511212349 0 -0.36096209089537368 0.21759825830877291 0 -0.35689366634974828 0.23865726176967661 0 -0.35313669332921982 0.21562389511212349 0 -0.35208907389890948 0.24306917690434299 0 -0.34508884738596168 0.2342440782649087 0 -0.35073439710380072 0.2178298526794567 0 -0.34508884738596168 0.2342440782649087 0 -0.35073439710380072 0.2178298526794567 0 -0.33965737798236312 0.2307841415613546 0 -0.35208907389890948 0.24306917690434299 0 -0.35073439710380072 0.2178298526794567 0 -0.35689366634974828 0.23865726176967661 0 -0.35073439710380072 0.2178298526794567 0 -0.35313669332921982 0.21562389511212349 0 -0.35689366634974828 0.23865726176967661 0 -0.35208907389890948 0.24306917690434299 0 -0.35073439710380072 0.2178298526794567 0 -0.35689366634974828 0.23865726176967661 0 -0.36041387714694573 0.22521835140317789 0 -0.35785158193032179 0.22427444164843771 0 -0.35073439710380072 0.2178298526794567 0 -0.34937972030869158 0.1925905284545705 0 -0.35313669332921982 0.21562389511212349 0 -0.36104277081305908 0.20594574517185199 0 -0.34937972030869158 0.1925905284545705 0 -0.35073439710380072 0.2178298526794567 0 -0.35313669332921982 0.21562389511212349 0 -0.34937972030869158 0.1925905284545705 0 -0.35313669332921982 0.21562389511212349 0 -0.34937972030869158 0.1925905284545705 0 -0.35073439710380072 0.2178298526794567 0 -0.34937972030869158 0.1925905284545705 0 -0.34310613959102931 0.2055031457500841 0 -0.35073439710380072 0.2178298526794567 0 -0.34310613959102931 0.2055031457500841 0 -0.34102096872395049 0.21330790674795511 0 -0.35073439710380072 0.2178298526794567 0 -0.34102096872395049 0.21330790674795511 0 -0.34050958406480097 0.2204489809667724 0 -0.35313669332921982 0.21562389511212349 0 -0.36096209089537368 0.21759825830877291 0 -0.36104277081305908 0.20594574517185199 0 -0.36573719559140289 0.222944848248018 0 -0.36096209089537368 0.21759825830877291 0 -0.36813700589141007 0.21491629458094519 0 -0.36096209089537368 0.21759825830877291 0 -0.36813700589141007 0.21491629458094519 0 -0.36104277081305908 0.20594574517185199 0 -0.37752279527241261 0.21261086987475841 0 -0.37349668708843092 0.2226496950895116 0 -0.36813700589141007 0.21491629458094519 0 -0.37752279527241261 0.21261086987475841 0 -0.36813700589141007 0.21491629458094519 0 -0.37360736010814782 0.20134128663860251 0 -0.36813700589141007 0.21491629458094519 0 -0.36104277081305908 0.20594574517185199 0 -0.37360736010814782 0.20134128663860251 0 -0.37633455857784293 0.18261391494179069 0 -0.37360736010814782 0.20134128663860251 0 -0.36412185028301147 0.19234279238731111 0 -0.36104277081305908 0.20594574517185199 0 -0.37360736010814782 0.20134128663860251 0 -0.36412185028301147 0.19234279238731111 0 -0.36024484160731629 0.17922248672973989 0 -0.36412185028301147 0.19234279238731111 0 -0.34937972030869158 0.1925905284545705 0 -0.36104277081305908 0.20594574517185199 0 -0.36412185028301147 0.19234279238731111 0 -0.34937972030869158 0.1925905284545705 0 -0.33403331992976748 0.18227938602527921 0 -0.34937972030869158 0.1925905284545705 0 -0.33132558757267788 0.19645560619981381 0 -0.34937972030869158 0.1925905284545705 0 -0.33132558757267788 0.19645560619981381 0 -0.34310613959102931 0.2055031457500841 0 -0.33132558757267788 0.19645560619981381 0 -0.33206760714527173 0.20694684499318661 0 -0.34310613959102931 0.2055031457500841 0 -0.33403331992976748 0.18227938602527921 0 -0.31962491903722229 0.18594758427241961 0 -0.33132558757267788 0.19645560619981381 0 -0.31962491903722229 0.18594758427241961 0 -0.33132558757267788 0.19645560619981381 0 -0.32128700159246643 0.2085614296134064 0 -0.31962491903722229 0.18594758427241961 0 -0.32128700159246643 0.2085614296134064 0 -0.31094130810426679 0.20146887601233149 0 -0.31962491903722229 0.18594758427241961 0 -0.32128700159246643 0.2085614296134064 0 -0.32128700159246643 0.2085614296134064 0 -0.30991457648112369 0.2265504040794763 0 -0.30833129431909739 0.21334832502430981 0 -0.32128700159246643 0.2085614296134064 0 -0.30833129431909739 0.21334832502430981 0 -0.31094130810426679 0.20146887601233149 0 -0.32128700159246643 0.2085614296134064 0 -0.334517009846864 0.21514148884522391 0 -0.33414886994078158 0.22469785659874761 0 -0.334517009846864 0.21514148884522391 0 -0.33206760714527173 0.20694684499318661 0 -0.34102096872395049 0.21330790674795511 0 -0.33132558757267788 0.19645560619981381 0 -0.32128700159246643 0.2085614296134064 0 -0.33206760714527173 0.20694684499318661 0 -0.32128700159246643 0.2085614296134064 0 -0.334517009846864 0.21514148884522391 0 -0.33206760714527173 0.20694684499318661 0 -0.33206760714527173 0.20694684499318661 0 -0.34310613959102931 0.2055031457500841 0 -0.34102096872395049 0.21330790674795511 0 -0.334517009846864 0.21514148884522391 0 -0.34102096872395049 0.21330790674795511 0 -0.34050958406480097 0.2204489809667724 0 -0.33965737798236312 0.2307841415613546 0 -0.33414886994078158 0.22469785659874761 0 -0.32294908414771051 0.231175274954393 0 -0.34050958406480097 0.2204489809667724 0 -0.33965737798236312 0.2307841415613546 0 -0.33414886994078158 0.22469785659874761 0 -0.334517009846864 0.21514148884522391 0 -0.34050958406480097 0.2204489809667724 0 -0.33414886994078158 0.22469785659874761 0 -0.35073439710380072 0.2178298526794567 0 -0.34050958406480097 0.2204489809667724 0 -0.33965737798236312 0.2307841415613546 0 -0.32128700159246643 0.2085614296134064 0 -0.33414886994078158 0.22469785659874761 0 -0.32294908414771051 0.231175274954393 0 -0.32128700159246643 0.2085614296134064 0 -0.32294908414771051 0.231175274954393 0 -0.32128700159246643 0.2085614296134064 0 -0.32294908414771051 0.231175274954393 0 -0.30991457648112369 0.2265504040794763 0 -0.32294908414771051 0.231175274954393 0 -0.30659471691689572 0.242716670786389 0 -0.30991457648112369 0.2265504040794763 0 -0.32294908414771051 0.231175274954393 0 -0.30659471691689572 0.242716670786389 0 -0.32493898666941562 0.25370598596143412 0 -0.33965737798236312 0.2307841415613546 0 -0.32294908414771051 0.231175274954393 0 -0.33787454055877381 0.24529314191448051 0 -0.32294908414771051 0.231175274954393 0 -0.33787454055877381 0.24529314191448051 0 -0.32493898666941562 0.25370598596143412 0 -0.34508884738596168 0.2342440782649087 0 -0.33965737798236312 0.2307841415613546 0 -0.33787454055877381 0.24529314191448051 0 -0.28392805579818597 0.24584677119781029 0 -0.30659471691689572 0.242716670786389 0 -0.29475597619187288 0.23283261746471121 0 -0.28392805579818597 0.24584677119781029 0 -0.29475597619187288 0.23283261746471121 0 -0.28109078806307641 0.23123665432302171 0 -0.30991457648112369 0.2265504040794763 0 -0.2995127007984647 0.22240216811521779 0 -0.29475597619187288 0.23283261746471121 0 -0.30659471691689572 0.242716670786389 0 -0.30991457648112369 0.2265504040794763 0 -0.29475597619187288 0.23283261746471121 0 -0.30991457648112369 0.2265504040794763 0 -0.2995127007984647 0.22240216811521779 0 -0.30833129431909739 0.21334832502430981 0 -0.2995127007984647 0.22240216811521779 0 -0.29475597619187288 0.23283261746471121 0 -0.28658767146556752 0.2208426317688808 0 -0.29475597619187288 0.23283261746471121 0 -0.28658767146556752 0.2208426317688808 0 -0.28109078806307641 0.23123665432302171 0 -0.28658767146556752 0.2208426317688808 0 -0.28549164962408852 0.20589081089837991 0 -0.27599235506858921 0.213338138612501 0 -0.2995127007984647 0.22240216811521779 0 -0.28658767146556752 0.2208426317688808 0 -0.29782091388006071 0.2077851852193662 0 -0.28658767146556752 0.2208426317688808 0 -0.28549164962408852 0.20589081089837991 0 -0.29782091388006071 0.2077851852193662 0 -0.2995127007984647 0.22240216811521779 0 -0.30833129431909739 0.21334832502430981 0 -0.29782091388006071 0.2077851852193662 0 -0.30833129431909739 0.21334832502430981 0 -0.29782091388006071 0.2077851852193662 0 -0.31094130810426679 0.20146887601233149 0 -0.31094130810426679 0.20146887601233149 0 -0.28918285092023371 0.18809301854234381 0 -0.30596240671843039 0.18080678990447141 0 -0.31094130810426679 0.20146887601233149 0 -0.28918285092023371 0.18809301854234381 0 -0.31962491903722229 0.18594758427241961 0 -0.31094130810426679 0.20146887601233149 0 -0.30596240671843039 0.18080678990447141 0 -0.29782091388006071 0.2077851852193662 0 -0.31094130810426679 0.20146887601233149 0 -0.28918285092023371 0.18809301854234381 0 -0.28549164962408852 0.20589081089837991 0 -0.28918285092023371 0.18809301854234381 0 -0.27469451239495962 0.19856643751398209 0 -0.28549164962408852 0.20589081089837991 0 -0.29782091388006071 0.2077851852193662 0 -0.28918285092023371 0.18809301854234381 0 -0.27469451239495962 0.19856643751398209 0 -0.25846339158769432 0.19477026040294029 0 -0.26742439373620053 0.1747171610723561 0 -0.27469451239495962 0.19856643751398209 0 -0.25846339158769432 0.19477026040294029 0 -0.26373521695980739 0.20854805576629271 0 -0.25846339158769432 0.19477026040294029 0 -0.25264776582176801 0.2054066783297176 0 -0.24512564856919611 0.1966003761625241 0 -0.25846339158769432 0.19477026040294029 0 -0.26373521695980739 0.20854805576629271 0 -0.25264776582176801 0.2054066783297176 0 -0.26373521695980739 0.20854805576629271 0 -0.25264776582176801 0.2054066783297176 0 -0.25326648915379463 0.21765104414027969 0 -0.26373521695980739 0.20854805576629271 0 -0.25326648915379463 0.21765104414027969 0 -0.26696116117740232 0.2188897629996385 0 -0.26373521695980739 0.20854805576629271 0 -0.27599235506858921 0.213338138612501 0 -0.26696116117740232 0.2188897629996385 0 -0.27469451239495962 0.19856643751398209 0 -0.26373521695980739 0.20854805576629271 0 -0.27599235506858921 0.213338138612501 0 -0.28549164962408852 0.20589081089837991 0 -0.27469451239495962 0.19856643751398209 0 -0.27599235506858921 0.213338138612501 0 -0.28658767146556752 0.2208426317688808 0 -0.27599235506858921 0.213338138612501 0 -0.27366575233363138 0.22408994750137051 0 -0.28658767146556752 0.2208426317688808 0 -0.27366575233363138 0.22408994750137051 0 -0.28109078806307641 0.23123665432302171 0 -0.27366575233363138 0.22408994750137051 0 -0.28109078806307641 0.23123665432302171 0 -0.26613842301448931 0.22948780180005629 0 -0.27366575233363138 0.22408994750137051 0 -0.26613842301448931 0.22948780180005629 0 -0.27599235506858921 0.213338138612501 0 -0.27366575233363138 0.22408994750137051 0 -0.26696116117740232 0.2188897629996385 0 -0.27366575233363138 0.22408994750137051 0 -0.26613842301448931 0.22948780180005629 0 -0.26696116117740232 0.2188897629996385 0 -0.25326648915379463 0.21765104414027969 0 -0.26613842301448931 0.22948780180005629 0 -0.25326648915379463 0.21765104414027969 0 -0.26613842301448931 0.22948780180005629 0 -0.26696116117740232 0.2188897629996385 0 -0.26613842301448931 0.22948780180005629 0 -0.25250373055295899 0.22903132158689779 0 -0.2468893326351202 0.24329134098969171 0 -0.25326648915379463 0.21765104414027969 0 -0.26613842301448931 0.22948780180005629 0 -0.25250373055295899 0.22903132158689779 0 -0.26613842301448931 0.22948780180005629 0 -0.2468893326351202 0.24329134098969171 0 -0.26613842301448931 0.22948780180005629 0 -0.26514282027817931 0.24842266601513599 0 -0.2468893326351202 0.24329134098969171 0 -0.28392805579818597 0.24584677119781029 0 -0.26613842301448931 0.22948780180005629 0 -0.26514282027817931 0.24842266601513599 0 -0.28392805579818597 0.24584677119781029 0 -0.26613842301448931 0.22948780180005629 0 -0.28392805579818597 0.24584677119781029 0 -0.28109078806307641 0.23123665432302171 0 -0.26613842301448931 0.22948780180005629 0 -0.29674228528268098 0.14167201189203629 0 -0.29210011904845101 0.16519073176382951 0 -0.2788144627000812 0.14703818685698561 0 -0.29674228528268098 0.14167201189203629 0 -0.2788144627000812 0.14703818685698561 0 -0.2804226891664876 0.12940513594623221 0 -0.29674228528268098 0.14167201189203629 0 -0.2804226891664876 0.12940513594623221 0 -0.29563289833704792 0.1211109261551389 0 -0.29674228528268098 0.14167201189203629 0 -0.30835875028686138 0.12836861128214669 0 -0.29563289833704792 0.1211109261551389 0 -0.31630075392673418 0.14071989359044609 0 -0.29674228528268098 0.14167201189203629 0 -0.30835875028686138 0.12836861128214669 0 -0.31796283648197832 0.1633337389314328 0 -0.31630075392673418 0.14071989359044609 0 -0.29674228528268098 0.14167201189203629 0 -0.31796283648197832 0.1633337389314328 0 -0.30596240671843039 0.18080678990447141 0 -0.29210011904845101 0.16519073176382951 0 -0.31796283648197832 0.1633337389314328 0 -0.29674228528268098 0.14167201189203629 0 -0.29210011904845101 0.16519073176382951 0 -0.28918285092023371 0.18809301854234381 0 -0.30596240671843039 0.18080678990447141 0 -0.29210011904845101 0.16519073176382951 0 -0.28918285092023371 0.18809301854234381 0 -0.29210011904845101 0.16519073176382951 0 -0.26742439373620053 0.1747171610723561 0 -0.29210011904845101 0.16519073176382951 0 -0.26645859331151961 0.15770478106228089 0 -0.2788144627000812 0.14703818685698561 0 -0.29210011904845101 0.16519073176382951 0 -0.26645859331151961 0.15770478106228089 0 -0.26742439373620053 0.1747171610723561 0 -0.28918285092023371 0.18809301854234381 0 -0.27469451239495962 0.19856643751398209 0 -0.26742439373620053 0.1747171610723561 0 -0.28918285092023371 0.18809301854234381 0 -0.26742439373620053 0.1747171610723561 0 -0.25846339158769432 0.19477026040294029 0 -0.26742439373620053 0.1747171610723561 0 -0.2425545525554833 0.18325607046718431 0 -0.26742439373620053 0.1747171610723561 0 -0.24566593655216731 0.1613413036023684 0 -0.2425545525554833 0.18325607046718431 0 -0.26742439373620053 0.1747171610723561 0 -0.24566593655216731 0.1613413036023684 0 -0.26645859331151961 0.15770478106228089 0 -0.26742439373620053 0.1747171610723561 0 -0.24566593655216731 0.1613413036023684 0 -0.26645859331151961 0.15770478106228089 0 -0.26077588748637798 0.14053443996503889 0 -0.24566593655216731 0.1613413036023684 0 -0.26645859331151961 0.15770478106228089 0 -0.2788144627000812 0.14703818685698561 0 -0.26077588748637798 0.14053443996503889 0 -0.2788144627000812 0.14703818685698561 0 -0.2804226891664876 0.12940513594623221 0 -0.26077588748637798 0.14053443996503889 0 -0.2804226891664876 0.12940513594623221 0 -0.26077588748637798 0.14053443996503889 0 -0.26620622488190782 0.1187168322113534 0 -0.26077588748637798 0.14053443996503889 0 -0.25033803458298193 0.12914144363467839 0 -0.2394413917758374 0.14053574488666021 0 -0.26077588748637798 0.14053443996503889 0 -0.25033803458298193 0.12914144363467839 0 -0.26620622488190782 0.1187168322113534 0 -0.25033803458298193 0.12914144363467839 0 -0.25364395357421121 0.10678394025260531 0 -0.26620622488190782 0.1187168322113534 0 -0.25364395357421121 0.10678394025260531 0 -0.26910496068450029 0.10059928658519129 0 -0.26340159681891351 0.087305486383429762 0 -0.25364395357421121 0.10678394025260531 0 -0.26910496068450029 0.10059928658519129 0 -0.26620622488190782 0.1187168322113534 0 -0.26910496068450029 0.10059928658519129 0 -0.28436437631082973 0.10735841859683989 0 -0.28176033911896858 0.090840469038767704 0 -0.26910496068450029 0.10059928658519129 0 -0.26620622488190782 0.1187168322113534 0 -0.28436437631082973 0.10735841859683989 0 -0.2804226891664876 0.12940513594623221 0 -0.26620622488190782 0.1187168322113534 0 -0.28436437631082973 0.10735841859683989 0 -0.2804226891664876 0.12940513594623221 0 -0.29563289833704792 0.1211109261551389 0 -0.28436437631082973 0.10735841859683989 0 -0.29563289833704792 0.1211109261551389 0 -0.28436437631082973 0.10735841859683989 0 -0.30333203744139958 0.1018092028156232 0 -0.28436437631082973 0.10735841859683989 0 -0.30333203744139958 0.1018092028156232 0 -0.29505738772415852 0.092466809089677027 0 -0.28436437631082973 0.10735841859683989 0 -0.29505738772415852 0.092466809089677027 0 -0.28176033911896858 0.090840469038767704 0 -0.30333203744139958 0.1018092028156232 0 -0.31115114737422961 0.1134627277541034 0 -0.31621893882499519 0.096173217231134644 0 -0.29563289833704792 0.1211109261551389 0 -0.30333203744139958 0.1018092028156232 0 -0.31115114737422961 0.1134627277541034 0 -0.30835875028686138 0.12836861128214669 0 -0.29563289833704792 0.1211109261551389 0 -0.31115114737422961 0.1134627277541034 0 -0.2988364877494265 0.069896585727329402 0 -0.3095990562077543 0.082833834969606807 0 -0.31708477734686968 0.066938799678275263 0 -0.2988364877494265 0.069896585727329402 0 -0.30266664287706341 0.054708362279179482 0 -0.31708477734686968 0.066938799678275263 0 -0.2988364877494265 0.069896585727329402 0 -0.28935545939309398 0.062964548691125152 0 -0.30266664287706341 0.054708362279179482 0 -0.30333203744139958 0.1018092028156232 0 -0.3095990562077543 0.082833834969606807 0 -0.31621893882499519 0.096173217231134644 0 -0.30333203744139958 0.1018092028156232 0 -0.3095990562077543 0.082833834969606807 0 -0.29505738772415852 0.092466809089677027 0 -0.3095990562077543 0.082833834969606807 0 -0.29687345717375091 0.081902945336330912 0 -0.29505738772415852 0.092466809089677027 0 -0.2988364877494265 0.069896585727329402 0 -0.3095990562077543 0.082833834969606807 0 -0.29687345717375091 0.081902945336330912 0 -0.29687345717375091 0.081902945336330912 0 -0.28176033911896858 0.090840469038767704 0 -0.2804463735768567 0.075556206852953223 0 -0.29687345717375091 0.081902945336330912 0 -0.29505738772415852 0.092466809089677027 0 -0.28176033911896858 0.090840469038767704 0 -0.2988364877494265 0.069896585727329402 0 -0.28935545939309398 0.062964548691125152 0 -0.2804463735768567 0.075556206852953223 0 -0.2988364877494265 0.069896585727329402 0 -0.29687345717375091 0.081902945336330912 0 -0.2804463735768567 0.075556206852953223 0 -0.28935545939309398 0.062964548691125152 0 -0.28020443427428848 0.065937434716272045 0 -0.28232948387749679 0.060243429622273227 0 -0.28935545939309398 0.062964548691125152 0 -0.28020443427428848 0.065937434716272045 0 -0.2804463735768567 0.075556206852953223 0 -0.2804463735768567 0.075556206852953223 0 -0.26340159681891351 0.087305486383429762 0 -0.26195798501385009 0.070226375813507561 0 -0.28020443427428848 0.065937434716272045 0 -0.26195798501385009 0.070226375813507561 0 -0.2800946942601637 0.055740888585776333 0 -0.28020443427428848 0.065937434716272045 0 -0.2804463735768567 0.075556206852953223 0 -0.26195798501385009 0.070226375813507561 0 -0.26195798501385009 0.070226375813507561 0 -0.2800946942601637 0.055740888585776333 0 -0.26910496068450029 0.10059928658519129 0 -0.28176033911896858 0.090840469038767704 0 -0.26340159681891351 0.087305486383429762 0 -0.28176033911896858 0.090840469038767704 0 -0.2804463735768567 0.075556206852953223 0 -0.26340159681891351 0.087305486383429762 0 -0.26340159681891351 0.087305486383429762 0 -0.26195798501385009 0.070226375813507561 0 -0.24382127576753621 0.084711863041238192 0 -0.25364395357421121 0.10678394025260531 0 -0.26340159681891351 0.087305486383429762 0 -0.24382127576753621 0.084711863041238192 0 -0.26195798501385009 0.070226375813507561 0 -0.24382127576753621 0.084711863041238192 0 -0.26195798501385009 0.070226375813507561 0 -0.26253060434091768 0.04486583530805522 0 -0.24534917185526489 0.049526218608574313 0 -0.26253060434091768 0.04486583530805522 0 -0.25642639863326749 0.02710060176493858 0 -0.24534917185526489 0.049526218608574313 0 -0.26253060434091768 0.04486583530805522 0 -0.27431483662099609 0.037465275048419483 0 -0.25642639863326749 0.02710060176493858 0 -0.26253060434091768 0.04486583530805522 0 -0.27431483662099609 0.037465275048419483 0 -0.2800946942601637 0.055740888585776333 0 -0.26195798501385009 0.070226375813507561 0 -0.26253060434091768 0.04486583530805522 0 -0.2800946942601637 0.055740888585776333 0 -0.28020443427428848 0.065937434716272045 0 -0.2800946942601637 0.055740888585776333 0 -0.28232948387749679 0.060243429622273227 0 -0.26431478179583978 -0.01186883573312463 0 -0.25132042997239518 0.0027134119798401068 0 -0.26646431581863778 0.01029557754540468 0 -0.25132042997239518 0.0027134119798401068 0 -0.25642639863326749 0.02710060176493858 0 -0.26646431581863778 0.01029557754540468 0 -0.27431483662099609 0.037465275048419483 0 -0.25642639863326749 0.02710060176493858 0 -0.27962863155723588 0.021383722316491719 0 -0.25642639863326749 0.02710060176493858 0 -0.27962863155723588 0.021383722316491719 0 -0.26646431581863778 0.01029557754540468 0 -0.2820771903446922 -0.0013122005201030101 0 -0.27962863155723588 0.021383722316491719 0 -0.26646431581863778 0.01029557754540468 0 -0.2820771903446922 -0.0013122005201030101 0 -0.30047775033007851 -0.00039401612408775783 0 -0.29196914664965867 0.01010181790504874 0 -0.2820771903446922 -0.0013122005201030101 0 -0.27962863155723588 0.021383722316491719 0 -0.29196914664965867 0.01010181790504874 0 -0.27962863155723588 0.021383722316491719 0 -0.29196914664965867 0.01010181790504874 0 -0.3056930143666281 0.020729765947894 0 -0.27962863155723588 0.021383722316491719 0 -0.3056930143666281 0.020729765947894 0 -0.2928938543133956 0.038235327266834943 0 -0.3056930143666281 0.020729765947894 0 -0.2928938543133956 0.038235327266834943 0 -0.3056930143666281 0.020729765947894 0 -0.30086997028822832 0.039148022070134687 0 -0.32164524631629432 0.022555155554494829 0 -0.30086997028822832 0.039148022070134687 0 -0.32164524631629432 0.022555155554494829 0 -0.3056930143666281 0.020729765947894 0 -0.31849217441985911 0.0032242046289520012 0 -0.30047775033007851 -0.00039401612408775783 0 -0.3056930143666281 0.020729765947894 0 -0.31849217441985911 0.0032242046289520012 0 -0.30047775033007851 -0.00039401612408775783 0 -0.29196914664965867 0.01010181790504874 0 -0.3056930143666281 0.020729765947894 0 -0.2800946942601637 0.055740888585776333 0 -0.30086997028822832 0.039148022070134687 0 -0.28935545939309398 0.062964548691125152 0 -0.2800946942601637 0.055740888585776333 0 -0.30266664287706341 0.054708362279179482 0 -0.2800946942601637 0.055740888585776333 0 -0.2928938543133956 0.038235327266834943 0 -0.2800946942601637 0.055740888585776333 0 -0.30086997028822832 0.039148022070134687 0 -0.30266664287706341 0.054708362279179482 0 -0.28935545939309398 0.062964548691125152 0 -0.2800946942601637 0.055740888585776333 0 -0.28232948387749679 0.060243429622273227 0 -0.2800946942601637 0.055740888585776333 0 -0.2928938543133956 0.038235327266834943 0 -0.30086997028822832 0.039148022070134687 0 -0.27431483662099609 0.037465275048419483 0 -0.27962863155723588 0.021383722316491719 0 -0.2928938543133956 0.038235327266834943 0 -0.27431483662099609 0.037465275048419483 0 -0.2800946942601637 0.055740888585776333 0 -0.2928938543133956 0.038235327266834943 0 -0.3056930143666281 0.020729765947894 0 -0.2928938543133956 0.038235327266834943 0 -0.30086997028822832 0.039148022070134687 0 -0.30086997028822832 0.039148022070134687 0 -0.30266664287706341 0.054708362279179482 0 -0.3262676586483656 0.050894384371173287 0 -0.30266664287706341 0.054708362279179482 0 -0.3262676586483656 0.050894384371173287 0 -0.31708477734686968 0.066938799678275263 0 -0.3262676586483656 0.050894384371173287 0 -0.32164524631629432 0.022555155554494829 0 -0.30086997028822832 0.039148022070134687 0 -0.3262676586483656 0.050894384371173287 0 -0.32164524631629432 0.022555155554494829 0 -0.3262676586483656 0.050894384371173287 0 -0.32164524631629432 0.022555155554494829 0 -0.34047985126035502 0.026774828886197279 0 -0.3419631627684111 0.054410778814259472 0 -0.34047985126035502 0.026774828886197279 0 -0.3262676586483656 0.050894384371173287 0 -0.3419631627684111 0.054410778814259472 0 -0.34047985126035502 0.026774828886197279 0 -0.3262676586483656 0.050894384371173287 0 -0.3419631627684111 0.054410778814259472 0 -0.33089007098043072 0.079233613187852742 0 -0.3056930143666281 0.020729765947894 0 -0.31849217441985911 0.0032242046289520012 0 -0.32164524631629432 0.022555155554494829 0 -0.31849217441985911 0.0032242046289520012 0 -0.32164524631629432 0.022555155554494829 0 -0.33742136738088668 0.0099550307423931228 0 -0.31849217441985911 0.0032242046289520012 0 -0.32164524631629432 0.022555155554494829 0 -0.32164524631629432 0.022555155554494829 0 -0.33742136738088668 0.0099550307423931228 0 -0.32164524631629432 0.022555155554494829 0 -0.34047985126035502 0.026774828886197279 0 -0.33742136738088668 0.0099550307423931228 0 -0.35319748844548088 -0.0026450940697062141 0 -0.33742136738088668 0.0099550307423931228 0 -0.35319748844548088 -0.0026450940697062141 0 -0.33742136738088668 0.0099550307423931228 0 -0.35568472126330458 0.01398178967161531 0 -0.34047985126035502 0.026774828886197279 0 -0.35568472126330458 0.01398178967161531 0 -0.36050468596179641 0.029201478886372499 0 -0.34047985126035502 0.026774828886197279 0 -0.33742136738088668 0.0099550307423931228 0 -0.35568472126330458 0.01398178967161531 0 -0.35568472126330458 0.01398178967161531 0 -0.36050468596179641 0.029201478886372499 0 -0.37274578052696178 0.01868977009819147 0 -0.37753126207020948 0.034899308803226177 0 -0.36050468596179641 0.029201478886372499 0 -0.37274578052696178 0.01868977009819147 0 -0.35319748844548088 -0.0026450940697062141 0 -0.35568472126330458 0.01398178967161531 0 -0.36979036210562988 0.0025511841975563729 0 -0.35568472126330458 0.01398178967161531 0 -0.37274578052696178 0.01868977009819147 0 -0.36979036210562988 0.0025511841975563729 0 -0.35367539322405089 0.052192583201526178 0 -0.35229578078182711 0.042127528613546239 0 -0.36485581069452189 0.048057973279375742 0 -0.35367539322405089 0.052192583201526178 0 -0.36174043644781612 0.059537200304905107 0 -0.34707042967454638 0.066493871458924422 0 -0.3419631627684111 0.054410778814259472 0 -0.35367539322405089 0.052192583201526178 0 -0.34707042967454638 0.066493871458924422 0 -0.3419631627684111 0.054410778814259472 0 -0.35367539322405089 0.052192583201526178 0 -0.35229578078182711 0.042127528613546239 0 -0.34047985126035502 0.026774828886197279 0 -0.36050468596179641 0.029201478886372499 0 -0.35229578078182711 0.042127528613546239 0 -0.3419631627684111 0.054410778814259472 0 -0.34047985126035502 0.026774828886197279 0 -0.35229578078182711 0.042127528613546239 0 -0.36050468596179641 0.029201478886372499 0 -0.35229578078182711 0.042127528613546239 0 -0.36485581069452189 0.048057973279375742 0 -0.37753126207020948 0.034899308803226177 0 -0.36050468596179641 0.029201478886372499 0 -0.36485581069452189 0.048057973279375742 0 -0.37830855690199738 0.048851891747440382 0 -0.37753126207020948 0.034899308803226177 0 -0.36485581069452189 0.048057973279375742 0 -0.37830855690199738 0.048851891747440382 0 -0.36485581069452189 0.048057973279375742 0 -0.37119345183321822 0.058853827639881867 0 -0.35367539322405089 0.052192583201526178 0 -0.36485581069452189 0.048057973279375742 0 -0.36174043644781612 0.059537200304905107 0 -0.36485581069452189 0.048057973279375742 0 -0.36174043644781612 0.059537200304905107 0 -0.37119345183321822 0.058853827639881867 0 -0.37201358599706058 0.070711840939253895 0 -0.36026946930678239 0.075913175113325196 0 -0.34707042967454638 0.066493871458924422 0 -0.37904886912469499 0.067110231928434197 0 -0.37119345183321822 0.058853827639881867 0 -0.37201358599706058 0.070711840939253895 0 -0.37201358599706058 0.070711840939253895 0 -0.34707042967454638 0.066493871458924422 0 -0.36174043644781612 0.059537200304905107 0 -0.37119345183321822 0.058853827639881867 0 -0.37201358599706058 0.070711840939253895 0 -0.36174043644781612 0.059537200304905107 0 -0.37201358599706058 0.070711840939253895 0 -0.34707042967454638 0.066493871458924422 0 -0.37201358599706058 0.070711840939253895 0 -0.36026946930678239 0.075913175113325196 0 -0.37016311523106599 0.083751267223082917 0 -0.38119130922167832 0.078766060501995444 0 -0.37201358599706058 0.070711840939253895 0 -0.37016311523106599 0.083751267223082917 0 -0.3419631627684111 0.054410778814259472 0 -0.34707042967454638 0.066493871458924422 0 -0.34344647427646718 0.082046728742321648 0 -0.36026946930678239 0.075913175113325196 0 -0.35274187612612162 0.077211514003190262 0 -0.34707042967454638 0.066493871458924422 0 -0.35274187612612162 0.077211514003190262 0 -0.34707042967454638 0.066493871458924422 0 -0.34344647427646718 0.082046728742321648 0 -0.35295667425925747 0.085123838591775802 0 -0.35001973748798287 0.095551702326820934 0 -0.34344647427646718 0.082046728742321648 0 -0.35274187612612162 0.077211514003190262 0 -0.35295667425925747 0.085123838591775802 0 -0.34344647427646718 0.082046728742321648 0 -0.35274187612612162 0.077211514003190262 0 -0.35295667425925747 0.085123838591775802 0 -0.35935833950511731 0.08139738194217451 0 -0.35295667425925747 0.085123838591775802 0 -0.35935833950511731 0.08139738194217451 0 -0.35921694390059838 0.089411865944371699 0 -0.36026946930678239 0.075913175113325196 0 -0.35274187612612162 0.077211514003190262 0 -0.35935833950511731 0.08139738194217451 0 -0.35295667425925747 0.085123838591775802 0 -0.35921694390059838 0.089411865944371699 0 -0.35001973748798287 0.095551702326820934 0 -0.35921694390059838 0.089411865944371699 0 -0.37016311523106599 0.083751267223082917 0 -0.36611800641667808 0.094109198156665408 0 -0.36026946930678239 0.075913175113325196 0 -0.35935833950511731 0.08139738194217451 0 -0.37016311523106599 0.083751267223082917 0 -0.35935833950511731 0.08139738194217451 0 -0.35921694390059838 0.089411865944371699 0 -0.37016311523106599 0.083751267223082917 0 -0.37643332436138899 0.09558572737664002 0 -0.37016311523106599 0.083751267223082917 0 -0.36611800641667808 0.094109198156665408 0 -0.37643332436138899 0.09558572737664002 0 -0.36831342086492491 0.1042920553550029 0 -0.36611800641667808 0.094109198156665408 0 -0.37896648635229202 0.10715504183998489 0 -0.37643332436138899 0.09558572737664002 0 -0.36831342086492491 0.1042920553550029 0 -0.36831342086492491 0.1042920553550029 0 -0.35948680904503588 0.10793893666500461 0 -0.35938862515943509 0.099383552161339872 0 -0.35921694390059838 0.089411865944371699 0 -0.35938862515943509 0.099383552161339872 0 -0.36611800641667808 0.094109198156665408 0 -0.36831342086492491 0.1042920553550029 0 -0.35938862515943509 0.099383552161339872 0 -0.36611800641667808 0.094109198156665408 0 -0.37896648635229202 0.10715504183998489 0 -0.36831342086492491 0.1042920553550029 0 -0.36716541190589658 0.118616890008602 0 -0.36831342086492491 0.1042920553550029 0 -0.35948680904503588 0.10793893666500461 0 -0.36716541190589658 0.118616890008602 0 -0.35948680904503588 0.10793893666500461 0 -0.36716541190589658 0.118616890008602 0 -0.35375916145188291 0.11350041634001019 0 -0.34641309729257957 0.13731862859844601 0 -0.34492978578452338 0.1096826786703838 0 -0.34641309729257957 0.13731862859844601 0 -0.35352278934268327 0.12307152153672141 0 -0.34492978578452338 0.1096826786703838 0 -0.36716541190589658 0.118616890008602 0 -0.35352278934268327 0.12307152153672141 0 -0.35375916145188291 0.11350041634001019 0 -0.35375916145188291 0.11350041634001019 0 -0.34492978578452338 0.1096826786703838 0 -0.35317683324139082 0.10499755452017361 0 -0.35352278934268327 0.12307152153672141 0 -0.35375916145188291 0.11350041634001019 0 -0.34492978578452338 0.1096826786703838 0 -0.34492978578452338 0.1096826786703838 0 -0.35001973748798287 0.095551702326820934 0 -0.34344647427646718 0.082046728742321648 0 -0.34492978578452338 0.1096826786703838 0 -0.34344647427646718 0.082046728742321648 0 -0.35921694390059838 0.089411865944371699 0 -0.35938862515943509 0.099383552161339872 0 -0.35001973748798287 0.095551702326820934 0 -0.35938862515943509 0.099383552161339872 0 -0.35317683324139082 0.10499755452017361 0 -0.35001973748798287 0.095551702326820934 0 -0.35948680904503588 0.10793893666500461 0 -0.35938862515943509 0.099383552161339872 0 -0.35317683324139082 0.10499755452017361 0 -0.35948680904503588 0.10793893666500461 0 -0.35375916145188291 0.11350041634001019 0 -0.35317683324139082 0.10499755452017361 0 -0.34492978578452338 0.1096826786703838 0 -0.35317683324139082 0.10499755452017361 0 -0.35001973748798287 0.095551702326820934 0 -0.33551248331249578 0.10757284200453231 0 -0.32636827877939262 0.096437598311714251 0 -0.33089007098043072 0.079233613187852742 0 -0.34492978578452338 0.1096826786703838 0 -0.33551248331249578 0.10757284200453231 0 -0.34344647427646718 0.082046728742321648 0 -0.34013489564456101 0.1359120708212119 0 -0.33551248331249578 0.10757284200453231 0 -0.33106980320980312 0.1246503866679774 0 -0.33551248331249578 0.10757284200453231 0 -0.33106980320980312 0.1246503866679774 0 -0.3276422557938925 0.11637059862038419 0 -0.34013489564456101 0.1359120708212119 0 -0.33551248331249578 0.10757284200453231 0 -0.34013489564456101 0.1359120708212119 0 -0.34492978578452338 0.1096826786703838 0 -0.33551248331249578 0.10757284200453231 0 -0.33551248331249578 0.10757284200453231 0 -0.3276422557938925 0.11637059862038419 0 -0.32202007013965611 0.108381668790018 0 -0.31115114737422961 0.1134627277541034 0 -0.32196666651361477 0.12487749701900901 0 -0.32202007013965611 0.108381668790018 0 -0.32196666651361477 0.12487749701900901 0 -0.3276422557938925 0.11637059862038419 0 -0.32202007013965611 0.108381668790018 0 -0.33106980320980312 0.1246503866679774 0 -0.32196666651361477 0.12487749701900901 0 -0.3276422557938925 0.11637059862038419 0 -0.30835875028686138 0.12836861128214669 0 -0.31115114737422961 0.1134627277541034 0 -0.32196666651361477 0.12487749701900901 0 -0.31115114737422961 0.1134627277541034 0 -0.32202007013965611 0.108381668790018 0 -0.31621893882499519 0.096173217231134644 0 -0.32636827877939262 0.096437598311714251 0 -0.32202007013965611 0.108381668790018 0 -0.31621893882499519 0.096173217231134644 0 -0.33551248331249578 0.10757284200453231 0 -0.32636827877939262 0.096437598311714251 0 -0.32202007013965611 0.108381668790018 0 -0.32636827877939262 0.096437598311714251 0 -0.3206518095107353 0.086423961441370711 0 -0.33089007098043072 0.079233613187852742 0 -0.3095990562077543 0.082833834969606807 0 -0.31621893882499519 0.096173217231134644 0 -0.3206518095107353 0.086423961441370711 0 -0.32636827877939262 0.096437598311714251 0 -0.31621893882499519 0.096173217231134644 0 -0.3206518095107353 0.086423961441370711 0 -0.3206518095107353 0.086423961441370711 0 -0.3195564285114475 0.078857552319276381 0 -0.33089007098043072 0.079233613187852742 0 -0.3095990562077543 0.082833834969606807 0 -0.3206518095107353 0.086423961441370711 0 -0.3195564285114475 0.078857552319276381 0 -0.3095990562077543 0.082833834969606807 0 -0.3195564285114475 0.078857552319276381 0 -0.31708477734686968 0.066938799678275263 0 -0.3262676586483656 0.050894384371173287 0 -0.31708477734686968 0.066938799678275263 0 -0.33089007098043072 0.079233613187852742 0 -0.3195564285114475 0.078857552319276381 0 -0.31708477734686968 0.066938799678275263 0 -0.33089007098043072 0.079233613187852742 0 -0.3262676586483656 0.050894384371173287 0 -0.33089007098043072 0.079233613187852742 0 -0.3419631627684111 0.054410778814259472 0 -0.34344647427646718 0.082046728742321648 0 -0.3419631627684111 0.054410778814259472 0 -0.34344647427646718 0.082046728742321648 0 -0.33089007098043072 0.079233613187852742 0 -0.33551248331249578 0.10757284200453231 0 -0.34344647427646718 0.082046728742321648 0 -0.33089007098043072 0.079233613187852742 0 -0.33551248331249578 0.10757284200453231 0 -0.33089007098043072 0.079233613187852742 0 -0.38413367002432852 0.48466820949397371 0 -0.39197467039505129 0.46611734068214988 0 -0.41460981883164078 0.48516798004791117 0 -0.3981750166650535 0.50000000000000056 0 -0.38413367002432852 0.48466820949397371 0 -0.41460981883164078 0.48516798004791117 0 -0.3981750166650535 0.50000000000000056 0 -0.38413367002432852 0.48466820949397371 0 -0.37107410569903487 0.5 0 -0.39197467039505129 0.46611734068214988 0 -0.36482960672615539 0.47476559140937902 0 -0.38413367002432852 0.48466820949397371 0 -0.39197467039505129 0.46611734068214988 0 -0.36580706476392733 0.47631646954851292 0 -0.38785270990024268 0.44600589254376838 0 -0.39197467039505129 0.46611734068214988 0 -0.37006527051019528 0.45259743283909409 0 -0.39197467039505129 0.46611734068214988 0 -0.37006527051019528 0.45259743283909409 0 -0.36482960672615539 0.47476559140937902 0 -0.38785270990024268 0.44600589254376838 0 -0.37388199021079188 0.43349662060099697 0 -0.37006527051019528 0.45259743283909409 0 -0.38785270990024268 0.44600589254376838 0 -0.40320620376676342 0.45007503942677379 0 -0.39595691431975 0.42995942871021692 0 -0.38785270990024268 0.44600589254376838 0 -0.40320620376676342 0.45007503942677379 0 -0.39197467039505129 0.46611734068214988 0 -0.40320620376676342 0.45007503942677379 0 -0.39197467039505129 0.46611734068214988 0 -0.41277096383307582 0.46532813801804862 0 -0.40320620376676342 0.45007503942677379 0 -0.42781315099835598 0.44205737320498029 0 -0.39595691431975 0.42995942871021692 0 -0.40320620376676342 0.45007503942677379 0 -0.41277096383307582 0.46532813801804862 0 -0.42781315099835598 0.44205737320498029 0 -0.42781315099835598 0.44205737320498029 0 -0.43466730821188831 0.46706657063262308 0 -0.44460389203804629 0.44806533343805571 0 -0.42781315099835598 0.44205737320498029 0 -0.4310446209982266 0.47033596009582029 0 -0.42781315099835598 0.44205737320498029 0 -0.43466730821188831 0.46706657063262308 0 -0.4310446209982266 0.47033596009582029 0 -0.41277096383307582 0.46532813801804862 0 -0.42781315099835598 0.44205737320498029 0 -0.4310446209982266 0.47033596009582029 0 -0.43466730821188831 0.46706657063262308 0 -0.4310446209982266 0.47033596009582029 0 -0.4310446209982266 0.47033596009582029 0 -0.43443441043131342 0.50000000000000755 0 -0.4447827686264566 0.47926022536349122 0 -0.4310446209982266 0.47033596009582029 0 -0.41460981883164078 0.48516798004791117 0 -0.4310446209982266 0.47033596009582029 0 -0.41460981883164078 0.48516798004791117 0 -0.42409839095234109 0.48887598503593521 0 -0.43466730821188831 0.46706657063262308 0 -0.4310446209982266 0.47033596009582029 0 -0.4447827686264566 0.47926022536349122 0 -0.39197467039505129 0.46611734068214988 0 -0.41277096383307582 0.46532813801804862 0 -0.41460981883164078 0.48516798004791117 0 -0.41277096383307582 0.46532813801804862 0 -0.4310446209982266 0.47033596009582029 0 -0.41460981883164078 0.48516798004791117 0 -0.3981750166650535 0.50000000000000056 0 -0.41460981883164078 0.48516798004791117 0 -0.3981750166650535 0.50000000000000056 0 -0.41460981883164078 0.48516798004791117 0 -0.41630471354818338 0.5 0 -0.41460981883164078 0.48516798004791117 0 -0.41630471354818338 0.5 0 -0.42409839095234109 0.48887598503593521 0 -0.41630471354818338 0.5 0 -0.43443441043131342 0.50000000000000755 0 -0.42409839095234109 0.48887598503593521 0 -0.4310446209982266 0.47033596009582029 0 -0.43443441043131342 0.50000000000000755 0 -0.4310446209982266 0.47033596009582029 0 -0.43443441043131342 0.50000000000000755 0 -0.42409839095234109 0.48887598503593521 0 -0.43443441043131342 0.50000000000000755 0 -0.4447827686264566 0.47926022536349122 0 -0.4595127163698095 0.50000000000000022 0 -0.5 0.5 0 -0.47335596745111108 0.44169355163120572 0 -0.5 0.40038011321019712 0 -0.43466730821188831 0.46706657063262308 0 -0.4447827686264566 0.47926022536349122 0 -0.44899911668232212 0.46303481381032341 0 -0.4447827686264566 0.47926022536349122 0 -0.46015144363500948 0.47359397987248231 0 -0.44899911668232212 0.46303481381032341 0 -0.4447827686264566 0.47926022536349122 0 -0.46015144363500948 0.47359397987248231 0 -0.4595127163698095 0.50000000000000022 0 -0.46015144363500948 0.47359397987248231 0 -0.4595127163698095 0.50000000000000022 0 -0.46015144363500948 0.47359397987248231 0 -0.4595127163698095 0.50000000000000022 0 -0.5 0.5 0 -0.46015144363500948 0.47359397987248231 0 -0.5 0.5 0 -0.47335596745111108 0.44169355163120572 0 -0.46015144363500948 0.47359397987248231 0 -0.47335596745111108 0.44169355163120572 0 -0.46079017090020952 0.44718795974496428 0 -0.46079017090020952 0.44718795974496428 0 -0.44460389203804629 0.44806533343805571 0 -0.45590269758544211 0.43346995798949911 0 -0.47335596745111108 0.44169355163120572 0 -0.46079017090020952 0.44718795974496428 0 -0.45590269758544211 0.43346995798949911 0 -0.46015144363500948 0.47359397987248231 0 -0.46079017090020952 0.44718795974496428 0 -0.44899911668232212 0.46303481381032341 0 -0.46015144363500948 0.47359397987248231 0 -0.46079017090020952 0.44718795974496428 0 -0.43466730821188831 0.46706657063262308 0 -0.44899911668232212 0.46303481381032341 0 -0.44460389203804629 0.44806533343805571 0 -0.42781315099835598 0.44205737320498029 0 -0.44460389203804629 0.44806533343805571 0 -0.44268906624812487 0.42665452579602331 0 -0.46079017090020952 0.44718795974496428 0 -0.44899911668232212 0.46303481381032341 0 -0.44460389203804629 0.44806533343805571 0 -0.44460389203804629 0.44806533343805571 0 -0.44268906624812487 0.42665452579602331 0 -0.45590269758544211 0.43346995798949911 0 -0.44268906624812487 0.42665452579602331 0 -0.45186506472241439 0.42144574071262142 0 -0.45590269758544211 0.43346995798949911 0 -0.44268906624812487 0.42665452579602331 0 -0.45186506472241439 0.42144574071262142 0 -0.44576315445017062 0.40546276927260178 0 -0.44268906624812487 0.42665452579602331 0 -0.44576315445017062 0.40546276927260178 0 -0.42458168099848842 0.41377878631413989 0 -0.46310534060592018 0.42019570979236182 0 -0.47346151536459102 0.41731684507507272 0 -0.46374026742882618 0.39151162716981691 0 -0.45186506472241439 0.42144574071262142 0 -0.46310534060592018 0.42019570979236182 0 -0.44576315445017062 0.40546276927260178 0 -0.47335596745111108 0.44169355163120572 0 -0.46310534060592018 0.42019570979236182 0 -0.45590269758544211 0.43346995798949911 0 -0.45186506472241439 0.42144574071262142 0 -0.46310534060592018 0.42019570979236182 0 -0.45590269758544211 0.43346995798949911 0 -0.47335596745111108 0.44169355163120572 0 -0.46310534060592018 0.42019570979236182 0 -0.47346151536459102 0.41731684507507272 0 -0.47335596745111108 0.44169355163120572 0 -0.47346151536459102 0.41731684507507272 0 -0.5 0.40038011321019712 0 -0.47346151536459102 0.41731684507507272 0 -0.5 0.40038011321019712 0 -0.47533567507008778 0.39330498401591851 0 -0.47346151536459102 0.41731684507507272 0 -0.47533567507008778 0.39330498401591851 0 -0.47346151536459102 0.41731684507507272 0 -0.47533567507008778 0.39330498401591851 0 -0.46374026742882618 0.39151162716981691 0 -0.5 0.40038011321019712 0 -0.47533567507008778 0.39330498401591851 0 -0.47720983477558448 0.36929312295676431 0 -0.47533567507008778 0.39330498401591851 0 -0.47720983477558448 0.36929312295676431 0 -0.47533567507008778 0.39330498401591851 0 -0.46374026742882618 0.39151162716981691 0 -0.47720983477558448 0.36929312295676431 0 -0.46374026742882618 0.39151162716981691 0 -0.45297946443592813 0.37787116286410599 0 -0.46437519425173218 0.36282754454727217 0 -0.46374026742882618 0.39151162716981691 0 -0.45297946443592813 0.37787116286410599 0 -0.44807155782876301 0.39051600802545461 0 -0.46374026742882618 0.39151162716981691 0 -0.46437519425173218 0.36282754454727217 0 -0.46310534060592018 0.42019570979236182 0 -0.46374026742882618 0.39151162716981691 0 -0.46310534060592018 0.42019570979236182 0 -0.46374026742882618 0.39151162716981691 0 -0.44576315445017062 0.40546276927260178 0 -0.46374026742882618 0.39151162716981691 0 -0.44576315445017062 0.40546276927260178 0 -0.44807155782876301 0.39051600802545461 0 -0.44576315445017062 0.40546276927260178 0 -0.44807155782876301 0.39051600802545461 0 -0.43603237714897469 0.39502180629923989 0 -0.45297946443592813 0.37787116286410599 0 -0.44807155782876301 0.39051600802545461 0 -0.44039528146883089 0.37985126846070372 0 -0.44807155782876301 0.39051600802545461 0 -0.44039528146883089 0.37985126846070372 0 -0.43603237714897469 0.39502180629923989 0 -0.44039528146883089 0.37985126846070372 0 -0.42135021099862069 0.38550019942329938 0 -0.43603237714897469 0.39502180629923989 0 -0.44039528146883089 0.37985126846070372 0 -0.42135021099862069 0.38550019942329938 0 -0.43330693618304927 0.36743111704715392 0 -0.42135021099862069 0.38550019942329938 0 -0.3928737426436214 0.38288862872844909 0 -0.41811874099875312 0.35722161253245888 0 -0.42135021099862069 0.38550019942329938 0 -0.42458168099848842 0.41377878631413989 0 -0.40302940150938782 0.40252809503019821 0 -0.44576315445017062 0.40546276927260178 0 -0.43603237714897469 0.39502180629923989 0 -0.42458168099848842 0.41377878631413989 0 -0.42135021099862069 0.38550019942329938 0 -0.42458168099848842 0.41377878631413989 0 -0.42135021099862069 0.38550019942329938 0 -0.43603237714897469 0.39502180629923989 0 -0.42458168099848842 0.41377878631413989 0 -0.42781315099835598 0.44205737320498029 0 -0.42458168099848842 0.41377878631413989 0 -0.39595691431975 0.42995942871021692 0 -0.42781315099835598 0.44205737320498029 0 -0.44268906624812487 0.42665452579602331 0 -0.42458168099848842 0.41377878631413989 0 -0.42781315099835598 0.44205737320498029 0 -0.42458168099848842 0.41377878631413989 0 -0.42458168099848842 0.41377878631413989 0 -0.39595691431975 0.42995942871021692 0 -0.40302940150938782 0.40252809503019821 0 -0.39595691431975 0.42995942871021692 0 -0.38133644129271771 0.41060795377957438 0 -0.40302940150938782 0.40252809503019821 0 -0.39595691431975 0.42995942871021692 0 -0.38133644129271771 0.41060795377957438 0 -0.37388199021079188 0.43349662060099697 0 -0.38785270990024268 0.44600589254376838 0 -0.39595691431975 0.42995942871021692 0 -0.37388199021079188 0.43349662060099697 0 -0.39595691431975 0.42995942871021692 0 -0.38133644129271771 0.41060795377957438 0 -0.38133644129271771 0.41060795377957438 0 -0.3928737426436214 0.38288862872844909 0 -0.36671596826568531 0.39125647884893172 0 -0.3928737426436214 0.38288862872844909 0 -0.37126589511329411 0.37377724987418581 0 -0.36671596826568531 0.39125647884893172 0 -0.42135021099862069 0.38550019942329938 0 -0.3928737426436214 0.38288862872844909 0 -0.40302940150938782 0.40252809503019821 0 -0.38133644129271771 0.41060795377957438 0 -0.3928737426436214 0.38288862872844909 0 -0.40302940150938782 0.40252809503019821 0 -0.39068435811404417 0.36093702398180222 0 -0.39395667907880888 0.34326368506717603 0 -0.41811874099875312 0.35722161253245888 0 -0.3928737426436214 0.38288862872844909 0 -0.39068435811404417 0.36093702398180222 0 -0.41811874099875312 0.35722161253245888 0 -0.3928737426436214 0.38288862872844909 0 -0.39068435811404417 0.36093702398180222 0 -0.37126589511329411 0.37377724987418581 0 -0.39068435811404417 0.36093702398180222 0 -0.37302608715873109 0.35758434449273291 0 -0.37126589511329411 0.37377724987418581 0 -0.39395667907880888 0.34326368506717603 0 -0.37302608715873109 0.35758434449273291 0 -0.39068435811404417 0.36093702398180222 0 -0.39395667907880888 0.34326368506717603 0 -0.37302608715873109 0.35758434449273291 0 -0.37563375498023588 0.33893957100260502 0 -0.39395667907880888 0.34326368506717603 0 -0.37302608715873109 0.35758434449273291 0 -0.37563375498023588 0.33893957100260502 0 -0.3809584867257152 0.31995934924364311 0 -0.39395667907880888 0.34326368506717603 0 -0.3809584867257152 0.31995934924364311 0 -0.40019053093036899 0.31727751782089808 0 -0.39395667907880888 0.34326368506717603 0 -0.40019053093036899 0.31727751782089808 0 -0.39395667907880888 0.34326368506717603 0 -0.414887270998886 0.32894302564161831 0 -0.39395667907880888 0.34326368506717603 0 -0.414887270998886 0.32894302564161831 0 -0.414887270998886 0.32894302564161831 0 -0.41811874099875312 0.35722161253245888 0 -0.39395667907880888 0.34326368506717603 0 -0.414887270998886 0.32894302564161831 0 -0.41811874099875312 0.35722161253245888 0 -0.414887270998886 0.32894302564161831 0 -0.4287524947490482 0.33739992334137159 0 -0.41811874099875312 0.35722161253245888 0 -0.414887270998886 0.32894302564161831 0 -0.42784370751339318 0.3200782636988328 0 -0.41182569378737999 0.30215117016961263 0 -0.414887270998886 0.32894302564161831 0 -0.41182569378737999 0.30215117016961263 0 -0.40019053093036899 0.31727751782089808 0 -0.414887270998886 0.32894302564161831 0 -0.41182569378737999 0.30215117016961263 0 -0.414887270998886 0.32894302564161831 0 -0.42784370751339318 0.3200782636988328 0 -0.42784370751339318 0.3200782636988328 0 -0.44080014402789969 0.3112135017560464 0 -0.414887270998886 0.32894302564161831 0 -0.42784370751339318 0.3200782636988328 0 -0.4287524947490482 0.33739992334137159 0 -0.42784370751339318 0.3200782636988328 0 -0.4287524947490482 0.33739992334137159 0 -0.44455732798665581 0.33082357613192309 0 -0.4287524947490482 0.33739992334137159 0 -0.43835542624755341 0.34993313870202492 0 -0.44455732798665581 0.33082357613192309 0 -0.4287524947490482 0.33739992334137159 0 -0.41811874099875312 0.35722161253245888 0 -0.43835542624755341 0.34993313870202492 0 -0.41811874099875312 0.35722161253245888 0 -0.43330693618304927 0.36743111704715392 0 -0.43835542624755341 0.34993313870202492 0 -0.42135021099862069 0.38550019942329938 0 -0.41811874099875312 0.35722161253245888 0 -0.42135021099862069 0.38550019942329938 0 -0.41811874099875312 0.35722161253245888 0 -0.43330693618304927 0.36743111704715392 0 -0.44039528146883089 0.37985126846070372 0 -0.43330693618304927 0.36743111704715392 0 -0.44831502120148831 0.36464936611728249 0 -0.5 0.40038011321019712 0 -0.47720983477558448 0.36929312295676431 0 -0.5 0.32588146503443682 0 -0.43330693618304927 0.36743111704715392 0 -0.44831502120148831 0.36464936611728249 0 -0.43835542624755341 0.34993313870202492 0 -0.45297946443592813 0.37787116286410599 0 -0.44039528146883089 0.37985126846070372 0 -0.44831502120148831 0.36464936611728249 0 -0.44831502120148831 0.36464936611728249 0 -0.45212261815241361 0.34847541748464589 0 -0.43835542624755341 0.34993313870202492 0 -0.46437519425173218 0.36282754454727217 0 -0.46501012107463818 0.3341434619247271 0 -0.45212261815241361 0.34847541748464589 0 -0.46437519425173218 0.36282754454727217 0 -0.46501012107463818 0.3341434619247271 0 -0.44831502120148831 0.36464936611728249 0 -0.45212261815241361 0.34847541748464589 0 -0.46437519425173218 0.36282754454727217 0 -0.45297946443592813 0.37787116286410599 0 -0.44831502120148831 0.36464936611728249 0 -0.46437519425173218 0.36282754454727217 0 -0.46374026742882618 0.39151162716981691 0 -0.46437519425173218 0.36282754454727217 0 -0.47720983477558448 0.36929312295676431 0 -0.47720983477558448 0.36929312295676431 0 -0.4790839944810813 0.34528126189761021 0 -0.5 0.32588146503443682 0 -0.46437519425173218 0.36282754454727217 0 -0.47720983477558448 0.36929312295676431 0 -0.4790839944810813 0.34528126189761021 0 -0.46437519425173218 0.36282754454727217 0 -0.4790839944810813 0.34528126189761021 0 -0.46501012107463818 0.3341434619247271 0 -0.47720983477558448 0.36929312295676431 0 -0.4790839944810813 0.34528126189761021 0 -0.5 0.32588146503443682 0 -0.48095815418657811 0.32126940083845601 0 -0.48438341280173691 0.2990237851864897 0 -0.4790839944810813 0.34528126189761021 0 -0.5 0.32588146503443682 0 -0.48095815418657811 0.32126940083845601 0 -0.4790839944810813 0.34528126189761021 0 -0.48095815418657811 0.32126940083845601 0 -0.4790839944810813 0.34528126189761021 0 -0.48095815418657811 0.32126940083845601 0 -0.46501012107463818 0.3341434619247271 0 -0.48095815418657811 0.32126940083845601 0 -0.46501012107463818 0.3341434619247271 0 -0.46564504789754418 0.30545937930218209 0 -0.46501012107463818 0.3341434619247271 0 -0.46564504789754418 0.30545937930218209 0 -0.45334860311094782 0.31584311053598302 0 -0.46501012107463818 0.3341434619247271 0 -0.44455732798665581 0.33082357613192309 0 -0.45334860311094782 0.31584311053598302 0 -0.46501012107463818 0.3341434619247271 0 -0.46564504789754418 0.30545937930218209 0 -0.45212261815241361 0.34847541748464589 0 -0.46501012107463818 0.3341434619247271 0 -0.44455732798665581 0.33082357613192309 0 -0.45212261815241361 0.34847541748464589 0 -0.43835542624755341 0.34993313870202492 0 -0.44455732798665581 0.33082357613192309 0 -0.45334860311094782 0.31584311053598302 0 -0.44455732798665581 0.33082357613192309 0 -0.44080014402789969 0.3112135017560464 0 -0.42784370751339318 0.3200782636988328 0 -0.44455732798665581 0.33082357613192309 0 -0.44080014402789969 0.3112135017560464 0 -0.45334860311094782 0.31584311053598302 0 -0.44080014402789969 0.3112135017560464 0 -0.45212090372732222 0.29751224224269018 0 -0.44080014402789969 0.3112135017560464 0 -0.45212090372732222 0.29751224224269018 0 -0.43098419661848369 0.29848737705662681 0 -0.45212090372732222 0.29751224224269018 0 -0.44106680473088589 0.27968718865599468 0 -0.43098419661848369 0.29848737705662681 0 -0.45212090372732222 0.29751224224269018 0 -0.46878861662768212 0.293945894508436 0 -0.46620416538631942 0.27832296974934079 0 -0.45212090372732222 0.29751224224269018 0 -0.46620416538631942 0.27832296974934079 0 -0.44106680473088589 0.27968718865599468 0 -0.45334860311094782 0.31584311053598302 0 -0.45212090372732222 0.29751224224269018 0 -0.46564504789754418 0.30545937930218209 0 -0.45212090372732222 0.29751224224269018 0 -0.46564504789754418 0.30545937930218209 0 -0.46878861662768212 0.293945894508436 0 -0.48095815418657811 0.32126940083845601 0 -0.46564504789754418 0.30545937930218209 0 -0.47422271850004488 0.30257989257828583 0 -0.48095815418657811 0.32126940083845601 0 -0.48283231389207593 0.29725753977930192 0 -0.48095815418657811 0.32126940083845601 0 -0.48283231389207593 0.29725753977930192 0 -0.48438341280173691 0.2990237851864897 0 -0.48095815418657811 0.32126940083845601 0 -0.48283231389207593 0.29725753977930192 0 -0.47422271850004488 0.30257989257828583 0 -0.5 0.32588146503443682 0 -0.48438341280173691 0.2990237851864897 0 -0.5 0.27058277969487637 0 -0.48283231389207593 0.29725753977930192 0 -0.48438341280173691 0.2990237851864897 0 -0.48283231389207593 0.29725753977930192 0 -0.47422271850004488 0.30257989257828583 0 -0.46878861662768212 0.293945894508436 0 -0.46564504789754418 0.30545937930218209 0 -0.47422271850004488 0.30257989257828583 0 -0.46878861662768212 0.293945894508436 0 -0.48283231389207593 0.29725753977930192 0 -0.46620416538631942 0.27832296974934079 0 -0.4832665619079245 0.29169392479429618 0 -0.48272378290968532 0.2745465744653578 0 -0.46620416538631942 0.27832296974934079 0 -0.48283231389207593 0.29725753977930192 0 -0.46878861662768212 0.293945894508436 0 -0.46620416538631942 0.27832296974934079 0 -0.48283231389207593 0.29725753977930192 0 -0.4832665619079245 0.29169392479429618 0 -0.46620416538631942 0.27832296974934079 0 -0.48283231389207593 0.29725753977930192 0 -0.4832665619079245 0.29169392479429618 0 -0.48438341280173691 0.2990237851864897 0 -0.48283231389207593 0.29725753977930192 0 -0.4832665619079245 0.29169392479429618 0 -0.4832665619079245 0.29169392479429618 0 -0.48438341280173691 0.2990237851864897 0 -0.5 0.27058277969487637 0 -0.48510068849613291 0.2464952989699998 0 -0.5 0.27058277969487637 0 -0.47736829551405641 0.25971614189080378 0 -0.4832665619079245 0.29169392479429618 0 -0.5 0.27058277969487637 0 -0.48272378290968532 0.2745465744653578 0 -0.5 0.27058277969487637 0 -0.48272378290968532 0.2745465744653578 0 -0.47736829551405641 0.25971614189080378 0 -0.48272378290968532 0.2745465744653578 0 -0.47736829551405641 0.25971614189080378 0 -0.46620416538631942 0.27832296974934079 0 -0.48510068849613291 0.2464952989699998 0 -0.4662317729600568 0.24711617116125539 0 -0.47736829551405641 0.25971614189080378 0 -0.4662317729600568 0.24711617116125539 0 -0.47736829551405641 0.25971614189080378 0 -0.44957601688056159 0.25938839971938082 0 -0.47736829551405641 0.25971614189080378 0 -0.46620416538631942 0.27832296974934079 0 -0.44957601688056159 0.25938839971938082 0 -0.46620416538631942 0.27832296974934079 0 -0.44957601688056159 0.25938839971938082 0 -0.46620416538631942 0.27832296974934079 0 -0.44106680473088589 0.27968718865599468 0 -0.44957601688056159 0.25938839971938082 0 -0.44106680473088589 0.27968718865599468 0 -0.44957601688056159 0.25938839971938082 0 -0.42702456861835142 0.26373592368695459 0 -0.43294786837480398 0.2404538296894207 0 -0.44957601688056159 0.25938839971938082 0 -0.42702456861835142 0.26373592368695459 0 -0.43294786837480398 0.2404538296894207 0 -0.40570253936436479 0.24856745922560119 0 -0.42702456861835142 0.26373592368695459 0 -0.40570253936436479 0.24856745922560119 0 -0.40876411657587441 0.27535931469760672 0 -0.40570253936436479 0.24856745922560119 0 -0.42702456861835142 0.26373592368695459 0 -0.40876411657587441 0.27535931469760672 0 -0.42702456861835142 0.26373592368695459 0 -0.40876411657587441 0.27535931469760672 0 -0.42393307606619501 0.28388419485335897 0 -0.44106680473088589 0.27968718865599468 0 -0.42702456861835142 0.26373592368695459 0 -0.42393307606619501 0.28388419485335897 0 -0.44106680473088589 0.27968718865599468 0 -0.42393307606619501 0.28388419485335897 0 -0.43098419661848369 0.29848737705662681 0 -0.42393307606619501 0.28388419485335897 0 -0.43098419661848369 0.29848737705662681 0 -0.41182569378737999 0.30215117016961263 0 -0.42784370751339318 0.3200782636988328 0 -0.44080014402789969 0.3112135017560464 0 -0.43098419661848369 0.29848737705662681 0 -0.42784370751339318 0.3200782636988328 0 -0.43098419661848369 0.29848737705662681 0 -0.41182569378737999 0.30215117016961263 0 -0.40876411657587441 0.27535931469760672 0 -0.42393307606619501 0.28388419485335897 0 -0.41182569378737999 0.30215117016961263 0 -0.40876411657587441 0.27535931469760672 0 -0.41182569378737999 0.30215117016961263 0 -0.40876411657587441 0.27535931469760672 0 -0.41182569378737999 0.30215117016961263 0 -0.38942632587964537 0.29641120061531351 0 -0.40876411657587441 0.27535931469760672 0 -0.38942632587964537 0.29641120061531351 0 -0.38778179087320769 0.27529621765694001 0 -0.40019053093036899 0.31727751782089808 0 -0.41182569378737999 0.30215117016961263 0 -0.38942632587964537 0.29641120061531351 0 -0.3809584867257152 0.31995934924364311 0 -0.38942632587964537 0.29641120061531351 0 -0.36990774782730562 0.30465198401604282 0 -0.3809584867257152 0.31995934924364311 0 -0.40019053093036899 0.31727751782089808 0 -0.38942632587964537 0.29641120061531351 0 -0.38942632587964537 0.29641120061531351 0 -0.38778179087320769 0.27529621765694001 0 -0.37124129201382 0.2841753332327091 0 -0.38942632587964537 0.29641120061531351 0 -0.37124129201382 0.2841753332327091 0 -0.36990774782730562 0.30465198401604282 0 -0.38778179087320769 0.27529621765694001 0 -0.37230359566927929 0.26610576231553251 0 -0.37124129201382 0.2841753332327091 0 -0.38778179087320769 0.27529621765694001 0 -0.38900306751682168 0.25733661077056619 0 -0.37230359566927929 0.26610576231553251 0 -0.38900306751682168 0.25733661077056619 0 -0.37230359566927929 0.26610576231553251 0 -0.37675611103540763 0.25409865512553548 0 -0.38900306751682168 0.25733661077056619 0 -0.37230359566927929 0.26610576231553251 0 -0.38455494932564349 0.24416718140159829 0 -0.37675611103540763 0.25409865512553548 0 -0.38900306751682168 0.25733661077056619 0 -0.40570253936436479 0.24856745922560119 0 -0.40876411657587441 0.27535931469760672 0 -0.38900306751682168 0.25733661077056619 0 -0.40570253936436479 0.24856745922560119 0 -0.38900306751682168 0.25733661077056619 0 -0.40876411657587441 0.27535931469760672 0 -0.38778179087320769 0.27529621765694001 0 -0.38900306751682168 0.25733661077056619 0 -0.35344375069401829 0.26830850112922933 0 -0.35479842748912699 0.29354782535411539 0 -0.33783775680192157 0.27023153782616838 0 -0.35344375069401829 0.26830850112922933 0 -0.35479842748912699 0.29354782535411539 0 -0.35926376548055328 0.2486735779402334 0 -0.35208907389890948 0.24306917690434299 0 -0.35344375069401829 0.26830850112922933 0 -0.35208907389890948 0.24306917690434299 0 -0.35344375069401829 0.26830850112922933 0 -0.34142207509263922 0.25572960106260723 0 -0.35208907389890948 0.24306917690434299 0 -0.35344375069401829 0.26830850112922933 0 -0.35344375069401829 0.26830850112922933 0 -0.33783775680192157 0.27023153782616838 0 -0.34142207509263922 0.25572960106260723 0 -0.35344375069401829 0.26830850112922933 0 -0.36723308052532222 0.25309369692869038 0 -0.37230359566927929 0.26610576231553251 0 -0.35926376548055328 0.2486735779402334 0 -0.35344375069401829 0.26830850112922933 0 -0.36723308052532222 0.25309369692869038 0 -0.37552267705158737 0.2431978490864326 0 -0.37675611103540763 0.25409865512553548 0 -0.36723308052532222 0.25309369692869038 0 -0.37675611103540763 0.25409865512553548 0 -0.36723308052532222 0.25309369692869038 0 -0.37230359566927929 0.26610576231553251 0 -0.35344375069401829 0.26830850112922933 0 -0.37230359566927929 0.26610576231553251 0 -0.37124129201382 0.2841753332327091 0 -0.37124129201382 0.2841753332327091 0 -0.36990774782730562 0.30465198401604282 0 -0.35479842748912699 0.29354782535411539 0 -0.35344375069401829 0.26830850112922933 0 -0.37124129201382 0.2841753332327091 0 -0.35479842748912699 0.29354782535411539 0 -0.36990774782730562 0.30465198401604282 0 -0.35479842748912699 0.29354782535411539 0 -0.35615310428423591 0.31878714957900162 0 -0.35479842748912699 0.29354782535411539 0 -0.35615310428423591 0.31878714957900162 0 -0.35479842748912699 0.29354782535411539 0 -0.33790089425573833 0.30106400074382289 0 -0.35615310428423591 0.31878714957900162 0 -0.35479842748912699 0.29354782535411539 0 -0.32994760687178648 0.28429515218691809 0 -0.33783775680192157 0.27023153782616838 0 -0.35479842748912699 0.29354782535411539 0 -0.32994760687178648 0.28429515218691809 0 -0.33790089425573833 0.30106400074382289 0 -0.33790089425573833 0.30106400074382289 0 -0.31376474629655843 0.30225304786416751 0 -0.33257481532433891 0.31836647764434117 0 -0.32994760687178648 0.28429515218691809 0 -0.33790089425573833 0.30106400074382289 0 -0.31376474629655843 0.30225304786416751 0 -0.32994760687178648 0.28429515218691809 0 -0.31376474629655843 0.30225304786416751 0 -0.30745975664346697 0.28108303278283259 0 -0.32994760687178648 0.28429515218691809 0 -0.32025265357816562 0.27050697347699348 0 -0.30745975664346697 0.28108303278283259 0 -0.32994760687178648 0.28429515218691809 0 -0.32025265357816562 0.27050697347699348 0 -0.33783775680192157 0.27023153782616838 0 -0.33783775680192157 0.27023153782616838 0 -0.34142207509263922 0.25572960106260723 0 -0.32493898666941562 0.25370598596143412 0 -0.33787454055877381 0.24529314191448051 0 -0.34142207509263922 0.25572960106260723 0 -0.32493898666941562 0.25370598596143412 0 -0.32025265357816562 0.27050697347699348 0 -0.32493898666941562 0.25370598596143412 0 -0.3017176885818823 0.26220574059556451 0 -0.32025265357816562 0.27050697347699348 0 -0.33783775680192157 0.27023153782616838 0 -0.32493898666941562 0.25370598596143412 0 -0.28392805579818597 0.24584677119781029 0 -0.30659471691689572 0.242716670786389 0 -0.3017176885818823 0.26220574059556451 0 -0.30659471691689572 0.242716670786389 0 -0.32493898666941562 0.25370598596143412 0 -0.3017176885818823 0.26220574059556451 0 -0.32025265357816562 0.27050697347699348 0 -0.3017176885818823 0.26220574059556451 0 -0.30745975664346697 0.28108303278283259 0 -0.3017176885818823 0.26220574059556451 0 -0.30745975664346697 0.28108303278283259 0 -0.28581088023419748 0.27213864639403801 0 -0.28392805579818597 0.24584677119781029 0 -0.3017176885818823 0.26220574059556451 0 -0.28392805579818597 0.24584677119781029 0 -0.3017176885818823 0.26220574059556451 0 -0.28581088023419748 0.27213864639403801 0 -0.28392805579818597 0.24584677119781029 0 -0.28581088023419748 0.27213864639403801 0 -0.26655259030946182 0.26726307071448002 0 -0.28392805579818597 0.24584677119781029 0 -0.26514282027817931 0.24842266601513599 0 -0.26655259030946182 0.26726307071448002 0 -0.28581088023419748 0.27213864639403801 0 -0.26655259030946182 0.26726307071448002 0 -0.26709784128719349 0.28662765883125513 0 -0.26655259030946182 0.26726307071448002 0 -0.26709784128719349 0.28662765883125513 0 -0.24190471242523851 0.27972751922608308 0 -0.26655259030946182 0.26726307071448002 0 -0.24943129659764751 0.26000894523212309 0 -0.24190471242523851 0.27972751922608308 0 -0.26514282027817931 0.24842266601513599 0 -0.26655259030946182 0.26726307071448002 0 -0.24943129659764751 0.26000894523212309 0 -0.26514282027817931 0.24842266601513599 0 -0.24943129659764751 0.26000894523212309 0 -0.2468893326351202 0.24329134098969171 0 -0.25616918259472732 0.30236015827283808 0 -0.26709784128719349 0.28662765883125513 0 -0.24190471242523851 0.27972751922608308 0 -0.28581088023419748 0.27213864639403801 0 -0.26709784128719349 0.28662765883125513 0 -0.29016097772449478 0.2935014559625142 0 -0.26709784128719349 0.28662765883125513 0 -0.27491611994182802 0.30516871221215541 0 -0.29016097772449478 0.2935014559625142 0 -0.25616918259472732 0.30236015827283808 0 -0.27491611994182802 0.30516871221215541 0 -0.27043365276421599 0.32499279731959319 0 -0.25616918259472732 0.30236015827283808 0 -0.26709784128719349 0.28662765883125513 0 -0.27491611994182802 0.30516871221215541 0 -0.27491611994182802 0.30516871221215541 0 -0.29016097772449478 0.2935014559625142 0 -0.29169578744288521 0.31398791816734961 0 -0.30745975664346697 0.28108303278283259 0 -0.28581088023419748 0.27213864639403801 0 -0.29016097772449478 0.2935014559625142 0 -0.31376474629655843 0.30225304786416751 0 -0.30745975664346697 0.28108303278283259 0 -0.29016097772449478 0.2935014559625142 0 -0.31376474629655843 0.30225304786416751 0 -0.29016097772449478 0.2935014559625142 0 -0.29169578744288521 0.31398791816734961 0 -0.31376474629655843 0.30225304786416751 0 -0.31074538478735791 0.32738191455196902 0 -0.29169578744288521 0.31398791816734961 0 -0.31074538478735791 0.32738191455196902 0 -0.29170910681836448 0.3316805874579164 0 -0.29169578744288521 0.31398791816734961 0 -0.31074538478735791 0.32738191455196902 0 -0.30097258616365841 0.34441487088432199 0 -0.31556783578130437 0.34561409599239279 0 -0.31074538478735791 0.32738191455196902 0 -0.29170910681836448 0.3316805874579164 0 -0.30097258616365841 0.34441487088432199 0 -0.29170910681836448 0.3316805874579164 0 -0.28469812293370489 0.34762543636634829 0 -0.30097258616365841 0.34441487088432199 0 -0.29170910681836448 0.3316805874579164 0 -0.27043365276421599 0.32499279731959319 0 -0.28469812293370489 0.34762543636634829 0 -0.29170910681836448 0.3316805874579164 0 -0.29169578744288521 0.31398791816734961 0 -0.27043365276421599 0.32499279731959319 0 -0.27491611994182802 0.30516871221215541 0 -0.29169578744288521 0.31398791816734961 0 -0.27043365276421599 0.32499279731959319 0 -0.27043365276421599 0.32499279731959319 0 -0.26243222306204511 0.35090504016953772 0 -0.28469812293370489 0.34762543636634829 0 -0.27043365276421599 0.32499279731959319 0 -0.28469812293370489 0.34762543636634829 0 -0.27043365276421599 0.32499279731959319 0 -0.25002058798003007 0.3320526588471332 0 -0.26243222306204511 0.35090504016953772 0 -0.25616918259472732 0.30236015827283808 0 -0.27043365276421599 0.32499279731959319 0 -0.25616918259472732 0.30236015827283808 0 -0.27043365276421599 0.32499279731959319 0 -0.25002058798003007 0.3320526588471332 0 -0.25717133997193298 0.37426095615225607 0 -0.26243222306204511 0.35090504016953772 0 -0.27169383631612543 0.36953364855257259 0 -0.25717133997193298 0.37426095615225607 0 -0.26243222306204511 0.35090504016953772 0 -0.24481421723968019 0.36490975255658048 0 -0.27524778858216448 0.35766291394235578 0 -0.28324842690769031 0.36508823660180101 0 -0.28469812293370489 0.34762543636634829 0 -0.26243222306204511 0.35090504016953772 0 -0.27524778858216448 0.35766291394235578 0 -0.27169383631612543 0.36953364855257259 0 -0.26243222306204511 0.35090504016953772 0 -0.27524778858216448 0.35766291394235578 0 -0.28469812293370489 0.34762543636634829 0 -0.27524778858216448 0.35766291394235578 0 -0.27169383631612543 0.36953364855257259 0 -0.28324842690769031 0.36508823660180101 0 -0.27169383631612543 0.36953364855257259 0 -0.28324842690769031 0.36508823660180101 0 -0.28209338532393202 0.38222600668133688 0 -0.28324842690769031 0.36508823660180101 0 -0.28469812293370489 0.34762543636634829 0 -0.29896259310319367 0.37025807541310352 0 -0.28324842690769031 0.36508823660180101 0 -0.29896259310319367 0.37025807541310352 0 -0.28209338532393202 0.38222600668133688 0 -0.28469812293370489 0.34762543636634829 0 -0.29896259310319367 0.37025807541310352 0 -0.28469812293370489 0.34762543636634829 0 -0.30097258616365841 0.34441487088432199 0 -0.29896259310319367 0.37025807541310352 0 -0.30097258616365841 0.34441487088432199 0 -0.30971140611047582 0.35873879640362499 0 -0.29896259310319367 0.37025807541310352 0 -0.30097258616365841 0.34441487088432199 0 -0.29896259310319367 0.37025807541310352 0 -0.30097258616365841 0.34441487088432199 0 -0.30971140611047582 0.35873879640362499 0 -0.31556783578130437 0.34561409599239279 0 -0.30971140611047582 0.35873879640362499 0 -0.29896259310319367 0.37025807541310352 0 -0.31229554397435733 0.37005867265250031 0 -0.29896259310319367 0.37025807541310352 0 -0.31229554397435733 0.37005867265250031 0 -0.30732872976294823 0.38353215772995369 0 -0.31229554397435733 0.37005867265250031 0 -0.32118050234516199 0.36201264788746418 0 -0.32091897818789411 0.37757395005697603 0 -0.30971140611047582 0.35873879640362499 0 -0.31229554397435733 0.37005867265250031 0 -0.32118050234516199 0.36201264788746418 0 -0.32118050234516199 0.36201264788746418 0 -0.33508210951592582 0.36870163953731322 0 -0.32091897818789411 0.37757395005697603 0 -0.33508210951592582 0.36870163953731322 0 -0.35209549523865291 0.37190500391828912 0 -0.33393211710626841 0.38433234248782061 0 -0.32118050234516199 0.36201264788746418 0 -0.33508210951592582 0.36870163953731322 0 -0.33321476088078839 0.35466849371962073 0 -0.33508210951592582 0.36870163953731322 0 -0.33321476088078839 0.35466849371962073 0 -0.34577529297467657 0.36353966338233001 0 -0.33321476088078839 0.35466849371962073 0 -0.34577529297467657 0.36353966338233001 0 -0.34447532111727192 0.34884924989517158 0 -0.33321476088078839 0.35466849371962073 0 -0.33003563329740881 0.33925758124412497 0 -0.34447532111727192 0.34884924989517158 0 -0.32118050234516199 0.36201264788746418 0 -0.33321476088078839 0.35466849371962073 0 -0.31556783578130437 0.34561409599239279 0 -0.30971140611047582 0.35873879640362499 0 -0.32118050234516199 0.36201264788746418 0 -0.31556783578130437 0.34561409599239279 0 -0.33321476088078839 0.35466849371962073 0 -0.31556783578130437 0.34561409599239279 0 -0.33003563329740881 0.33925758124412497 0 -0.31074538478735791 0.32738191455196902 0 -0.33257481532433891 0.31836647764434117 0 -0.33003563329740881 0.33925758124412497 0 -0.31074538478735791 0.32738191455196902 0 -0.31556783578130437 0.34561409599239279 0 -0.33003563329740881 0.33925758124412497 0 -0.31376474629655843 0.30225304786416751 0 -0.31074538478735791 0.32738191455196902 0 -0.33257481532433891 0.31836647764434117 0 -0.33790089425573833 0.30106400074382289 0 -0.33257481532433891 0.31836647764434117 0 -0.35615310428423591 0.31878714957900162 0 -0.33257481532433891 0.31836647764434117 0 -0.33003563329740881 0.33925758124412497 0 -0.34490357793898208 0.33379293979876401 0 -0.33003563329740881 0.33925758124412497 0 -0.34490357793898208 0.33379293979876401 0 -0.34447532111727192 0.34884924989517158 0 -0.34490357793898208 0.33379293979876401 0 -0.34447532111727192 0.34884924989517158 0 -0.35750778107934472 0.34402647380388779 0 -0.35615310428423591 0.31878714957900162 0 -0.35750778107934472 0.34402647380388779 0 -0.34490357793898208 0.33379293979876401 0 -0.35615310428423591 0.31878714957900162 0 -0.35750778107934472 0.34402647380388779 0 -0.33257481532433891 0.31836647764434117 0 -0.34490357793898208 0.33379293979876401 0 -0.35615310428423591 0.31878714957900162 0 -0.3809584867257152 0.31995934924364311 0 -0.36990774782730562 0.30465198401604282 0 -0.35615310428423591 0.31878714957900162 0 -0.37563375498023588 0.33893957100260502 0 -0.3809584867257152 0.31995934924364311 0 -0.35615310428423591 0.31878714957900162 0 -0.37563375498023588 0.33893957100260502 0 -0.35615310428423591 0.31878714957900162 0 -0.35750778107934472 0.34402647380388779 0 -0.37563375498023588 0.33893957100260502 0 -0.37302608715873109 0.35758434449273291 0 -0.35750778107934472 0.34402647380388779 0 -0.37302608715873109 0.35758434449273291 0 -0.35750778107934472 0.34402647380388779 0 -0.35541488053243109 0.35781034742230239 0 -0.37302608715873109 0.35758434449273291 0 -0.35209549523865291 0.37190500391828912 0 -0.35541488053243109 0.35781034742230239 0 -0.37302608715873109 0.35758434449273291 0 -0.37126589511329411 0.37377724987418581 0 -0.35209549523865291 0.37190500391828912 0 -0.37302608715873109 0.35758434449273291 0 -0.35209549523865291 0.37190500391828912 0 -0.33508210951592582 0.36870163953731322 0 -0.35209549523865291 0.37190500391828912 0 -0.34577529297467657 0.36353966338233001 0 -0.35209549523865291 0.37190500391828912 0 -0.34577529297467657 0.36353966338233001 0 -0.35209549523865291 0.37190500391828912 0 -0.34577529297467657 0.36353966338233001 0 -0.35541488053243109 0.35781034742230239 0 -0.34577529297467657 0.36353966338233001 0 -0.34447532111727192 0.34884924989517158 0 -0.35541488053243109 0.35781034742230239 0 -0.34447532111727192 0.34884924989517158 0 -0.35750778107934472 0.34402647380388779 0 -0.35541488053243109 0.35781034742230239 0 -0.35026082972236822 0.40458613969335172 0 -0.34862050747833878 0.38874946299455448 0 -0.33552343261133938 0.40009846525415782 0 -0.35026082972236822 0.40458613969335172 0 -0.34862050747833878 0.38874946299455448 0 -0.36671596826568531 0.39125647884893172 0 -0.35209549523865291 0.37190500391828912 0 -0.34862050747833878 0.38874946299455448 0 -0.33393211710626841 0.38433234248782061 0 -0.35209549523865291 0.37190500391828912 0 -0.34862050747833878 0.38874946299455448 0 -0.36671596826568531 0.39125647884893172 0 -0.35209549523865291 0.37190500391828912 0 -0.36671596826568531 0.39125647884893172 0 -0.37126589511329411 0.37377724987418581 0 -0.35209549523865291 0.37190500391828912 0 -0.36671596826568531 0.39125647884893172 0 -0.38133644129271771 0.41060795377957438 0 -0.36671596826568531 0.39125647884893172 0 -0.35026082972236822 0.40458613969335172 0 -0.36671596826568531 0.39125647884893172 0 -0.36333227490387549 0.41594406858258898 0 -0.38133644129271771 0.41060795377957438 0 -0.36671596826568531 0.39125647884893172 0 -0.36333227490387549 0.41594406858258898 0 -0.38133644129271771 0.41060795377957438 0 -0.36333227490387549 0.41594406858258898 0 -0.37388199021079188 0.43349662060099697 0 -0.36333227490387549 0.41594406858258898 0 -0.37388199021079188 0.43349662060099697 0 -0.35906691460358248 0.43302642702751659 0 -0.36333227490387549 0.41594406858258898 0 -0.35906691460358248 0.43302642702751659 0 -0.35160825139420282 0.41805423523185442 0 -0.35906691460358248 0.43302642702751659 0 -0.34586475289765162 0.42738691828786168 0 -0.34964894770477822 0.45067928662270329 0 -0.35906691460358248 0.43302642702751659 0 -0.34586475289765162 0.42738691828786168 0 -0.35160825139420282 0.41805423523185442 0 -0.35026082972236822 0.40458613969335172 0 -0.36333227490387549 0.41594406858258898 0 -0.35160825139420282 0.41805423523185442 0 -0.34586475289765162 0.42738691828786168 0 -0.35160825139420282 0.41805423523185442 0 -0.33955069738530769 0.4144169953609998 0 -0.35026082972236822 0.40458613969335172 0 -0.35160825139420282 0.41805423523185442 0 -0.33955069738530769 0.4144169953609998 0 -0.35026082972236822 0.40458613969335172 0 -0.33955069738530769 0.4144169953609998 0 -0.33552343261133938 0.40009846525415782 0 -0.33446828868340289 0.42659298183602629 0 -0.325081577553051 0.41169961094141633 0 -0.33955069738530769 0.4144169953609998 0 -0.33446828868340289 0.42659298183602629 0 -0.325081577553051 0.41169961094141633 0 -0.33955069738530769 0.4144169953609998 0 -0.325081577553051 0.41169961094141633 0 -0.33552343261133938 0.40009846525415782 0 -0.33446828868340289 0.42659298183602629 0 -0.32353211865850812 0.43458959004027897 0 -0.33054677899099522 0.44587833955602901 0 -0.34586475289765162 0.42738691828786168 0 -0.33446828868340289 0.42659298183602629 0 -0.34964894770477822 0.45067928662270329 0 -0.34586475289765162 0.42738691828786168 0 -0.33446828868340289 0.42659298183602629 0 -0.34586475289765162 0.42738691828786168 0 -0.33955069738530769 0.4144169953609998 0 -0.33446828868340289 0.42659298183602629 0 -0.33446828868340289 0.42659298183602629 0 -0.31463215430362917 0.42521109444957261 0 -0.33446828868340289 0.42659298183602629 0 -0.31463215430362917 0.42521109444957261 0 -0.32353211865850812 0.43458959004027897 0 -0.31463215430362917 0.42521109444957261 0 -0.32353211865850812 0.43458959004027897 0 -0.30632691414132052 0.4383163993433048 0 -0.325081577553051 0.41169961094141633 0 -0.31576873897388319 0.39675968105735149 0 -0.30808160252936673 0.4121977433748496 0 -0.31463215430362917 0.42521109444957261 0 -0.325081577553051 0.41169961094141633 0 -0.30808160252936673 0.4121977433748496 0 -0.33446828868340289 0.42659298183602629 0 -0.31463215430362917 0.42521109444957261 0 -0.325081577553051 0.41169961094141633 0 -0.325081577553051 0.41169961094141633 0 -0.31576873897388319 0.39675968105735149 0 -0.33552343261133938 0.40009846525415782 0 -0.325081577553051 0.41169961094141633 0 -0.31576873897388319 0.39675968105735149 0 -0.34862050747833878 0.38874946299455448 0 -0.33552343261133938 0.40009846525415782 0 -0.33393211710626841 0.38433234248782061 0 -0.31576873897388319 0.39675968105735149 0 -0.33552343261133938 0.40009846525415782 0 -0.33393211710626841 0.38433234248782061 0 -0.35209549523865291 0.37190500391828912 0 -0.33393211710626841 0.38433234248782061 0 -0.33508210951592582 0.36870163953731322 0 -0.33393211710626841 0.38433234248782061 0 -0.32091897818789411 0.37757395005697603 0 -0.31576873897388319 0.39675968105735149 0 -0.32091897818789411 0.37757395005697603 0 -0.30732872976294823 0.38353215772995369 0 -0.31576873897388319 0.39675968105735149 0 -0.33393211710626841 0.38433234248782061 0 -0.31576873897388319 0.39675968105735149 0 -0.33393211710626841 0.38433234248782061 0 -0.32091897818789411 0.37757395005697603 0 -0.31229554397435733 0.37005867265250031 0 -0.32091897818789411 0.37757395005697603 0 -0.30732872976294823 0.38353215772995369 0 -0.29896259310319367 0.37025807541310352 0 -0.30732872976294823 0.38353215772995369 0 -0.29700674132229032 0.39540516601558717 0 -0.29896259310319367 0.37025807541310352 0 -0.29700674132229032 0.39540516601558717 0 -0.31576873897388319 0.39675968105735149 0 -0.30732872976294823 0.38353215772995369 0 -0.29896259310319367 0.37025807541310352 0 -0.30732872976294823 0.38353215772995369 0 -0.29700674132229032 0.39540516601558717 0 -0.30259284054109448 0.40478096048040529 0 -0.29641605771867308 0.41403951143914192 0 -0.31576873897388319 0.39675968105735149 0 -0.29700674132229032 0.39540516601558717 0 -0.30259284054109448 0.40478096048040529 0 -0.31576873897388319 0.39675968105735149 0 -0.30732872976294823 0.38353215772995369 0 -0.29700674132229032 0.39540516601558717 0 -0.31576873897388319 0.39675968105735149 0 -0.30259284054109448 0.40478096048040529 0 -0.30808160252936673 0.4121977433748496 0 -0.29700674132229032 0.39540516601558717 0 -0.28209338532393202 0.38222600668133688 0 -0.27839968129949771 0.4031848713431353 0 -0.29896259310319367 0.37025807541310352 0 -0.29700674132229032 0.39540516601558717 0 -0.28209338532393202 0.38222600668133688 0 -0.27169383631612543 0.36953364855257259 0 -0.28209338532393202 0.38222600668133688 0 -0.26324903299479457 0.38988604216182182 0 -0.27839968129949771 0.4031848713431353 0 -0.26324903299479457 0.38988604216182182 0 -0.26044543261494202 0.40722350202507612 0 -0.28209338532393202 0.38222600668133688 0 -0.27839968129949771 0.4031848713431353 0 -0.26324903299479457 0.38988604216182182 0 -0.26324903299479457 0.38988604216182182 0 -0.26044543261494202 0.40722350202507612 0 -0.24448809762487089 0.40050868906775772 0 -0.25717133997193298 0.37426095615225607 0 -0.26324903299479457 0.38988604216182182 0 -0.24074374520667241 0.38242687998337299 0 -0.25717133997193298 0.37426095615225607 0 -0.27169383631612543 0.36953364855257259 0 -0.26324903299479457 0.38988604216182182 0 -0.25382358621835049 0.43542260228310259 0 -0.27015352040741047 0.42211248350195679 0 -0.2459368307481366 0.42042542405070832 0 -0.27015352040741047 0.42211248350195679 0 -0.2459368307481366 0.42042542405070832 0 -0.26044543261494202 0.40722350202507612 0 -0.2459368307481366 0.42042542405070832 0 -0.24448809762487089 0.40050868906775772 0 -0.26044543261494202 0.40722350202507612 0 -0.27015352040741047 0.42211248350195679 0 -0.2459368307481366 0.42042542405070832 0 -0.27839968129949771 0.4031848713431353 0 -0.26044543261494202 0.40722350202507612 0 -0.27015352040741047 0.42211248350195679 0 -0.27839968129949771 0.4031848713431353 0 -0.27015352040741047 0.42211248350195679 0 -0.2950508895413867 0.42055225661807089 0 -0.25382358621835049 0.43542260228310259 0 -0.27015352040741047 0.42211248350195679 0 -0.27451598641054692 0.44016370142941202 0 -0.27015352040741047 0.42211248350195679 0 -0.28251112199335982 0.43211478794536817 0 -0.27451598641054692 0.44016370142941202 0 -0.28251112199335982 0.43211478794536817 0 -0.29479601992385501 0.42382920706312738 0 -0.29069111349206073 0.44135124015641658 0 -0.29479601992385501 0.42382920706312738 0 -0.29069111349206073 0.44135124015641658 0 -0.27015352040741047 0.42211248350195679 0 -0.28251112199335982 0.43211478794536817 0 -0.29479601992385501 0.42382920706312738 0 -0.27015352040741047 0.42211248350195679 0 -0.29479601992385501 0.42382920706312738 0 -0.27015352040741047 0.42211248350195679 0 -0.29479601992385501 0.42382920706312738 0 -0.2950508895413867 0.42055225661807089 0 -0.29479601992385501 0.42382920706312738 0 -0.2950508895413867 0.42055225661807089 0 -0.29700674132229032 0.39540516601558717 0 -0.2950508895413867 0.42055225661807089 0 -0.29641605771867308 0.41403951143914192 0 -0.29700674132229032 0.39540516601558717 0 -0.27839968129949771 0.4031848713431353 0 -0.2950508895413867 0.42055225661807089 0 -0.29700674132229032 0.39540516601558717 0 -0.2950508895413867 0.42055225661807089 0 -0.2950508895413867 0.42055225661807089 0 -0.29641605771867308 0.41403951143914192 0 -0.31463215430362917 0.42521109444957261 0 -0.2950508895413867 0.42055225661807089 0 -0.30808160252936673 0.4121977433748496 0 -0.30259284054109448 0.40478096048040529 0 -0.29641605771867308 0.41403951143914192 0 -0.30808160252936673 0.4121977433748496 0 -0.2950508895413867 0.42055225661807089 0 -0.29641605771867308 0.41403951143914192 0 -0.30808160252936673 0.4121977433748496 0 -0.31463215430362917 0.42521109444957261 0 -0.29479601992385501 0.42382920706312738 0 -0.2950508895413867 0.42055225661807089 0 -0.31463215430362917 0.42521109444957261 0 -0.29479601992385501 0.42382920706312738 0 -0.30632691414132052 0.4383163993433048 0 -0.29479601992385501 0.42382920706312738 0 -0.30632691414132052 0.4383163993433048 0 -0.29069111349206073 0.44135124015641658 0 -0.31463215430362917 0.42521109444957261 0 -0.29479601992385501 0.42382920706312738 0 -0.30632691414132052 0.4383163993433048 0 -0.3106014077299023 0.45452137664490028 0 -0.31918078655937843 0.44538174228416588 0 -0.30632691414132052 0.4383163993433048 0 -0.29796494780926752 0.45236230629258078 0 -0.3106014077299023 0.45452137664490028 0 -0.30632691414132052 0.4383163993433048 0 -0.29796494780926752 0.45236230629258078 0 -0.29069111349206073 0.44135124015641658 0 -0.3106014077299023 0.45452137664490028 0 -0.30192672627001949 0.46374394226332799 0 -0.31684143562260331 0.46858494716702748 0 -0.30192672627001949 0.46374394226332799 0 -0.31684143562260331 0.46858494716702748 0 -0.29796494780926752 0.45236230629258078 0 -0.3106014077299023 0.45452137664490028 0 -0.30192672627001949 0.46374394226332799 0 -0.28701201691743577 0.45890293735962839 0 -0.28352738281579593 0.4755269213664215 0 -0.30192672627001949 0.46374394226332799 0 -0.28701201691743577 0.45890293735962839 0 -0.30030559437380339 0.47420586516231239 0 -0.30192672627001949 0.46374394226332799 0 -0.28701201691743577 0.45890293735962839 0 -0.29796494780926752 0.45236230629258078 0 -0.30192672627001949 0.46374394226332799 0 -0.28701201691743577 0.45890293735962839 0 -0.28701201691743577 0.45890293735962839 0 -0.29069111349206073 0.44135124015641658 0 -0.28701201691743577 0.45890293735962839 0 -0.29069111349206073 0.44135124015641658 0 -0.27451598641054692 0.44016370142941202 0 -0.29796494780926752 0.45236230629258078 0 -0.28701201691743577 0.45890293735962839 0 -0.29069111349206073 0.44135124015641658 0 -0.28251112199335982 0.43211478794536817 0 -0.29069111349206073 0.44135124015641658 0 -0.27451598641054692 0.44016370142941202 0 -0.28701201691743577 0.45890293735962839 0 -0.27451598641054692 0.44016370142941202 0 -0.2629045594346644 0.45107815732999917 0 -0.28701201691743577 0.45890293735962839 0 -0.2629045594346644 0.45107815732999917 0 -0.28701201691743577 0.45890293735962839 0 -0.27023974482395158 0.46466667776273851 0 -0.28352738281579593 0.4755269213664215 0 -0.28701201691743577 0.45890293735962839 0 -0.27023974482395158 0.46466667776273851 0 -0.2629045594346644 0.45107815732999917 0 -0.27023974482395158 0.46466667776273851 0 -0.2629045594346644 0.45107815732999917 0 -0.2489120775907421 0.45611132706247232 0 -0.27023974482395158 0.46466667776273851 0 -0.24576275637927339 0.47027392540463459 0 -0.2489120775907421 0.45611132706247232 0 -0.25382358621835049 0.43542260228310259 0 -0.2629045594346644 0.45107815732999917 0 -0.2387971019518931 0.44325337730036979 0 -0.2629045594346644 0.45107815732999917 0 -0.2387971019518931 0.44325337730036979 0 -0.2629045594346644 0.45107815732999917 0 -0.2387971019518931 0.44325337730036979 0 -0.2489120775907421 0.45611132706247232 0 -0.25382358621835049 0.43542260228310259 0 -0.27451598641054692 0.44016370142941202 0 -0.2629045594346644 0.45107815732999917 0 -0.26267046183496029 0.5 0 -0.26550391405888962 0.48189416376756322 0 -0.24740973726578031 0.48747235416832729 0 -0.26550391405888962 0.48189416376756322 0 -0.24576275637927339 0.47027392540463459 0 -0.24740973726578031 0.48747235416832729 0 -0.27023974482395158 0.46466667776273851 0 -0.26550391405888962 0.48189416376756322 0 -0.24576275637927339 0.47027392540463459 0 -0.27023974482395158 0.46466667776273851 0 -0.26550391405888962 0.48189416376756322 0 -0.28352738281579593 0.4755269213664215 0 -0.26550391405888962 0.48189416376756322 0 -0.28004274871415491 0.49215090537321432 0 -0.28352738281579593 0.4755269213664215 0 -0.26267046183496029 0.5 0 -0.26550391405888962 0.48189416376756322 0 -0.28004274871415491 0.49215090537321432 0 -0.26267046183496029 0.5 0 -0.28004274871415491 0.49215090537321432 0 -0.28977137280097909 0.5 0 -0.28004274871415491 0.49215090537321432 0 -0.29422506909847679 0.48481709335143458 0 -0.28977137280097909 0.5 0 -0.29422506909847679 0.48481709335143458 0 -0.28977137280097909 0.5 0 -0.30059562840125281 0.49523014277448563 0 -0.29422506909847679 0.48481709335143458 0 -0.28352738281579593 0.4755269213664215 0 -0.30030559437380339 0.47420586516231239 0 -0.28004274871415491 0.49215090537321432 0 -0.29422506909847679 0.48481709335143458 0 -0.28352738281579593 0.4755269213664215 0 -0.28701201691743577 0.45890293735962839 0 -0.28352738281579593 0.4755269213664215 0 -0.30030559437380339 0.47420586516231239 0 -0.28004274871415491 0.49215090537321432 0 -0.28352738281579593 0.4755269213664215 0 -0.30192672627001949 0.46374394226332799 0 -0.30030559437380339 0.47420586516231239 0 -0.31684143562260331 0.46858494716702748 0 -0.30030559437380339 0.47420586516231239 0 -0.3087338265938282 0.48140676030859753 0 -0.31684143562260331 0.46858494716702748 0 -0.29422506909847679 0.48481709335143458 0 -0.30030559437380339 0.47420586516231239 0 -0.3087338265938282 0.48140676030859753 0 -0.28977137280097909 0.5 0 -0.30059562840125281 0.49523014277448563 0 -0.31687228376699761 0.5 0 -0.3087338265938282 0.48140676030859753 0 -0.30059562840125281 0.49523014277448563 0 -0.32200695450955369 0.48840862565278359 0 -0.30059562840125281 0.49523014277448563 0 -0.32200695450955369 0.48840862565278359 0 -0.29422506909847679 0.48481709335143458 0 -0.3087338265938282 0.48140676030859753 0 -0.30059562840125281 0.49523014277448563 0 -0.30059562840125281 0.49523014277448563 0 -0.31687228376699761 0.5 0 -0.32200695450955369 0.48840862565278359 0 -0.31687228376699761 0.5 0 -0.32200695450955369 0.48840862565278359 0 -0.33307541777069588 0.49179723018598798 0 -0.32200695450955369 0.48840862565278359 0 -0.34341828061785462 0.48158710853108161 0 -0.32200695450955369 0.48840862565278359 0 -0.33307541777069588 0.49179723018598798 0 -0.34341828061785462 0.48158710853108161 0 -0.33307541777069588 0.49179723018598798 0 -0.34341828061785462 0.48158710853108161 0 -0.34397319473301619 0.5 0 -0.31687228376699761 0.5 0 -0.33307541777069588 0.49179723018598798 0 -0.34397319473301619 0.5 0 -0.32200695450955369 0.48840862565278359 0 -0.34341828061785462 0.48158710853108161 0 -0.32987443399239552 0.47516769423785971 0 -0.34341828061785462 0.48158710853108161 0 -0.32987443399239552 0.47516769423785971 0 -0.34602126269748001 0.46829680282094799 0 -0.32987443399239552 0.47516769423785971 0 -0.31870391104731738 0.47862303310617538 0 -0.31684143562260331 0.46858494716702748 0 -0.32200695450955369 0.48840862565278359 0 -0.32987443399239552 0.47516769423785971 0 -0.31870391104731738 0.47862303310617538 0 -0.3087338265938282 0.48140676030859753 0 -0.32200695450955369 0.48840862565278359 0 -0.31870391104731738 0.47862303310617538 0 -0.3087338265938282 0.48140676030859753 0 -0.31870391104731738 0.47862303310617538 0 -0.31684143562260331 0.46858494716702748 0 -0.31684143562260331 0.46858494716702748 0 -0.32297313966047753 0.4563916054492167 0 -0.33347739267942988 0.46163483110378051 0 -0.32987443399239552 0.47516769423785971 0 -0.31684143562260331 0.46858494716702748 0 -0.33347739267942988 0.46163483110378051 0 -0.3106014077299023 0.45452137664490028 0 -0.31684143562260331 0.46858494716702748 0 -0.32297313966047753 0.4563916054492167 0 -0.32353211865850812 0.43458959004027897 0 -0.30632691414132052 0.4383163993433048 0 -0.31918078655937843 0.44538174228416588 0 -0.3106014077299023 0.45452137664490028 0 -0.32297313966047753 0.4563916054492167 0 -0.31918078655937843 0.44538174228416588 0 -0.32297313966047753 0.4563916054492167 0 -0.31918078655937843 0.44538174228416588 0 -0.33054677899099522 0.44587833955602901 0 -0.32353211865850812 0.43458959004027897 0 -0.31918078655937843 0.44538174228416588 0 -0.33054677899099522 0.44587833955602901 0 -0.33054677899099522 0.44587833955602901 0 -0.33347739267942988 0.46163483110378051 0 -0.34964894770477822 0.45067928662270329 0 -0.33446828868340289 0.42659298183602629 0 -0.34964894770477822 0.45067928662270329 0 -0.33446828868340289 0.42659298183602629 0 -0.33054677899099522 0.44587833955602901 0 -0.34964894770477822 0.45067928662270329 0 -0.32297313966047753 0.4563916054492167 0 -0.33054677899099522 0.44587833955602901 0 -0.33347739267942988 0.46163483110378051 0 -0.33347739267942988 0.46163483110378051 0 -0.34602126269748001 0.46829680282094799 0 -0.34964894770477822 0.45067928662270329 0 -0.32987443399239552 0.47516769423785971 0 -0.33347739267942988 0.46163483110378051 0 -0.34602126269748001 0.46829680282094799 0 -0.34964894770477822 0.45067928662270329 0 -0.36482960672615539 0.47476559140937902 0 -0.34602126269748001 0.46829680282094799 0 -0.34964894770477822 0.45067928662270329 0 -0.36482960672615539 0.47476559140937902 0 -0.37388199021079188 0.43349662060099697 0 -0.35906691460358248 0.43302642702751659 0 -0.37006527051019528 0.45259743283909409 0 -0.35906691460358248 0.43302642702751659 0 -0.34964894770477822 0.45067928662270329 0 -0.37006527051019528 0.45259743283909409 0 -0.34964894770477822 0.45067928662270329 0 -0.37006527051019528 0.45259743283909409 0 -0.36482960672615539 0.47476559140937902 0 -0.39197467039505129 0.46611734068214988 0 -0.36580706476392733 0.47631646954851292 0 -0.36482960672615539 0.47476559140937902 0 -0.38413367002432852 0.48466820949397371 0 -0.36580706476392733 0.47631646954851292 0 -0.36922226322768142 0.48798439540463678 0 -0.36580706476392733 0.47631646954851292 0 -0.36482960672615539 0.47476559140937902 0 -0.36580706476392733 0.47631646954851292 0 -0.36011621247549508 0.48220740160321018 0 -0.36922226322768142 0.48798439540463678 0 -0.36580706476392733 0.47631646954851292 0 -0.36482960672615539 0.47476559140937902 0 -0.36011621247549508 0.48220740160321018 0 -0.38413367002432852 0.48466820949397371 0 -0.36922226322768142 0.48798439540463678 0 -0.37107410569903487 0.5 0 -0.36922226322768142 0.48798439540463678 0 -0.37107410569903487 0.5 0 -0.35730384704185653 0.49038344312244059 0 -0.36011621247549508 0.48220740160321018 0 -0.36922226322768142 0.48798439540463678 0 -0.35730384704185653 0.49038344312244059 0 -0.34341828061785462 0.48158710853108161 0 -0.36011621247549508 0.48220740160321018 0 -0.35730384704185653 0.49038344312244059 0 -0.37107410569903487 0.5 0 -0.35730384704185653 0.49038344312244059 0 -0.34397319473301619 0.5 0 -0.34341828061785462 0.48158710853108161 0 -0.35730384704185653 0.49038344312244059 0 -0.34397319473301619 0.5 0 -0.34341828061785462 0.48158710853108161 0 -0.36482960672615539 0.47476559140937902 0 -0.36011621247549508 0.48220740160321018 0 -0.34341828061785462 0.48158710853108161 0 -0.34602126269748001 0.46829680282094799 0 -0.36482960672615539 0.47476559140937902 0 -0.34341828061785462 0.48158710853108161 0 -0.36482960672615539 0.47476559140937902 0 -0.14108182703901029 0.47856052106912539 0 -0.15218575011213231 0.48928026053456308 0 -0.15838645381207381 0.47784012782054008 0 -0.14108182703901029 0.47856052106912539 0 -0.15141758041572639 0.46790752156545012 0 -0.15838645381207381 0.47784012782054008 0 -0.14108182703901029 0.47856052106912539 0 -0.15218575011213231 0.48928026053456308 0 -0.14103512141071931 0.48261116844817892 0 -0.14108182703901029 0.47856052106912539 0 -0.15218575011213231 0.48928026053456308 0 -0.14103512141071931 0.48261116844817892 0 -0.14108182703901029 0.47856052106912539 0 -0.15218575011213231 0.48928026053456308 0 -0.14247376316698551 0.5 0 -0.1632896731852537 0.50000000000000155 0 -0.15218575011213231 0.48928026053456308 0 -0.14247376316698551 0.5 0 -0.14194011071192181 0.49099964735320722 0 -0.14103512141071931 0.48261116844817892 0 -0.15218575011213231 0.48928026053456308 0 -0.14194011071192181 0.49099964735320722 0 -0.14247376316698551 0.5 0 -0.13206580815784999 0.49210716043008701 0 -0.1216578531487173 0.50000000000000155 0 -0.13206580815784999 0.49210716043008701 0 -0.1215246548466888 0.48036061179670092 0 -0.1216578531487173 0.50000000000000155 0 -0.14103512141071931 0.48261116844817892 0 -0.13206580815784999 0.49210716043008701 0 -0.1215246548466888 0.48036061179670092 0 -0.14103512141071931 0.48261116844817892 0 -0.14194011071192181 0.49099964735320722 0 -0.13206580815784999 0.49210716043008701 0 -0.14247376316698551 0.5 0 -0.14194011071192181 0.49099964735320722 0 -0.13206580815784999 0.49210716043008701 0 -0.14103512141071931 0.48261116844817892 0 -0.14108182703901029 0.47856052106912539 0 -0.1215246548466888 0.48036061179670092 0 -0.14108182703901029 0.47856052106912539 0 -0.11987972175203609 0.45809198546251739 0 -0.1215246548466888 0.48036061179670092 0 -0.14108182703901029 0.47856052106912539 0 -0.14131813266979709 0.45806640035822538 0 -0.11987972175203609 0.45809198546251739 0 -0.14108182703901029 0.47856052106912539 0 -0.11987972175203609 0.45809198546251739 0 -0.12509104342100061 0.44188941827772182 0 -0.14131813266979709 0.45806640035822538 0 -0.11987972175203609 0.45809198546251739 0 -0.12509104342100061 0.44188941827772182 0 -0.14155443830058789 0.43757227964732542 0 -0.14131813266979709 0.45806640035822538 0 -0.14155443830058789 0.43757227964732542 0 -0.1590732886589914 0.44456462379371309 0 -0.14157918638415079 0.43542594817740249 0 -0.1590732886589914 0.44456462379371309 0 -0.1665175895587078 0.4467511244817659 0 -0.14157918638415079 0.43542594817740249 0 -0.1665175895587078 0.4467511244817659 0 -0.15486041744653839 0.43233395996053492 0 -0.14157918638415079 0.43542594817740249 0 -0.14155443830058789 0.43757227964732542 0 -0.14890115189103559 0.44846787442591368 0 -0.1590732886589914 0.44456462379371309 0 -0.1665175895587078 0.4467511244817659 0 -0.14157918638415079 0.43542594817740249 0 -0.14155443830058789 0.43757227964732542 0 -0.14890115189103559 0.44846787442591368 0 -0.14131813266979709 0.45806640035822538 0 -0.14155443830058789 0.43757227964732542 0 -0.1590732886589914 0.44456462379371309 0 -0.14155443830058789 0.43757227964732542 0 -0.14131813266979709 0.45806640035822538 0 -0.14890115189103559 0.44846787442591368 0 -0.15489186999573309 0.45643812449532861 0 -0.1590732886589914 0.44456462379371309 0 -0.14108182703901029 0.47856052106912539 0 -0.14131813266979709 0.45806640035822538 0 -0.14108182703901029 0.47856052106912539 0 -0.14131813266979709 0.45806640035822538 0 -0.15141758041572639 0.46790752156545012 0 -0.14890115189103559 0.44846787442591368 0 -0.14131813266979709 0.45806640035822538 0 -0.15489186999573309 0.45643812449532861 0 -0.14131813266979709 0.45806640035822538 0 -0.15489186999573309 0.45643812449532861 0 -0.15141758041572639 0.46790752156545012 0 -0.15489186999573309 0.45643812449532861 0 -0.15141758041572639 0.46790752156545012 0 -0.1637083375647361 0.46571847743475431 0 -0.15489186999573309 0.45643812449532861 0 -0.1637083375647361 0.46571847743475431 0 -0.16576602081972819 0.45650349861697093 0 -0.1637083375647361 0.46571847743475431 0 -0.1745644688617857 0.46423929942095737 0 -0.17520348646433229 0.47613194070040032 0 -0.1637083375647361 0.46571847743475431 0 -0.16576602081972819 0.45650349861697093 0 -0.1745644688617857 0.46423929942095737 0 -0.1590732886589914 0.44456462379371309 0 -0.17659213901739471 0.45155696794010108 0 -0.1590732886589914 0.44456462379371309 0 -0.1665175895587078 0.4467511244817659 0 -0.17659213901739471 0.45155696794010108 0 -0.16576602081972819 0.45650349861697093 0 -0.1590732886589914 0.44456462379371309 0 -0.17659213901739471 0.45155696794010108 0 -0.1665175895587078 0.4467511244817659 0 -0.1659354897241099 0.43449929542802312 0 -0.15486041744653839 0.43233395996053492 0 -0.15489186999573309 0.45643812449532861 0 -0.16576602081972819 0.45650349861697093 0 -0.1590732886589914 0.44456462379371309 0 -0.1665175895587078 0.4467511244817659 0 -0.1740586998674569 0.43899754936367941 0 -0.1659354897241099 0.43449929542802312 0 -0.1740586998674569 0.43899754936367941 0 -0.17659213901739471 0.45155696794010108 0 -0.1868590329817707 0.43357197228301869 0 -0.1665175895587078 0.4467511244817659 0 -0.1740586998674569 0.43899754936367941 0 -0.17659213901739471 0.45155696794010108 0 -0.1745644688617857 0.46423929942095737 0 -0.18738907724301901 0.4651958722260251 0 -0.17520348646433229 0.47613194070040032 0 -0.17659213901739471 0.45155696794010108 0 -0.1745644688617857 0.46423929942095737 0 -0.18738907724301901 0.4651958722260251 0 -0.16576602081972819 0.45650349861697093 0 -0.17659213901739471 0.45155696794010108 0 -0.1745644688617857 0.46423929942095737 0 -0.17520348646433229 0.47613194070040032 0 -0.17737148462513211 0.4885994124146576 0 -0.1949767913905355 0.48049775525153071 0 -0.18738907724301901 0.4651958722260251 0 -0.17520348646433229 0.47613194070040032 0 -0.1949767913905355 0.48049775525153071 0 -0.17520348646433229 0.47613194070040032 0 -0.1660045063390565 0.48636736612135473 0 -0.17737148462513211 0.4885994124146576 0 -0.17520348646433229 0.47613194070040032 0 -0.15838645381207381 0.47784012782054008 0 -0.1660045063390565 0.48636736612135473 0 -0.1637083375647361 0.46571847743475431 0 -0.17520348646433229 0.47613194070040032 0 -0.15838645381207381 0.47784012782054008 0 -0.15141758041572639 0.46790752156545012 0 -0.1637083375647361 0.46571847743475431 0 -0.15838645381207381 0.47784012782054008 0 -0.15218575011213231 0.48928026053456308 0 -0.1632896731852537 0.50000000000000155 0 -0.15218575011213231 0.48928026053456308 0 -0.15838645381207381 0.47784012782054008 0 -0.1660045063390565 0.48636736612135473 0 -0.15218575011213231 0.48928026053456308 0 -0.1632896731852537 0.50000000000000155 0 -0.1660045063390565 0.48636736612135473 0 -0.1632896731852537 0.50000000000000155 0 -0.1660045063390565 0.48636736612135473 0 -0.17737148462513211 0.4885994124146576 0 -0.1632896731852537 0.50000000000000155 0 -0.18738296574648311 0.5 0 -0.17737148462513211 0.4885994124146576 0 -0.18738296574648311 0.5 0 -0.17737148462513211 0.4885994124146576 0 -0.1949767913905355 0.48049775525153071 0 -0.18738296574648311 0.5 0 -0.1949767913905355 0.48049775525153071 0 -0.21147625830771241 0.5 0 -0.1949767913905355 0.48049775525153071 0 -0.2193327115732171 0.47785732409434201 0 -0.2030958722774939 0.45571464818868052 0 -0.1949767913905355 0.48049775525153071 0 -0.21147625830771241 0.5 0 -0.2193327115732171 0.47785732409434201 0 -0.21147625830771241 0.5 0 -0.2193327115732171 0.47785732409434201 0 -0.23556955086894171 0.50000000000000278 0 -0.2193327115732171 0.47785732409434201 0 -0.24740973726578031 0.48747235416832729 0 -0.23556955086894171 0.50000000000000278 0 -0.2193327115732171 0.47785732409434201 0 -0.23556955086894171 0.50000000000000278 0 -0.2193327115732171 0.47785732409434201 0 -0.24576275637927339 0.47027392540463459 0 -0.24740973726578031 0.48747235416832729 0 -0.26267046183496029 0.5 0 -0.24740973726578031 0.48747235416832729 0 -0.23556955086894171 0.50000000000000278 0 -0.2387971019518931 0.44325337730036979 0 -0.2489120775907421 0.45611132706247232 0 -0.22784244863720851 0.45419089524536999 0 -0.24576275637927339 0.47027392540463459 0 -0.2489120775907421 0.45611132706247232 0 -0.22784244863720851 0.45419089524536999 0 -0.2193327115732171 0.47785732409434201 0 -0.24576275637927339 0.47027392540463459 0 -0.22784244863720851 0.45419089524536999 0 -0.2387971019518931 0.44325337730036979 0 -0.22784244863720851 0.45419089524536999 0 -0.22695118484456259 0.43760496865691229 0 -0.22784244863720851 0.45419089524536999 0 -0.22695118484456259 0.43760496865691229 0 -0.21077827595677989 0.43843038173964088 0 -0.2387971019518931 0.44325337730036979 0 -0.22695118484456259 0.43760496865691229 0 -0.23717077667227929 0.4322920750106754 0 -0.22784244863720851 0.45419089524536999 0 -0.21077827595677989 0.43843038173964088 0 -0.2030958722774939 0.45571464818868052 0 -0.2193327115732171 0.47785732409434201 0 -0.22784244863720851 0.45419089524536999 0 -0.2030958722774939 0.45571464818868052 0 -0.2193327115732171 0.47785732409434201 0 -0.2030958722774939 0.45571464818868052 0 -0.18738907724301901 0.4651958722260251 0 -0.1949767913905355 0.48049775525153071 0 -0.2030958722774939 0.45571464818868052 0 -0.17659213901739471 0.45155696794010108 0 -0.18738907724301901 0.4651958722260251 0 -0.2030958722774939 0.45571464818868052 0 -0.17659213901739471 0.45155696794010108 0 -0.2030958722774939 0.45571464818868052 0 -0.1868590329817707 0.43357197228301869 0 -0.21077827595677989 0.43843038173964088 0 -0.2030958722774939 0.45571464818868052 0 -0.1868590329817707 0.43357197228301869 0 -0.2030958722774939 0.45571464818868052 0 -0.1868590329817707 0.43357197228301869 0 -0.21077827595677989 0.43843038173964088 0 -0.20038953475864499 0.42285930103310698 0 -0.1868590329817707 0.43357197228301869 0 -0.20038953475864499 0.42285930103310698 0 -0.18865851951403981 0.41114723081592358 0 -0.1868590329817707 0.43357197228301869 0 -0.20038953475864499 0.42285930103310698 0 -0.18865851951403981 0.41114723081592358 0 -0.20316386533702549 0.40742415296633488 0 -0.20038953475864499 0.42285930103310698 0 -0.20316386533702549 0.40742415296633488 0 -0.22016732100465239 0.41985811398850509 0 -0.20316386533702549 0.40742415296633488 0 -0.22016732100465239 0.41985811398850509 0 -0.21769018938602511 0.40540249138439582 0 -0.20316386533702549 0.40742415296633488 0 -0.22016732100465239 0.41985811398850509 0 -0.21077827595677989 0.43843038173964088 0 -0.20038953475864499 0.42285930103310698 0 -0.22016732100465239 0.41985811398850509 0 -0.22695118484456259 0.43760496865691229 0 -0.22016732100465239 0.41985811398850509 0 -0.23717077667227929 0.4322920750106754 0 -0.22695118484456259 0.43760496865691229 0 -0.21077827595677989 0.43843038173964088 0 -0.22016732100465239 0.41985811398850509 0 -0.22016732100465239 0.41985811398850509 0 -0.23358788463652869 0.41983625247023992 0 -0.23717077667227929 0.4322920750106754 0 -0.22016732100465239 0.41985811398850509 0 -0.23717077667227929 0.4322920750106754 0 -0.22016732100465239 0.41985811398850509 0 -0.23115288141678619 0.40759276862782062 0 -0.21769018938602511 0.40540249138439582 0 -0.22016732100465239 0.41985811398850509 0 -0.23115288141678619 0.40759276862782062 0 -0.23358788463652869 0.41983625247023992 0 -0.23115288141678619 0.40759276862782062 0 -0.2459368307481366 0.42042542405070832 0 -0.24448809762487089 0.40050868906775772 0 -0.23115288141678619 0.40759276862782062 0 -0.23358788463652869 0.41983625247023992 0 -0.2459368307481366 0.42042542405070832 0 -0.25382358621835049 0.43542260228310259 0 -0.2459368307481366 0.42042542405070832 0 -0.23717077667227929 0.4322920750106754 0 -0.25382358621835049 0.43542260228310259 0 -0.2387971019518931 0.44325337730036979 0 -0.23717077667227929 0.4322920750106754 0 -0.23358788463652869 0.41983625247023992 0 -0.2459368307481366 0.42042542405070832 0 -0.23717077667227929 0.4322920750106754 0 -0.26324903299479457 0.38988604216182182 0 -0.24074374520667241 0.38242687998337299 0 -0.24448809762487089 0.40050868906775772 0 -0.24074374520667241 0.38242687998337299 0 -0.24448809762487089 0.40050868906775772 0 -0.22634736018434309 0.39356380059118778 0 -0.23115288141678619 0.40759276862782062 0 -0.24448809762487089 0.40050868906775772 0 -0.22634736018434309 0.39356380059118778 0 -0.23115288141678619 0.40759276862782062 0 -0.22634736018434309 0.39356380059118778 0 -0.21769018938602511 0.40540249138439582 0 -0.24074374520667241 0.38242687998337299 0 -0.22634736018434309 0.39356380059118778 0 -0.21798062289891881 0.38062313327343511 0 -0.24074374520667241 0.38242687998337299 0 -0.21798062289891881 0.38062313327343511 0 -0.22441740966967141 0.36662202833489849 0 -0.21798062289891881 0.38062313327343511 0 -0.2053182195646632 0.38898911660535768 0 -0.20402060209966261 0.36833430411321649 0 -0.22634736018434309 0.39356380059118778 0 -0.21798062289891881 0.38062313327343511 0 -0.2053182195646632 0.38898911660535768 0 -0.22634736018434309 0.39356380059118778 0 -0.2053182195646632 0.38898911660535768 0 -0.21769018938602511 0.40540249138439582 0 -0.20316386533702549 0.40742415296633488 0 -0.2053182195646632 0.38898911660535768 0 -0.21769018938602511 0.40540249138439582 0 -0.20316386533702549 0.40742415296633488 0 -0.2053182195646632 0.38898911660535768 0 -0.18616040966939809 0.39499019194416529 0 -0.20316386533702549 0.40742415296633488 0 -0.18616040966939809 0.39499019194416529 0 -0.18865851951403981 0.41114723081592358 0 -0.20316386533702549 0.40742415296633488 0 -0.18616040966939809 0.39499019194416529 0 -0.2053182195646632 0.38898911660535768 0 -0.1927326532436788 0.38193994064591369 0 -0.18616040966939809 0.39499019194416529 0 -0.2053182195646632 0.38898911660535768 0 -0.1927326532436788 0.38193994064591369 0 -0.20402060209966261 0.36833430411321649 0 -0.1927326532436788 0.38193994064591369 0 -0.18374665136976759 0.37937871402705908 0 -0.18616040966939809 0.39499019194416529 0 -0.1744309637910503 0.37769149803556362 0 -0.1642142843906749 0.3789418502636645 0 -0.1838985270783616 0.39091510453828221 0 -0.1642142843906749 0.3789418502636645 0 -0.18616040966939809 0.39499019194416529 0 -0.1838985270783616 0.39091510453828221 0 -0.1927326532436788 0.38193994064591369 0 -0.18374665136976759 0.37937871402705908 0 -0.18362379452965399 0.37004657989153639 0 -0.18374665136976759 0.37937871402705908 0 -0.1744309637910503 0.37769149803556362 0 -0.1838985270783616 0.39091510453828221 0 -0.1642142843906749 0.3789418502636645 0 -0.18616040966939809 0.39499019194416529 0 -0.18374665136976759 0.37937871402705908 0 -0.1744309637910503 0.37769149803556362 0 -0.18362379452965399 0.37004657989153639 0 -0.18374665136976759 0.37937871402705908 0 -0.18616040966939809 0.39499019194416529 0 -0.18374665136976759 0.37937871402705908 0 -0.1838985270783616 0.39091510453828221 0 -0.18374665136976759 0.37937871402705908 0 -0.18616040966939809 0.39499019194416529 0 -0.1838985270783616 0.39091510453828221 0 -0.1642142843906749 0.3789418502636645 0 -0.1639919076143399 0.3974747808383628 0 -0.1489802686125267 0.38257497248127392 0 -0.1642142843906749 0.3789418502636645 0 -0.1639919076143399 0.3974747808383628 0 -0.18616040966939809 0.39499019194416529 0 -0.1744309637910503 0.37769149803556362 0 -0.1642142843906749 0.3789418502636645 0 -0.15874130784498061 0.37213542046662212 0 -0.1639919076143399 0.3974747808383628 0 -0.17750104491285451 0.40432040146684922 0 -0.17119334285363949 0.41366940226894577 0 -0.18865851951403981 0.41114723081592358 0 -0.18616040966939809 0.39499019194416529 0 -0.18865851951403981 0.41114723081592358 0 -0.17750104491285451 0.40432040146684922 0 -0.18616040966939809 0.39499019194416529 0 -0.1639919076143399 0.3974747808383628 0 -0.17750104491285451 0.40432040146684922 0 -0.18616040966939809 0.39499019194416529 0 -0.18865851951403981 0.41114723081592358 0 -0.17750104491285451 0.40432040146684922 0 -0.17119334285363949 0.41366940226894577 0 -0.18865851951403981 0.41114723081592358 0 -0.17459283461559361 0.42601523789076512 0 -0.17119334285363949 0.41366940226894577 0 -0.18865851951403981 0.41114723081592358 0 -0.1868590329817707 0.43357197228301869 0 -0.17459283461559361 0.42601523789076512 0 -0.1740586998674569 0.43899754936367941 0 -0.1868590329817707 0.43357197228301869 0 -0.17459283461559361 0.42601523789076512 0 -0.1740586998674569 0.43899754936367941 0 -0.17459283461559361 0.42601523789076512 0 -0.1659354897241099 0.43449929542802312 0 -0.17459283461559361 0.42601523789076512 0 -0.1659354897241099 0.43449929542802312 0 -0.16085192275254509 0.42420597718500008 0 -0.1659354897241099 0.43449929542802312 0 -0.16085192275254509 0.42420597718500008 0 -0.15486041744653839 0.43233395996053492 0 -0.1639919076143399 0.3974747808383628 0 -0.17119334285363949 0.41366940226894577 0 -0.1558060921739825 0.41026488178479492 0 -0.17459283461559361 0.42601523789076512 0 -0.16085192275254509 0.42420597718500008 0 -0.17119334285363949 0.41366940226894577 0 -0.16085192275254509 0.42420597718500008 0 -0.17119334285363949 0.41366940226894577 0 -0.1558060921739825 0.41026488178479492 0 -0.1558060921739825 0.41026488178479492 0 -0.1418117271851779 0.41525834053060801 0 -0.14204426798620681 0.39509073288381358 0 -0.16085192275254509 0.42420597718500008 0 -0.1558060921739825 0.41026488178479492 0 -0.1418117271851779 0.41525834053060801 0 -0.1418117271851779 0.41525834053060801 0 -0.14157918638415079 0.43542594817740249 0 -0.16085192275254509 0.42420597718500008 0 -0.1418117271851779 0.41525834053060801 0 -0.15486041744653839 0.43233395996053492 0 -0.1418117271851779 0.41525834053060801 0 -0.15486041744653839 0.43233395996053492 0 -0.14157918638415079 0.43542594817740249 0 -0.14155443830058789 0.43757227964732542 0 -0.14157918638415079 0.43542594817740249 0 -0.14155443830058789 0.43757227964732542 0 -0.14157918638415079 0.43542594817740249 0 -0.12025274126089 0.42574105579372712 0 -0.14155443830058789 0.43757227964732542 0 -0.1161249595423428 0.42742254588607831 0 -0.14157918638415079 0.43542594817740249 0 -0.12025274126089 0.42574105579372712 0 -0.1418117271851779 0.41525834053060801 0 -0.14157918638415079 0.43542594817740249 0 -0.12025274126089 0.42574105579372712 0 -0.14155443830058789 0.43757227964732542 0 -0.12025274126089 0.42574105579372712 0 -0.1161249595423428 0.42742254588607831 0 -0.12509104342100061 0.44188941827772182 0 -0.14155443830058789 0.43757227964732542 0 -0.1161249595423428 0.42742254588607831 0 -0.1418117271851779 0.41525834053060801 0 -0.1277268958593005 0.40709158096490278 0 -0.12025274126089 0.42574105579372712 0 -0.1418117271851779 0.41525834053060801 0 -0.1277268958593005 0.40709158096490278 0 -0.14204426798620681 0.39509073288381358 0 -0.1277268958593005 0.40709158096490278 0 -0.14204426798620681 0.39509073288381358 0 -0.1224972888069677 0.39405447109156733 0 -0.13238272395945991 0.37847398983736519 0 -0.1224972888069677 0.39405447109156733 0 -0.13238272395945991 0.37847398983736519 0 -0.14204426798620681 0.39509073288381358 0 -0.1224972888069677 0.39405447109156733 0 -0.13238272395945991 0.37847398983736519 0 -0.1489802686125267 0.38257497248127392 0 -0.14204426798620681 0.39509073288381358 0 -0.1639919076143399 0.3974747808383628 0 -0.1558060921739825 0.41026488178479492 0 -0.14204426798620681 0.39509073288381358 0 -0.1639919076143399 0.3974747808383628 0 -0.1489802686125267 0.38257497248127392 0 -0.14204426798620681 0.39509073288381358 0 -0.1418117271851779 0.41525834053060801 0 -0.14204426798620681 0.39509073288381358 0 -0.15552397359905151 0.35856797270850038 0 -0.1422681591119519 0.36289350858316322 0 -0.15574239997404821 0.34165669361972989 0 -0.1422681591119519 0.36289350858316322 0 -0.15574239997404821 0.34165669361972989 0 -0.13774544015442541 0.3595862213862932 0 -0.1344905665345571 0.34689990383467079 0 -0.15574239997404821 0.34165669361972989 0 -0.1422681591119519 0.36289350858316322 0 -0.13774544015442541 0.3595862213862932 0 -0.15574239997404821 0.34165669361972989 0 -0.1642142843906749 0.3789418502636645 0 -0.1422681591119519 0.36289350858316322 0 -0.13238272395945991 0.37847398983736519 0 -0.1489802686125267 0.38257497248127392 0 -0.1422681591119519 0.36289350858316322 0 -0.1642142843906749 0.3789418502636645 0 -0.1422681591119519 0.36289350858316322 0 -0.15874130784498061 0.37213542046662212 0 -0.1642142843906749 0.3789418502636645 0 -0.1489802686125267 0.38257497248127392 0 -0.1422681591119519 0.36289350858316322 0 -0.15552397359905151 0.35856797270850038 0 -0.1422681591119519 0.36289350858316322 0 -0.15874130784498061 0.37213542046662212 0 -0.1422681591119519 0.36289350858316322 0 -0.13774544015442541 0.3595862213862932 0 -0.12881796099468981 0.36725667352730101 0 -0.13238272395945991 0.37847398983736519 0 -0.12881796099468981 0.36725667352730101 0 -0.114951385737499 0.37611001703161828 0 -0.1422681591119519 0.36289350858316322 0 -0.13774544015442541 0.3595862213862932 0 -0.13238272395945991 0.37847398983736519 0 -0.1422681591119519 0.36289350858316322 0 -0.13238272395945991 0.37847398983736519 0 -0.1422681591119519 0.36289350858316322 0 -0.12881796099468981 0.36725667352730101 0 -0.13774544015442541 0.3595862213862932 0 -0.12881796099468981 0.36725667352730101 0 -0.13085154266849261 0.35745626259395852 0 -0.12881796099468981 0.36725667352730101 0 -0.13085154266849261 0.35745626259395852 0 -0.1223522029902982 0.35608225162756879 0 -0.13085154266849261 0.35745626259395852 0 -0.1344905665345571 0.34689990383467079 0 -0.1223522029902982 0.35608225162756879 0 -0.1344905665345571 0.34689990383467079 0 -0.1215793900664241 0.33965542352680428 0 -0.1223522029902982 0.35608225162756879 0 -0.13774544015442541 0.3595862213862932 0 -0.13085154266849261 0.35745626259395852 0 -0.1344905665345571 0.34689990383467079 0 -0.13871584827508379 0.32805163350527011 0 -0.1213981112161233 0.32606083512094008 0 -0.1215793900664241 0.33965542352680428 0 -0.1344905665345571 0.34689990383467079 0 -0.13871584827508379 0.32805163350527011 0 -0.1215793900664241 0.33965542352680428 0 -0.13871584827508379 0.32805163350527011 0 -0.122665507124936 0.30739316482981133 0 -0.1213981112161233 0.32606083512094008 0 -0.13871584827508379 0.32805163350527011 0 -0.1433184724342442 0.30536206331891741 0 -0.122665507124936 0.30739316482981133 0 -0.13871584827508379 0.32805163350527011 0 -0.1692166408361446 0.32041987865629651 0 -0.1433184724342442 0.30536206331891741 0 -0.1344905665345571 0.34689990383467079 0 -0.13871584827508379 0.32805163350527011 0 -0.15574239997404821 0.34165669361972989 0 -0.13871584827508379 0.32805163350527011 0 -0.15574239997404821 0.34165669361972989 0 -0.1692166408361446 0.32041987865629651 0 -0.15574239997404821 0.34165669361972989 0 -0.16882657531294051 0.33343050367394028 0 -0.16727942812343491 0.34541839291957183 0 -0.16882657531294051 0.33343050367394028 0 -0.1740652221397718 0.31676208059972089 0 -0.17253785706623809 0.33742704001517521 0 -0.15574239997404821 0.34165669361972989 0 -0.1692166408361446 0.32041987865629651 0 -0.15574239997404821 0.34165669361972989 0 -0.16882657531294051 0.33343050367394028 0 -0.1692166408361446 0.32041987865629651 0 -0.17253785706623809 0.33742704001517521 0 -0.17248005025835489 0.34536210115862542 0 -0.16727942812343491 0.34541839291957183 0 -0.16882657531294051 0.33343050367394028 0 -0.17253785706623809 0.33742704001517521 0 -0.16727942812343491 0.34541839291957183 0 -0.16882657531294051 0.33343050367394028 0 -0.1692166408361446 0.32041987865629651 0 -0.1740652221397718 0.31676208059972089 0 -0.18300185264204469 0.32280423575908729 0 -0.1740652221397718 0.31676208059972089 0 -0.17819295282042311 0.34345902717413063 0 -0.18300185264204469 0.32280423575908729 0 -0.1740652221397718 0.31676208059972089 0 -0.18269088169824049 0.29918306369286279 0 -0.18300185264204469 0.32280423575908729 0 -0.17819295282042311 0.34345902717413063 0 -0.18331282358584941 0.34642540782531189 0 -0.1740652221397718 0.31676208059972089 0 -0.17819295282042311 0.34345902717413063 0 -0.1740652221397718 0.31676208059972089 0 -0.17253785706623809 0.33742704001517521 0 -0.17819295282042311 0.34345902717413063 0 -0.18300185264204469 0.32280423575908729 0 -0.18331282358584941 0.34642540782531189 0 -0.17253785706623809 0.33742704001517521 0 -0.17819295282042311 0.34345902717413063 0 -0.17248005025835489 0.34536210115862542 0 -0.17819295282042311 0.34345902717413063 0 -0.17266476351591969 0.35237730914779941 0 -0.18362379452965399 0.37004657989153639 0 -0.17819295282042311 0.34345902717413063 0 -0.18331282358584941 0.34642540782531189 0 -0.18362379452965399 0.37004657989153639 0 -0.17819295282042311 0.34345902717413063 0 -0.18362379452965399 0.37004657989153639 0 -0.18331282358584941 0.34642540782531189 0 -0.18362379452965399 0.37004657989153639 0 -0.19396205315185269 0.35773027909378607 0 -0.18331282358584941 0.34642540782531189 0 -0.18362379452965399 0.37004657989153639 0 -0.17819295282042311 0.34345902717413063 0 -0.17266476351591969 0.35237730914779941 0 -0.17248005025835489 0.34536210115862542 0 -0.17266476351591969 0.35237730914779941 0 -0.16727942812343491 0.34541839291957183 0 -0.16404697378228 0.35342911006401911 0 -0.15552397359905151 0.35856797270850038 0 -0.15574239997404821 0.34165669361972989 0 -0.16404697378228 0.35342911006401911 0 -0.17266476351591969 0.35237730914779941 0 -0.17248005025835489 0.34536210115862542 0 -0.16727942812343491 0.34541839291957183 0 -0.17266476351591969 0.35237730914779941 0 -0.1697011683865553 0.35883091161224728 0 -0.16404697378228 0.35342911006401911 0 -0.1697011683865553 0.35883091161224728 0 -0.16404697378228 0.35342911006401911 0 -0.1633701090946704 0.36372338037626623 0 -0.15552397359905151 0.35856797270850038 0 -0.16404697378228 0.35342911006401911 0 -0.1633701090946704 0.36372338037626623 0 -0.15574239997404821 0.34165669361972989 0 -0.16727942812343491 0.34541839291957183 0 -0.16404697378228 0.35342911006401911 0 -0.15874130784498061 0.37213542046662212 0 -0.18362379452965399 0.37004657989153639 0 -0.15874130784498061 0.37213542046662212 0 -0.1633701090946704 0.36372338037626623 0 -0.18362379452965399 0.37004657989153639 0 -0.15552397359905151 0.35856797270850038 0 -0.15874130784498061 0.37213542046662212 0 -0.1633701090946704 0.36372338037626623 0 -0.17266476351591969 0.35237730914779941 0 -0.1697011683865553 0.35883091161224728 0 -0.18362379452965399 0.37004657989153639 0 -0.1697011683865553 0.35883091161224728 0 -0.1633701090946704 0.36372338037626623 0 -0.18362379452965399 0.37004657989153639 0 -0.1744309637910503 0.37769149803556362 0 -0.15874130784498061 0.37213542046662212 0 -0.18362379452965399 0.37004657989153639 0 -0.18374665136976759 0.37937871402705908 0 -0.18362379452965399 0.37004657989153639 0 -0.1927326532436788 0.38193994064591369 0 -0.18362379452965399 0.37004657989153639 0 -0.20402060209966261 0.36833430411321649 0 -0.18362379452965399 0.37004657989153639 0 -0.20402060209966261 0.36833430411321649 0 -0.18362379452965399 0.37004657989153639 0 -0.19396205315185269 0.35773027909378607 0 -0.20402060209966261 0.36833430411321649 0 -0.19396205315185269 0.35773027909378607 0 -0.208999317395312 0.3446492875548014 0 -0.20402060209966261 0.36833430411321649 0 -0.18331282358584941 0.34642540782531189 0 -0.19396205315185269 0.35773027909378607 0 -0.208999317395312 0.3446492875548014 0 -0.208999317395312 0.3446492875548014 0 -0.20402060209966261 0.36833430411321649 0 -0.22441740966967141 0.36662202833489849 0 -0.20402060209966261 0.36833430411321649 0 -0.22441740966967141 0.36662202833489849 0 -0.21798062289891881 0.38062313327343511 0 -0.20402060209966261 0.36833430411321649 0 -0.22441740966967141 0.36662202833489849 0 -0.208999317395312 0.3446492875548014 0 -0.23479591562654789 0.35148704487088239 0 -0.2313273246892763 0.33558392302215828 0 -0.208999317395312 0.3446492875548014 0 -0.22441740966967141 0.36662202833489849 0 -0.23479591562654789 0.35148704487088239 0 -0.25002058798003007 0.3320526588471332 0 -0.26243222306204511 0.35090504016953772 0 -0.23479591562654789 0.35148704487088239 0 -0.26243222306204511 0.35090504016953772 0 -0.23479591562654789 0.35148704487088239 0 -0.24481421723968019 0.36490975255658048 0 -0.22441740966967141 0.36662202833489849 0 -0.24481421723968019 0.36490975255658048 0 -0.24074374520667241 0.38242687998337299 0 -0.22441740966967141 0.36662202833489849 0 -0.24481421723968019 0.36490975255658048 0 -0.22441740966967141 0.36662202833489849 0 -0.23479591562654789 0.35148704487088239 0 -0.24481421723968019 0.36490975255658048 0 -0.25717133997193298 0.37426095615225607 0 -0.24074374520667241 0.38242687998337299 0 -0.24481421723968019 0.36490975255658048 0 -0.25616918259472732 0.30236015827283808 0 -0.25002058798003007 0.3320526588471332 0 -0.23403114015321011 0.31709209002172778 0 -0.25002058798003007 0.3320526588471332 0 -0.23479591562654789 0.35148704487088239 0 -0.2313273246892763 0.33558392302215828 0 -0.25002058798003007 0.3320526588471332 0 -0.2313273246892763 0.33558392302215828 0 -0.23403114015321011 0.31709209002172778 0 -0.208999317395312 0.3446492875548014 0 -0.2313273246892763 0.33558392302215828 0 -0.21850591254547599 0.32628872173457818 0 -0.23403114015321011 0.31709209002172778 0 -0.21850591254547599 0.32628872173457818 0 -0.21603293622121081 0.30879617143541382 0 -0.2313273246892763 0.33558392302215828 0 -0.23403114015321011 0.31709209002172778 0 -0.21850591254547599 0.32628872173457818 0 -0.21850591254547599 0.32628872173457818 0 -0.20213884426837089 0.32532213663878978 0 -0.21603293622121081 0.30879617143541382 0 -0.20213884426837089 0.32532213663878978 0 -0.19725183072938909 0.30509230858372249 0 -0.21603293622121081 0.30879617143541382 0 -0.208999317395312 0.3446492875548014 0 -0.21850591254547599 0.32628872173457818 0 -0.20213884426837089 0.32532213663878978 0 -0.18331282358584941 0.34642540782531189 0 -0.208999317395312 0.3446492875548014 0 -0.20213884426837089 0.32532213663878978 0 -0.18300185264204469 0.32280423575908729 0 -0.18331282358584941 0.34642540782531189 0 -0.20213884426837089 0.32532213663878978 0 -0.18300185264204469 0.32280423575908729 0 -0.20213884426837089 0.32532213663878978 0 -0.19725183072938909 0.30509230858372249 0 -0.19725183072938909 0.30509230858372249 0 -0.1906964717749009 0.28656541518329992 0 -0.18269088169824049 0.29918306369286279 0 -0.18300185264204469 0.32280423575908729 0 -0.19725183072938909 0.30509230858372249 0 -0.18269088169824049 0.29918306369286279 0 -0.19725183072938909 0.30509230858372249 0 -0.1906964717749009 0.28656541518329992 0 -0.20894999777156681 0.28788282879288141 0 -0.1906964717749009 0.28656541518329992 0 -0.20894999777156681 0.28788282879288141 0 -0.19560748054403571 0.27391850694798181 0 -0.19725183072938909 0.30509230858372249 0 -0.20894999777156681 0.28788282879288141 0 -0.21603293622121081 0.30879617143541382 0 -0.20894999777156681 0.28788282879288141 0 -0.21603293622121081 0.30879617143541382 0 -0.23010937568771669 0.29589673977315029 0 -0.23403114015321011 0.31709209002172778 0 -0.21603293622121081 0.30879617143541382 0 -0.23010937568771669 0.29589673977315029 0 -0.20894999777156681 0.28788282879288141 0 -0.23010937568771669 0.29589673977315029 0 -0.2234747025956966 0.27824585991597089 0 -0.23010937568771669 0.29589673977315029 0 -0.24190471242523851 0.27972751922608308 0 -0.2234747025956966 0.27824585991597089 0 -0.25616918259472732 0.30236015827283808 0 -0.24190471242523851 0.27972751922608308 0 -0.25616918259472732 0.30236015827283808 0 -0.23010937568771669 0.29589673977315029 0 -0.24190471242523851 0.27972751922608308 0 -0.25616918259472732 0.30236015827283808 0 -0.23403114015321011 0.31709209002172778 0 -0.23010937568771669 0.29589673977315029 0 -0.24943129659764751 0.26000894523212309 0 -0.24190471242523851 0.27972751922608308 0 -0.22764024225575111 0.25709488017932702 0 -0.22764024225575111 0.25709488017932702 0 -0.2468893326351202 0.24329134098969171 0 -0.24943129659764751 0.26000894523212309 0 -0.22764024225575111 0.25709488017932702 0 -0.2468893326351202 0.24329134098969171 0 -0.24190471242523851 0.27972751922608308 0 -0.22764024225575111 0.25709488017932702 0 -0.24190471242523851 0.27972751922608308 0 -0.2234747025956966 0.27824585991597089 0 -0.22764024225575111 0.25709488017932702 0 -0.2234747025956966 0.27824585991597089 0 -0.22764024225575111 0.25709488017932702 0 -0.20876918483820989 0.27062733160841262 0 -0.22764024225575111 0.25709488017932702 0 -0.21239874098331929 0.25437807278244762 0 -0.20876918483820989 0.27062733160841262 0 -0.22764024225575111 0.25709488017932702 0 -0.20876918483820989 0.27062733160841262 0 -0.21239874098331929 0.25437807278244762 0 -0.20876918483820989 0.27062733160841262 0 -0.2025020270240801 0.26019521754276942 0 -0.21239874098331929 0.25437807278244762 0 -0.2025020270240801 0.26019521754276942 0 -0.2046840695697589 0.2451395929661444 0 -0.20894999777156681 0.28788282879288141 0 -0.2234747025956966 0.27824585991597089 0 -0.20876918483820989 0.27062733160841262 0 -0.20894999777156681 0.28788282879288141 0 -0.20876918483820989 0.27062733160841262 0 -0.19560748054403571 0.27391850694798181 0 -0.19560748054403571 0.27391850694798181 0 -0.18940688912330481 0.25610334311205268 0 -0.18232207730982461 0.27116889680334472 0 -0.20876918483820989 0.27062733160841262 0 -0.19560748054403571 0.27391850694798181 0 -0.2025020270240801 0.26019521754276942 0 -0.1906964717749009 0.28656541518329992 0 -0.19560748054403571 0.27391850694798181 0 -0.18232207730982461 0.27116889680334472 0 -0.19560748054403571 0.27391850694798181 0 -0.2025020270240801 0.26019521754276942 0 -0.18940688912330481 0.25610334311205268 0 -0.2025020270240801 0.26019521754276942 0 -0.18940688912330481 0.25610334311205268 0 -0.2046840695697589 0.2451395929661444 0 -0.18940688912330481 0.25610334311205268 0 -0.17508206900779469 0.25918785244088571 0 -0.18195408303730121 0.23534357450296481 0 -0.18940688912330481 0.25610334311205268 0 -0.17508206900779469 0.25918785244088571 0 -0.18232207730982461 0.27116889680334472 0 -0.16225317791305921 0.25358582624422438 0 -0.1601147340924314 0.27132493958040771 0 -0.14746997276257359 0.25293699741112718 0 -0.17508206900779469 0.25918785244088571 0 -0.16225317791305921 0.25358582624422438 0 -0.1601147340924314 0.27132493958040771 0 -0.1601147340924314 0.27132493958040771 0 -0.18232207730982461 0.27116889680334472 0 -0.1715163911286523 0.28419500503467149 0 -0.17508206900779469 0.25918785244088571 0 -0.1601147340924314 0.27132493958040771 0 -0.18232207730982461 0.27116889680334472 0 -0.1906964717749009 0.28656541518329992 0 -0.18232207730982461 0.27116889680334472 0 -0.18269088169824049 0.29918306369286279 0 -0.18232207730982461 0.27116889680334472 0 -0.18269088169824049 0.29918306369286279 0 -0.1715163911286523 0.28419500503467149 0 -0.18232207730982461 0.27116889680334472 0 -0.18269088169824049 0.29918306369286279 0 -0.1906964717749009 0.28656541518329992 0 -0.18269088169824049 0.29918306369286279 0 -0.18300185264204469 0.32280423575908729 0 -0.18269088169824049 0.29918306369286279 0 -0.1692166408361446 0.32041987865629651 0 -0.18269088169824049 0.29918306369286279 0 -0.1692166408361446 0.32041987865629651 0 -0.1740652221397718 0.31676208059972089 0 -0.18269088169824049 0.29918306369286279 0 -0.1692166408361446 0.32041987865629651 0 -0.16093787141411231 0.2951031200620709 0 -0.1433184724342442 0.30536206331891741 0 -0.1692166408361446 0.32041987865629651 0 -0.18269088169824049 0.29918306369286279 0 -0.16093787141411231 0.2951031200620709 0 -0.18269088169824049 0.29918306369286279 0 -0.1715163911286523 0.28419500503467149 0 -0.16093787141411231 0.2951031200620709 0 -0.1601147340924314 0.27132493958040771 0 -0.1715163911286523 0.28419500503467149 0 -0.16093787141411231 0.2951031200620709 0 -0.1601147340924314 0.27132493958040771 0 -0.16093787141411231 0.2951031200620709 0 -0.140940242444347 0.28770890845956881 0 -0.16093787141411231 0.2951031200620709 0 -0.140940242444347 0.28770890845956881 0 -0.16093787141411231 0.2951031200620709 0 -0.140940242444347 0.28770890845956881 0 -0.1433184724342442 0.30536206331891741 0 -0.1433184724342442 0.30536206331891741 0 -0.12743472451084159 0.29349567440048657 0 -0.122665507124936 0.30739316482981133 0 -0.140940242444347 0.28770890845956881 0 -0.1433184724342442 0.30536206331891741 0 -0.12743472451084159 0.29349567440048657 0 -0.140940242444347 0.28770890845956881 0 -0.1209426134745812 0.28031469685706822 0 -0.140940242444347 0.28770890845956881 0 -0.12743472451084159 0.29349567440048657 0 -0.1209426134745812 0.28031469685706822 0 -0.140940242444347 0.28770890845956881 0 -0.12748957136376979 0.2697364722205553 0 -0.1209426134745812 0.28031469685706822 0 -0.140940242444347 0.28770890845956881 0 -0.1385418352730507 0.26582091200169278 0 -0.12748957136376979 0.2697364722205553 0 -0.1385418352730507 0.26582091200169278 0 -0.1252623291810667 0.25912953992318971 0 -0.13357218109292621 0.2499317644564327 0 -0.1385418352730507 0.26582091200169278 0 -0.14746997276257359 0.25293699741112718 0 -0.13357218109292621 0.2499317644564327 0 -0.1385418352730507 0.26582091200169278 0 -0.12748957136376979 0.2697364722205553 0 -0.1252623291810667 0.25912953992318971 0 -0.1252623291810667 0.25912953992318971 0 -0.13357218109292621 0.2499317644564327 0 -0.1213089330464012 0.24626659804535689 0 -0.1601147340924314 0.27132493958040771 0 -0.1385418352730507 0.26582091200169278 0 -0.14746997276257359 0.25293699741112718 0 -0.1601147340924314 0.27132493958040771 0 -0.140940242444347 0.28770890845956881 0 -0.1385418352730507 0.26582091200169278 0 -0.095230237001734636 0.27080743213428882 0 -0.101831548476812 0.26048951589785008 0 -0.1165241005361865 0.26558405137515151 0 -0.095230237001734636 0.27080743213428882 0 -0.1209426134745812 0.28031469685706822 0 -0.095230237001734636 0.27080743213428882 0 -0.101831548476812 0.26048951589785008 0 -0.101831548476812 0.26048951589785008 0 -0.112097455783086 0.24444379951602521 0 -0.096974545082976191 0.25880538532589209 0 -0.101831548476812 0.26048951589785008 0 -0.112097455783086 0.24444379951602521 0 -0.095230237001734636 0.27080743213428882 0 -0.096974545082976191 0.25880538532589209 0 -0.101831548476812 0.26048951589785008 0 -0.096974545082976191 0.25880538532589209 0 -0.101831548476812 0.26048951589785008 0 -0.101831548476812 0.26048951589785008 0 -0.1165241005361865 0.26558405137515151 0 -0.101831548476812 0.26048951589785008 0 -0.11521273165378559 0.25497892835963998 0 -0.112097455783086 0.24444379951602521 0 -0.101831548476812 0.26048951589785008 0 -0.1165241005361865 0.26558405137515151 0 -0.11521273165378559 0.25497892835963998 0 -0.1252623291810667 0.25912953992318971 0 -0.11521273165378559 0.25497892835963998 0 -0.1213089330464012 0.24626659804535689 0 -0.12748957136376979 0.2697364722205553 0 -0.1252623291810667 0.25912953992318971 0 -0.1165241005361865 0.26558405137515151 0 -0.1252623291810667 0.25912953992318971 0 -0.1165241005361865 0.26558405137515151 0 -0.11521273165378559 0.25497892835963998 0 -0.12748957136376979 0.2697364722205553 0 -0.1165241005361865 0.26558405137515151 0 -0.11826192468166601 0.27279143104315778 0 -0.095230237001734636 0.27080743213428882 0 -0.1165241005361865 0.26558405137515151 0 -0.11826192468166601 0.27279143104315778 0 -0.095230237001734636 0.27080743213428882 0 -0.11826192468166601 0.27279143104315778 0 -0.1209426134745812 0.28031469685706822 0 -0.12748957136376979 0.2697364722205553 0 -0.11826192468166601 0.27279143104315778 0 -0.1209426134745812 0.28031469685706822 0 -0.1209426134745812 0.28031469685706822 0 -0.099156256926613839 0.29556062278638268 0 -0.12743472451084159 0.29349567440048657 0 -0.1209426134745812 0.28031469685706822 0 -0.099156256926613839 0.29556062278638268 0 -0.12743472451084159 0.29349567440048657 0 -0.122665507124936 0.30739316482981133 0 -0.099156256926613839 0.29556062278638268 0 -0.1041414057358224 0.31201579539373148 0 -0.099156256926613839 0.29556062278638268 0 -0.091673901452025128 0.31746800270450398 0 -0.122665507124936 0.30739316482981133 0 -0.1041414057358224 0.31201579539373148 0 -0.099156256926613839 0.29556062278638268 0 -0.095230237001734636 0.27080743213428882 0 -0.1209426134745812 0.28031469685706822 0 -0.099156256926613839 0.29556062278638268 0 -0.081993310338176556 0.29149688165626692 0 -0.071574905525993715 0.28647654560898889 0 -0.088307373389434785 0.26824767274871397 0 -0.095230237001734636 0.27080743213428882 0 -0.099156256926613839 0.29556062278638268 0 -0.081993310338176556 0.29149688165626692 0 -0.099156256926613839 0.29556062278638268 0 -0.0773699003786468 0.31080654871569757 0 -0.091673901452025128 0.31746800270450398 0 -0.099156256926613839 0.29556062278638268 0 -0.0773699003786468 0.31080654871569757 0 -0.081993310338176556 0.29149688165626692 0 -0.0773699003786468 0.31080654871569757 0 -0.099156256926613839 0.29556062278638268 0 -0.081993310338176556 0.29149688165626692 0 -0.0773699003786468 0.31080654871569757 0 -0.081993310338176556 0.29149688165626692 0 -0.0773699003786468 0.31080654871569757 0 -0.07000108740115632 0.31024084673351238 0 -0.081993310338176556 0.29149688165626692 0 -0.07000108740115632 0.31024084673351238 0 -0.07082691849754412 0.29686868922251758 0 -0.081993310338176556 0.29149688165626692 0 -0.07000108740115632 0.31024084673351238 0 -0.06406362287003417 0.30105685935529619 0 -0.07000108740115632 0.31024084673351238 0 -0.07082691849754412 0.29686868922251758 0 -0.06406362287003417 0.30105685935529619 0 -0.07000108740115632 0.31024084673351238 0 -0.05903493703298672 0.30842013861035528 0 -0.081993310338176556 0.29149688165626692 0 -0.071574905525993715 0.28647654560898889 0 -0.07082691849754412 0.29686868922251758 0 -0.071574905525993715 0.28647654560898889 0 -0.07082691849754412 0.29686868922251758 0 -0.064150197611200194 0.29028153745804169 0 -0.06406362287003417 0.30105685935529619 0 -0.07082691849754412 0.29686868922251758 0 -0.064150197611200194 0.29028153745804169 0 -0.071574905525993715 0.28647654560898889 0 -0.064150197611200194 0.29028153745804169 0 -0.066272470786091969 0.27951596978905408 0 -0.066272470786091969 0.27951596978905408 0 -0.064867048676514966 0.26815492676469338 0 -0.075116873927680253 0.27479103085629453 0 -0.066272470786091969 0.27951596978905408 0 -0.064867048676514966 0.26815492676469338 0 -0.056753075498150757 0.28085207326825551 0 -0.064867048676514966 0.26815492676469338 0 -0.075116873927680253 0.27479103085629453 0 -0.074399806026204385 0.26466482186588819 0 -0.075116873927680253 0.27479103085629453 0 -0.079975847673146208 0.26885948770409202 0 -0.074399806026204385 0.26466482186588819 0 -0.071574905525993715 0.28647654560898889 0 -0.066272470786091969 0.27951596978905408 0 -0.075116873927680253 0.27479103085629453 0 -0.095230237001734636 0.27080743213428882 0 -0.081993310338176556 0.29149688165626692 0 -0.095230237001734636 0.27080743213428882 0 -0.081993310338176556 0.29149688165626692 0 -0.088307373389434785 0.26824767274871397 0 -0.071574905525993715 0.28647654560898889 0 -0.088307373389434785 0.26824767274871397 0 -0.071574905525993715 0.28647654560898889 0 -0.075116873927680253 0.27479103085629453 0 -0.088307373389434785 0.26824767274871397 0 -0.079975847673146208 0.26885948770409202 0 -0.084329260359261832 0.26677674789216088 0 -0.074399806026204385 0.26466482186588819 0 -0.075116873927680253 0.27479103085629453 0 -0.079975847673146208 0.26885948770409202 0 -0.088307373389434785 0.26824767274871397 0 -0.079975847673146208 0.26885948770409202 0 -0.084329260359261832 0.26677674789216088 0 -0.088307373389434785 0.26824767274871397 0 -0.095230237001734636 0.27080743213428882 0 -0.096974545082976191 0.25880538532589209 0 -0.088307373389434785 0.26824767274871397 0 -0.084329260359261832 0.26677674789216088 0 -0.088307373389434785 0.26824767274871397 0 -0.095230237001734636 0.27080743213428882 0 -0.088307373389434785 0.26824767274871397 0 -0.096974545082976191 0.25880538532589209 0 -0.073553522625709841 0.25068431627396631 0 -0.088715331182393942 0.2449718195011524 0 -0.096974545082976191 0.25880538532589209 0 -0.084329260359261832 0.26677674789216088 0 -0.073553522625709841 0.25068431627396631 0 -0.096974545082976191 0.25880538532589209 0 -0.073553522625709841 0.25068431627396631 0 -0.096974545082976191 0.25880538532589209 0 -0.088307373389434785 0.26824767274871397 0 -0.096974545082976191 0.25880538532589209 0 -0.084329260359261832 0.26677674789216088 0 -0.088307373389434785 0.26824767274871397 0 -0.084329260359261832 0.26677674789216088 0 -0.073553522625709841 0.25068431627396631 0 -0.074399806026204385 0.26466482186588819 0 -0.064867048676514966 0.26815492676469338 0 -0.073553522625709841 0.25068431627396631 0 -0.050450936449665702 0.26047062327699849 0 -0.064867048676514966 0.26815492676469338 0 -0.073553522625709841 0.25068431627396631 0 -0.074399806026204385 0.26466482186588819 0 -0.073553522625709841 0.25068431627396631 0 -0.050450936449665702 0.26047062327699849 0 -0.050132500168443887 0.2425632472220397 0 -0.064867048676514966 0.26815492676469338 0 -0.050450936449665702 0.26047062327699849 0 -0.056753075498150757 0.28085207326825551 0 -0.050450936449665702 0.26047062327699849 0 -0.056753075498150757 0.28085207326825551 0 -0.041567118232982071 0.28155035039042642 0 -0.050450936449665702 0.26047062327699849 0 -0.032664289439585513 0.26886008103247921 0 -0.041567118232982071 0.28155035039042642 0 -0.032664289439585513 0.26886008103247921 0 -0.025724023578003428 0.28484302527062832 0 -0.041567118232982071 0.28155035039042642 0 -0.050450936449665702 0.26047062327699849 0 -0.032664289439585513 0.26886008103247921 0 -0.029881977245259539 0.25372898958001938 0 -0.050450936449665702 0.26047062327699849 0 -0.029881977245259539 0.25372898958001938 0 -0.050132500168443887 0.2425632472220397 0 -0.029881977245259539 0.25372898958001938 0 -0.019473314891880141 0.26767922737850353 0 -0.0082457657602449386 0.25246627485226031 0 -0.032664289439585513 0.26886008103247921 0 -0.029881977245259539 0.25372898958001938 0 -0.019473314891880141 0.26767922737850353 0 -0.019473314891880141 0.26767922737850353 0 -0.0042610585373493576 0.2771562680236046 0 -0.025724023578003428 0.28484302527062832 0 -0.032664289439585513 0.26886008103247921 0 -0.019473314891880141 0.26767922737850353 0 -0.025724023578003428 0.28484302527062832 0 -0.019473314891880141 0.26767922737850353 0 -0.0042610585373493576 0.2771562680236046 0 -0.0082457657602449386 0.25246627485226031 0 -0.0042610585373493576 0.2771562680236046 0 -0.0082457657602449386 0.25246627485226031 0 0.0071094060709509964 0.26564087220093879 0 -0.0069555348311276686 0.31079851600377723 0 -0.00058836015198596755 0.32088344941533808 0 0.0054341821912287152 0.30403492879740468 0 -0.013098506886936411 0.29875518722530359 0 -0.0069555348311276686 0.31079851600377723 0 0.0054341821912287152 0.30403492879740468 0 -0.013098506886936411 0.29875518722530359 0 -0.0069555348311276686 0.31079851600377723 0 -0.020687787070248039 0.31403805852116051 0 -0.0042610585373493576 0.2771562680236046 0 -0.013098506886936411 0.29875518722530359 0 -0.025724023578003428 0.28484302527062832 0 -0.0042610585373493576 0.2771562680236046 0 -0.013098506886936411 0.29875518722530359 0 0.0054341821912287152 0.30403492879740468 0 -0.013098506886936411 0.29875518722530359 0 -0.025724023578003428 0.28484302527062832 0 -0.02904570801181227 0.30414560716861699 0 -0.013098506886936411 0.29875518722530359 0 -0.02904570801181227 0.30414560716861699 0 -0.020687787070248039 0.31403805852116051 0 -0.02904570801181227 0.30414560716861699 0 -0.034308890996313193 0.31619803717231232 0 -0.020687787070248039 0.31403805852116051 0 -0.02904570801181227 0.30414560716861699 0 -0.04581664775108537 0.30961879620062571 0 -0.039958169045478269 0.29575445567546388 0 -0.02904570801181227 0.30414560716861699 0 -0.04581664775108537 0.30961879620062571 0 -0.034308890996313193 0.31619803717231232 0 -0.025724023578003428 0.28484302527062832 0 -0.02904570801181227 0.30414560716861699 0 -0.039958169045478269 0.29575445567546388 0 -0.025724023578003428 0.28484302527062832 0 -0.039958169045478269 0.29575445567546388 0 -0.041567118232982071 0.28155035039042642 0 -0.039958169045478269 0.29575445567546388 0 -0.041567118232982071 0.28155035039042642 0 -0.055410192489386563 0.29691908750413831 0 -0.056753075498150757 0.28085207326825551 0 -0.041567118232982071 0.28155035039042642 0 -0.055410192489386563 0.29691908750413831 0 -0.064150197611200194 0.29028153745804169 0 -0.056753075498150757 0.28085207326825551 0 -0.055410192489386563 0.29691908750413831 0 -0.06406362287003417 0.30105685935529619 0 -0.064150197611200194 0.29028153745804169 0 -0.055410192489386563 0.29691908750413831 0 -0.064150197611200194 0.29028153745804169 0 -0.066272470786091969 0.27951596978905408 0 -0.056753075498150757 0.28085207326825551 0 -0.04581664775108537 0.30961879620062571 0 -0.055410192489386563 0.29691908750413831 0 -0.05903493703298672 0.30842013861035528 0 -0.04581664775108537 0.30961879620062571 0 -0.039958169045478269 0.29575445567546388 0 -0.055410192489386563 0.29691908750413831 0 -0.06406362287003417 0.30105685935529619 0 -0.055410192489386563 0.29691908750413831 0 -0.05903493703298672 0.30842013861035528 0 -0.04581664775108537 0.30961879620062571 0 -0.05999398685661865 0.32296608029812152 0 -0.042756171354298787 0.3224483405388896 0 -0.05999398685661865 0.32296608029812152 0 -0.04261807333459134 0.33512561188054663 0 -0.042756171354298787 0.3224483405388896 0 -0.04581664775108537 0.30961879620062571 0 -0.05903493703298672 0.30842013861035528 0 -0.05999398685661865 0.32296608029812152 0 -0.05999398685661865 0.32296608029812152 0 -0.056804034856699187 0.33429177223338907 0 -0.04261807333459134 0.33512561188054663 0 -0.056804034856699187 0.33429177223338907 0 -0.046192251460743447 0.34598703554363702 0 -0.071259793987160716 0.33632540193228971 0 -0.046192251460743447 0.34598703554363702 0 -0.071259793987160716 0.33632540193228971 0 -0.05999398685661865 0.32296608029812152 0 -0.04261807333459134 0.33512561188054663 0 -0.05999398685661865 0.32296608029812152 0 -0.056804034856699187 0.33429177223338907 0 -0.064831017760781137 0.32924814232959693 0 -0.056804034856699187 0.33429177223338907 0 -0.04261807333459134 0.33512561188054663 0 -0.046192251460743447 0.34598703554363702 0 -0.04261807333459134 0.33512561188054663 0 -0.034276320251641283 0.34282206612864702 0 -0.046192251460743447 0.34598703554363702 0 -0.04261807333459134 0.33512561188054663 0 -0.034276320251641283 0.34282206612864702 0 -0.031043257832885369 0.32833317714284199 0 -0.04261807333459134 0.33512561188054663 0 -0.042756171354298787 0.3224483405388896 0 -0.031043257832885369 0.32833317714284199 0 -0.04581664775108537 0.30961879620062571 0 -0.042756171354298787 0.3224483405388896 0 -0.034308890996313193 0.31619803717231232 0 -0.042756171354298787 0.3224483405388896 0 -0.034308890996313193 0.31619803717231232 0 -0.031043257832885369 0.32833317714284199 0 -0.020687787070248039 0.31403805852116051 0 -0.031043257832885369 0.32833317714284199 0 -0.01426308592107553 0.32709781564023149 0 -0.034308890996313193 0.31619803717231232 0 -0.020687787070248039 0.31403805852116051 0 -0.031043257832885369 0.32833317714284199 0 -0.025032962324117471 0.33875149869244531 0 -0.01426308592107553 0.32709781564023149 0 -0.014716180493599089 0.34442071988127893 0 -0.031043257832885369 0.32833317714284199 0 -0.025032962324117471 0.33875149869244531 0 -0.01426308592107553 0.32709781564023149 0 -0.034276320251641283 0.34282206612864702 0 -0.025032962324117471 0.33875149869244531 0 -0.023787543000920942 0.34541073846433867 0 -0.034276320251641283 0.34282206612864702 0 -0.031043257832885369 0.32833317714284199 0 -0.025032962324117471 0.33875149869244531 0 -0.025032962324117471 0.33875149869244531 0 -0.014716180493599089 0.34442071988127893 0 -0.023787543000920942 0.34541073846433867 0 -0.0025616559074486049 0.3329031852911295 0 -0.01426308592107553 0.32709781564023149 0 -0.014716180493599089 0.34442071988127893 0 -0.0025616559074486049 0.3329031852911295 0 -0.002583240235104544 0.34489224502179239 0 -0.014716180493599089 0.34442071988127893 0 -0.0069555348311276686 0.31079851600377723 0 -0.020687787070248039 0.31403805852116051 0 -0.01426308592107553 0.32709781564023149 0 -0.0025616559074486049 0.3329031852911295 0 -0.00058836015198596755 0.32088344941533808 0 -0.01426308592107553 0.32709781564023149 0 -0.0069555348311276686 0.31079851600377723 0 -0.00058836015198596755 0.32088344941533808 0 -0.01426308592107553 0.32709781564023149 0 -0.012102714267097759 0.36590539057294968 0 -0.001064505034491721 0.37161458349227261 0 0.0039428335920915006 0.36531030276633031 0 -0.021124708934325921 0.35564866915498361 0 0.0039428335920915006 0.36531030276633031 0 -0.001064505034491721 0.37161458349227261 0 -0.017677659244944521 0.37122807787390621 0 -0.017803283764421592 0.37921609746689411 0 -0.012102714267097759 0.36590539057294968 0 -0.001064505034491721 0.37161458349227261 0 -0.017677659244944521 0.37122807787390621 0 -0.012102714267097759 0.36590539057294968 0 -0.021124708934325921 0.35564866915498361 0 0.0039428335920915006 0.36531030276633031 0 -0.0064988099748367559 0.35299106404641623 0 -0.021124708934325921 0.35564866915498361 0 0.0039428335920915006 0.36531030276633031 0 -0.0064988099748367559 0.35299106404641623 0 -0.002583240235104544 0.34489224502179239 0 0.0032447233134405931 0.35422125060834359 0 -0.0064988099748367559 0.35299106404641623 0 -0.002583240235104544 0.34489224502179239 0 -0.014716180493599089 0.34442071988127893 0 -0.0064988099748367559 0.35299106404641623 0 -0.014716180493599089 0.34442071988127893 0 -0.021124708934325921 0.35564866915498361 0 -0.021124708934325921 0.35564866915498361 0 -0.03312405361854439 0.36059385714354403 0 -0.039104805720823227 0.35618275869992938 0 -0.014716180493599089 0.34442071988127893 0 -0.021124708934325921 0.35564866915498361 0 -0.023787543000920942 0.34541073846433867 0 -0.034276320251641283 0.34282206612864702 0 -0.021124708934325921 0.35564866915498361 0 -0.023787543000920942 0.34541073846433867 0 -0.021124708934325921 0.35564866915498361 0 -0.0246585823330631 0.36616539344166837 0 -0.03312405361854439 0.36059385714354403 0 -0.0246585823330631 0.36616539344166837 0 -0.033447590357386023 0.36570071259042941 0 -0.03312405361854439 0.36059385714354403 0 -0.012102714267097759 0.36590539057294968 0 -0.021124708934325921 0.35564866915498361 0 -0.0246585823330631 0.36616539344166837 0 -0.017677659244944521 0.37122807787390621 0 -0.032897312064139907 0.37411907212457252 0 -0.017803283764421592 0.37921609746689411 0 -0.012102714267097759 0.36590539057294968 0 -0.0246585823330631 0.36616539344166837 0 -0.017677659244944521 0.37122807787390621 0 -0.0246585823330631 0.36616539344166837 0 -0.017677659244944521 0.37122807787390621 0 -0.032897312064139907 0.37411907212457252 0 -0.0246585823330631 0.36616539344166837 0 -0.032897312064139907 0.37411907212457252 0 -0.0246585823330631 0.36616539344166837 0 -0.032897312064139907 0.37411907212457252 0 -0.033447590357386023 0.36570071259042941 0 -0.032897312064139907 0.37411907212457252 0 -0.059723517795068168 0.36506026769318489 0 -0.032897312064139907 0.37411907212457252 0 -0.033447590357386023 0.36570071259042941 0 -0.04311041341379776 0.36192452765193173 0 -0.032897312064139907 0.37411907212457252 0 -0.046925961112427347 0.36446589286881009 0 -0.059723517795068168 0.36506026769318489 0 -0.032897312064139907 0.37411907212457252 0 -0.049098878804771373 0.3725140996878949 0 -0.043775979817191349 0.37615739516056462 0 -0.03312405361854439 0.36059385714354403 0 -0.04311041341379776 0.36192452765193173 0 -0.039104805720823227 0.35618275869992938 0 -0.033447590357386023 0.36570071259042941 0 -0.03312405361854439 0.36059385714354403 0 -0.04311041341379776 0.36192452765193173 0 -0.032897312064139907 0.37411907212457252 0 -0.04311041341379776 0.36192452765193173 0 -0.046925961112427347 0.36446589286881009 0 -0.034276320251641283 0.34282206612864702 0 -0.021124708934325921 0.35564866915498361 0 -0.046192251460743447 0.34598703554363702 0 -0.021124708934325921 0.35564866915498361 0 -0.039104805720823227 0.35618275869992938 0 -0.046192251460743447 0.34598703554363702 0 -0.021124708934325921 0.35564866915498361 0 -0.046192251460743447 0.34598703554363702 0 -0.039104805720823227 0.35618275869992938 0 -0.046192251460743447 0.34598703554363702 0 -0.051972601176704672 0.35675970400555063 0 -0.04311041341379776 0.36192452765193173 0 -0.039104805720823227 0.35618275869992938 0 -0.051972601176704672 0.35675970400555063 0 -0.046192251460743447 0.34598703554363702 0 -0.066911938965716039 0.35448421406914471 0 -0.071259793987160716 0.33632540193228971 0 -0.046192251460743447 0.34598703554363702 0 -0.051972601176704672 0.35675970400555063 0 -0.066911938965716039 0.35448421406914471 0 -0.051972601176704672 0.35675970400555063 0 -0.059723517795068168 0.36506026769318489 0 -0.066911938965716039 0.35448421406914471 0 -0.032897312064139907 0.37411907212457252 0 -0.049098878804771373 0.3725140996878949 0 -0.059723517795068168 0.36506026769318489 0 -0.049098878804771373 0.3725140996878949 0 -0.056089193364373929 0.37273715424054699 0 -0.050724207312953518 0.37700173675436199 0 -0.051972601176704672 0.35675970400555063 0 -0.046925961112427347 0.36446589286881009 0 -0.059723517795068168 0.36506026769318489 0 -0.04311041341379776 0.36192452765193173 0 -0.051972601176704672 0.35675970400555063 0 -0.046925961112427347 0.36446589286881009 0 -0.049098878804771373 0.3725140996878949 0 -0.059723517795068168 0.36506026769318489 0 -0.056089193364373929 0.37273715424054699 0 -0.059723517795068168 0.36506026769318489 0 -0.056089193364373929 0.37273715424054699 0 -0.062564083944274151 0.37264302620600032 0 -0.062075486208271788 0.37468365416042188 0 -0.062564083944274151 0.37264302620600032 0 -0.062075486208271788 0.37468365416042188 0 -0.062564083944274151 0.37264302620600032 0 -0.064607287490063475 0.3752877934920828 0 -0.069626031180744216 0.37451783031500979 0 -0.079039419043354958 0.3748493973737258 0 -0.082597891671162132 0.35089307241393791 0 -0.062564083944274151 0.37264302620600032 0 -0.066911938965716039 0.35448421406914471 0 -0.062564083944274151 0.37264302620600032 0 -0.069626031180744216 0.37451783031500979 0 -0.064607287490063475 0.3752877934920828 0 -0.062564083944274151 0.37264302620600032 0 -0.069626031180744216 0.37451783031500979 0 -0.082597891671162132 0.35089307241393791 0 -0.062564083944274151 0.37264302620600032 0 -0.082597891671162132 0.35089307241393791 0 -0.059723517795068168 0.36506026769318489 0 -0.062564083944274151 0.37264302620600032 0 -0.066911938965716039 0.35448421406914471 0 -0.090941745129797052 0.36956363188929697 0 -0.082597891671162132 0.35089307241393791 0 -0.097939085056313616 0.35825468271447503 0 -0.079039419043354958 0.3748493973737258 0 -0.090941745129797052 0.36956363188929697 0 -0.082597891671162132 0.35089307241393791 0 -0.082597891671162132 0.35089307241393791 0 -0.097939085056313616 0.35825468271447503 0 -0.099795521962392192 0.34663223796478099 0 -0.066911938965716039 0.35448421406914471 0 -0.071259793987160716 0.33632540193228971 0 -0.082597891671162132 0.35089307241393791 0 -0.066911938965716039 0.35448421406914471 0 -0.079003984513522238 0.34200566120660753 0 -0.066911938965716039 0.35448421406914471 0 -0.071259793987160716 0.33632540193228971 0 -0.079003984513522238 0.34200566120660753 0 -0.062564083944274151 0.37264302620600032 0 -0.082597891671162132 0.35089307241393791 0 -0.066911938965716039 0.35448421406914471 0 -0.056804034856699187 0.33429177223338907 0 -0.064831017760781137 0.32924814232959693 0 -0.071259793987160716 0.33632540193228971 0 -0.071259793987160716 0.33632540193228971 0 -0.079659291821908368 0.33308803351003258 0 -0.071259793987160716 0.33632540193228971 0 -0.079003984513522238 0.34200566120660753 0 -0.079659291821908368 0.33308803351003258 0 -0.0773699003786468 0.31080654871569757 0 -0.07000108740115632 0.31024084673351238 0 -0.05999398685661865 0.32296608029812152 0 -0.0773699003786468 0.31080654871569757 0 -0.071259793987160716 0.33632540193228971 0 -0.0773699003786468 0.31080654871569757 0 -0.071259793987160716 0.33632540193228971 0 -0.079659291821908368 0.33308803351003258 0 -0.0773699003786468 0.31080654871569757 0 -0.05999398685661865 0.32296608029812152 0 -0.0773699003786468 0.31080654871569757 0 -0.064831017760781137 0.32924814232959693 0 -0.071259793987160716 0.33632540193228971 0 -0.0773699003786468 0.31080654871569757 0 -0.05999398685661865 0.32296608029812152 0 -0.064831017760781137 0.32924814232959693 0 -0.07000108740115632 0.31024084673351238 0 -0.05903493703298672 0.30842013861035528 0 -0.05999398685661865 0.32296608029812152 0 -0.091673901452025128 0.31746800270450398 0 -0.079659291821908368 0.33308803351003258 0 -0.1026316993980491 0.32914311862187462 0 -0.0773699003786468 0.31080654871569757 0 -0.091673901452025128 0.31746800270450398 0 -0.079659291821908368 0.33308803351003258 0 -0.082597891671162132 0.35089307241393791 0 -0.1026316993980491 0.32914311862187462 0 -0.082597891671162132 0.35089307241393791 0 -0.079003984513522238 0.34200566120660753 0 -0.1026316993980491 0.32914311862187462 0 -0.079003984513522238 0.34200566120660753 0 -0.079659291821908368 0.33308803351003258 0 -0.1026316993980491 0.32914311862187462 0 -0.082597891671162132 0.35089307241393791 0 -0.1026316993980491 0.32914311862187462 0 -0.099795521962392192 0.34663223796478099 0 -0.1026316993980491 0.32914311862187462 0 -0.11309959964963499 0.35023802862820708 0 -0.099795521962392192 0.34663223796478099 0 -0.1041414057358224 0.31201579539373148 0 -0.091673901452025128 0.31746800270450398 0 -0.1026316993980491 0.32914311862187462 0 -0.122665507124936 0.30739316482981133 0 -0.1041414057358224 0.31201579539373148 0 -0.1026316993980491 0.32914311862187462 0 -0.122665507124936 0.30739316482981133 0 -0.1026316993980491 0.32914311862187462 0 -0.1213981112161233 0.32606083512094008 0 -0.122665507124936 0.30739316482981133 0 -0.1026316993980491 0.32914311862187462 0 -0.1026316993980491 0.32914311862187462 0 -0.1215793900664241 0.33965542352680428 0 -0.11309959964963499 0.35023802862820708 0 -0.1026316993980491 0.32914311862187462 0 -0.1213981112161233 0.32606083512094008 0 -0.1215793900664241 0.33965542352680428 0 -0.1215793900664241 0.33965542352680428 0 -0.11309959964963499 0.35023802862820708 0 -0.1223522029902982 0.35608225162756879 0 -0.11309959964963499 0.35023802862820708 0 -0.1223522029902982 0.35608225162756879 0 -0.1091573093543224 0.361674516205302 0 -0.12881796099468981 0.36725667352730101 0 -0.1223522029902982 0.35608225162756879 0 -0.11881971476920231 0.36528086459794751 0 -0.12881796099468981 0.36725667352730101 0 -0.11881971476920231 0.36528086459794751 0 -0.114951385737499 0.37611001703161828 0 -0.11881971476920231 0.36528086459794751 0 -0.1091573093543224 0.361674516205302 0 -0.114951385737499 0.37611001703161828 0 -0.1223522029902982 0.35608225162756879 0 -0.11881971476920231 0.36528086459794751 0 -0.1091573093543224 0.361674516205302 0 -0.1091573093543224 0.361674516205302 0 -0.1012990589455684 0.36953412384373102 0 -0.097939085056313616 0.35825468271447503 0 -0.1091573093543224 0.361674516205302 0 -0.1012990589455684 0.36953412384373102 0 -0.114951385737499 0.37611001703161828 0 -0.090941745129797052 0.36956363188929697 0 -0.1012990589455684 0.36953412384373102 0 -0.098890550417286477 0.38099249480062602 0 -0.090941745129797052 0.36956363188929697 0 -0.1012990589455684 0.36953412384373102 0 -0.097939085056313616 0.35825468271447503 0 -0.11309959964963499 0.35023802862820708 0 -0.097939085056313616 0.35825468271447503 0 -0.099795521962392192 0.34663223796478099 0 -0.11309959964963499 0.35023802862820708 0 -0.1091573093543224 0.361674516205302 0 -0.097939085056313616 0.35825468271447503 0 -0.094424665366596924 0.39634464281418252 0 -0.11202845405726 0.40531330452479791 0 -0.098926296137628822 0.41605616341005208 0 -0.1085605322944487 0.39079571404043828 0 -0.094424665366596924 0.39634464281418252 0 -0.11202845405726 0.40531330452479791 0 -0.1085605322944487 0.39079571404043828 0 -0.098890550417286477 0.38099249480062602 0 -0.114951385737499 0.37611001703161828 0 -0.1085605322944487 0.39079571404043828 0 -0.094424665366596924 0.39634464281418252 0 -0.098890550417286477 0.38099249480062602 0 -0.1012990589455684 0.36953412384373102 0 -0.098890550417286477 0.38099249480062602 0 -0.114951385737499 0.37611001703161828 0 -0.1085605322944487 0.39079571404043828 0 -0.114951385737499 0.37611001703161828 0 -0.1224972888069677 0.39405447109156733 0 -0.13238272395945991 0.37847398983736519 0 -0.114951385737499 0.37611001703161828 0 -0.1224972888069677 0.39405447109156733 0 -0.1277268958593005 0.40709158096490278 0 -0.1224972888069677 0.39405447109156733 0 -0.11202845405726 0.40531330452479791 0 -0.1085605322944487 0.39079571404043828 0 -0.1224972888069677 0.39405447109156733 0 -0.11202845405726 0.40531330452479791 0 -0.11202845405726 0.40531330452479791 0 -0.12025274126089 0.42574105579372712 0 -0.098926296137628822 0.41605616341005208 0 -0.12025274126089 0.42574105579372712 0 -0.098926296137628822 0.41605616341005208 0 -0.1277268958593005 0.40709158096490278 0 -0.11202845405726 0.40531330452479791 0 -0.12025274126089 0.42574105579372712 0 -0.12025274126089 0.42574105579372712 0 -0.1161249595423428 0.42742254588607831 0 -0.098926296137628822 0.41605616341005208 0 -0.12509104342100061 0.44188941827772182 0 -0.1161249595423428 0.42742254588607831 0 -0.098677616465060528 0.43762344985591101 0 -0.1161249595423428 0.42742254588607831 0 -0.090695480784097504 0.41727281212483158 0 -0.1161249595423428 0.42742254588607831 0 -0.090695480784097504 0.41727281212483158 0 -0.098677616465060528 0.43762344985591101 0 -0.1161249595423428 0.42742254588607831 0 -0.098926296137628822 0.41605616341005208 0 -0.090695480784097504 0.41727281212483158 0 -0.098926296137628822 0.41605616341005208 0 -0.077599851014367602 0.40637127102637732 0 -0.094424665366596924 0.39634464281418252 0 -0.098926296137628822 0.41605616341005208 0 -0.077599851014367602 0.40637127102637732 0 -0.098926296137628822 0.41605616341005208 0 -0.090695480784097504 0.41727281212483158 0 -0.077599851014367602 0.40637127102637732 0 -0.090695480784097504 0.41727281212483158 0 -0.077599851014367602 0.40637127102637732 0 -0.077475511178084946 0.4171549142493044 0 -0.077475511178084946 0.4171549142493044 0 -0.098677616465060528 0.43762344985591101 0 -0.090695480784097504 0.41727281212483158 0 -0.077475511178084946 0.4171549142493044 0 -0.098677616465060528 0.43762344985591101 0 -0.077475511178084946 0.4171549142493044 0 -0.078698858269308614 0.44343419105434712 0 -0.098677616465060528 0.43762344985591101 0 -0.077475511178084946 0.4171549142493044 0 -0.059178928229814701 0.4365201208845606 0 -0.055106871557328428 0.42305161159228227 0 -0.077475511178084946 0.4171549142493044 0 -0.059178928229814701 0.4365201208845606 0 -0.078698858269308614 0.44343419105434712 0 -0.077475511178084946 0.4171549142493044 0 -0.056273405891107527 0.39668637864269979 0 -0.077599851014367602 0.40637127102637732 0 -0.077475511178084946 0.4171549142493044 0 -0.056273405891107527 0.39668637864269979 0 -0.077599851014367602 0.40637127102637732 0 -0.056273405891107527 0.39668637864269979 0 -0.077599851014367602 0.40637127102637732 0 -0.078331801269405671 0.3911923311589619 0 -0.056273405891107527 0.39668637864269979 0 -0.094424665366596924 0.39634464281418252 0 -0.077599851014367602 0.40637127102637732 0 -0.078331801269405671 0.3911923311589619 0 -0.094424665366596924 0.39634464281418252 0 -0.078331801269405671 0.3911923311589619 0 -0.087166581823546807 0.38268142547449258 0 -0.079039419043354958 0.3748493973737258 0 -0.078331801269405671 0.3911923311589619 0 -0.087166581823546807 0.38268142547449258 0 -0.090941745129797052 0.36956363188929697 0 -0.098890550417286477 0.38099249480062602 0 -0.087166581823546807 0.38268142547449258 0 -0.094424665366596924 0.39634464281418252 0 -0.098890550417286477 0.38099249480062602 0 -0.087166581823546807 0.38268142547449258 0 -0.079039419043354958 0.3748493973737258 0 -0.090941745129797052 0.36956363188929697 0 -0.087166581823546807 0.38268142547449258 0 -0.078331801269405671 0.3911923311589619 0 -0.070241768304658683 0.38125320512289401 0 -0.062400115896225239 0.38328565763688038 0 -0.078331801269405671 0.3911923311589619 0 -0.047880784994249512 0.38858413326022379 0 -0.069626031180744216 0.37451783031500979 0 -0.079039419043354958 0.3748493973737258 0 -0.070241768304658683 0.38125320512289401 0 -0.078331801269405671 0.3911923311589619 0 -0.062400115896225239 0.38328565763688038 0 -0.047880784994249512 0.38858413326022379 0 -0.079039419043354958 0.3748493973737258 0 -0.078331801269405671 0.3911923311589619 0 -0.070241768304658683 0.38125320512289401 0 -0.070241768304658683 0.38125320512289401 0 -0.064210651178174066 0.37904237845721811 0 -0.062400115896225239 0.38328565763688038 0 -0.069626031180744216 0.37451783031500979 0 -0.070241768304658683 0.38125320512289401 0 -0.064210651178174066 0.37904237845721811 0 -0.069626031180744216 0.37451783031500979 0 -0.064210651178174066 0.37904237845721811 0 -0.064607287490063475 0.3752877934920828 0 -0.062075486208271788 0.37468365416042188 0 -0.064210651178174066 0.37904237845721811 0 -0.064607287490063475 0.3752877934920828 0 -0.062075486208271788 0.37468365416042188 0 -0.064210651178174066 0.37904237845721811 0 -0.059083848751135488 0.37840884602566088 0 -0.059083848751135488 0.37840884602566088 0 -0.062400115896225239 0.38328565763688038 0 -0.054293362626053041 0.38162223819359442 0 -0.062075486208271788 0.37468365416042188 0 -0.062564083944274151 0.37264302620600032 0 -0.059083848751135488 0.37840884602566088 0 -0.062564083944274151 0.37264302620600032 0 -0.054293362626053041 0.38162223819359442 0 -0.062564083944274151 0.37264302620600032 0 -0.059083848751135488 0.37840884602566088 0 -0.054293362626053041 0.38162223819359442 0 -0.056089193364373929 0.37273715424054699 0 -0.062564083944274151 0.37264302620600032 0 -0.054293362626053041 0.38162223819359442 0 -0.059083848751135488 0.37840884602566088 0 -0.054293362626053041 0.38162223819359442 0 -0.064210651178174066 0.37904237845721811 0 -0.059083848751135488 0.37840884602566088 0 -0.062400115896225239 0.38328565763688038 0 -0.062400115896225239 0.38328565763688038 0 -0.047880784994249512 0.38858413326022379 0 -0.054293362626053041 0.38162223819359442 0 -0.047880784994249512 0.38858413326022379 0 -0.054293362626053041 0.38162223819359442 0 -0.047880784994249512 0.38858413326022379 0 -0.054293362626053041 0.38162223819359442 0 -0.046254793771615982 0.3870143995575549 0 -0.047836657145122599 0.38128015361824008 0 -0.054293362626053041 0.38162223819359442 0 -0.046254793771615982 0.3870143995575549 0 -0.054293362626053041 0.38162223819359442 0 -0.046254793771615982 0.3870143995575549 0 -0.047880784994249512 0.38858413326022379 0 -0.046254793771615982 0.3870143995575549 0 -0.056089193364373929 0.37273715424054699 0 -0.050724207312953518 0.37700173675436199 0 -0.054293362626053041 0.38162223819359442 0 -0.049098878804771373 0.3725140996878949 0 -0.050724207312953518 0.37700173675436199 0 -0.043775979817191349 0.37615739516056462 0 -0.047836657145122599 0.38128015361824008 0 -0.050724207312953518 0.37700173675436199 0 -0.043775979817191349 0.37615739516056462 0 -0.047836657145122599 0.38128015361824008 0 -0.050724207312953518 0.37700173675436199 0 -0.054293362626053041 0.38162223819359442 0 -0.078331801269405671 0.3911923311589619 0 -0.047880784994249512 0.38858413326022379 0 -0.056273405891107527 0.39668637864269979 0 -0.047880784994249512 0.38858413326022379 0 -0.056273405891107527 0.39668637864269979 0 -0.045094078598563243 0.39160955589403151 0 -0.056273405891107527 0.39668637864269979 0 -0.048342871606355781 0.40097934792702961 0 -0.045094078598563243 0.39160955589403151 0 -0.047880784994249512 0.38858413326022379 0 -0.056273405891107527 0.39668637864269979 0 -0.056273405891107527 0.39668637864269979 0 -0.045094078598563243 0.39160955589403151 0 -0.056273405891107527 0.39668637864269979 0 -0.048342871606355781 0.40097934792702961 0 -0.051161828253680347 0.40954535298997258 0 -0.04342775431262437 0.39341862168501102 0 -0.028839939204686131 0.40925606551247828 0 -0.042973684961738069 0.41592643291826231 0 -0.048342871606355781 0.40097934792702961 0 -0.04342775431262437 0.39341862168501102 0 -0.042973684961738069 0.41592643291826231 0 -0.041701311968281377 0.39006881248802111 0 -0.02243782954129785 0.40299049140363558 0 -0.041701311968281377 0.39006881248802111 0 -0.03457878247319518 0.38683428693719679 0 -0.02243782954129785 0.40299049140363558 0 -0.04342775431262437 0.39341862168501102 0 -0.041701311968281377 0.39006881248802111 0 -0.02243782954129785 0.40299049140363558 0 -0.04342775431262437 0.39341862168501102 0 -0.028839939204686131 0.40925606551247828 0 -0.04342775431262437 0.39341862168501102 0 -0.042973684961738069 0.41592643291826231 0 -0.04342775431262437 0.39341862168501102 0 -0.02243782954129785 0.40299049140363558 0 -0.028839939204686131 0.40925606551247828 0 -0.048342871606355781 0.40097934792702961 0 -0.04342775431262437 0.39341862168501102 0 -0.045094078598563243 0.39160955589403151 0 -0.04342775431262437 0.39341862168501102 0 -0.045094078598563243 0.39160955589403151 0 -0.043479046219812342 0.39087612776318198 0 -0.04342775431262437 0.39341862168501102 0 -0.043479046219812342 0.39087612776318198 0 -0.045094078598563243 0.39160955589403151 0 -0.043479046219812342 0.39087612776318198 0 -0.045094078598563243 0.39160955589403151 0 -0.043479046219812342 0.39087612776318198 0 -0.045172553619539632 0.38973569244798251 0 -0.04342775431262437 0.39341862168501102 0 -0.045094078598563243 0.39160955589403151 0 -0.04342775431262437 0.39341862168501102 0 -0.043479046219812342 0.39087612776318198 0 -0.041701311968281377 0.39006881248802111 0 -0.047836657145122599 0.38128015361824008 0 -0.043775979817191349 0.37615739516056462 0 -0.043608491196287617 0.38445965616034072 0 -0.043775979817191349 0.37615739516056462 0 -0.043608491196287617 0.38445965616034072 0 -0.032897312064139907 0.37411907212457252 0 -0.043775979817191349 0.37615739516056462 0 -0.043608491196287617 0.38445965616034072 0 -0.047836657145122599 0.38128015361824008 0 -0.043608491196287617 0.38445965616034072 0 -0.046254793771615982 0.3870143995575549 0 -0.043542573639619581 0.38772713043400647 0 -0.041701311968281377 0.39006881248802111 0 -0.03457878247319518 0.38683428693719679 0 -0.043608491196287617 0.38445965616034072 0 -0.043542573639619581 0.38772713043400647 0 -0.03457878247319518 0.38683428693719679 0 -0.043608491196287617 0.38445965616034072 0 -0.046254793771615982 0.3870143995575549 0 -0.043608491196287617 0.38445965616034072 0 -0.046254793771615982 0.3870143995575549 0 -0.043542573639619581 0.38772713043400647 0 -0.043608491196287617 0.38445965616034072 0 -0.043542573639619581 0.38772713043400647 0 -0.047880784994249512 0.38858413326022379 0 -0.045094078598563243 0.39160955589403151 0 -0.047880784994249512 0.38858413326022379 0 -0.045094078598563243 0.39160955589403151 0 -0.045172553619539632 0.38973569244798251 0 -0.047880784994249512 0.38858413326022379 0 -0.045172553619539632 0.38973569244798251 0 -0.046254793771615982 0.3870143995575549 0 -0.045172553619539632 0.38973569244798251 0 -0.046254793771615982 0.3870143995575549 0 -0.043542573639619581 0.38772713043400647 0 -0.046254793771615982 0.3870143995575549 0 -0.043542573639619581 0.38772713043400647 0 -0.043479046219812342 0.39087612776318198 0 -0.045172553619539632 0.38973569244798251 0 -0.043542573639619581 0.38772713043400647 0 -0.043479046219812342 0.39087612776318198 0 -0.043542573639619581 0.38772713043400647 0 -0.043542573639619581 0.38772713043400647 0 -0.041701311968281377 0.39006881248802111 0 -0.043479046219812342 0.39087612776318198 0 -0.043542573639619581 0.38772713043400647 0 -0.041701311968281377 0.39006881248802111 0 -0.043479046219812342 0.39087612776318198 0 -0.041701311968281377 0.39006881248802111 0 -0.043542573639619581 0.38772713043400647 0 -0.03457878247319518 0.38683428693719679 0 -0.041701311968281377 0.39006881248802111 0 -0.03457878247319518 0.38683428693719679 0 -0.032897312064139907 0.37411907212457252 0 -0.043608491196287617 0.38445965616034072 0 -0.032897312064139907 0.37411907212457252 0 -0.043608491196287617 0.38445965616034072 0 -0.03457878247319518 0.38683428693719679 0 -0.03457878247319518 0.38683428693719679 0 -0.017803283764421592 0.37921609746689411 0 -0.03457878247319518 0.38683428693719679 0 -0.017803283764421592 0.37921609746689411 0 -0.019390911734903489 0.38532149046890818 0 -0.032897312064139907 0.37411907212457252 0 -0.017803283764421592 0.37921609746689411 0 -0.032897312064139907 0.37411907212457252 0 -0.03457878247319518 0.38683428693719679 0 -0.017803283764421592 0.37921609746689411 0 -0.03457878247319518 0.38683428693719679 0 -0.019390911734903489 0.38532149046890818 0 -0.019390911734903489 0.38532149046890818 0 -0.02243782954129785 0.40299049140363558 0 -0.0064316016559190746 0.3999483233353413 0 -0.03457878247319518 0.38683428693719679 0 -0.019390911734903489 0.38532149046890818 0 -0.02243782954129785 0.40299049140363558 0 -0.0064316016559190746 0.3999483233353413 0 -0.0042030409966118051 0.38380869400061962 0 0.010437450069317761 0.40463061763750507 0 -0.001064505034491721 0.37161458349227261 0 -0.017803283764421592 0.37921609746689411 0 -0.001064505034491721 0.37161458349227261 0 -0.017803283764421592 0.37921609746689411 0 -0.0042030409966118051 0.38380869400061962 0 -0.019390911734903489 0.38532149046890818 0 -0.0064316016559190746 0.3999483233353413 0 -0.0042030409966118051 0.38380869400061962 0 -0.017803283764421592 0.37921609746689411 0 -0.0042030409966118051 0.38380869400061962 0 -0.017803283764421592 0.37921609746689411 0 -0.019390911734903489 0.38532149046890818 0 -0.0042030409966118051 0.38380869400061962 0 -0.019390911734903489 0.38532149046890818 0 -0.0042030409966118051 0.38380869400061962 0 -0.014252124096747171 0.42509350933994478 0 0.0048617880261327502 0.44584476697033082 0 -0.014252124096747171 0.42509350933994478 0 -0.010454900682288101 0.44126855924159908 0 0.0048617880261327502 0.44584476697033082 0 -0.014252124096747171 0.42509350933994478 0 -0.0026301228576318379 0.42717885202372191 0 0.0048617880261327502 0.44584476697033082 0 -0.014252124096747171 0.42509350933994478 0 -0.0026301228576318379 0.42717885202372191 0 -0.003174347114314008 0.41591217031924949 0 -0.02243782954129785 0.40299049140363558 0 -0.0064316016559190746 0.3999483233353413 0 -0.003174347114314008 0.41591217031924949 0 -0.02243782954129785 0.40299049140363558 0 -0.003174347114314008 0.41591217031924949 0 -0.02243782954129785 0.40299049140363558 0 -0.014252124096747171 0.42509350933994478 0 -0.003174347114314008 0.41591217031924949 0 -0.014252124096747171 0.42509350933994478 0 -0.003174347114314008 0.41591217031924949 0 -0.014252124096747171 0.42509350933994478 0 -0.028839939204686131 0.40925606551247828 0 -0.02243782954129785 0.40299049140363558 0 -0.014252124096747171 0.42509350933994478 0 -0.028839939204686131 0.40925606551247828 0 -0.014252124096747171 0.42509350933994478 0 -0.028839939204686131 0.40925606551247828 0 -0.022470349574322469 0.43190483207895858 0 -0.014252124096747171 0.42509350933994478 0 -0.022470349574322469 0.43190483207895858 0 -0.010454900682288101 0.44126855924159908 0 -0.014252124096747171 0.42509350933994478 0 -0.022470349574322469 0.43190483207895858 0 -0.022470349574322469 0.43190483207895858 0 -0.010454900682288101 0.44126855924159908 0 -0.022470349574322469 0.43190483207895858 0 -0.042646571141636773 0.43214117214318359 0 -0.04231945732153318 0.44835591136810488 0 -0.022470349574322469 0.43190483207895858 0 -0.042646571141636773 0.43214117214318359 0 -0.042973684961738069 0.41592643291826231 0 -0.042646571141636773 0.43214117214318359 0 -0.042973684961738069 0.41592643291826231 0 -0.022470349574322469 0.43190483207895858 0 -0.042973684961738069 0.41592643291826231 0 -0.028839939204686131 0.40925606551247828 0 -0.022470349574322469 0.43190483207895858 0 -0.042973684961738069 0.41592643291826231 0 -0.077475511178084946 0.4171549142493044 0 -0.051161828253680347 0.40954535298997258 0 -0.055106871557328428 0.42305161159228227 0 -0.077475511178084946 0.4171549142493044 0 -0.056273405891107527 0.39668637864269979 0 -0.051161828253680347 0.40954535298997258 0 -0.048342871606355781 0.40097934792702961 0 -0.042973684961738069 0.41592643291826231 0 -0.051161828253680347 0.40954535298997258 0 -0.042973684961738069 0.41592643291826231 0 -0.051161828253680347 0.40954535298997258 0 -0.042973684961738069 0.41592643291826231 0 -0.051161828253680347 0.40954535298997258 0 -0.055106871557328428 0.42305161159228227 0 -0.042646571141636773 0.43214117214318359 0 -0.059178928229814701 0.4365201208845606 0 -0.055106871557328428 0.42305161159228227 0 -0.042646571141636773 0.43214117214318359 0 -0.042973684961738069 0.41592643291826231 0 -0.055106871557328428 0.42305161159228227 0 -0.042646571141636773 0.43214117214318359 0 -0.059178928229814701 0.4365201208845606 0 -0.049245987713513212 0.44319563894678482 0 -0.059178928229814701 0.4365201208845606 0 -0.050742244958162368 0.46439359559444437 0 -0.049245987713513212 0.44319563894678482 0 -0.050742244958162368 0.46439359559444437 0 -0.044608833217136261 0.45025336211807931 0 -0.059178928229814701 0.4365201208845606 0 -0.050742244958162368 0.46439359559444437 0 -0.065484051744298263 0.4513847118260722 0 -0.059178928229814701 0.4365201208845606 0 -0.049245987713513212 0.44319563894678482 0 -0.050742244958162368 0.46439359559444437 0 -0.050742244958162368 0.46439359559444437 0 -0.061707257777874093 0.47273252787991399 0 -0.073231504917427276 0.46237159316971249 0 -0.050742244958162368 0.46439359559444437 0 -0.073231504917427276 0.46237159316971249 0 -0.0419800222431604 0.46518140433549732 0 -0.04231945732153318 0.44835591136810488 0 -0.025697431038521311 0.45487791879973932 0 -0.0419800222431604 0.46518140433549732 0 -0.04231945732153318 0.44835591136810488 0 -0.0419800222431604 0.46518140433549732 0 -0.044608833217136261 0.45025336211807931 0 -0.04231945732153318 0.44835591136810488 0 -0.050742244958162368 0.46439359559444437 0 -0.0419800222431604 0.46518140433549732 0 -0.050742244958162368 0.46439359559444437 0 -0.0419800222431604 0.46518140433549732 0 -0.044608833217136261 0.45025336211807931 0 -0.022470349574322469 0.43190483207895858 0 -0.04231945732153318 0.44835591136810488 0 -0.042646571141636773 0.43214117214318359 0 -0.049245987713513212 0.44319563894678482 0 -0.04231945732153318 0.44835591136810488 0 -0.042646571141636773 0.43214117214318359 0 -0.04231945732153318 0.44835591136810488 0 -0.049245987713513212 0.44319563894678482 0 -0.044608833217136261 0.45025336211807931 0 -0.04231945732153318 0.44835591136810488 0 -0.044608833217136261 0.45025336211807931 0 -0.04231945732153318 0.44835591136810488 0 -0.022470349574322469 0.43190483207895858 0 -0.04231945732153318 0.44835591136810488 0 -0.022362297003099281 0.44511471557515531 0 -0.04231945732153318 0.44835591136810488 0 -0.022362297003099281 0.44511471557515531 0 -0.025697431038521311 0.45487791879973932 0 -0.022470349574322469 0.43190483207895858 0 -0.022362297003099281 0.44511471557515531 0 -0.010454900682288101 0.44126855924159908 0 -0.022362297003099281 0.44511471557515531 0 -0.025697431038521311 0.45487791879973932 0 -0.01311544116488466 0.453963754661173 0 -0.0419800222431604 0.46518140433549732 0 -0.025697431038521311 0.45487791879973932 0 -0.01345201465746383 0.46774634869629322 0 -0.0419800222431604 0.46518140433549732 0 -0.01345201465746383 0.46774634869629322 0 -0.025697431038521311 0.45487791879973932 0 -0.01311544116488466 0.453963754661173 0 -0.01345201465746383 0.46774634869629322 0 -0.0094095992007081283 0.46654139838691122 0 -0.010427957625441169 0.46801824073108461 0 0.0053167838454733218 0.46943384557929257 0 -0.0094095992007081283 0.46654139838691122 0 0.0015605482097463411 0.45063228640423969 0 -0.010427957625441169 0.46801824073108461 0 0.0053167838454733218 0.46943384557929257 0 -0.0094095992007081283 0.46654139838691122 0 0.0080738590363113663 0.46132998490476868 0 -0.01311544116488466 0.453963754661173 0 -0.0094095992007081283 0.46654139838691122 0 0.0015605482097463411 0.45063228640423969 0 -0.01311544116488466 0.453963754661173 0 -0.01345201465746383 0.46774634869629322 0 -0.0094095992007081283 0.46654139838691122 0 -0.01345201465746383 0.46774634869629322 0 -0.010427957625441169 0.46801824073108461 0 -0.01345201465746383 0.46774634869629322 0 -0.0094095992007081283 0.46654139838691122 0 -0.01345201465746383 0.46774634869629322 0 -0.0094095992007081283 0.46654139838691122 0 -0.010427957625441169 0.46801824073108461 0 -0.0094095992007081283 0.46654139838691122 0 -0.010427957625441169 0.46801824073108461 0 -0.01311544116488466 0.453963754661173 0 -0.010454900682288101 0.44126855924159908 0 0.0015605482097463411 0.45063228640423969 0 -0.010454900682288101 0.44126855924159908 0 0.0048617880261327502 0.44584476697033082 0 0.0015605482097463411 0.45063228640423969 0 -0.010454900682288101 0.44126855924159908 0 0.0015605482097463411 0.45063228640423969 0 -0.022362297003099281 0.44511471557515531 0 -0.01311544116488466 0.453963754661173 0 -0.010454900682288101 0.44126855924159908 0 -0.0067005321321746969 0.5 0 -0.003880604538310756 0.48346324919380129 0 -0.021454488019086362 0.48400912036554289 0 -0.01345201465746383 0.46774634869629322 0 -0.010427957625441169 0.46801824073108461 0 -0.021454488019086362 0.48400912036554289 0 -0.010427957625441169 0.46801824073108461 0 -0.003880604538310756 0.48346324919380129 0 -0.021454488019086362 0.48400912036554289 0 -0.010427957625441169 0.46801824073108461 0 -0.001026908195020756 0.47486914558720472 0 0.0053167838454733218 0.46943384557929257 0 -0.010427957625441169 0.46801824073108461 0 -0.003880604538310756 0.48346324919380129 0 -0.001026908195020756 0.47486914558720472 0 -0.010427957625441169 0.46801824073108461 0 -0.021454488019086362 0.48400912036554289 0 -0.01345201465746383 0.46774634869629322 0 -0.021454488019086362 0.48400912036554289 0 -0.032447842195153342 0.48378293317924542 0 -0.01345201465746383 0.46774634869629322 0 -0.032447842195153342 0.48378293317924542 0 -0.041758062999807367 0.47618372532725728 0 -0.01345201465746383 0.46774634869629322 0 -0.041758062999807367 0.47618372532725728 0 -0.021454488019086362 0.48400912036554289 0 -0.032481018412731863 0.50000000000000089 0 -0.033555046977316587 0.49207813668870121 0 -0.021454488019086362 0.48400912036554289 0 -0.032481018412731863 0.50000000000000089 0 -0.021454488019086362 0.48400912036554289 0 -0.033555046977316587 0.49207813668870121 0 -0.032447842195153342 0.48378293317924542 0 -0.0067005321321746969 0.5 0 -0.021454488019086362 0.48400912036554289 0 -0.032481018412731863 0.50000000000000089 0 -0.033555046977316587 0.49207813668870121 0 -0.039964975186860582 0.49999999999999872 0 -0.042139887415076342 0.49281443204190178 0 -0.032481018412731863 0.50000000000000089 0 -0.033555046977316587 0.49207813668870121 0 -0.039964975186860582 0.49999999999999872 0 -0.042139887415076342 0.49281443204190178 0 -0.041758062999807367 0.47618372532725728 0 -0.033555046977316587 0.49207813668870121 0 -0.042139887415076342 0.49281443204190178 0 -0.032447842195153342 0.48378293317924542 0 -0.042139887415076342 0.49281443204190178 0 -0.046725468384182907 0.47766439368476649 0 -0.039964975186860582 0.49999999999999872 0 -0.042139887415076342 0.49281443204190178 0 -0.053580454847170257 0.49193017513362319 0 -0.039964975186860582 0.49999999999999872 0 -0.042139887415076342 0.49281443204190178 0 -0.042139887415076342 0.49281443204190178 0 -0.046725468384182907 0.47766439368476649 0 -0.041758062999807367 0.47618372532725728 0 -0.0419800222431604 0.46518140433549732 0 -0.01345201465746383 0.46774634869629322 0 -0.041758062999807367 0.47618372532725728 0 -0.042139887415076342 0.49281443204190178 0 -0.032447842195153342 0.48378293317924542 0 -0.041758062999807367 0.47618372532725728 0 -0.046725468384182907 0.47766439368476649 0 -0.041758062999807367 0.47618372532725728 0 -0.0419800222431604 0.46518140433549732 0 -0.046725468384182907 0.47766439368476649 0 -0.041758062999807367 0.47618372532725728 0 -0.050742244958162368 0.46439359559444437 0 -0.0419800222431604 0.46518140433549732 0 -0.046725468384182907 0.47766439368476649 0 -0.0419800222431604 0.46518140433549732 0 -0.041758062999807367 0.47618372532725728 0 -0.046725468384182907 0.47766439368476649 0 -0.061707257777874093 0.47273252787991399 0 -0.071702929972361051 0.48510959578984503 0 -0.046725468384182907 0.47766439368476649 0 -0.071702929972361051 0.48510959578984503 0 -0.050742244958162368 0.46439359559444437 0 -0.046725468384182907 0.47766439368476649 0 -0.061707257777874093 0.47273252787991399 0 -0.050742244958162368 0.46439359559444437 0 -0.046725468384182907 0.47766439368476649 0 -0.046725468384182907 0.47766439368476649 0 -0.053580454847170257 0.49193017513362319 0 -0.071702929972361051 0.48510959578984503 0 -0.039964975186860582 0.49999999999999872 0 -0.053580454847170257 0.49193017513362319 0 -0.067195934507479516 0.5 0 -0.042139887415076342 0.49281443204190178 0 -0.046725468384182907 0.47766439368476649 0 -0.053580454847170257 0.49193017513362319 0 -0.053580454847170257 0.49193017513362319 0 -0.067195934507479516 0.5 0 -0.071702929972361051 0.48510959578984503 0 -0.067195934507479516 0.5 0 -0.071702929972361051 0.48510959578984503 0 -0.094426893828098324 0.5 0 -0.071702929972361051 0.48510959578984503 0 -0.096680391560538939 0.49255479789492401 0 -0.071702929972361051 0.48510959578984503 0 -0.094426893828098324 0.5 0 -0.096680391560538939 0.49255479789492401 0 -0.071702929972361051 0.48510959578984503 0 -0.094342239683345888 0.46564946071770819 0 -0.096680391560538939 0.49255479789492401 0 -0.071702929972361051 0.48510959578984503 0 -0.073231504917427276 0.46237159316971249 0 -0.094342239683345888 0.46564946071770819 0 -0.061707257777874093 0.47273252787991399 0 -0.071702929972361051 0.48510959578984503 0 -0.073231504917427276 0.46237159316971249 0 -0.050742244958162368 0.46439359559444437 0 -0.073231504917427276 0.46237159316971249 0 -0.065484051744298263 0.4513847118260722 0 -0.059178928229814701 0.4365201208845606 0 -0.065484051744298263 0.4513847118260722 0 -0.078698858269308614 0.44343419105434712 0 -0.073231504917427276 0.46237159316971249 0 -0.065484051744298263 0.4513847118260722 0 -0.078698858269308614 0.44343419105434712 0 -0.078698858269308614 0.44343419105434712 0 -0.094342239683345888 0.46564946071770819 0 -0.098677616465060528 0.43762344985591101 0 -0.073231504917427276 0.46237159316971249 0 -0.078698858269308614 0.44343419105434712 0 -0.094342239683345888 0.46564946071770819 0 -0.094342239683345888 0.46564946071770819 0 -0.098677616465060528 0.43762344985591101 0 -0.11987972175203609 0.45809198546251739 0 -0.098677616465060528 0.43762344985591101 0 -0.11987972175203609 0.45809198546251739 0 -0.12509104342100061 0.44188941827772182 0 -0.098677616465060528 0.43762344985591101 0 -0.11987972175203609 0.45809198546251739 0 -0.094342239683345888 0.46564946071770819 0 -0.11987972175203609 0.45809198546251739 0 -0.1215246548466888 0.48036061179670092 0 -0.1215246548466888 0.48036061179670092 0 -0.1216578531487173 0.50000000000000155 0 -0.096680391560538939 0.49255479789492401 0 -0.1216578531487173 0.50000000000000155 0 -0.094426893828098324 0.5 0 -0.096680391560538939 0.49255479789492401 0 -0.1216578531487173 0.50000000000000155 0 -0.096680391560538939 0.49255479789492401 0 -0.094342239683345888 0.46564946071770819 0 -0.1215246548466888 0.48036061179670092 0 -0.096680391560538939 0.49255479789492401 0 -0.16310986573530631 0.084156321085019567 0 -0.17544541039362899 0.09436804860009354 0 -0.15783765240444911 0.096274401630791262 0 -0.16310986573530631 0.084156321085019567 0 -0.15783765240444911 0.096274401630791262 0 -0.16310986573530631 0.084156321085019567 0 -0.1657815390990264 0.070802932860687437 0 -0.15463431661472629 0.07014553381523804 0 -0.16310986573530631 0.084156321085019567 0 -0.1657815390990264 0.070802932860687437 0 -0.17966236107341149 0.074300518116336353 0 -0.1657815390990264 0.070802932860687437 0 -0.17966236107341149 0.074300518116336353 0 -0.1657196129726615 0.054609358426155781 0 -0.1657815390990264 0.070802932860687437 0 -0.15463431661472629 0.07014553381523804 0 -0.1657196129726615 0.054609358426155781 0 -0.17966236107341149 0.074300518116336353 0 -0.1657196129726615 0.054609358426155781 0 -0.19326118210642521 0.060262893486061127 0 -0.17966236107341149 0.074300518116336353 0 -0.1657196129726615 0.054609358426155781 0 -0.16310986573530631 0.084156321085019567 0 -0.17966236107341149 0.074300518116336353 0 -0.17544541039362899 0.09436804860009354 0 -0.17966236107341149 0.074300518116336353 0 -0.17544541039362899 0.09436804860009354 0 -0.19360510917416149 0.093991677806516877 0 -0.17966236107341149 0.074300518116336353 0 -0.19360510917416149 0.093991677806516877 0 -0.17544541039362899 0.09436804860009354 0 -0.18934336527218601 0.1087413065502997 0 -0.19360510917416149 0.093991677806516877 0 -0.17544541039362899 0.09436804860009354 0 -0.16911410870225951 0.1087440664115976 0 -0.18934336527218601 0.1087413065502997 0 -0.18039056500006781 0.12121373119240569 0 -0.16911410870225951 0.1087440664115976 0 -0.18934336527218601 0.1087413065502997 0 -0.18039056500006781 0.12121373119240569 0 -0.16911410870225951 0.1087440664115976 0 -0.18039056500006781 0.12121373119240569 0 -0.16911410870225951 0.1087440664115976 0 -0.15507510040999009 0.1056512286087255 0 -0.18039056500006781 0.12121373119240569 0 -0.15507510040999009 0.1056512286087255 0 -0.1628447509754036 0.1248738178506951 0 -0.15507510040999009 0.1056512286087255 0 -0.15358711882774939 0.11801712706942639 0 -0.18039056500006781 0.12121373119240569 0 -0.1628447509754036 0.1248738178506951 0 -0.15507510040999009 0.1056512286087255 0 -0.17544541039362899 0.09436804860009354 0 -0.16911410870225951 0.1087440664115976 0 -0.15783765240444911 0.096274401630791262 0 -0.16911410870225951 0.1087440664115976 0 -0.15783765240444911 0.096274401630791262 0 -0.16911410870225951 0.1087440664115976 0 -0.15783765240444911 0.096274401630791262 0 -0.15507510040999009 0.1056512286087255 0 -0.15783765240444911 0.096274401630791262 0 -0.14455303356647331 0.096744639073681929 0 -0.15139402388202119 0.11108495737684999 0 -0.14455303356647331 0.096744639073681929 0 -0.15139402388202119 0.11108495737684999 0 -0.12991930243541749 0.1020465165188278 0 -0.15783765240444911 0.096274401630791262 0 -0.15507510040999009 0.1056512286087255 0 -0.15139402388202119 0.11108495737684999 0 -0.15783765240444911 0.096274401630791262 0 -0.15139402388202119 0.11108495737684999 0 -0.15139402388202119 0.11108495737684999 0 -0.12991930243541749 0.1020465165188278 0 -0.14495039535959489 0.12589551312290931 0 -0.1628447509754036 0.1248738178506951 0 -0.15358711882774939 0.11801712706942639 0 -0.14495039535959489 0.12589551312290931 0 -0.15358711882774939 0.11801712706942639 0 -0.15139402388202119 0.11108495737684999 0 -0.14495039535959489 0.12589551312290931 0 -0.15507510040999009 0.1056512286087255 0 -0.15358711882774939 0.11801712706942639 0 -0.15139402388202119 0.11108495737684999 0 -0.15139402388202119 0.11108495737684999 0 -0.14495039535959489 0.12589551312290931 0 -0.12991930243541749 0.1020465165188278 0 -0.14495039535959489 0.12589551312290931 0 -0.12991930243541749 0.1020465165188278 0 -0.14495039535959489 0.12589551312290931 0 -0.13028426483969929 0.13221647237215789 0 -0.14455303356647331 0.096744639073681929 0 -0.12991930243541749 0.1020465165188278 0 -0.13683438329036771 0.088098653177494879 0 -0.12991930243541749 0.1020465165188278 0 -0.13683438329036771 0.088098653177494879 0 -0.1248370695698198 0.083226530136874921 0 -0.13683438329036771 0.088098653177494879 0 -0.13729578978526799 0.073558919561796721 0 -0.1248370695698198 0.083226530136874921 0 -0.13683438329036771 0.088098653177494879 0 -0.14756672109485969 0.08491666059629295 0 -0.13729578978526799 0.073558919561796721 0 -0.14455303356647331 0.096744639073681929 0 -0.13683438329036771 0.088098653177494879 0 -0.14756672109485969 0.08491666059629295 0 -0.14756672109485969 0.08491666059629295 0 -0.13729578978526799 0.073558919561796721 0 -0.16310986573530631 0.084156321085019567 0 -0.14756672109485969 0.08491666059629295 0 -0.15463431661472629 0.07014553381523804 0 -0.16310986573530631 0.084156321085019567 0 -0.15783765240444911 0.096274401630791262 0 -0.14756672109485969 0.08491666059629295 0 -0.15783765240444911 0.096274401630791262 0 -0.14756672109485969 0.08491666059629295 0 -0.15783765240444911 0.096274401630791262 0 -0.14455303356647331 0.096744639073681929 0 -0.14756672109485969 0.08491666059629295 0 -0.14756672109485969 0.08491666059629295 0 -0.15463431661472629 0.07014553381523804 0 -0.13729578978526799 0.073558919561796721 0 -0.15463431661472629 0.07014553381523804 0 -0.13729578978526799 0.073558919561796721 0 -0.14428807100988511 0.057223156242914672 0 -0.13729578978526799 0.073558919561796721 0 -0.1311901693420546 0.060374133793646992 0 -0.14428807100988511 0.057223156242914672 0 -0.13729578978526799 0.073558919561796721 0 -0.12498233095038511 0.069533312171706482 0 -0.1248370695698198 0.083226530136874921 0 -0.13729578978526799 0.073558919561796721 0 -0.1311901693420546 0.060374133793646992 0 -0.12498233095038511 0.069533312171706482 0 -0.1311901693420546 0.060374133793646992 0 -0.1304591025064194 0.044551821316570157 0 -0.1169815729820268 0.057446916627697332 0 -0.1311901693420546 0.060374133793646992 0 -0.1304591025064194 0.044551821316570157 0 -0.14428807100988511 0.057223156242914672 0 -0.1304591025064194 0.044551821316570157 0 -0.1338093633065561 0.031702984145267947 0 -0.14718764802187309 0.041237794311798179 0 -0.1304591025064194 0.044551821316570157 0 -0.1338093633065561 0.031702984145267947 0 -0.120950474974805 0.030974477430810402 0 -0.14718764802187309 0.041237794311798179 0 -0.14507935476777459 0.024735833563247479 0 -0.16332082262574071 0.033969476032413119 0 -0.1338093633065561 0.031702984145267947 0 -0.14718764802187309 0.041237794311798179 0 -0.14507935476777459 0.024735833563247479 0 -0.1304591025064194 0.044551821316570157 0 -0.14718764802187309 0.041237794311798179 0 -0.14428807100988511 0.057223156242914672 0 -0.15463431661472629 0.07014553381523804 0 -0.14428807100988511 0.057223156242914672 0 -0.1657196129726615 0.054609358426155781 0 -0.14718764802187309 0.041237794311798179 0 -0.14428807100988511 0.057223156242914672 0 -0.1657196129726615 0.054609358426155781 0 -0.1273771369441013 0.0023450629401116992 0 -0.12537023626190849 0.01701499410391356 0 -0.14358534871595791 0.0085390787577918573 0 -0.14275634286812811 -0.006203461430080404 0 -0.1273771369441013 0.0023450629401116992 0 -0.14358534871595791 0.0085390787577918573 0 -0.1338093633065561 0.031702984145267947 0 -0.12537023626190849 0.01701499410391356 0 -0.14507935476777459 0.024735833563247479 0 -0.12537023626190849 0.01701499410391356 0 -0.14507935476777459 0.024735833563247479 0 -0.14358534871595791 0.0085390787577918573 0 -0.1338093633065561 0.031702984145267947 0 -0.12537023626190849 0.01701499410391356 0 -0.120950474974805 0.030974477430810402 0 -0.14507935476777459 0.024735833563247479 0 -0.14358534871595791 0.0085390787577918573 0 -0.1631610812614456 0.0141265482177085 0 -0.15796117991031841 -0.00029962151665172479 0 -0.14358534871595791 0.0085390787577918573 0 -0.1631610812614456 0.0141265482177085 0 -0.14275634286812811 -0.006203461430080404 0 -0.15796117991031841 -0.00029962151665172479 0 -0.14358534871595791 0.0085390787577918573 0 -0.15796117991031841 -0.00029962151665172479 0 -0.17967452986780849 -0.0030086181600807401 0 -0.1631610812614456 0.0141265482177085 0 -0.1631610812614456 0.0141265482177085 0 -0.18063081477410151 0.02444866588981499 0 -0.16332082262574071 0.033969476032413119 0 -0.14507935476777459 0.024735833563247479 0 -0.1631610812614456 0.0141265482177085 0 -0.16332082262574071 0.033969476032413119 0 -0.17967452986780849 -0.0030086181600807401 0 -0.1631610812614456 0.0141265482177085 0 -0.18063081477410151 0.02444866588981499 0 -0.17967452986780849 -0.0030086181600807401 0 -0.18063081477410151 0.02444866588981499 0 -0.19591489879339791 0.012499298725408061 0 -0.1657196129726615 0.054609358426155781 0 -0.16332082262574071 0.033969476032413119 0 -0.1853408533429271 0.041769259974547668 0 -0.14718764802187309 0.041237794311798179 0 -0.1657196129726615 0.054609358426155781 0 -0.16332082262574071 0.033969476032413119 0 -0.18063081477410151 0.02444866588981499 0 -0.16332082262574071 0.033969476032413119 0 -0.1853408533429271 0.041769259974547668 0 -0.1657196129726615 0.054609358426155781 0 -0.1853408533429271 0.041769259974547668 0 -0.19326118210642521 0.060262893486061127 0 -0.1853408533429271 0.041769259974547668 0 -0.19326118210642521 0.060262893486061127 0 -0.20638984228336041 0.047204147208118788 0 -0.18063081477410151 0.02444866588981499 0 -0.1853408533429271 0.041769259974547668 0 -0.2003712226561333 0.029120430419108619 0 -0.1853408533429271 0.041769259974547668 0 -0.20638984228336041 0.047204147208118788 0 -0.2003712226561333 0.029120430419108619 0 -0.20638984228336041 0.047204147208118788 0 -0.2003712226561333 0.029120430419108619 0 -0.21890969838457369 0.03387481538926377 0 -0.20638984228336041 0.047204147208118788 0 -0.2248274879423891 0.050626958701997932 0 -0.21890969838457369 0.03387481538926377 0 -0.20638984228336041 0.047204147208118788 0 -0.2248274879423891 0.050626958701997932 0 -0.21240822864659401 0.064474545157398255 0 -0.19326118210642521 0.060262893486061127 0 -0.20638984228336041 0.047204147208118788 0 -0.21240822864659401 0.064474545157398255 0 -0.17967452986780849 -0.0030086181600807401 0 -0.20680301002479959 -0.0020434230711429339 0 -0.19591489879339791 0.012499298725408061 0 -0.18063081477410151 0.02444866588981499 0 -0.19591489879339791 0.012499298725408061 0 -0.2003712226561333 0.029120430419108619 0 -0.2003712226561333 0.029120430419108619 0 -0.2150412283584397 0.01492639532749848 0 -0.21890969838457369 0.03387481538926377 0 -0.19591489879339791 0.012499298725408061 0 -0.2003712226561333 0.029120430419108619 0 -0.2150412283584397 0.01492639532749848 0 -0.20680301002479959 -0.0020434230711429339 0 -0.19591489879339791 0.012499298725408061 0 -0.2150412283584397 0.01492639532749848 0 -0.20680301002479959 -0.0020434230711429339 0 -0.2150412283584397 0.01492639532749848 0 -0.22850437187820721 0.00061554774341724197 0 -0.2150412283584397 0.01492639532749848 0 -0.22850437187820721 0.00061554774341724197 0 -0.23416676111704099 0.01917273774715204 0 -0.23416676111704099 0.01917273774715204 0 -0.21890969838457369 0.03387481538926377 0 -0.23451298379830759 0.036058925104307242 0 -0.2150412283584397 0.01492639532749848 0 -0.23416676111704099 0.01917273774715204 0 -0.21890969838457369 0.03387481538926377 0 -0.25132042997239518 0.0027134119798401068 0 -0.25642639863326749 0.02710060176493858 0 -0.23416676111704099 0.01917273774715204 0 -0.25642639863326749 0.02710060176493858 0 -0.23416676111704099 0.01917273774715204 0 -0.23451298379830759 0.036058925104307242 0 -0.25132042997239518 0.0027134119798401068 0 -0.22850437187820721 0.00061554774341724197 0 -0.23416676111704099 0.01917273774715204 0 -0.2248274879423891 0.050626958701997932 0 -0.234130504556473 0.067172247096954504 0 -0.21240822864659401 0.064474545157398255 0 -0.2248274879423891 0.050626958701997932 0 -0.21890969838457369 0.03387481538926377 0 -0.23451298379830759 0.036058925104307242 0 -0.25642639863326749 0.02710060176493858 0 -0.23451298379830759 0.036058925104307242 0 -0.24534917185526489 0.049526218608574313 0 -0.2248274879423891 0.050626958701997932 0 -0.23451298379830759 0.036058925104307242 0 -0.24534917185526489 0.049526218608574313 0 -0.26195798501385009 0.070226375813507561 0 -0.24534917185526489 0.049526218608574313 0 -0.234130504556473 0.067172247096954504 0 -0.2248274879423891 0.050626958701997932 0 -0.24534917185526489 0.049526218608574313 0 -0.234130504556473 0.067172247096954504 0 -0.26195798501385009 0.070226375813507561 0 -0.24382127576753621 0.084711863041238192 0 -0.234130504556473 0.067172247096954504 0 -0.24382127576753621 0.084711863041238192 0 -0.22568456652122221 0.099197350268968809 0 -0.24382127576753621 0.084711863041238192 0 -0.221160002309051 0.081738136999685213 0 -0.22568456652122221 0.099197350268968809 0 -0.221160002309051 0.081738136999685213 0 -0.20949418686790969 0.097522886253834359 0 -0.22568456652122221 0.099197350268968809 0 -0.24382127576753621 0.084711863041238192 0 -0.221160002309051 0.081738136999685213 0 -0.234130504556473 0.067172247096954504 0 -0.221160002309051 0.081738136999685213 0 -0.234130504556473 0.067172247096954504 0 -0.21240822864659401 0.064474545157398255 0 -0.221160002309051 0.081738136999685213 0 -0.21240822864659401 0.064474545157398255 0 -0.19789508720454749 0.077516785054754192 0 -0.221160002309051 0.081738136999685213 0 -0.19789508720454749 0.077516785054754192 0 -0.20949418686790969 0.097522886253834359 0 -0.17966236107341149 0.074300518116336353 0 -0.19789508720454749 0.077516785054754192 0 -0.19360510917416149 0.093991677806516877 0 -0.19789508720454749 0.077516785054754192 0 -0.19360510917416149 0.093991677806516877 0 -0.20949418686790969 0.097522886253834359 0 -0.19326118210642521 0.060262893486061127 0 -0.21240822864659401 0.064474545157398255 0 -0.19789508720454749 0.077516785054754192 0 -0.17966236107341149 0.074300518116336353 0 -0.19326118210642521 0.060262893486061127 0 -0.19789508720454749 0.077516785054754192 0 -0.20040659369392541 0.1193864456313013 0 -0.18934336527218601 0.1087413065502997 0 -0.2075478572749084 0.11368283749669961 0 -0.18039056500006781 0.12121373119240569 0 -0.20040659369392541 0.1193864456313013 0 -0.18934336527218601 0.1087413065502997 0 -0.19360510917416149 0.093991677806516877 0 -0.2075478572749084 0.11368283749669961 0 -0.18934336527218601 0.1087413065502997 0 -0.19360510917416149 0.093991677806516877 0 -0.2075478572749084 0.11368283749669961 0 -0.19360510917416149 0.093991677806516877 0 -0.20949418686790969 0.097522886253834359 0 -0.2075478572749084 0.11368283749669961 0 -0.2075478572749084 0.11368283749669961 0 -0.22568456652122221 0.099197350268968809 0 -0.20949418686790969 0.097522886253834359 0 -0.2075478572749084 0.11368283749669961 0 -0.22568456652122221 0.099197350268968809 0 -0.2075478572749084 0.11368283749669961 0 -0.22488407219564061 0.1186598638475915 0 -0.22370276663374011 0.1364982034250237 0 -0.20040659369392541 0.1193864456313013 0 -0.2075478572749084 0.11368283749669961 0 -0.20214902218410111 0.13458958866239301 0 -0.20040659369392541 0.1193864456313013 0 -0.2075478572749084 0.11368283749669961 0 -0.2075478572749084 0.11368283749669961 0 -0.22488407219564061 0.1186598638475915 0 -0.22568456652122221 0.099197350268968809 0 -0.22488407219564061 0.1186598638475915 0 -0.23975573915859391 0.1186480270080747 0 -0.23562440086935879 0.12869665656040569 0 -0.22488407219564061 0.1186598638475915 0 -0.22568456652122221 0.099197350268968809 0 -0.23888908650362611 0.1045060591559635 0 -0.24382127576753621 0.084711863041238192 0 -0.22568456652122221 0.099197350268968809 0 -0.23888908650362611 0.1045060591559635 0 -0.25364395357421121 0.10678394025260531 0 -0.24382127576753621 0.084711863041238192 0 -0.23888908650362611 0.1045060591559635 0 -0.25033803458298193 0.12914144363467839 0 -0.25364395357421121 0.10678394025260531 0 -0.23975573915859391 0.1186480270080747 0 -0.22488407219564061 0.1186598638475915 0 -0.23888908650362611 0.1045060591559635 0 -0.23975573915859391 0.1186480270080747 0 -0.25364395357421121 0.10678394025260531 0 -0.23888908650362611 0.1045060591559635 0 -0.23975573915859391 0.1186480270080747 0 -0.25033803458298193 0.12914144363467839 0 -0.23975573915859391 0.1186480270080747 0 -0.23562440086935879 0.12869665656040569 0 -0.25033803458298193 0.12914144363467839 0 -0.2394413917758374 0.14053574488666021 0 -0.23562440086935879 0.12869665656040569 0 -0.2394413917758374 0.14053574488666021 0 -0.23562440086935879 0.12869665656040569 0 -0.22370276663374011 0.1364982034250237 0 -0.22488407219564061 0.1186598638475915 0 -0.23562440086935879 0.12869665656040569 0 -0.22370276663374011 0.1364982034250237 0 -0.2394413917758374 0.14053574488666021 0 -0.22370276663374011 0.1364982034250237 0 -0.22390747936813421 0.14796544613238069 0 -0.22390747936813421 0.14796544613238069 0 -0.22774584105848089 0.15976823357977049 0 -0.2168312664826515 0.15850745189495519 0 -0.2394413917758374 0.14053574488666021 0 -0.22390747936813421 0.14796544613238069 0 -0.24566593655216731 0.1613413036023684 0 -0.22390747936813421 0.14796544613238069 0 -0.24566593655216731 0.1613413036023684 0 -0.26077588748637798 0.14053443996503889 0 -0.2394413917758374 0.14053574488666021 0 -0.24566593655216731 0.1613413036023684 0 -0.24566593655216731 0.1613413036023684 0 -0.2425545525554833 0.18325607046718431 0 -0.22457868183097049 0.171258732689378 0 -0.2425545525554833 0.18325607046718431 0 -0.2235130486054053 0.18492553164669809 0 -0.22457868183097049 0.171258732689378 0 -0.2425545525554833 0.18325607046718431 0 -0.2235130486054053 0.18492553164669809 0 -0.2315679775879351 0.19375458513227489 0 -0.2235130486054053 0.18492553164669809 0 -0.22457868183097049 0.171258732689378 0 -0.209750232499154 0.17791844316711489 0 -0.24566593655216731 0.1613413036023684 0 -0.22774584105848089 0.15976823357977049 0 -0.22457868183097049 0.171258732689378 0 -0.22390747936813421 0.14796544613238069 0 -0.24566593655216731 0.1613413036023684 0 -0.22774584105848089 0.15976823357977049 0 -0.22774584105848089 0.15976823357977049 0 -0.22457868183097049 0.171258732689378 0 -0.2168312664826515 0.15850745189495519 0 -0.2168312664826515 0.15850745189495519 0 -0.21186753860838101 0.16733255095299371 0 -0.20758447520558959 0.15683863127083711 0 -0.22457868183097049 0.171258732689378 0 -0.2168312664826515 0.15850745189495519 0 -0.21186753860838101 0.16733255095299371 0 -0.21186753860838101 0.16733255095299371 0 -0.209750232499154 0.17791844316711489 0 -0.20173639765426299 0.1643971743801825 0 -0.21186753860838101 0.16733255095299371 0 -0.20758447520558959 0.15683863127083711 0 -0.20173639765426299 0.1643971743801825 0 -0.20758447520558959 0.15683863127083711 0 -0.20173639765426299 0.1643971743801825 0 -0.20024290349544879 0.15519061181074151 0 -0.22457868183097049 0.171258732689378 0 -0.21186753860838101 0.16733255095299371 0 -0.209750232499154 0.17791844316711489 0 -0.19610042498268601 0.17522502183351021 0 -0.19038698318195549 0.16711234260031069 0 -0.17752183765376101 0.1775748035498933 0 -0.19610042498268601 0.17522502183351021 0 -0.19785886193094021 0.18900131099286041 0 -0.17752183765376101 0.1775748035498933 0 -0.19785886193094021 0.18900131099286041 0 -0.17752183765376101 0.1775748035498933 0 -0.209750232499154 0.17791844316711489 0 -0.19610042498268601 0.17522502183351021 0 -0.19785886193094021 0.18900131099286041 0 -0.209750232499154 0.17791844316711489 0 -0.19610042498268601 0.17522502183351021 0 -0.20173639765426299 0.1643971743801825 0 -0.20173639765426299 0.1643971743801825 0 -0.1927705130470404 0.15866088515044 0 -0.20024290349544879 0.15519061181074151 0 -0.19610042498268601 0.17522502183351021 0 -0.20173639765426299 0.1643971743801825 0 -0.19038698318195549 0.16711234260031069 0 -0.20173639765426299 0.1643971743801825 0 -0.19038698318195549 0.16711234260031069 0 -0.1927705130470404 0.15866088515044 0 -0.19038698318195549 0.16711234260031069 0 -0.1927705130470404 0.15866088515044 0 -0.18413510522225521 0.16259499244525211 0 -0.1927705130470404 0.15866088515044 0 -0.19507878308752141 0.1486405391940768 0 -0.1852646507768699 0.1545619776798173 0 -0.19507878308752141 0.1486405391940768 0 -0.18706065072040501 0.14468661846275019 0 -0.1852646507768699 0.1545619776798173 0 -0.19507878308752141 0.1486405391940768 0 -0.20024290349544879 0.15519061181074151 0 -0.20390252305447459 0.15036513687703029 0 -0.1927705130470404 0.15866088515044 0 -0.19507878308752141 0.1486405391940768 0 -0.20024290349544879 0.15519061181074151 0 -0.19507878308752141 0.1486405391940768 0 -0.202312374299252 0.1441640524023215 0 -0.19563802519160789 0.13807458821396759 0 -0.19507878308752141 0.1486405391940768 0 -0.202312374299252 0.1441640524023215 0 -0.20390252305447459 0.15036513687703029 0 -0.19507878308752141 0.1486405391940768 0 -0.19563802519160789 0.13807458821396759 0 -0.18706065072040501 0.14468661846275019 0 -0.18039056500006781 0.12121373119240569 0 -0.20214902218410111 0.13458958866239301 0 -0.18039056500006781 0.12121373119240569 0 -0.20040659369392541 0.1193864456313013 0 -0.20214902218410111 0.13458958866239301 0 -0.18039056500006781 0.12121373119240569 0 -0.19563802519160789 0.13807458821396759 0 -0.20214902218410111 0.13458958866239301 0 -0.18039056500006781 0.12121373119240569 0 -0.19563802519160789 0.13807458821396759 0 -0.202312374299252 0.1441640524023215 0 -0.19563802519160789 0.13807458821396759 0 -0.20214902218410111 0.13458958866239301 0 -0.2075478572749084 0.11368283749669961 0 -0.22370276663374011 0.1364982034250237 0 -0.20214902218410111 0.13458958866239301 0 -0.2075478572749084 0.11368283749669961 0 -0.22370276663374011 0.1364982034250237 0 -0.22370276663374011 0.1364982034250237 0 -0.22390747936813421 0.14796544613238069 0 -0.20214902218410111 0.13458958866239301 0 -0.22390747936813421 0.14796544613238069 0 -0.20214902218410111 0.13458958866239301 0 -0.22390747936813421 0.14796544613238069 0 -0.20214902218410111 0.13458958866239301 0 -0.20948943058945241 0.14863997276184041 0 -0.22390747936813421 0.14796544613238069 0 -0.2168312664826515 0.15850745189495519 0 -0.20948943058945241 0.14863997276184041 0 -0.2168312664826515 0.15850745189495519 0 -0.20758447520558959 0.15683863127083711 0 -0.20948943058945241 0.14863997276184041 0 -0.20758447520558959 0.15683863127083711 0 -0.20948943058945241 0.14863997276184041 0 -0.20390252305447459 0.15036513687703029 0 -0.20758447520558959 0.15683863127083711 0 -0.20024290349544879 0.15519061181074151 0 -0.20390252305447459 0.15036513687703029 0 -0.202312374299252 0.1441640524023215 0 -0.20214902218410111 0.13458958866239301 0 -0.20948943058945241 0.14863997276184041 0 -0.202312374299252 0.1441640524023215 0 -0.20948943058945241 0.14863997276184041 0 -0.20390252305447459 0.15036513687703029 0 -0.22764024225575111 0.25709488017932702 0 -0.2151106411052526 0.2372148610219694 0 -0.22764024225575111 0.25709488017932702 0 -0.2283272457552897 0.2411225242229286 0 -0.2468893326351202 0.24329134098969171 0 -0.22764024225575111 0.25709488017932702 0 -0.2283272457552897 0.2411225242229286 0 -0.2151106411052526 0.2372148610219694 0 -0.2283272457552897 0.2411225242229286 0 -0.22236430254422471 0.22707510271615991 0 -0.2151106411052526 0.2372148610219694 0 -0.2283272457552897 0.2411225242229286 0 -0.2468893326351202 0.24329134098969171 0 -0.2329273297721271 0.2301735095518313 0 -0.25250373055295899 0.22903132158689779 0 -0.2468893326351202 0.24329134098969171 0 -0.24260825180894061 0.22311859240920151 0 -0.2468893326351202 0.24329134098969171 0 -0.24260825180894061 0.22311859240920151 0 -0.2329273297721271 0.2301735095518313 0 -0.25326648915379463 0.21765104414027969 0 -0.25250373055295899 0.22903132158689779 0 -0.24260825180894061 0.22311859240920151 0 -0.24260825180894061 0.22311859240920151 0 -0.23239639752576971 0.22100751879425451 0 -0.2329273297721271 0.2301735095518313 0 -0.23239639752576971 0.22100751879425451 0 -0.2329273297721271 0.2301735095518313 0 -0.22236430254422471 0.22707510271615991 0 -0.2283272457552897 0.2411225242229286 0 -0.2329273297721271 0.2301735095518313 0 -0.22236430254422471 0.22707510271615991 0 -0.23239639752576971 0.22100751879425451 0 -0.22236430254422471 0.22707510271615991 0 -0.2228431611521535 0.2155973608413651 0 -0.2228431611521535 0.2155973608413651 0 -0.2385329104852989 0.2118543258787943 0 -0.21819588620811961 0.20042781843582741 0 -0.2385329104852989 0.2118543258787943 0 -0.21819588620811961 0.20042781843582741 0 -0.23239639752576971 0.22100751879425451 0 -0.2228431611521535 0.2155973608413651 0 -0.2385329104852989 0.2118543258787943 0 -0.2385329104852989 0.2118543258787943 0 -0.24039455529309961 0.2058142864805034 0 -0.21819588620811961 0.20042781843582741 0 -0.24260825180894061 0.22311859240920151 0 -0.23239639752576971 0.22100751879425451 0 -0.2385329104852989 0.2118543258787943 0 -0.25326648915379463 0.21765104414027969 0 -0.24039455529309961 0.2058142864805034 0 -0.25326648915379463 0.21765104414027969 0 -0.2385329104852989 0.2118543258787943 0 -0.24039455529309961 0.2058142864805034 0 -0.25326648915379463 0.21765104414027969 0 -0.24260825180894061 0.22311859240920151 0 -0.2385329104852989 0.2118543258787943 0 -0.25264776582176801 0.2054066783297176 0 -0.25326648915379463 0.21765104414027969 0 -0.24039455529309961 0.2058142864805034 0 -0.25846339158769432 0.19477026040294029 0 -0.2425545525554833 0.18325607046718431 0 -0.24512564856919611 0.1966003761625241 0 -0.24039455529309961 0.2058142864805034 0 -0.24512564856919611 0.1966003761625241 0 -0.2315679775879351 0.19375458513227489 0 -0.25264776582176801 0.2054066783297176 0 -0.24039455529309961 0.2058142864805034 0 -0.24512564856919611 0.1966003761625241 0 -0.2425545525554833 0.18325607046718431 0 -0.24512564856919611 0.1966003761625241 0 -0.2315679775879351 0.19375458513227489 0 -0.24039455529309961 0.2058142864805034 0 -0.2315679775879351 0.19375458513227489 0 -0.21819588620811961 0.20042781843582741 0 -0.2235130486054053 0.18492553164669809 0 -0.2315679775879351 0.19375458513227489 0 -0.21819588620811961 0.20042781843582741 0 -0.21819588620811961 0.20042781843582741 0 -0.19785886193094021 0.18900131099286041 0 -0.2235130486054053 0.18492553164669809 0 -0.209750232499154 0.17791844316711489 0 -0.21819588620811961 0.20042781843582741 0 -0.209750232499154 0.17791844316711489 0 -0.21819588620811961 0.20042781843582741 0 -0.19785886193094021 0.18900131099286041 0 -0.21819588620811961 0.20042781843582741 0 -0.20376966825666501 0.2022924765927995 0 -0.19785886193094021 0.18900131099286041 0 -0.19785886193094021 0.18900131099286041 0 -0.19005143880425829 0.1974548227072519 0 -0.17752183765376101 0.1775748035498933 0 -0.20376966825666501 0.2022924765927995 0 -0.19785886193094021 0.18900131099286041 0 -0.19005143880425829 0.1974548227072519 0 -0.19005143880425829 0.1974548227072519 0 -0.187650486280975 0.21451757224245291 0 -0.20258103995475549 0.21733484186461069 0 -0.19005143880425829 0.1974548227072519 0 -0.20258103995475549 0.21733484186461069 0 -0.20376966825666501 0.2022924765927995 0 -0.19005143880425829 0.1974548227072519 0 -0.20258103995475549 0.21733484186461069 0 -0.2228431611521535 0.2155973608413651 0 -0.21819588620811961 0.20042781843582741 0 -0.20258103995475549 0.21733484186461069 0 -0.21819588620811961 0.20042781843582741 0 -0.20376966825666501 0.2022924765927995 0 -0.20258103995475549 0.21733484186461069 0 -0.20258103995475549 0.21733484186461069 0 -0.19839606398960871 0.22991008851962841 0 -0.2151106411052526 0.2372148610219694 0 -0.22236430254422471 0.22707510271615991 0 -0.2228431611521535 0.2155973608413651 0 -0.20258103995475549 0.21733484186461069 0 -0.22236430254422471 0.22707510271615991 0 -0.20258103995475549 0.21733484186461069 0 -0.2151106411052526 0.2372148610219694 0 -0.20258103995475549 0.21733484186461069 0 -0.2151106411052526 0.2372148610219694 0 -0.187650486280975 0.21451757224245291 0 -0.20258103995475549 0.21733484186461069 0 -0.19839606398960871 0.22991008851962841 0 -0.187650486280975 0.21451757224245291 0 -0.19839606398960871 0.22991008851962841 0 -0.18195408303730121 0.23534357450296481 0 -0.18940688912330481 0.25610334311205268 0 -0.2046840695697589 0.2451395929661444 0 -0.18195408303730121 0.23534357450296481 0 -0.2046840695697589 0.2451395929661444 0 -0.18195408303730121 0.23534357450296481 0 -0.19839606398960871 0.22991008851962841 0 -0.2046840695697589 0.2451395929661444 0 -0.18195408303730121 0.23534357450296481 0 -0.21239874098331929 0.25437807278244762 0 -0.2046840695697589 0.2451395929661444 0 -0.2151106411052526 0.2372148610219694 0 -0.19839606398960871 0.22991008851962841 0 -0.2046840695697589 0.2451395929661444 0 -0.2151106411052526 0.2372148610219694 0 -0.22764024225575111 0.25709488017932702 0 -0.21239874098331929 0.25437807278244762 0 -0.2151106411052526 0.2372148610219694 0 -0.16225317791305921 0.25358582624422438 0 -0.18195408303730121 0.23534357450296481 0 -0.155242522585569 0.24016045739440639 0 -0.17508206900779469 0.25918785244088571 0 -0.16225317791305921 0.25358582624422438 0 -0.18195408303730121 0.23534357450296481 0 -0.187650486280975 0.21451757224245291 0 -0.18195408303730121 0.23534357450296481 0 -0.17144823439391829 0.2141895330645725 0 -0.18195408303730121 0.23534357450296481 0 -0.15922409650484359 0.2255475560397853 0 -0.18195408303730121 0.23534357450296481 0 -0.15922409650484359 0.2255475560397853 0 -0.155242522585569 0.24016045739440639 0 -0.18195408303730121 0.23534357450296481 0 -0.15922409650484359 0.2255475560397853 0 -0.17144823439391829 0.2141895330645725 0 -0.15922409650484359 0.2255475560397853 0 -0.15900733689739069 0.21062159977010589 0 -0.17144823439391829 0.2141895330645725 0 -0.15900733689739069 0.21062159977010589 0 -0.1653418357915476 0.2018213455952054 0 -0.15361129879784891 0.20139719057542019 0 -0.17144823439391829 0.2141895330645725 0 -0.17723797391968729 0.20390802022475071 0 -0.1653418357915476 0.2018213455952054 0 -0.15900733689739069 0.21062159977010589 0 -0.17144823439391829 0.2141895330645725 0 -0.1653418357915476 0.2018213455952054 0 -0.187650486280975 0.21451757224245291 0 -0.17144823439391829 0.2141895330645725 0 -0.17723797391968729 0.20390802022475071 0 -0.19005143880425829 0.1974548227072519 0 -0.187650486280975 0.21451757224245291 0 -0.17723797391968729 0.20390802022475071 0 -0.19005143880425829 0.1974548227072519 0 -0.17169787432773731 0.19155682751427069 0 -0.17752183765376101 0.1775748035498933 0 -0.19005143880425829 0.1974548227072519 0 -0.17723797391968729 0.20390802022475071 0 -0.17169787432773731 0.19155682751427069 0 -0.19005143880425829 0.1974548227072519 0 -0.17752183765376101 0.1775748035498933 0 -0.17169787432773731 0.19155682751427069 0 -0.1653418357915476 0.2018213455952054 0 -0.15791164184663151 0.19274793286901881 0 -0.17723797391968729 0.20390802022475071 0 -0.17169787432773731 0.19155682751427069 0 -0.1653418357915476 0.2018213455952054 0 -0.1653418357915476 0.2018213455952054 0 -0.15791164184663151 0.19274793286901881 0 -0.15361129879784891 0.20139719057542019 0 -0.17169787432773731 0.19155682751427069 0 -0.15791164184663151 0.19274793286901881 0 -0.16134243263699979 0.18146195783717889 0 -0.15791164184663151 0.19274793286901881 0 -0.15361129879784891 0.20139719057542019 0 -0.14754997702249989 0.19123102061556399 0 -0.15791164184663151 0.19274793286901881 0 -0.14754997702249989 0.19123102061556399 0 -0.15378055215212841 0.1853342336718547 0 -0.15361129879784891 0.20139719057542019 0 -0.144337775963609 0.20069921068637719 0 -0.14754997702249989 0.19123102061556399 0 -0.14754997702249989 0.19123102061556399 0 -0.13411435042981179 0.19106266128805069 0 -0.1463292802833521 0.18023770330257241 0 -0.144337775963609 0.20069921068637719 0 -0.14754997702249989 0.19123102061556399 0 -0.13411435042981179 0.19106266128805069 0 -0.13411435042981179 0.19106266128805069 0 -0.12967955466007261 0.2074258594294596 0 -0.1235431789710726 0.1969801993001162 0 -0.13411435042981179 0.19106266128805069 0 -0.13770187294137159 0.2043383794177894 0 -0.12967955466007261 0.2074258594294596 0 -0.144337775963609 0.20069921068637719 0 -0.13411435042981179 0.19106266128805069 0 -0.13770187294137159 0.2043383794177894 0 -0.13770187294137159 0.2043383794177894 0 -0.13855706597983281 0.21350408889879899 0 -0.14247480998137141 0.20718589651263181 0 -0.1364941099723872 0.21575153757660309 0 -0.120958802369795 0.22183359367242919 0 -0.11894773722242739 0.20818951851535461 0 -0.12967955466007261 0.2074258594294596 0 -0.1364941099723872 0.21575153757660309 0 -0.11894773722242739 0.20818951851535461 0 -0.13770187294137159 0.2043383794177894 0 -0.12967955466007261 0.2074258594294596 0 -0.13855706597983281 0.21350408889879899 0 -0.1364941099723872 0.21575153757660309 0 -0.11894773722242739 0.20818951851535461 0 -0.12967955466007261 0.2074258594294596 0 -0.1364941099723872 0.21575153757660309 0 -0.13855706597983281 0.21350408889879899 0 -0.1364941099723872 0.21575153757660309 0 -0.13855706597983281 0.21350408889879899 0 -0.15922409650484359 0.2255475560397853 0 -0.1364941099723872 0.21575153757660309 0 -0.13855706597983281 0.21350408889879899 0 -0.15922409650484359 0.2255475560397853 0 -0.13855706597983281 0.21350408889879899 0 -0.14930252504067221 0.21020190704756139 0 -0.13855706597983281 0.21350408889879899 0 -0.14247480998137141 0.20718589651263181 0 -0.14930252504067221 0.21020190704756139 0 -0.144337775963609 0.20069921068637719 0 -0.14247480998137141 0.20718589651263181 0 -0.14930252504067221 0.21020190704756139 0 -0.144337775963609 0.20069921068637719 0 -0.13770187294137159 0.2043383794177894 0 -0.14247480998137141 0.20718589651263181 0 -0.15900733689739069 0.21062159977010589 0 -0.15361129879784891 0.20139719057542019 0 -0.14930252504067221 0.21020190704756139 0 -0.15361129879784891 0.20139719057542019 0 -0.144337775963609 0.20069921068637719 0 -0.14930252504067221 0.21020190704756139 0 -0.15922409650484359 0.2255475560397853 0 -0.15900733689739069 0.21062159977010589 0 -0.14930252504067221 0.21020190704756139 0 -0.15922409650484359 0.2255475560397853 0 -0.13635804662702189 0.23039018670563211 0 -0.14207867318260539 0.23889574066385899 0 -0.15922409650484359 0.2255475560397853 0 -0.1364941099723872 0.21575153757660309 0 -0.13635804662702189 0.23039018670563211 0 -0.15922409650484359 0.2255475560397853 0 -0.1364941099723872 0.21575153757660309 0 -0.1364941099723872 0.21575153757660309 0 -0.13635804662702189 0.23039018670563211 0 -0.11673432752768111 0.2372784614512472 0 -0.1364941099723872 0.21575153757660309 0 -0.11673432752768111 0.2372784614512472 0 -0.13635804662702189 0.23039018670563211 0 -0.12961957513534 0.23973743310435161 0 -0.11673432752768111 0.2372784614512472 0 -0.13635804662702189 0.23039018670563211 0 -0.12961957513534 0.23973743310435161 0 -0.14207867318260539 0.23889574066385899 0 -0.12961957513534 0.23973743310435161 0 -0.13357218109292621 0.2499317644564327 0 -0.1213089330464012 0.24626659804535689 0 -0.12961957513534 0.23973743310435161 0 -0.13357218109292621 0.2499317644564327 0 -0.14207867318260539 0.23889574066385899 0 -0.14746997276257359 0.25293699741112718 0 -0.13357218109292621 0.2499317644564327 0 -0.14207867318260539 0.23889574066385899 0 -0.15922409650484359 0.2255475560397853 0 -0.14207867318260539 0.23889574066385899 0 -0.155242522585569 0.24016045739440639 0 -0.14746997276257359 0.25293699741112718 0 -0.14207867318260539 0.23889574066385899 0 -0.155242522585569 0.24016045739440639 0 -0.16225317791305921 0.25358582624422438 0 -0.14746997276257359 0.25293699741112718 0 -0.155242522585569 0.24016045739440639 0 -0.166988808872575 0.14091924592242799 0 -0.1736883691443292 0.1501381655411517 0 -0.1666646902223726 0.16034837340756511 0 -0.166988808872575 0.14091924592242799 0 -0.1666646902223726 0.16034837340756511 0 -0.15580754279098399 0.143121943265237 0 -0.1666646902223726 0.16034837340756511 0 -0.1549726550285947 0.15674585516748279 0 -0.15580754279098399 0.143121943265237 0 -0.1666646902223726 0.16034837340756511 0 -0.15580754279098399 0.143121943265237 0 -0.1628447509754036 0.1248738178506951 0 -0.166988808872575 0.14091924592242799 0 -0.17824709647023271 0.1379937977022469 0 -0.1628447509754036 0.1248738178506951 0 -0.166988808872575 0.14091924592242799 0 -0.15580754279098399 0.143121943265237 0 -0.18039056500006781 0.12121373119240569 0 -0.1628447509754036 0.1248738178506951 0 -0.17824709647023271 0.1379937977022469 0 -0.19563802519160789 0.13807458821396759 0 -0.17824709647023271 0.1379937977022469 0 -0.18706065072040501 0.14468661846275019 0 -0.18039056500006781 0.12121373119240569 0 -0.19563802519160789 0.13807458821396759 0 -0.17824709647023271 0.1379937977022469 0 -0.17824709647023271 0.1379937977022469 0 -0.18706065072040501 0.14468661846275019 0 -0.1811623126986891 0.14793864394101769 0 -0.166988808872575 0.14091924592242799 0 -0.17824709647023271 0.1379937977022469 0 -0.1736883691443292 0.1501381655411517 0 -0.17824709647023271 0.1379937977022469 0 -0.1811623126986891 0.14793864394101769 0 -0.1736883691443292 0.1501381655411517 0 -0.1811623126986891 0.14793864394101769 0 -0.1736883691443292 0.1501381655411517 0 -0.17666515903818969 0.15970684649729899 0 -0.1811623126986891 0.14793864394101769 0 -0.1852646507768699 0.1545619776798173 0 -0.17666515903818969 0.15970684649729899 0 -0.18706065072040501 0.14468661846275019 0 -0.1811623126986891 0.14793864394101769 0 -0.1852646507768699 0.1545619776798173 0 -0.17752183765376101 0.1775748035498933 0 -0.1666646902223726 0.16034837340756511 0 -0.1927705130470404 0.15866088515044 0 -0.1852646507768699 0.1545619776798173 0 -0.18413510522225521 0.16259499244525211 0 -0.17666515903818969 0.15970684649729899 0 -0.17752183765376101 0.1775748035498933 0 -0.1666646902223726 0.16034837340756511 0 -0.1852646507768699 0.1545619776798173 0 -0.18413510522225521 0.16259499244525211 0 -0.17666515903818969 0.15970684649729899 0 -0.18413510522225521 0.16259499244525211 0 -0.17666515903818969 0.15970684649729899 0 -0.17752183765376101 0.1775748035498933 0 -0.19038698318195549 0.16711234260031069 0 -0.18413510522225521 0.16259499244525211 0 -0.17752183765376101 0.1775748035498933 0 -0.1736883691443292 0.1501381655411517 0 -0.17666515903818969 0.15970684649729899 0 -0.1666646902223726 0.16034837340756511 0 -0.17169787432773731 0.19155682751427069 0 -0.17752183765376101 0.1775748035498933 0 -0.16134243263699979 0.18146195783717889 0 -0.17752183765376101 0.1775748035498933 0 -0.160166055014445 0.16782332876165751 0 -0.17752183765376101 0.1775748035498933 0 -0.16134243263699979 0.18146195783717889 0 -0.160166055014445 0.16782332876165751 0 -0.16134243263699979 0.18146195783717889 0 -0.160166055014445 0.16782332876165751 0 -0.1543363168372556 0.17604552304072019 0 -0.16134243263699979 0.18146195783717889 0 -0.15378055215212841 0.1853342336718547 0 -0.1543363168372556 0.17604552304072019 0 -0.15791164184663151 0.19274793286901881 0 -0.16134243263699979 0.18146195783717889 0 -0.15378055215212841 0.1853342336718547 0 -0.17752183765376101 0.1775748035498933 0 -0.1666646902223726 0.16034837340756511 0 -0.160166055014445 0.16782332876165751 0 -0.1666646902223726 0.16034837340756511 0 -0.160166055014445 0.16782332876165751 0 -0.1549726550285947 0.15674585516748279 0 -0.160166055014445 0.16782332876165751 0 -0.1549726550285947 0.15674585516748279 0 -0.14281027237512919 0.15807185397342149 0 -0.160166055014445 0.16782332876165751 0 -0.14281027237512919 0.15807185397342149 0 -0.160166055014445 0.16782332876165751 0 -0.1483000089644074 0.1706867490983929 0 -0.14281027237512919 0.15807185397342149 0 -0.160166055014445 0.16782332876165751 0 -0.1483000089644074 0.1706867490983929 0 -0.1543363168372556 0.17604552304072019 0 -0.1483000089644074 0.1706867490983929 0 -0.14281027237512919 0.15807185397342149 0 -0.13856119746919621 0.1732320213376258 0 -0.14754997702249989 0.19123102061556399 0 -0.15378055215212841 0.1853342336718547 0 -0.1463292802833521 0.18023770330257241 0 -0.15378055215212841 0.1853342336718547 0 -0.1543363168372556 0.17604552304072019 0 -0.1463292802833521 0.18023770330257241 0 -0.1483000089644074 0.1706867490983929 0 -0.1543363168372556 0.17604552304072019 0 -0.1463292802833521 0.18023770330257241 0 -0.1483000089644074 0.1706867490983929 0 -0.1463292802833521 0.18023770330257241 0 -0.13856119746919621 0.1732320213376258 0 -0.13411435042981179 0.19106266128805069 0 -0.13856119746919621 0.1732320213376258 0 -0.12609153575556739 0.16924223779836581 0 -0.13411435042981179 0.19106266128805069 0 -0.12609153575556739 0.16924223779836581 0 -0.1152399272795421 0.1851742901109647 0 -0.13411435042981179 0.19106266128805069 0 -0.1463292802833521 0.18023770330257241 0 -0.13856119746919621 0.1732320213376258 0 -0.14281027237512919 0.15807185397342149 0 -0.12609153575556739 0.16924223779836581 0 -0.135520965557581 0.14756887546063741 0 -0.12609153575556739 0.16924223779836581 0 -0.135520965557581 0.14756887546063741 0 -0.14281027237512919 0.15807185397342149 0 -0.13856119746919621 0.1732320213376258 0 -0.12609153575556739 0.16924223779836581 0 -0.135520965557581 0.14756887546063741 0 -0.13028426483969929 0.13221647237215789 0 -0.1192914655824909 0.15059360814623801 0 -0.12609153575556739 0.16924223779836581 0 -0.135520965557581 0.14756887546063741 0 -0.1192914655824909 0.15059360814623801 0 -0.1549726550285947 0.15674585516748279 0 -0.14281027237512919 0.15807185397342149 0 -0.14652630769324659 0.14708303210739521 0 -0.14281027237512919 0.15807185397342149 0 -0.135520965557581 0.14756887546063741 0 -0.14652630769324659 0.14708303210739521 0 -0.1549726550285947 0.15674585516748279 0 -0.14652630769324659 0.14708303210739521 0 -0.15580754279098399 0.143121943265237 0 -0.1628447509754036 0.1248738178506951 0 -0.15580754279098399 0.143121943265237 0 -0.14495039535959489 0.12589551312290931 0 -0.135520965557581 0.14756887546063741 0 -0.14652630769324659 0.14708303210739521 0 -0.14495039535959489 0.12589551312290931 0 -0.15580754279098399 0.143121943265237 0 -0.14495039535959489 0.12589551312290931 0 -0.14652630769324659 0.14708303210739521 0 -0.15580754279098399 0.143121943265237 0 -0.14495039535959489 0.12589551312290931 0 -0.135520965557581 0.14756887546063741 0 -0.14495039535959489 0.12589551312290931 0 -0.135520965557581 0.14756887546063741 0 -0.14495039535959489 0.12589551312290931 0 -0.13028426483969929 0.13221647237215789 0 -0.13028426483969929 0.13221647237215789 0 -0.1131006250587715 0.12959615498317961 0 -0.1192914655824909 0.15059360814623801 0 -0.1131006250587715 0.12959615498317961 0 -0.10078539792307099 0.15464240809582361 0 -0.092802426943272898 0.12960292979422991 0 -0.1131006250587715 0.12959615498317961 0 -0.10078539792307099 0.15464240809582361 0 -0.1192914655824909 0.15059360814623801 0 -0.10078539792307099 0.15464240809582361 0 -0.1192914655824909 0.15059360814623801 0 -0.10897534263953949 0.16967833346669081 0 -0.12609153575556739 0.16924223779836581 0 -0.1192914655824909 0.15059360814623801 0 -0.10897534263953949 0.16967833346669081 0 -0.12609153575556739 0.16924223779836581 0 -0.1152399272795421 0.1851742901109647 0 -0.10897534263953949 0.16967833346669081 0 -0.1152399272795421 0.1851742901109647 0 -0.098409264142157865 0.1851788001203086 0 -0.10897534263953949 0.16967833346669081 0 -0.098409264142157865 0.1851788001203086 0 -0.10897534263953949 0.16967833346669081 0 -0.082277471490505807 0.17420718144711089 0 -0.10078539792307099 0.15464240809582361 0 -0.10897534263953949 0.16967833346669081 0 -0.082277471490505807 0.17420718144711089 0 -0.10078539792307099 0.15464240809582361 0 -0.082277471490505807 0.17420718144711089 0 -0.082277471490505807 0.17420718144711089 0 -0.065615427061545384 0.16058384892905991 0 -0.074642854581774637 0.14147916649728479 0 -0.10078539792307099 0.15464240809582361 0 -0.082277471490505807 0.17420718144711089 0 -0.074642854581774637 0.14147916649728479 0 -0.098409264142157865 0.1851788001203086 0 -0.082277471490505807 0.17420718144711089 0 -0.084152214828733252 0.19620669612267311 0 -0.082277471490505807 0.17420718144711089 0 -0.063769545057940663 0.19377195479839809 0 -0.082277471490505807 0.17420718144711089 0 -0.063769545057940663 0.19377195479839809 0 -0.051824687549248197 0.17345858692208871 0 -0.082277471490505807 0.17420718144711089 0 -0.065615427061545384 0.16058384892905991 0 -0.051824687549248197 0.17345858692208871 0 -0.074642854581774637 0.14147916649728479 0 -0.055186524828957063 0.1281687789626855 0 -0.07438317581125764 0.1124407737129243 0 -0.074642854581774637 0.14147916649728479 0 -0.092802426943272898 0.12960292979422991 0 -0.07438317581125764 0.1124407737129243 0 -0.10078539792307099 0.15464240809582361 0 -0.074642854581774637 0.14147916649728479 0 -0.092802426943272898 0.12960292979422991 0 -0.10058650277722481 0.24229521027045481 0 -0.11673432752768111 0.2372784614512472 0 -0.1053270170515283 0.2324499666522013 0 -0.096974545082976191 0.25880538532589209 0 -0.10058650277722481 0.24229521027045481 0 -0.088715331182393942 0.2449718195011524 0 -0.096974545082976191 0.25880538532589209 0 -0.10058650277722481 0.24229521027045481 0 -0.11673432752768111 0.2372784614512472 0 -0.096974545082976191 0.25880538532589209 0 -0.112097455783086 0.24444379951602521 0 -0.11673432752768111 0.2372784614512472 0 -0.096974545082976191 0.25880538532589209 0 -0.11673432752768111 0.2372784614512472 0 -0.10058650277722481 0.24229521027045481 0 -0.091983872440322634 0.23323291704093771 0 -0.088715331182393942 0.2449718195011524 0 -0.10058650277722481 0.24229521027045481 0 -0.1053270170515283 0.2324499666522013 0 -0.091983872440322634 0.23323291704093771 0 -0.11521273165378559 0.25497892835963998 0 -0.112097455783086 0.24444379951602521 0 -0.1213089330464012 0.24626659804535689 0 -0.112097455783086 0.24444379951602521 0 -0.1213089330464012 0.24626659804535689 0 -0.11673432752768111 0.2372784614512472 0 -0.12961957513534 0.23973743310435161 0 -0.1213089330464012 0.24626659804535689 0 -0.11673432752768111 0.2372784614512472 0 -0.11673432752768111 0.2372784614512472 0 -0.111977792011399 0.2261119040305537 0 -0.1053270170515283 0.2324499666522013 0 -0.1364941099723872 0.21575153757660309 0 -0.11673432752768111 0.2372784614512472 0 -0.120958802369795 0.22183359367242919 0 -0.11673432752768111 0.2372784614512472 0 -0.120958802369795 0.22183359367242919 0 -0.111977792011399 0.2261119040305537 0 -0.120958802369795 0.22183359367242919 0 -0.111977792011399 0.2261119040305537 0 -0.11263418842693861 0.21654350143059611 0 -0.111977792011399 0.2261119040305537 0 -0.1027476190553803 0.22153268259517769 0 -0.11263418842693861 0.21654350143059611 0 -0.1027476190553803 0.22153268259517769 0 -0.088008266818085573 0.21525264443096179 0 -0.091983872440322634 0.23323291704093771 0 -0.111977792011399 0.2261119040305537 0 -0.1027476190553803 0.22153268259517769 0 -0.1053270170515283 0.2324499666522013 0 -0.1027476190553803 0.22153268259517769 0 -0.1053270170515283 0.2324499666522013 0 -0.091983872440322634 0.23323291704093771 0 -0.1027476190553803 0.22153268259517769 0 -0.1014013644724687 0.20062749945410349 0 -0.088008266818085573 0.21525264443096179 0 -0.1027476190553803 0.22153268259517769 0 -0.11263418842693861 0.21654350143059611 0 -0.1014013644724687 0.20062749945410349 0 -0.11263418842693861 0.21654350143059611 0 -0.11894773722242739 0.20818951851535461 0 -0.1014013644724687 0.20062749945410349 0 -0.11894773722242739 0.20818951851535461 0 -0.1014013644724687 0.20062749945410349 0 -0.120958802369795 0.22183359367242919 0 -0.11263418842693861 0.21654350143059611 0 -0.11894773722242739 0.20818951851535461 0 -0.12967955466007261 0.2074258594294596 0 -0.11894773722242739 0.20818951851535461 0 -0.1235431789710726 0.1969801993001162 0 -0.11894773722242739 0.20818951851535461 0 -0.1235431789710726 0.1969801993001162 0 -0.1014013644724687 0.20062749945410349 0 -0.13411435042981179 0.19106266128805069 0 -0.1152399272795421 0.1851742901109647 0 -0.1235431789710726 0.1969801993001162 0 -0.1152399272795421 0.1851742901109647 0 -0.1235431789710726 0.1969801993001162 0 -0.1014013644724687 0.20062749945410349 0 -0.1152399272795421 0.1851742901109647 0 -0.098409264142157865 0.1851788001203086 0 -0.1014013644724687 0.20062749945410349 0 -0.098409264142157865 0.1851788001203086 0 -0.1014013644724687 0.20062749945410349 0 -0.084152214828733252 0.19620669612267311 0 -0.084152214828733252 0.19620669612267311 0 -0.063769545057940663 0.19377195479839809 0 -0.072142849724606259 0.2099260872470029 0 -0.082277471490505807 0.17420718144711089 0 -0.084152214828733252 0.19620669612267311 0 -0.063769545057940663 0.19377195479839809 0 -0.072142849724606259 0.2099260872470029 0 -0.088008266818085573 0.21525264443096179 0 -0.068407602306599244 0.22780678473085289 0 -0.084152214828733252 0.19620669612267311 0 -0.072142849724606259 0.2099260872470029 0 -0.088008266818085573 0.21525264443096179 0 -0.1014013644724687 0.20062749945410349 0 -0.084152214828733252 0.19620669612267311 0 -0.088008266818085573 0.21525264443096179 0 -0.091983872440322634 0.23323291704093771 0 -0.068407602306599244 0.22780678473085289 0 -0.080478212985736569 0.23984126859451149 0 -0.088008266818085573 0.21525264443096179 0 -0.091983872440322634 0.23323291704093771 0 -0.068407602306599244 0.22780678473085289 0 -0.073553522625709841 0.25068431627396631 0 -0.068407602306599244 0.22780678473085289 0 -0.080478212985736569 0.23984126859451149 0 -0.073553522625709841 0.25068431627396631 0 -0.068407602306599244 0.22780678473085289 0 -0.050132500168443887 0.2425632472220397 0 -0.073553522625709841 0.25068431627396631 0 -0.080478212985736569 0.23984126859451149 0 -0.088715331182393942 0.2449718195011524 0 -0.091983872440322634 0.23323291704093771 0 -0.080478212985736569 0.23984126859451149 0 -0.088715331182393942 0.2449718195011524 0 -0.050132500168443887 0.2425632472220397 0 -0.026711477711177899 0.23444217817011309 0 -0.029881977245259539 0.25372898958001938 0 -0.050132500168443887 0.2425632472220397 0 -0.026711477711177899 0.23444217817011309 0 -0.050132500168443887 0.2425632472220397 0 -0.042100384295285467 0.22888272761933071 0 -0.026711477711177899 0.23444217817011309 0 -0.073553522625709841 0.25068431627396631 0 -0.050132500168443887 0.2425632472220397 0 -0.068407602306599244 0.22780678473085289 0 -0.050132500168443887 0.2425632472220397 0 -0.042100384295285467 0.22888272761933071 0 -0.068407602306599244 0.22780678473085289 0 -0.042100384295285467 0.22888272761933071 0 -0.045261618625375449 0.21333672814968549 0 -0.045261618625375449 0.21333672814968549 0 -0.02675369219281019 0.23290150150097291 0 -0.045261618625375449 0.21333672814968549 0 -0.02772339752401377 0.22169904798743939 0 -0.02675369219281019 0.23290150150097291 0 -0.042100384295285467 0.22888272761933071 0 -0.045261618625375449 0.21333672814968549 0 -0.02675369219281019 0.23290150150097291 0 -0.042100384295285467 0.22888272761933071 0 -0.02675369219281019 0.23290150150097291 0 -0.026711477711177899 0.23444217817011309 0 -0.045261618625375449 0.21333672814968549 0 -0.025983012380334781 0.2115930184476672 0 -0.02772339752401377 0.22169904798743939 0 -0.045261618625375449 0.21333672814968549 0 -0.029252980350323681 0.1977376245802884 0 -0.025983012380334781 0.2115930184476672 0 -0.063769545057940663 0.19377195479839809 0 -0.045261618625375449 0.21333672814968549 0 -0.063769545057940663 0.19377195479839809 0 -0.072142849724606259 0.2099260872470029 0 -0.045261618625375449 0.21333672814968549 0 -0.072142849724606259 0.2099260872470029 0 -0.068407602306599244 0.22780678473085289 0 -0.045261618625375449 0.21333672814968549 0 -0.063769545057940663 0.19377195479839809 0 -0.045261618625375449 0.21333672814968549 0 -0.041349789320347038 0.18749549167170951 0 -0.029252980350323681 0.1977376245802884 0 -0.041349789320347038 0.18749549167170951 0 -0.02440704960050057 0.1813667693045137 0 -0.045261618625375449 0.21333672814968549 0 -0.029252980350323681 0.1977376245802884 0 -0.041349789320347038 0.18749549167170951 0 -0.029252980350323681 0.1977376245802884 0 -0.01949536222664228 0.1923427933584827 0 -0.02440704960050057 0.1813667693045137 0 -0.029252980350323681 0.1977376245802884 0 -0.019383630886315679 0.20246845033521829 0 -0.01949536222664228 0.1923427933584827 0 -0.019383630886315679 0.20246845033521829 0 -0.01949536222664228 0.1923427933584827 0 -0.011799668219416901 0.19617813045667529 0 -0.01949536222664228 0.1923427933584827 0 -0.011799668219416901 0.19617813045667529 0 -0.0099503170468955675 0.185467411183286 0 -0.0047591026019954026 0.19332022418589959 0 -0.011799668219416901 0.19617813045667529 0 -0.0099503170468955675 0.185467411183286 0 -0.0047591026019954026 0.19332022418589959 0 -0.003081975793268537 0.18782002811878001 0 -0.0099503170468955675 0.185467411183286 0 -0.0047591026019954026 0.19332022418589959 0 -2.3422743153838069e-05 0.1988005567515452 0 0.0015327128313205251 0.1915709431207247 0 -0.0047591026019954026 0.19332022418589959 0 -0.003081975793268537 0.18782002811878001 0 0.0015327128313205251 0.1915709431207247 0 -2.3422743153838069e-05 0.1988005567515452 0 -0.0064134676939889088 0.1997865992100484 0 -0.0042090490499692894 0.20625736901624969 0 -0.0047591026019954026 0.19332022418589959 0 -2.3422743153838069e-05 0.1988005567515452 0 -0.0064134676939889088 0.1997865992100484 0 -0.0047591026019954026 0.19332022418589959 0 -0.0064134676939889088 0.1997865992100484 0 -0.011799668219416901 0.19617813045667529 0 -0.019383630886315679 0.20246845033521829 0 -0.011799668219416901 0.19617813045667529 0 -0.01127609585540912 0.20437671563987239 0 -0.0064134676939889088 0.1997865992100484 0 -0.011799668219416901 0.19617813045667529 0 -0.01127609585540912 0.20437671563987239 0 -0.019383630886315679 0.20246845033521829 0 -0.01127609585540912 0.20437671563987239 0 -0.015975625416527989 0.21106072298800291 0 -0.0098363755348389904 0.2097806401996784 0 -0.01127609585540912 0.20437671563987239 0 -0.015975625416527989 0.21106072298800291 0 -0.0098363755348389904 0.2097806401996784 0 -0.01127609585540912 0.20437671563987239 0 -0.0042090490499692894 0.20625736901624969 0 -0.0042090490499692894 0.20625736901624969 0 0.00083142932333707279 0.21381627434491049 0 0.0029581381265264858 0.20519393183106241 0 -0.0064134676939889088 0.1997865992100484 0 -0.01127609585540912 0.20437671563987239 0 -0.0042090490499692894 0.20625736901624969 0 -0.0098363755348389904 0.2097806401996784 0 -0.0042090490499692894 0.20625736901624969 0 -0.0060196598873338584 0.21321125444391051 0 -2.3422743153838069e-05 0.1988005567515452 0 -0.0042090490499692894 0.20625736901624969 0 0.0029581381265264858 0.20519393183106241 0 -0.0055559642639475869 0.21913689448513271 0 0.0001093474821353509 0.22215689039817851 0 0.00083142932333707279 0.21381627434491049 0 -0.0060196598873338584 0.21321125444391051 0 -0.0055559642639475869 0.21913689448513271 0 0.00083142932333707279 0.21381627434491049 0 -0.0042090490499692894 0.20625736901624969 0 -0.0060196598873338584 0.21321125444391051 0 0.00083142932333707279 0.21381627434491049 0 -0.0060196598873338584 0.21321125444391051 0 -0.01091493828254137 0.21625783395607551 0 -0.0055559642639475869 0.21913689448513271 0 -0.01091493828254137 0.21625783395607551 0 -0.015975625416527989 0.21106072298800291 0 -0.017588491814277241 0.22188462813269769 0 -0.0098363755348389904 0.2097806401996784 0 -0.0060196598873338584 0.21321125444391051 0 -0.01091493828254137 0.21625783395607551 0 -0.0098363755348389904 0.2097806401996784 0 -0.01091493828254137 0.21625783395607551 0 -0.015975625416527989 0.21106072298800291 0 -0.015975625416527989 0.21106072298800291 0 -0.025983012380334781 0.2115930184476672 0 -0.017588491814277241 0.22188462813269769 0 -0.019383630886315679 0.20246845033521829 0 -0.015975625416527989 0.21106072298800291 0 -0.025983012380334781 0.2115930184476672 0 -0.029252980350323681 0.1977376245802884 0 -0.019383630886315679 0.20246845033521829 0 -0.025983012380334781 0.2115930184476672 0 -0.025983012380334781 0.2115930184476672 0 -0.02772339752401377 0.22169904798743939 0 -0.017588491814277241 0.22188462813269769 0 -0.02772339752401377 0.22169904798743939 0 -0.02675369219281019 0.23290150150097291 0 -0.022352419066048221 0.22652947853539249 0 -0.02675369219281019 0.23290150150097291 0 -0.017344094733091689 0.22963273652046001 0 -0.01246950101347712 0.23792538229425519 0 -0.02675369219281019 0.23290150150097291 0 -0.017344094733091689 0.22963273652046001 0 -0.022352419066048221 0.22652947853539249 0 -0.017344094733091689 0.22963273652046001 0 -0.017588491814277241 0.22188462813269769 0 -0.01350500053265637 0.2263729039251991 0 -0.017344094733091689 0.22963273652046001 0 -0.022352419066048221 0.22652947853539249 0 -0.017588491814277241 0.22188462813269769 0 -0.02772339752401377 0.22169904798743939 0 -0.022352419066048221 0.22652947853539249 0 -0.017588491814277241 0.22188462813269769 0 -0.01091493828254137 0.21625783395607551 0 -0.017588491814277241 0.22188462813269769 0 -0.01009356448405245 0.2229710377255022 0 -0.017588491814277241 0.22188462813269769 0 -0.01350500053265637 0.2263729039251991 0 -0.01009356448405245 0.2229710377255022 0 -0.01091493828254137 0.21625783395607551 0 -0.01009356448405245 0.2229710377255022 0 -0.0055559642639475869 0.21913689448513271 0 -0.01009356448405245 0.2229710377255022 0 -0.0055559642639475869 0.21913689448513271 0 -0.0046023563546483629 0.22639127835839259 0 -0.0055559642639475869 0.21913689448513271 0 -0.0046023563546483629 0.22639127835839259 0 0.0001093474821353509 0.22215689039817851 0 -0.0046023563546483629 0.22639127835839259 0 0.0010433620948100131 0.23240638127880581 0 0.0001093474821353509 0.22215689039817851 0 -0.0046023563546483629 0.22639127835839259 0 -0.0089938510992040935 0.23100321332213661 0 0.0010433620948100131 0.23240638127880581 0 -0.017344094733091689 0.22963273652046001 0 -0.0089938510992040935 0.23100321332213661 0 -0.01246950101347712 0.23792538229425519 0 -0.01009356448405245 0.2229710377255022 0 -0.0046023563546483629 0.22639127835839259 0 -0.0089938510992040935 0.23100321332213661 0 -0.017344094733091689 0.22963273652046001 0 -0.01350500053265637 0.2263729039251991 0 -0.0089938510992040935 0.23100321332213661 0 -0.01350500053265637 0.2263729039251991 0 -0.01009356448405245 0.2229710377255022 0 -0.0089938510992040935 0.23100321332213661 0 -0.0089938510992040935 0.23100321332213661 0 -0.001965278602122185 0.24182690426762959 0 0.0010433620948100131 0.23240638127880581 0 -0.0089938510992040935 0.23100321332213661 0 -0.01246950101347712 0.23792538229425519 0 -0.001965278602122185 0.24182690426762959 0 -0.0082457657602449386 0.25246627485226031 0 -0.01246950101347712 0.23792538229425519 0 -0.001965278602122185 0.24182690426762959 0 -0.0082457657602449386 0.25246627485226031 0 -0.02675369219281019 0.23290150150097291 0 -0.01246950101347712 0.23792538229425519 0 -0.029881977245259539 0.25372898958001938 0 -0.0082457657602449386 0.25246627485226031 0 -0.026711477711177899 0.23444217817011309 0 -0.0082457657602449386 0.25246627485226031 0 -0.02675369219281019 0.23290150150097291 0 -0.026711477711177899 0.23444217817011309 0 -0.0082457657602449386 0.25246627485226031 0 -0.02675369219281019 0.23290150150097291 0 -0.046893106203257602 0.1507880314475378 0 -0.033582854738693747 0.16530128627528251 0 -0.03096555907766051 0.14775731769023701 0 -0.035508455794597132 0.13046501110523001 0 -0.046893106203257602 0.1507880314475378 0 -0.03096555907766051 0.14775731769023701 0 -0.035508455794597132 0.13046501110523001 0 -0.046893106203257602 0.1507880314475378 0 -0.035508455794597132 0.13046501110523001 0 -0.055186524828957063 0.1281687789626855 0 -0.046893106203257602 0.1507880314475378 0 -0.035508455794597132 0.13046501110523001 0 -0.055186524828957063 0.1281687789626855 0 -0.04045215309894238 0.1165912735558266 0 -0.074642854581774637 0.14147916649728479 0 -0.055186524828957063 0.1281687789626855 0 -0.046893106203257602 0.1507880314475378 0 -0.065615427061545384 0.16058384892905991 0 -0.074642854581774637 0.14147916649728479 0 -0.046893106203257602 0.1507880314475378 0 -0.065615427061545384 0.16058384892905991 0 -0.046893106203257602 0.1507880314475378 0 -0.051824687549248197 0.17345858692208871 0 -0.063769545057940663 0.19377195479839809 0 -0.051824687549248197 0.17345858692208871 0 -0.041349789320347038 0.18749549167170951 0 -0.041349789320347038 0.18749549167170951 0 -0.033582854738693747 0.16530128627528251 0 -0.02440704960050057 0.1813667693045137 0 -0.051824687549248197 0.17345858692208871 0 -0.041349789320347038 0.18749549167170951 0 -0.033582854738693747 0.16530128627528251 0 -0.046893106203257602 0.1507880314475378 0 -0.051824687549248197 0.17345858692208871 0 -0.033582854738693747 0.16530128627528251 0 -0.033582854738693747 0.16530128627528251 0 -0.022139091883514501 0.16815071126606429 0 -0.02440704960050057 0.1813667693045137 0 -0.033582854738693747 0.16530128627528251 0 -0.022139091883514501 0.16815071126606429 0 -0.016648491277264341 0.15771365056650341 0 -0.033582854738693747 0.16530128627528251 0 -0.016648491277264341 0.15771365056650341 0 -0.03096555907766051 0.14775731769023701 0 -0.022139091883514501 0.16815071126606429 0 -0.02440704960050057 0.1813667693045137 0 -0.01283771780100665 0.17547196173435681 0 -0.01949536222664228 0.1923427933584827 0 -0.02440704960050057 0.1813667693045137 0 -0.0099503170468955675 0.185467411183286 0 -0.02440704960050057 0.1813667693045137 0 -0.0099503170468955675 0.185467411183286 0 -0.01283771780100665 0.17547196173435681 0 -0.0099503170468955675 0.185467411183286 0 -0.01283771780100665 0.17547196173435681 0 -0.00450206117857799 0.17688747855202069 0 -0.01283771780100665 0.17547196173435681 0 -0.00450206117857799 0.17688747855202069 0 -0.0026654791677323511 0.16604552865166611 0 -0.00450206117857799 0.17688747855202069 0 -0.0026654791677323511 0.16604552865166611 0 0.0024081860720475369 0.17557227428335351 0 -0.00450206117857799 0.17688747855202069 0 0.00053502205069707774 0.18188021690744111 0 0.0024081860720475369 0.17557227428335351 0 -0.0099503170468955675 0.185467411183286 0 -0.00450206117857799 0.17688747855202069 0 0.00053502205069707774 0.18188021690744111 0 -0.003081975793268537 0.18782002811878001 0 -0.0099503170468955675 0.185467411183286 0 0.00053502205069707774 0.18188021690744111 0 -0.022139091883514501 0.16815071126606429 0 -0.016648491277264341 0.15771365056650341 0 -0.0026654791677323511 0.16604552865166611 0 -0.022139091883514501 0.16815071126606429 0 -0.01283771780100665 0.17547196173435681 0 -0.0026654791677323511 0.16604552865166611 0 -0.016648491277264341 0.15771365056650341 0 -0.0026654791677323511 0.16604552865166611 0 0.00151890392611572 0.15456094484017679 0 -0.016648491277264341 0.15771365056650341 0 -0.0026654791677323511 0.16604552865166611 0 -0.0082797250895681185 0.13474448294352481 0 0.00151890392611572 0.15456094484017679 0 -0.016648491277264341 0.15771365056650341 0 -0.0082797250895681185 0.13474448294352481 0 0.00151890392611572 0.15456094484017679 0 -0.016648491277264341 0.15771365056650341 0 -0.03096555907766051 0.14775731769023701 0 -0.022194887374489752 0.13451860905663129 0 -0.016648491277264341 0.15771365056650341 0 -0.022194887374489752 0.13451860905663129 0 -0.0082797250895681185 0.13474448294352481 0 -0.035508455794597132 0.13046501110523001 0 -0.03096555907766051 0.14775731769023701 0 -0.022194887374489752 0.13451860905663129 0 -0.035508455794597132 0.13046501110523001 0 -0.022194887374489752 0.13451860905663129 0 -0.02222625157844095 0.1227088344756834 0 -0.022194887374489752 0.13451860905663129 0 -0.012678773622269129 0.1213748672570316 0 -0.02222625157844095 0.1227088344756834 0 -0.022194887374489752 0.13451860905663129 0 -0.0082797250895681185 0.13474448294352481 0 -0.012678773622269129 0.1213748672570316 0 -0.0082797250895681185 0.13474448294352481 0 -0.012678773622269129 0.1213748672570316 0 0.0010393500416724941 0.12595831854165979 0 -0.012678773622269129 0.1213748672570316 0 -0.0069683050282923539 0.11495619240176071 0 0.0010393500416724941 0.12595831854165979 0 -0.0069683050282923539 0.11495619240176071 0 0.00039794405216867472 0.112072386291362 0 0.0010393500416724941 0.12595831854165979 0 -0.012678773622269129 0.1213748672570316 0 -0.012248850971573841 0.1125208075020822 0 -0.01744198128355802 0.11503771634109559 0 -0.012678773622269129 0.1213748672570316 0 -0.012248850971573841 0.1125208075020822 0 -0.0069683050282923539 0.11495619240176071 0 -0.012248850971573841 0.1125208075020822 0 -0.0069683050282923539 0.11495619240176071 0 -0.0083997351711877014 0.10895079227570641 0 -0.0069683050282923539 0.11495619240176071 0 -0.0083997351711877014 0.10895079227570641 0 0.00039794405216867472 0.112072386291362 0 -0.011506603279544361 0.087618711973773578 0 0.0058206420146291954 0.1114089238878985 0 0.00039794405216867472 0.112072386291362 0 -0.015837719346710199 0.095350294128549784 0 -0.011506603279544361 0.087618711973773578 0 0.00039794405216867472 0.112072386291362 0 -0.011506603279544361 0.087618711973773578 0 0.0058206420146291954 0.1114089238878985 0 -0.015837719346710199 0.095350294128549784 0 0.00039794405216867472 0.112072386291362 0 -0.0083997351711877014 0.10895079227570641 0 -0.015837719346710199 0.095350294128549784 0 0.00039794405216867472 0.112072386291362 0 -0.011506603279544361 0.087618711973773578 0 0.0017142141577850001 0.096485027642689541 0 0.0058206420146291954 0.1114089238878985 0 -0.0083997351711877014 0.10895079227570641 0 -0.013221823848225379 0.1065091018144344 0 -0.015837719346710199 0.095350294128549784 0 -0.012248850971573841 0.1125208075020822 0 -0.0083997351711877014 0.10895079227570641 0 -0.013221823848225379 0.1065091018144344 0 -0.012248850971573841 0.1125208075020822 0 -0.013221823848225379 0.1065091018144344 0 -0.017997844109414411 0.1087655018954708 0 -0.017997844109414411 0.1087655018954708 0 -0.015837719346710199 0.095350294128549784 0 -0.024123805385937312 0.11014199076292169 0 -0.013221823848225379 0.1065091018144344 0 -0.017997844109414411 0.1087655018954708 0 -0.015837719346710199 0.095350294128549784 0 -0.024123805385937312 0.11014199076292169 0 -0.032300333499350402 0.090057470672271281 0 -0.015837719346710199 0.095350294128549784 0 -0.024123805385937312 0.11014199076292169 0 -0.032300333499350402 0.090057470672271281 0 -0.015837719346710199 0.095350294128549784 0 -0.024123805385937312 0.11014199076292169 0 -0.035508455794597132 0.13046501110523001 0 -0.024123805385937312 0.11014199076292169 0 -0.023307159817290739 0.1121479686184283 0 -0.035508455794597132 0.13046501110523001 0 -0.02222625157844095 0.1227088344756834 0 -0.023307159817290739 0.1121479686184283 0 -0.035508455794597132 0.13046501110523001 0 -0.024123805385937312 0.11014199076292169 0 -0.024123805385937312 0.11014199076292169 0 -0.023307159817290739 0.1121479686184283 0 -0.012678773622269129 0.1213748672570316 0 -0.02222625157844095 0.1227088344756834 0 -0.01744198128355802 0.11503771634109559 0 -0.02222625157844095 0.1227088344756834 0 -0.01744198128355802 0.11503771634109559 0 -0.023307159817290739 0.1121479686184283 0 -0.012248850971573841 0.1125208075020822 0 -0.017997844109414411 0.1087655018954708 0 -0.01744198128355802 0.11503771634109559 0 -0.017997844109414411 0.1087655018954708 0 -0.024123805385937312 0.11014199076292169 0 -0.023307159817290739 0.1121479686184283 0 -0.017997844109414411 0.1087655018954708 0 -0.01744198128355802 0.11503771634109559 0 -0.023307159817290739 0.1121479686184283 0 -0.0046988296279310846 0.075465987257500103 0 -0.004471055932428975 0.061346262570306953 0 0.0079626054049135586 0.052863747179962457 0 -0.0093767874180366029 0.073051079923104223 0 -0.014915188529848109 0.07157527628023079 0 -0.011506603279544361 0.087618711973773578 0 -0.0096267601800840239 0.066065855624376196 0 -0.01690032334888349 0.065021557104339434 0 -0.015766095144715799 0.059221925757037469 0 -0.0096267601800840239 0.066065855624376196 0 -0.014915188529848109 0.07157527628023079 0 -0.01690032334888349 0.065021557104339434 0 -0.0096267601800840239 0.066065855624376196 0 -0.0093767874180366029 0.073051079923104223 0 -0.014915188529848109 0.07157527628023079 0 -0.0096267601800840239 0.066065855624376196 0 -0.0046988296279310846 0.075465987257500103 0 -0.004471055932428975 0.061346262570306953 0 -0.0046988296279310846 0.075465987257500103 0 -0.0093767874180366029 0.073051079923104223 0 -0.0096267601800840239 0.066065855624376196 0 -0.0046988296279310846 0.075465987257500103 0 -0.0093767874180366029 0.073051079923104223 0 -0.0046988296279310846 0.075465987257500103 0 -0.011506603279544361 0.087618711973773578 0 -0.0046988296279310846 0.075465987257500103 0 -0.0093767874180366029 0.073051079923104223 0 -0.011506603279544361 0.087618711973773578 0 -0.0046988296279310846 0.075465987257500103 0 -0.011506603279544361 0.087618711973773578 0 0.00056903788424511365 0.086682396089073327 0 -0.011506603279544361 0.087618711973773578 0 0.00056903788424511365 0.086682396089073327 0 0.0017142141577850001 0.096485027642689541 0 -0.015837719346710199 0.095350294128549784 0 -0.011506603279544361 0.087618711973773578 0 -0.011506603279544361 0.087618711973773578 0 -0.028157290479737571 0.082661622355085798 0 -0.027165468422692102 0.066119176775560506 0 -0.015837719346710199 0.095350294128549784 0 -0.011506603279544361 0.087618711973773578 0 -0.028157290479737571 0.082661622355085798 0 -0.015837719346710199 0.095350294128549784 0 -0.028157290479737571 0.082661622355085798 0 -0.032300333499350402 0.090057470672271281 0 -0.015837719346710199 0.095350294128549784 0 -0.028157290479737571 0.082661622355085798 0 -0.014915188529848109 0.07157527628023079 0 -0.011506603279544361 0.087618711973773578 0 -0.027165468422692102 0.066119176775560506 0 -0.011506603279544361 0.087618711973773578 0 -0.027165468422692102 0.066119176775560506 0 -0.027165468422692102 0.066119176775560506 0 -0.01690032334888349 0.065021557104339434 0 -0.021155304748881689 0.062203044053262727 0 -0.014915188529848109 0.07157527628023079 0 -0.027165468422692102 0.066119176775560506 0 -0.01690032334888349 0.065021557104339434 0 -0.027165468422692102 0.066119176775560506 0 -0.040476861612764189 0.069972950581621118 0 -0.047888547298180387 0.051767161035057033 0 -0.028157290479737571 0.082661622355085798 0 -0.027165468422692102 0.066119176775560506 0 -0.040476861612764189 0.069972950581621118 0 -0.040476861612764189 0.069972950581621118 0 -0.049934811086014087 0.07186746235717667 0 -0.047859912164240369 0.063897566148078455 0 -0.028157290479737571 0.082661622355085798 0 -0.040476861612764189 0.069972950581621118 0 -0.040476861612764189 0.069972950581621118 0 -0.032300333499350402 0.090057470672271281 0 -0.028157290479737571 0.082661622355085798 0 -0.040476861612764189 0.069972950581621118 0 -0.032300333499350402 0.090057470672271281 0 -0.032300333499350402 0.090057470672271281 0 -0.052294403454901703 0.081174947256086191 0 -0.05578440732887191 0.096170589739797752 0 -0.040476861612764189 0.069972950581621118 0 -0.032300333499350402 0.090057470672271281 0 -0.052294403454901703 0.081174947256086191 0 -0.052294403454901703 0.081174947256086191 0 -0.05578440732887191 0.096170589739797752 0 -0.071620526940906107 0.087533684005701329 0 -0.052294403454901703 0.081174947256086191 0 -0.071620526940906107 0.087533684005701329 0 -0.062515526400001881 0.068377579792855414 0 -0.040476861612764189 0.069972950581621118 0 -0.052294403454901703 0.081174947256086191 0 -0.049934811086014087 0.07186746235717667 0 -0.052294403454901703 0.081174947256086191 0 -0.049934811086014087 0.07186746235717667 0 -0.062515526400001881 0.068377579792855414 0 -0.049934811086014087 0.07186746235717667 0 -0.052204780428632629 0.062945341387988421 0 -0.062515526400001881 0.068377579792855414 0 -0.052204780428632629 0.062945341387988421 0 -0.062515526400001881 0.068377579792855414 0 -0.055379183454653792 0.058514889464143828 0 -0.049934811086014087 0.07186746235717667 0 -0.052204780428632629 0.062945341387988421 0 -0.047859912164240369 0.063897566148078455 0 -0.024123805385937312 0.11014199076292169 0 -0.04045215309894238 0.1165912735558266 0 -0.041170092212669533 0.1046411265361262 0 -0.035508455794597132 0.13046501110523001 0 -0.024123805385937312 0.11014199076292169 0 -0.04045215309894238 0.1165912735558266 0 -0.04045215309894238 0.1165912735558266 0 -0.041170092212669533 0.1046411265361262 0 -0.052159737415513489 0.1112025467171566 0 -0.032300333499350402 0.090057470672271281 0 -0.041170092212669533 0.1046411265361262 0 -0.05578440732887191 0.096170589739797752 0 -0.024123805385937312 0.11014199076292169 0 -0.032300333499350402 0.090057470672271281 0 -0.041170092212669533 0.1046411265361262 0 -0.05578440732887191 0.096170589739797752 0 -0.052159737415513489 0.1112025467171566 0 -0.07438317581125764 0.1124407737129243 0 -0.041170092212669533 0.1046411265361262 0 -0.05578440732887191 0.096170589739797752 0 -0.052159737415513489 0.1112025467171566 0 -0.055186524828957063 0.1281687789626855 0 -0.04045215309894238 0.1165912735558266 0 -0.052159737415513489 0.1112025467171566 0 -0.055186524828957063 0.1281687789626855 0 -0.052159737415513489 0.1112025467171566 0 -0.07438317581125764 0.1124407737129243 0 -0.092802426943272898 0.12960292979422991 0 -0.07438317581125764 0.1124407737129243 0 -0.10110008134148971 0.1098561456819369 0 -0.07438317581125764 0.1124407737129243 0 -0.086834659998143784 0.098004038152668241 0 -0.10110008134148971 0.1098561456819369 0 -0.07438317581125764 0.1124407737129243 0 -0.086834659998143784 0.098004038152668241 0 -0.071620526940906107 0.087533684005701329 0 -0.05578440732887191 0.096170589739797752 0 -0.07438317581125764 0.1124407737129243 0 -0.071620526940906107 0.087533684005701329 0 -0.071620526940906107 0.087533684005701329 0 -0.062515526400001881 0.068377579792855414 0 -0.077633089280774809 0.070659037798975324 0 -0.062515526400001881 0.068377579792855414 0 -0.077633089280774809 0.070659037798975324 0 -0.069862538744371955 0.057777113150521288 0 -0.077633089280774809 0.070659037798975324 0 -0.081860045586377939 0.060182951188062161 0 -0.069862538744371955 0.057777113150521288 0 -0.077633089280774809 0.070659037798975324 0 -0.09054666164713164 0.067286880848174316 0 -0.081860045586377939 0.060182951188062161 0 -0.077633089280774809 0.070659037798975324 0 -0.09054666164713164 0.067286880848174316 0 -0.091096470542610469 0.082323341280698709 0 -0.071620526940906107 0.087533684005701329 0 -0.077633089280774809 0.070659037798975324 0 -0.091096470542610469 0.082323341280698709 0 -0.086834659998143784 0.098004038152668241 0 -0.071620526940906107 0.087533684005701329 0 -0.091096470542610469 0.082323341280698709 0 -0.086834659998143784 0.098004038152668241 0 -0.091096470542610469 0.082323341280698709 0 -0.1074822184466613 0.088136729408796272 0 -0.091096470542610469 0.082323341280698709 0 -0.1074822184466613 0.088136729408796272 0 -0.10104646070399111 0.074349611526457776 0 -0.1074822184466613 0.088136729408796272 0 -0.10104646070399111 0.074349611526457776 0 -0.1134486320906168 0.071653759806922179 0 -0.09054666164713164 0.067286880848174316 0 -0.10104646070399111 0.074349611526457776 0 -0.1026583207929353 0.062347346287697412 0 -0.09054666164713164 0.067286880848174316 0 -0.091096470542610469 0.082323341280698709 0 -0.10104646070399111 0.074349611526457776 0 -0.10104646070399111 0.074349611526457776 0 -0.1134486320906168 0.071653759806922179 0 -0.1026583207929353 0.062347346287697412 0 -0.1134486320906168 0.071653759806922179 0 -0.1169815729820268 0.057446916627697332 0 -0.1026583207929353 0.062347346287697412 0 -0.1134486320906168 0.071653759806922179 0 -0.12498233095038511 0.069533312171706482 0 -0.1248370695698198 0.083226530136874921 0 -0.1134486320906168 0.071653759806922179 0 -0.12498233095038511 0.069533312171706482 0 -0.1169815729820268 0.057446916627697332 0 -0.1074822184466613 0.088136729408796272 0 -0.1134486320906168 0.071653759806922179 0 -0.1248370695698198 0.083226530136874921 0 -0.12991930243541749 0.1020465165188278 0 -0.1074822184466613 0.088136729408796272 0 -0.1248370695698198 0.083226530136874921 0 -0.12991930243541749 0.1020465165188278 0 -0.1074822184466613 0.088136729408796272 0 -0.10110008134148971 0.1098561456819369 0 -0.12991930243541749 0.1020465165188278 0 -0.1131006250587715 0.12959615498317961 0 -0.10110008134148971 0.1098561456819369 0 -0.12991930243541749 0.1020465165188278 0 -0.13028426483969929 0.13221647237215789 0 -0.1131006250587715 0.12959615498317961 0 -0.1131006250587715 0.12959615498317961 0 -0.092802426943272898 0.12960292979422991 0 -0.10110008134148971 0.1098561456819369 0 -0.086834659998143784 0.098004038152668241 0 -0.1074822184466613 0.088136729408796272 0 -0.10110008134148971 0.1098561456819369 0 -0.1061587232064081 0.029080734372794698 0 -0.094449021505079139 0.018227913303066591 0 -0.1094215753963574 0.0115277712725063 0 -0.1061587232064081 0.029080734372794698 0 -0.094924595462104619 0.030399760044886301 0 -0.094449021505079139 0.018227913303066591 0 -0.094449021505079139 0.018227913303066591 0 -0.097507665945787692 0.0040820149966005574 0 -0.1094215753963574 0.0115277712725063 0 -0.097507665945787692 0.0040820149966005574 0 -0.1058521268010089 0.00073384547527136773 0 -0.1094215753963574 0.0115277712725063 0 -0.1152652699767374 -0.0044733142422073097 0 -0.1273771369441013 0.0023450629401116992 0 -0.1094215753963574 0.0115277712725063 0 -0.1152652699767374 -0.0044733142422073097 0 -0.1058521268010089 0.00073384547527136773 0 -0.1094215753963574 0.0115277712725063 0 -0.1273771369441013 0.0023450629401116992 0 -0.12537023626190849 0.01701499410391356 0 -0.1094215753963574 0.0115277712725063 0 -0.12537023626190849 0.01701499410391356 0 -0.1094215753963574 0.0115277712725063 0 -0.1154752524598698 0.02214949429500624 0 -0.12537023626190849 0.01701499410391356 0 -0.1154752524598698 0.02214949429500624 0 -0.120950474974805 0.030974477430810402 0 -0.1061587232064081 0.029080734372794698 0 -0.1094215753963574 0.0115277712725063 0 -0.1154752524598698 0.02214949429500624 0 -0.1061587232064081 0.029080734372794698 0 -0.1154752524598698 0.02214949429500624 0 -0.120950474974805 0.030974477430810402 0 -0.1304591025064194 0.044551821316570157 0 -0.120950474974805 0.030974477430810402 0 -0.112428546201817 0.041955624634692393 0 -0.1061587232064081 0.029080734372794698 0 -0.120950474974805 0.030974477430810402 0 -0.112428546201817 0.041955624634692393 0 -0.1304591025064194 0.044551821316570157 0 -0.112428546201817 0.041955624634692393 0 -0.1169815729820268 0.057446916627697332 0 -0.1311901693420546 0.060374133793646992 0 -0.12498233095038511 0.069533312171706482 0 -0.1169815729820268 0.057446916627697332 0 -0.112428546201817 0.041955624634692393 0 -0.1169815729820268 0.057446916627697332 0 -0.10210071185166431 0.050014029354961582 0 -0.1169815729820268 0.057446916627697332 0 -0.1026583207929353 0.062347346287697412 0 -0.10210071185166431 0.050014029354961582 0 -0.10210071185166431 0.050014029354961582 0 -0.091201579857211959 0.041080799774458047 0 -0.091131717688311603 0.055225201160547438 0 -0.1026583207929353 0.062347346287697412 0 -0.10210071185166431 0.050014029354961582 0 -0.091131717688311603 0.055225201160547438 0 -0.09054666164713164 0.067286880848174316 0 -0.1026583207929353 0.062347346287697412 0 -0.091131717688311603 0.055225201160547438 0 -0.1061587232064081 0.029080734372794698 0 -0.112428546201817 0.041955624634692393 0 -0.1016080011228369 0.039407166226836883 0 -0.112428546201817 0.041955624634692393 0 -0.10210071185166431 0.050014029354961582 0 -0.1016080011228369 0.039407166226836883 0 -0.10210071185166431 0.050014029354961582 0 -0.1016080011228369 0.039407166226836883 0 -0.091201579857211959 0.041080799774458047 0 -0.1061587232064081 0.029080734372794698 0 -0.094924595462104619 0.030399760044886301 0 -0.1016080011228369 0.039407166226836883 0 -0.094924595462104619 0.030399760044886301 0 -0.1016080011228369 0.039407166226836883 0 -0.091201579857211959 0.041080799774458047 0 -0.094924595462104619 0.030399760044886301 0 -0.091201579857211959 0.041080799774458047 0 -0.083613433652756419 0.02825823648094046 0 -0.091201579857211959 0.041080799774458047 0 -0.080163505572120847 0.038728335950810322 0 -0.0801262205712997 0.049966522982092462 0 -0.091201579857211959 0.041080799774458047 0 -0.080163505572120847 0.038728335950810322 0 -0.083613433652756419 0.02825823648094046 0 -0.080163505572120847 0.038728335950810322 0 -0.075199828102842814 0.032505994045140242 0 -0.083613433652756419 0.02825823648094046 0 -0.09054666164713164 0.067286880848174316 0 -0.091131717688311603 0.055225201160547438 0 -0.081860045586377939 0.060182951188062161 0 -0.091201579857211959 0.041080799774458047 0 -0.091131717688311603 0.055225201160547438 0 -0.0801262205712997 0.049966522982092462 0 -0.091131717688311603 0.055225201160547438 0 -0.0801262205712997 0.049966522982092462 0 -0.081860045586377939 0.060182951188062161 0 -0.0801262205712997 0.049966522982092462 0 -0.069862538744371955 0.057777113150521288 0 -0.06901267431079619 0.039797487593251017 0 -0.069862538744371955 0.057777113150521288 0 -0.06901267431079619 0.039797487593251017 0 -0.058907879691800273 0.050969475640674493 0 -0.062515526400001881 0.068377579792855414 0 -0.069862538744371955 0.057777113150521288 0 -0.058907879691800273 0.050969475640674493 0 -0.0801262205712997 0.049966522982092462 0 -0.081860045586377939 0.060182951188062161 0 -0.069862538744371955 0.057777113150521288 0 -0.06901267431079619 0.039797487593251017 0 -0.068009698875697827 0.023239916155559141 0 -0.055300232983598208 0.033561371488493641 0 -0.075199828102842814 0.032505994045140242 0 -0.06901267431079619 0.039797487593251017 0 -0.068009698875697827 0.023239916155559141 0 -0.080163505572120847 0.038728335950810322 0 -0.075199828102842814 0.032505994045140242 0 -0.06901267431079619 0.039797487593251017 0 -0.080163505572120847 0.038728335950810322 0 -0.0801262205712997 0.049966522982092462 0 -0.06901267431079619 0.039797487593251017 0 -0.068009698875697827 0.023239916155559141 0 -0.066123158358303874 0.0069763394170788487 0 -0.055300232983598208 0.033561371488493641 0 -0.068009698875697827 0.023239916155559141 0 -0.083613433652756419 0.02825823648094046 0 -0.080050012301679602 0.015705407900093959 0 -0.068009698875697827 0.023239916155559141 0 -0.080050012301679602 0.015705407900093959 0 -0.07274845615251338 0.0135364418571977 0 -0.075199828102842814 0.032505994045140242 0 -0.068009698875697827 0.023239916155559141 0 -0.083613433652756419 0.02825823648094046 0 -0.094449021505079139 0.018227913303066591 0 -0.083613433652756419 0.02825823648094046 0 -0.080050012301679602 0.015705407900093959 0 -0.094924595462104619 0.030399760044886301 0 -0.094449021505079139 0.018227913303066591 0 -0.083613433652756419 0.02825823648094046 0 -0.089124004628701792 -0.0040277377021705899 0 -0.097507665945787692 0.0040820149966005574 0 -0.086098134196158846 0.0059583430860626887 0 -0.094449021505079139 0.018227913303066591 0 -0.080050012301679602 0.015705407900093959 0 -0.086098134196158846 0.0059583430860626887 0 -0.094449021505079139 0.018227913303066591 0 -0.097507665945787692 0.0040820149966005574 0 -0.086098134196158846 0.0059583430860626887 0 -0.080050012301679602 0.015705407900093959 0 -0.086098134196158846 0.0059583430860626887 0 -0.076810955074372203 0.0082241039560588727 0 -0.079764572027605563 -0.001208843295517239 0 -0.086098134196158846 0.0059583430860626887 0 -0.076810955074372203 0.0082241039560588727 0 -0.079764572027605563 -0.001208843295517239 0 -0.089124004628701792 -0.0040277377021705899 0 -0.086098134196158846 0.0059583430860626887 0 -0.079764572027605563 -0.001208843295517239 0 -0.076810955074372203 0.0082241039560588727 0 -0.066123158358303874 0.0069763394170788487 0 -0.068009698875697827 0.023239916155559141 0 -0.07274845615251338 0.0135364418571977 0 -0.066123158358303874 0.0069763394170788487 0 -0.076810955074372203 0.0082241039560588727 0 -0.07274845615251338 0.0135364418571977 0 -0.066123158358303874 0.0069763394170788487 0 -0.080050012301679602 0.015705407900093959 0 -0.076810955074372203 0.0082241039560588727 0 -0.07274845615251338 0.0135364418571977 0 -0.047617207273071643 -0.0035118018543059538 0 -0.059664616745900671 -0.0040500510012267867 0 -0.050798470683601923 0.01183886002179501 0 -0.059664616745900671 -0.0040500510012267867 0 -0.066123158358303874 0.0069763394170788487 0 -0.050798470683601923 0.01183886002179501 0 -0.059664616745900671 -0.0040500510012267867 0 -0.050798470683601923 0.01183886002179501 0 -0.047617207273071643 -0.0035118018543059538 0 -0.050798470683601923 0.01183886002179501 0 -0.050798470683601923 0.01183886002179501 0 -0.055300232983598208 0.033561371488493641 0 -0.04692109718252771 0.035386244484329407 0 -0.066123158358303874 0.0069763394170788487 0 -0.055300232983598208 0.033561371488493641 0 -0.066123158358303874 0.0069763394170788487 0 -0.050798470683601923 0.01183886002179501 0 -0.055300232983598208 0.033561371488493641 0 -0.050798470683601923 0.01183886002179501 0 -0.055300232983598208 0.033561371488493641 0 -0.050798470683601923 0.01183886002179501 0 -0.034391162446891957 0.018187238464497092 0 -0.037793901381418679 0.035144188298954319 0 -0.034391162446891957 0.018187238464497092 0 -0.037793901381418679 0.035144188298954319 0 -0.022455882408961961 0.026825405924253771 0 -0.050798470683601923 0.01183886002179501 0 -0.037793901381418679 0.035144188298954319 0 -0.050798470683601923 0.01183886002179501 0 -0.04692109718252771 0.035386244484329407 0 -0.037793901381418679 0.035144188298954319 0 -0.050798470683601923 0.01183886002179501 0 -0.034391162446891957 0.018187238464497092 0 -0.03671052455766443 0.0037031618858211421 0 -0.034391162446891957 0.018187238464497092 0 -0.03671052455766443 0.0037031618858211421 0 -0.022890364083827771 0.01081673007749915 0 -0.047617207273071643 -0.0035118018543059538 0 -0.050798470683601923 0.01183886002179501 0 -0.03671052455766443 0.0037031618858211421 0 -0.062515526400001881 0.068377579792855414 0 -0.058907879691800273 0.050969475640674493 0 -0.062515526400001881 0.068377579792855414 0 -0.055379183454653792 0.058514889464143828 0 -0.058907879691800273 0.050969475640674493 0 -0.052204780428632629 0.062945341387988421 0 -0.047859912164240369 0.063897566148078455 0 -0.047888547298180387 0.051767161035057033 0 -0.052204780428632629 0.062945341387988421 0 -0.055379183454653792 0.058514889464143828 0 -0.047888547298180387 0.051767161035057033 0 -0.055379183454653792 0.058514889464143828 0 -0.058907879691800273 0.050969475640674493 0 -0.047888547298180387 0.051767161035057033 0 -0.06901267431079619 0.039797487593251017 0 -0.058907879691800273 0.050969475640674493 0 -0.055300232983598208 0.033561371488493641 0 -0.047888547298180387 0.051767161035057033 0 -0.055300232983598208 0.033561371488493641 0 -0.04692109718252771 0.035386244484329407 0 -0.058907879691800273 0.050969475640674493 0 -0.047888547298180387 0.051767161035057033 0 -0.055300232983598208 0.033561371488493641 0 -0.047888547298180387 0.051767161035057033 0 -0.055300232983598208 0.033561371488493641 0 -0.058907879691800273 0.050969475640674493 0 -0.055300232983598208 0.033561371488493641 0 -0.037793901381418679 0.035144188298954319 0 -0.024789332079235359 0.058449516576113518 0 -0.047888547298180387 0.051767161035057033 0 -0.04692109718252771 0.035386244484329407 0 -0.042824333565839388 0.044619641577347061 0 -0.037793901381418679 0.035144188298954319 0 -0.042824333565839388 0.044619641577347061 0 -0.024789332079235359 0.058449516576113518 0 -0.04692109718252771 0.035386244484329407 0 -0.037793901381418679 0.035144188298954319 0 -0.042824333565839388 0.044619641577347061 0 -0.027165468422692102 0.066119176775560506 0 -0.047888547298180387 0.051767161035057033 0 -0.042824333565839388 0.044619641577347061 0 -0.040476861612764189 0.069972950581621118 0 -0.047859912164240369 0.063897566148078455 0 -0.047888547298180387 0.051767161035057033 0 -0.040476861612764189 0.069972950581621118 0 -0.047888547298180387 0.051767161035057033 0 -0.027165468422692102 0.066119176775560506 0 -0.042824333565839388 0.044619641577347061 0 -0.027165468422692102 0.066119176775560506 0 -0.042824333565839388 0.044619641577347061 0 -0.024789332079235359 0.058449516576113518 0 -0.015766095144715799 0.059221925757037469 0 -0.024789332079235359 0.058449516576113518 0 -0.0190365636870411 0.05257699221554326 0 -0.015766095144715799 0.059221925757037469 0 -0.021155304748881689 0.062203044053262727 0 -0.024789332079235359 0.058449516576113518 0 -0.01690032334888349 0.065021557104339434 0 -0.015766095144715799 0.059221925757037469 0 -0.021155304748881689 0.062203044053262727 0 -0.027165468422692102 0.066119176775560506 0 -0.021155304748881689 0.062203044053262727 0 -0.024789332079235359 0.058449516576113518 0 -0.024789332079235359 0.058449516576113518 0 -0.0190365636870411 0.05257699221554326 0 -0.02501616098884394 0.043295095323351421 0 -0.0190365636870411 0.05257699221554326 0 -0.02501616098884394 0.043295095323351421 0 -0.010574666535369299 0.049341431205670631 0 -0.037793901381418679 0.035144188298954319 0 -0.024789332079235359 0.058449516576113518 0 -0.02501616098884394 0.043295095323351421 0 -0.037793901381418679 0.035144188298954319 0 -0.02501616098884394 0.043295095323351421 0 -0.022455882408961961 0.026825405924253771 0 -0.02501616098884394 0.043295095323351421 0 -0.01174883101074616 0.035626247072063598 0 -0.022455882408961961 0.026825405924253771 0 -0.02501616098884394 0.043295095323351421 0 -0.01174883101074616 0.035626247072063598 0 -0.010574666535369299 0.049341431205670631 0 -0.01174883101074616 0.035626247072063598 0 -0.010574666535369299 0.049341431205670631 0 0.0050554059078342702 0.036817447586302399 0 -0.010574666535369299 0.049341431205670631 0 -0.004471055932428975 0.061346262570306953 0 0.0079626054049135586 0.052863747179962457 0 -0.015766095144715799 0.059221925757037469 0 -0.0190365636870411 0.05257699221554326 0 -0.010574666535369299 0.049341431205670631 0 -0.015766095144715799 0.059221925757037469 0 -0.010574666535369299 0.049341431205670631 0 -0.004471055932428975 0.061346262570306953 0 -0.0096267601800840239 0.066065855624376196 0 -0.015766095144715799 0.059221925757037469 0 -0.004471055932428975 0.061346262570306953 0 -0.025670282478897081 -0.0054027298625421993 0 -0.03671052455766443 0.0037031618858211421 0 -0.022890364083827771 0.01081673007749915 0 -0.025670282478897081 -0.0054027298625421993 0 -0.022890364083827771 0.01081673007749915 0 -0.010105069976996849 0.0023765649732562961 0 -0.022890364083827771 0.01081673007749915 0 -0.022455882408961961 0.026825405924253771 0 -0.0028948745420432241 0.01788293630915707 0 -0.034391162446891957 0.018187238464497092 0 -0.022890364083827771 0.01081673007749915 0 -0.022455882408961961 0.026825405924253771 0 -0.01174883101074616 0.035626247072063598 0 -0.022455882408961961 0.026825405924253771 0 -0.0028948745420432241 0.01788293630915707 0 -0.01174883101074616 0.035626247072063598 0 -0.0028948745420432241 0.01788293630915707 0 0.0050554059078342702 0.036817447586302399 0 -0.022890364083827771 0.01081673007749915 0 -0.0028948745420432241 0.01788293630915707 0 -0.010105069976996849 0.0023765649732562961 0 -0.0028948745420432241 0.01788293630915707 0 -0.010105069976996849 0.0023765649732562961 0 0.0047038114401232534 -0.001040937293712483 0 -0.0028948745420432241 0.01788293630915707 0 0.020415517075116841 0.0076517724901667356 0 0.0047038114401232534 -0.001040937293712483 0 -0.0028948745420432241 0.01788293630915707 0 0.020342672512877309 0.02491627604112644 0 0.020415517075116841 0.0076517724901667356 0 -0.0028948745420432241 0.01788293630915707 0 0.020342672512877309 0.02491627604112644 0 0.0050554059078342702 0.036817447586302399 0 0.020342672512877309 0.02491627604112644 0 0.020415517075116841 0.0076517724901667356 0 0.04034715667016759 0.018897687307637179 0 0.020342672512877309 0.02491627604112644 0 0.02507841675544124 0.048354097280414877 0 0.04034715667016759 0.018897687307637179 0 0.0079626054049135586 0.052863747179962457 0 0.02507841675544124 0.048354097280414877 0 0.010722424996073881 0.068121568230846891 0 -0.010574666535369299 0.049341431205670631 0 0.0079626054049135586 0.052863747179962457 0 0.0050554059078342702 0.036817447586302399 0 0.0079626054049135586 0.052863747179962457 0 0.0050554059078342702 0.036817447586302399 0 0.02507841675544124 0.048354097280414877 0 0.020342672512877309 0.02491627604112644 0 0.0050554059078342702 0.036817447586302399 0 0.02507841675544124 0.048354097280414877 0 0.02507841675544124 0.048354097280414877 0 0.050251726499931808 0.044842678424317363 0 0.039807943620716157 0.068946520475498749 0 0.050251726499931808 0.044842678424317363 0 0.039807943620716157 0.068946520475498749 0 0.02507841675544124 0.048354097280414877 0 0.050251726499931808 0.044842678424317363 0 0.04034715667016759 0.018897687307637179 0 0.050251726499931808 0.044842678424317363 0 0.060695509379147472 0.02073883637313596 0 0.066628286533047365 0.040173783681243101 0 0.050251726499931808 0.044842678424317363 0 0.060695509379147472 0.02073883637313596 0 0.050251726499931808 0.044842678424317363 0 0.066628286533047365 0.040173783681243101 0 0.063756980967503582 0.059761195325569103 0 0.050251726499931808 0.044842678424317363 0 0.063756980967503582 0.059761195325569103 0 0.039807943620716157 0.068946520475498749 0 0.020415517075116841 0.0076517724901667356 0 0.04034715667016759 0.018897687307637179 0 0.039787151186370009 -0.0039594854922263374 0 0.04034715667016759 0.018897687307637179 0 0.053306813386582982 0.0056008818424343951 0 0.039787151186370009 -0.0039594854922263374 0 0.050251726499931808 0.044842678424317363 0 0.04034715667016759 0.018897687307637179 0 0.060695509379147472 0.02073883637313596 0 0.04034715667016759 0.018897687307637179 0 0.060695509379147472 0.02073883637313596 0 0.053306813386582982 0.0056008818424343951 0 0.060695509379147472 0.02073883637313596 0 0.053306813386582982 0.0056008818424343951 0 0.065940651683257009 0.0024831850618150888 0 0.060695509379147472 0.02073883637313596 0 0.065940651683257009 0.0024831850618150888 0 0.07992851590561921 0.0082161523869754144 0 0.065940651683257009 0.0024831850618150888 0 0.07992851590561921 0.0082161523869754144 0 0.074177093133044117 -0.010507922444979889 0 0.07992851590561921 0.0082161523869754144 0 0.1009244284881298 0.0078078577834924806 0 0.09649789417263642 -0.0037639840011086311 0 0.07992851590561921 0.0082161523869754144 0 0.1009244284881298 0.0078078577834924806 0 0.09893654195113713 0.02570505514797651 0 0.07992851590561921 0.0082161523869754144 0 0.08516149451907469 0.032589503251719387 0 0.07992851590561921 0.0082161523869754144 0 0.08516149451907469 0.032589503251719387 0 0.09893654195113713 0.02570505514797651 0 0.060695509379147472 0.02073883637313596 0 0.07992851590561921 0.0082161523869754144 0 0.08516149451907469 0.032589503251719387 0 0.060695509379147472 0.02073883637313596 0 0.066628286533047365 0.040173783681243101 0 0.08516149451907469 0.032589503251719387 0 0.066628286533047365 0.040173783681243101 0 0.076734924211177571 0.049535316522237388 0 0.08516149451907469 0.032589503251719387 0 0.066628286533047365 0.040173783681243101 0 0.063756980967503582 0.059761195325569103 0 0.076734924211177571 0.049535316522237388 0 0.063756980967503582 0.059761195325569103 0 0.076734924211177571 0.049535316522237388 0 0.078896317813284711 0.063130005487330554 0 0.076734924211177571 0.049535316522237388 0 0.090394473132530156 0.056962854116463339 0 0.078896317813284711 0.063130005487330554 0 0.090394473132530156 0.056962854116463339 0 0.08516149451907469 0.032589503251719387 0 0.076734924211177571 0.049535316522237388 0 0.090394473132530156 0.056962854116463339 0 0.08516149451907469 0.032589503251719387 0 0.090394473132530156 0.056962854116463339 0 0.08516149451907469 0.032589503251719387 0 0.096764564946639139 0.043178279343160431 0 0.08516149451907469 0.032589503251719387 0 0.096764564946639139 0.043178279343160431 0 0.09893654195113713 0.02570505514797651 0 0.096764564946639139 0.043178279343160431 0 0.10666951487556919 0.040720151324231749 0 0.09893654195113713 0.02570505514797651 0 0.096764564946639139 0.043178279343160431 0 0.10666951487556919 0.040720151324231749 0 0.10388747543703999 0.053358399551525167 0 0.10666951487556919 0.040720151324231749 0 0.1142736493139349 0.03087626799389703 0 0.09893654195113713 0.02570505514797651 0 0.10388747543703999 0.053358399551525167 0 0.11892469151436 0.060175562481194378 0 0.096340815718618328 0.066677421107029802 0 0.090394473132530156 0.056962854116463339 0 0.10388747543703999 0.053358399551525167 0 0.096340815718618328 0.066677421107029802 0 0.090394473132530156 0.056962854116463339 0 0.096764564946639139 0.043178279343160431 0 0.10388747543703999 0.053358399551525167 0 0.10666951487556919 0.040720151324231749 0 0.10388747543703999 0.053358399551525167 0 0.1137328545953389 0.049471119462924477 0 0.1137328545953389 0.049471119462924477 0 0.11892469151436 0.060175562481194378 0 0.12367169586596689 0.04413069599522032 0 0.10388747543703999 0.053358399551525167 0 0.1137328545953389 0.049471119462924477 0 0.11892469151436 0.060175562481194378 0 0.10666951487556919 0.040720151324231749 0 0.12367169586596689 0.04413069599522032 0 0.1142736493139349 0.03087626799389703 0 0.12367169586596689 0.04413069599522032 0 0.1142736493139349 0.03087626799389703 0 0.13034027439662041 0.028127834929059549 0 0.10666951487556919 0.040720151324231749 0 0.1137328545953389 0.049471119462924477 0 0.12367169586596689 0.04413069599522032 0 0.1142736493139349 0.03087626799389703 0 0.111750219480381 0.015697602572997061 0 0.13034027439662041 0.028127834929059549 0 0.11917198148314 0.002581966002757949 0 0.13034027439662041 0.028127834929059549 0 0.111750219480381 0.015697602572997061 0 0.11917198148314 0.002581966002757949 0 0.13034027439662041 0.028127834929059549 0 0.11917198148314 0.002581966002757949 0 0.1309849453148588 0.01811654968683717 0 0.1228376310831711 -0.00076623140119310329 0 0.11917198148314 0.002581966002757949 0 0.1228376310831711 -0.00076623140119310329 0 0.11917198148314 0.002581966002757949 0 0.1133629416093747 0.002418872237081233 0 0.1105415625726717 -0.0014271332550589229 0 0.11917198148314 0.002581966002757949 0 0.1133629416093747 0.002418872237081233 0 0.11092652002007269 0.0067640166461111727 0 0.1133629416093747 0.002418872237081233 0 0.1078625722471533 0.0022823866337398822 0 0.1105415625726717 -0.0014271332550589229 0 0.1133629416093747 0.002418872237081233 0 0.11092652002007269 0.0067640166461111727 0 0.1078625722471533 0.0022823866337398822 0 0.111750219480381 0.015697602572997061 0 0.11917198148314 0.002581966002757949 0 0.11092652002007269 0.0067640166461111727 0 0.111750219480381 0.015697602572997061 0 0.11092652002007269 0.0067640166461111727 0 0.1009244284881298 0.0078078577834924806 0 0.1078625722471533 0.0022823866337398822 0 0.1009244284881298 0.0078078577834924806 0 0.1039166904039584 -0.0028966343462391718 0 0.11092652002007269 0.0067640166461111727 0 0.1078625722471533 0.0022823866337398822 0 0.1009244284881298 0.0078078577834924806 0 0.1009244284881298 0.0078078577834924806 0 0.1039166904039584 -0.0028966343462391718 0 0.09649789417263642 -0.0037639840011086311 0 0.111750219480381 0.015697602572997061 0 0.1009244284881298 0.0078078577834924806 0 0.09893654195113713 0.02570505514797651 0 0.1142736493139349 0.03087626799389703 0 0.111750219480381 0.015697602572997061 0 0.09893654195113713 0.02570505514797651 0 0.10086043035944101 0.1057095558459509 0 0.088353675930770217 0.1090445403681379 0 0.098136173783193614 0.12855261503670501 0 0.10086043035944101 0.1057095558459509 0 0.11707998843366239 0.12090166170324231 0 0.098136173783193614 0.12855261503670501 0 0.10086043035944101 0.1057095558459509 0 0.11707998843366239 0.12090166170324231 0 0.12018819637303869 0.10164151191590461 0 0.11707998843366239 0.12090166170324231 0 0.12018819637303869 0.10164151191590461 0 0.1368974078767736 0.107501873099266 0 0.10086043035944101 0.1057095558459509 0 0.12018819637303869 0.10164151191590461 0 0.11039993896964689 0.089589601033300492 0 0.12018819637303869 0.10164151191590461 0 0.1225478872688979 0.090713611373926736 0 0.11039993896964689 0.089589601033300492 0 0.1225478872688979 0.090713611373926736 0 0.1210037722340596 0.082520495593825793 0 0.11039993896964689 0.089589601033300492 0 0.1210037722340596 0.082520495593825793 0 0.11039993896964689 0.089589601033300492 0 0.1079674466630436 0.07575227550831827 0 0.1243405792371938 0.066503547411893488 0 0.1152310018430296 0.068591719667449438 0 0.13121537104960351 0.072689189806444385 0 0.1152310018430296 0.068591719667449438 0 0.1079674466630436 0.07575227550831827 0 0.13121537104960351 0.072689189806444385 0 0.11892469151436 0.060175562481194378 0 0.1152310018430296 0.068591719667449438 0 0.096340815718618328 0.066677421107029802 0 0.1210037722340596 0.082520495593825793 0 0.1079674466630436 0.07575227550831827 0 0.13121537104960351 0.072689189806444385 0 0.1079674466630436 0.07575227550831827 0 0.13121537104960351 0.072689189806444385 0 0.11892469151436 0.060175562481194378 0 0.1243405792371938 0.066503547411893488 0 0.1152310018430296 0.068591719667449438 0 0.090394473132530156 0.056962854116463339 0 0.096340815718618328 0.066677421107029802 0 0.095627451745985609 0.081336204981207194 0 0.11892469151436 0.060175562481194378 0 0.096340815718618328 0.066677421107029802 0 0.1152310018430296 0.068591719667449438 0 0.1079674466630436 0.07575227550831827 0 0.096340815718618328 0.066677421107029802 0 0.1079674466630436 0.07575227550831827 0 0.096340815718618328 0.066677421107029802 0 0.095627451745985609 0.081336204981207194 0 0.10086043035944101 0.1057095558459509 0 0.095627451745985609 0.081336204981207194 0 0.10086043035944101 0.1057095558459509 0 0.095627451745985609 0.081336204981207194 0 0.085469831166676849 0.087436677031336632 0 0.10086043035944101 0.1057095558459509 0 0.11039993896964689 0.089589601033300492 0 0.095627451745985609 0.081336204981207194 0 0.11039993896964689 0.089589601033300492 0 0.1079674466630436 0.07575227550831827 0 0.095627451745985609 0.081336204981207194 0 0.095627451745985609 0.081336204981207194 0 0.085469831166676849 0.087436677031336632 0 0.085588317529406169 0.073238424790440806 0 0.085469831166676849 0.087436677031336632 0 0.085588317529406169 0.073238424790440806 0 0.076873554133312927 0.079435143693455501 0 0.085469831166676849 0.087436677031336632 0 0.070098818600398835 0.095008337279511162 0 0.081838863589211913 0.097859807548057495 0 0.085588317529406169 0.073238424790440806 0 0.078896317813284711 0.063130005487330554 0 0.076873554133312927 0.079435143693455501 0 0.090394473132530156 0.056962854116463339 0 0.095627451745985609 0.081336204981207194 0 0.090394473132530156 0.056962854116463339 0 0.095627451745985609 0.081336204981207194 0 0.085588317529406169 0.073238424790440806 0 0.090394473132530156 0.056962854116463339 0 0.085588317529406169 0.073238424790440806 0 0.078896317813284711 0.063130005487330554 0 0.063756980967503582 0.059761195325569103 0 0.076873554133312927 0.079435143693455501 0 0.058428932400687923 0.080576723114904505 0 0.063756980967503582 0.059761195325569103 0 0.078896317813284711 0.063130005487330554 0 0.076873554133312927 0.079435143693455501 0 0.076873554133312927 0.079435143693455501 0 0.070098818600398835 0.095008337279511162 0 0.058428932400687923 0.080576723114904505 0 0.085469831166676849 0.087436677031336632 0 0.076873554133312927 0.079435143693455501 0 0.070098818600398835 0.095008337279511162 0 0.076873554133312927 0.079435143693455501 0 0.070098818600398835 0.095008337279511162 0 0.070098818600398835 0.095008337279511162 0 0.063324083067484813 0.1105815308655668 0 0.056772327777908818 0.093355456469435216 0 0.070098818600398835 0.095008337279511162 0 0.073686861685182473 0.1058294153104071 0 0.063324083067484813 0.1105815308655668 0 0.070098818600398835 0.095008337279511162 0 0.063324083067484813 0.1105815308655668 0 0.070098818600398835 0.095008337279511162 0 0.073686861685182473 0.1058294153104071 0 0.081838863589211913 0.097859807548057495 0 0.10086043035944101 0.1057095558459509 0 0.088353675930770217 0.1090445403681379 0 0.081838863589211913 0.097859807548057495 0 0.10086043035944101 0.1057095558459509 0 0.085469831166676849 0.087436677031336632 0 0.081838863589211913 0.097859807548057495 0 0.073686861685182473 0.1058294153104071 0 0.081838863589211913 0.097859807548057495 0 0.081058066011519173 0.11973636453468819 0 0.081838863589211913 0.097859807548057495 0 0.081058066011519173 0.11973636453468819 0 0.088353675930770217 0.1090445403681379 0 0.081838863589211913 0.097859807548057495 0 0.081058066011519173 0.11973636453468819 0 0.081058066011519173 0.11973636453468819 0 0.098136173783193614 0.12855261503670501 0 0.088353675930770217 0.1090445403681379 0 0.081058066011519173 0.11973636453468819 0 0.098136173783193614 0.12855261503670501 0 0.081058066011519173 0.11973636453468819 0 0.063324083067484813 0.1105815308655668 0 0.068402942841081005 0.12865021266463919 0 0.081058066011519173 0.11973636453468819 0 0.063324083067484813 0.1105815308655668 0 0.073686861685182473 0.1058294153104071 0 0.081058066011519173 0.11973636453468819 0 0.063324083067484813 0.1105815308655668 0 0.063324083067484813 0.1105815308655668 0 0.047212646671147621 0.11637508280246631 0 0.046344121904492837 0.10181594669612309 0 0.063324083067484813 0.1105815308655668 0 0.047212646671147621 0.11637508280246631 0 0.054704645729867107 0.1303951701743557 0 0.063324083067484813 0.1105815308655668 0 0.054704645729867107 0.1303951701743557 0 0.068402942841081005 0.12865021266463919 0 0.063324083067484813 0.1105815308655668 0 0.054704645729867107 0.1303951701743557 0 0.063324083067484813 0.1105815308655668 0 0.046344121904492837 0.10181594669612309 0 0.056772327777908818 0.093355456469435216 0 0.063324083067484813 0.1105815308655668 0 0.046344121904492837 0.10181594669612309 0 0.046344121904492837 0.10181594669612309 0 0.056772327777908818 0.093355456469435216 0 0.045320775007697253 0.087378911453508054 0 0.046344121904492837 0.10181594669612309 0 0.0293641607415005 0.093050362526680058 0 0.027539824430943272 0.097260859315675907 0 0.046344121904492837 0.10181594669612309 0 0.0293641607415005 0.093050362526680058 0 0.046344121904492837 0.10181594669612309 0 0.045320775007697253 0.087378911453508054 0 0.0293641607415005 0.093050362526680058 0 0.046344121904492837 0.10181594669612309 0 0.034802580128522533 0.108370238657299 0 0.027539824430943272 0.097260859315675907 0 0.047212646671147621 0.11637508280246631 0 0.046344121904492837 0.10181594669612309 0 0.034802580128522533 0.108370238657299 0 0.034802580128522533 0.108370238657299 0 0.02295827912300942 0.1143792008990337 0 0.036209801575650402 0.12755429465012871 0 0.047212646671147621 0.11637508280246631 0 0.054704645729867107 0.1303951701743557 0 0.036209801575650402 0.12755429465012871 0 0.047212646671147621 0.11637508280246631 0 0.034802580128522533 0.108370238657299 0 0.036209801575650402 0.12755429465012871 0 0.063756980967503582 0.059761195325569103 0 0.058428932400687923 0.080576723114904505 0 0.039807943620716157 0.068946520475498749 0 0.058428932400687923 0.080576723114904505 0 0.045320775007697253 0.087378911453508054 0 0.039807943620716157 0.068946520475498749 0 0.070098818600398835 0.095008337279511162 0 0.058428932400687923 0.080576723114904505 0 0.056772327777908818 0.093355456469435216 0 0.058428932400687923 0.080576723114904505 0 0.056772327777908818 0.093355456469435216 0 0.045320775007697253 0.087378911453508054 0 0.039807943620716157 0.068946520475498749 0 0.02523443473854358 0.074793540318702806 0 0.0293641607415005 0.093050362526680058 0 0.045320775007697253 0.087378911453508054 0 0.039807943620716157 0.068946520475498749 0 0.0293641607415005 0.093050362526680058 0 0.039807943620716157 0.068946520475498749 0 0.0293641607415005 0.093050362526680058 0 0.02507841675544124 0.048354097280414877 0 0.039807943620716157 0.068946520475498749 0 0.02523443473854358 0.074793540318702806 0 0.02523443473854358 0.074793540318702806 0 0.01233266555678463 0.084258174892090337 0 0.010722424996073881 0.068121568230846891 0 0.02507841675544124 0.048354097280414877 0 0.02523443473854358 0.074793540318702806 0 0.010722424996073881 0.068121568230846891 0 0.0293641607415005 0.093050362526680058 0 0.01233266555678463 0.084258174892090337 0 0.0293641607415005 0.093050362526680058 0 0.01233266555678463 0.084258174892090337 0 0.019584721545335231 0.095933386042030777 0 0.02523443473854358 0.074793540318702806 0 0.0293641607415005 0.093050362526680058 0 0.01233266555678463 0.084258174892090337 0 -0.0046988296279310846 0.075465987257500103 0 0.01233266555678463 0.084258174892090337 0 -0.0046988296279310846 0.075465987257500103 0 0.00056903788424511365 0.086682396089073327 0 0.01233266555678463 0.084258174892090337 0 0.01233266555678463 0.084258174892090337 0 0.019584721545335231 0.095933386042030777 0 0.0096773837387348072 0.094713106344260181 0 0.00056903788424511365 0.086682396089073327 0 0.0096773837387348072 0.094713106344260181 0 0.0017142141577850001 0.096485027642689541 0 0.00056903788424511365 0.086682396089073327 0 0.01233266555678463 0.084258174892090337 0 0.0096773837387348072 0.094713106344260181 0 -0.0046988296279310846 0.075465987257500103 0 0.0079626054049135586 0.052863747179962457 0 -0.0046988296279310846 0.075465987257500103 0 0.01233266555678463 0.084258174892090337 0 0.010722424996073881 0.068121568230846891 0 -0.0046988296279310846 0.075465987257500103 0 0.0079626054049135586 0.052863747179962457 0 0.010722424996073881 0.068121568230846891 0 0.02295827912300942 0.1143792008990337 0 0.016633607451047409 0.12879447845417449 0 0.036209801575650402 0.12755429465012871 0 0.02295827912300942 0.1143792008990337 0 0.02320798257890765 0.1047443639128517 0 0.017264926825327171 0.1093249123190818 0 0.02295827912300942 0.1143792008990337 0 0.017264926825327171 0.1093249123190818 0 0.01360187540002143 0.11722717171449371 0 0.02295827912300942 0.1143792008990337 0 0.01360187540002143 0.11722717171449371 0 0.016633607451047409 0.12879447845417449 0 0.034802580128522533 0.108370238657299 0 0.027539824430943272 0.097260859315675907 0 0.02320798257890765 0.1047443639128517 0 0.034802580128522533 0.108370238657299 0 0.02295827912300942 0.1143792008990337 0 0.02320798257890765 0.1047443639128517 0 0.0293641607415005 0.093050362526680058 0 0.027539824430943272 0.097260859315675907 0 0.019584721545335231 0.095933386042030777 0 0.027539824430943272 0.097260859315675907 0 0.019584721545335231 0.095933386042030777 0 0.02320798257890765 0.1047443639128517 0 0.0293641607415005 0.093050362526680058 0 0.027539824430943272 0.097260859315675907 0 0.019584721545335231 0.095933386042030777 0 0.02320798257890765 0.1047443639128517 0 0.01504081682007688 0.10253598369847031 0 0.02320798257890765 0.1047443639128517 0 0.017264926825327171 0.1093249123190818 0 0.01504081682007688 0.10253598369847031 0 0.0088228464681819972 0.10238366970120689 0 0.01151568020462046 0.1077378413705596 0 0.0058206420146291954 0.1114089238878985 0 0.017264926825327171 0.1093249123190818 0 0.01504081682007688 0.10253598369847031 0 0.01151568020462046 0.1077378413705596 0 0.01504081682007688 0.10253598369847031 0 0.0088228464681819972 0.10238366970120689 0 0.01151568020462046 0.1077378413705596 0 0.019584721545335231 0.095933386042030777 0 0.01504081682007688 0.10253598369847031 0 0.0096773837387348072 0.094713106344260181 0 0.01504081682007688 0.10253598369847031 0 0.0088228464681819972 0.10238366970120689 0 0.0096773837387348072 0.094713106344260181 0 0.0088228464681819972 0.10238366970120689 0 0.0096773837387348072 0.094713106344260181 0 0.0017142141577850001 0.096485027642689541 0 0.0088228464681819972 0.10238366970120689 0 0.0017142141577850001 0.096485027642689541 0 0.0058206420146291954 0.1114089238878985 0 0.0058206420146291954 0.1114089238878985 0 0.00039794405216867472 0.112072386291362 0 0.01360187540002143 0.11722717171449371 0 0.00039794405216867472 0.112072386291362 0 0.016633607451047409 0.12879447845417449 0 0.00039794405216867472 0.112072386291362 0 0.01360187540002143 0.11722717171449371 0 0.016633607451047409 0.12879447845417449 0 0.00039794405216867472 0.112072386291362 0 0.0010393500416724941 0.12595831854165979 0 0.016633607451047409 0.12879447845417449 0 0.01151568020462046 0.1077378413705596 0 0.0058206420146291954 0.1114089238878985 0 0.01360187540002143 0.11722717171449371 0 0.017264926825327171 0.1093249123190818 0 0.01151568020462046 0.1077378413705596 0 0.01360187540002143 0.11722717171449371 0 -0.0082797250895681185 0.13474448294352481 0 0.0010393500416724941 0.12595831854165979 0 0.01291562537333717 0.14373886088149129 0 0.0010393500416724941 0.12595831854165979 0 0.016633607451047409 0.12879447845417449 0 0.01291562537333717 0.14373886088149129 0 0.016633607451047409 0.12879447845417449 0 0.030096440749716711 0.14309687622970299 0 0.036209801575650402 0.12755429465012871 0 0.016633607451047409 0.12879447845417449 0 0.030096440749716711 0.14309687622970299 0 0.01291562537333717 0.14373886088149129 0 0.030096440749716711 0.14309687622970299 0 0.01291562537333717 0.14373886088149129 0 0.026789162612504271 0.15663130254031199 0 0.01291562537333717 0.14373886088149129 0 0.015650655317666261 0.15865613344587939 0 0.026789162612504271 0.15663130254031199 0 0.01291562537333717 0.14373886088149129 0 0.00151890392611572 0.15456094484017679 0 0.015650655317666261 0.15865613344587939 0 -0.0082797250895681185 0.13474448294352481 0 0.01291562537333717 0.14373886088149129 0 0.00151890392611572 0.15456094484017679 0 0.00151890392611572 0.15456094484017679 0 0.01131753294179963 0.17437740673682869 0 0.00151890392611572 0.15456094484017679 0 0.012386788017382491 0.1641388541230504 0 0.01131753294179963 0.17437740673682869 0 -0.0026654791677323511 0.16604552865166611 0 0.00151890392611572 0.15456094484017679 0 0.01131753294179963 0.17437740673682869 0 -0.0026654791677323511 0.16604552865166611 0 0.01131753294179963 0.17437740673682869 0 0.012386788017382491 0.1641388541230504 0 0.01131753294179963 0.17437740673682869 0 0.021060059883948341 0.16896093146931659 0 0.00151890392611572 0.15456094484017679 0 0.012386788017382491 0.1641388541230504 0 0.015650655317666261 0.15865613344587939 0 0.0072367552089822543 0.1840346549744645 0 0.003085550936940849 0.18695469644268639 0 0.007927604969267173 0.18944813828794729 0 0.0072367552089822543 0.1840346549744645 0 0.003085550936940849 0.18695469644268639 0 0.00053502205069707774 0.18188021690744111 0 -0.003081975793268537 0.18782002811878001 0 0.003085550936940849 0.18695469644268639 0 0.00053502205069707774 0.18188021690744111 0 0.0072367552089822543 0.1840346549744645 0 0.00053502205069707774 0.18188021690744111 0 0.0082701590199136289 0.17900500476799119 0 -0.0026654791677323511 0.16604552865166611 0 0.0024081860720475369 0.17557227428335351 0 0.01131753294179963 0.17437740673682869 0 0.0024081860720475369 0.17557227428335351 0 0.01131753294179963 0.17437740673682869 0 0.0082701590199136289 0.17900500476799119 0 0.00053502205069707774 0.18188021690744111 0 0.0024081860720475369 0.17557227428335351 0 0.0082701590199136289 0.17900500476799119 0 0.01131753294179963 0.17437740673682869 0 0.013543000689093809 0.1790660034635034 0 0.021389494149062459 0.18037885708243739 0 0.01131753294179963 0.17437740673682869 0 0.013543000689093809 0.1790660034635034 0 0.01131753294179963 0.17437740673682869 0 0.013543000689093809 0.1790660034635034 0 0.0082701590199136289 0.17900500476799119 0 0.013543000689093809 0.1790660034635034 0 0.0115175493401282 0.18523262863701309 0 0.016985704636488509 0.19275209946522329 0 0.0072367552089822543 0.1840346549744645 0 0.0082701590199136289 0.17900500476799119 0 0.0115175493401282 0.18523262863701309 0 0.013543000689093809 0.1790660034635034 0 0.0082701590199136289 0.17900500476799119 0 0.0115175493401282 0.18523262863701309 0 0.0072367552089822543 0.1840346549744645 0 0.0115175493401282 0.18523262863701309 0 0.007927604969267173 0.18944813828794729 0 0.021389494149062459 0.18037885708243739 0 0.039453436217199322 0.18340126598870379 0 0.013543000689093809 0.1790660034635034 0 0.021389494149062459 0.18037885708243739 0 0.02230428843080948 0.19662630733770359 0 0.013543000689093809 0.1790660034635034 0 0.021389494149062459 0.18037885708243739 0 0.01131753294179963 0.17437740673682869 0 0.021389494149062459 0.18037885708243739 0 0.01131753294179963 0.17437740673682869 0 0.021389494149062459 0.18037885708243739 0 0.021060059883948341 0.16896093146931659 0 0.021389494149062459 0.18037885708243739 0 0.021060059883948341 0.16896093146931659 0 0.034487576316221548 0.17006964541133651 0 0.021389494149062459 0.18037885708243739 0 0.036772518206031037 0.18954494233072339 0 0.012386788017382491 0.1641388541230504 0 0.015650655317666261 0.15865613344587939 0 0.021060059883948341 0.16896093146931659 0 0.015650655317666261 0.15865613344587939 0 0.021060059883948341 0.16896093146931659 0 0.026789162612504271 0.15663130254031199 0 0.021060059883948341 0.16896093146931659 0 0.026789162612504271 0.15663130254031199 0 0.034487576316221548 0.17006964541133651 0 0.026789162612504271 0.15663130254031199 0 0.034487576316221548 0.17006964541133651 0 0.046085208392249437 0.15020880948314461 0 0.034487576316221548 0.17006964541133651 0 0.049790080527993393 0.16878629006039211 0 0.046085208392249437 0.15020880948314461 0 0.021389494149062459 0.18037885708243739 0 0.039453436217199322 0.18340126598870379 0 0.036772518206031037 0.18954494233072339 0 0.021389494149062459 0.18037885708243739 0 0.034487576316221548 0.17006964541133651 0 0.039453436217199322 0.18340126598870379 0 0.034487576316221548 0.17006964541133651 0 0.039453436217199322 0.18340126598870379 0 0.049790080527993393 0.16878629006039211 0 0.039453436217199322 0.18340126598870379 0 0.057517378285335978 0.18642367489497111 0 0.049790080527993393 0.16878629006039211 0 0.057517378285335978 0.18642367489497111 0 0.06670876632053821 0.16536039993208129 0 0.039453436217199322 0.18340126598870379 0 0.057517378285335978 0.18642367489497111 0 0.039453436217199322 0.18340126598870379 0 0.057517378285335978 0.18642367489497111 0 0.046621016020550923 0.1898787739154234 0 0.057517378285335978 0.18642367489497111 0 0.049790080527993393 0.16878629006039211 0 0.06670876632053821 0.16536039993208129 0 0.056759789081437029 0.15816783404816359 0 0.049790080527993393 0.16878629006039211 0 0.06670876632053821 0.16536039993208129 0 0.056759789081437029 0.15816783404816359 0 0.049790080527993393 0.16878629006039211 0 0.046085208392249437 0.15020880948314461 0 0.056759789081437029 0.15816783404816359 0 0.046085208392249437 0.15020880948314461 0 0.06445510108496709 0.14831583671703669 0 0.054704645729867107 0.1303951701743557 0 0.046085208392249437 0.15020880948314461 0 0.06445510108496709 0.14831583671703669 0 0.054704645729867107 0.1303951701743557 0 0.046085208392249437 0.15020880948314461 0 0.054704645729867107 0.1303951701743557 0 0.036209801575650402 0.12755429465012871 0 0.046085208392249437 0.15020880948314461 0 0.030096440749716711 0.14309687622970299 0 0.036209801575650402 0.12755429465012871 0 0.046085208392249437 0.15020880948314461 0 0.030096440749716711 0.14309687622970299 0 0.026789162612504271 0.15663130254031199 0 0.046085208392249437 0.15020880948314461 0 0.02117589590128718 0.2395927914801684 0 0.012156823249103331 0.25259817100369902 0 0.030652172791378579 0.25229956247347313 0 0.02117589590128718 0.2395927914801684 0 0.034188277432347557 0.23988537883147459 0 0.030652172791378579 0.25229956247347313 0 0.02117589590128718 0.2395927914801684 0 0.030323397599499081 0.22959965211839081 0 0.034188277432347557 0.23988537883147459 0 -0.0082457657602449386 0.25246627485226031 0 -0.001965278602122185 0.24182690426762959 0 0.012156823249103331 0.25259817100369902 0 0.02117589590128718 0.2395927914801684 0 0.008579196815527634 0.23953031834541311 0 0.012156823249103331 0.25259817100369902 0 -0.001965278602122185 0.24182690426762959 0 0.008579196815527634 0.23953031834541311 0 0.012156823249103331 0.25259817100369902 0 -0.001965278602122185 0.24182690426762959 0 0.008579196815527634 0.23953031834541311 0 0.0010433620948100131 0.23240638127880581 0 0.02117589590128718 0.2395927914801684 0 0.008579196815527634 0.23953031834541311 0 0.01115565641706814 0.2303537873583584 0 0.008579196815527634 0.23953031834541311 0 0.01115565641706814 0.2303537873583584 0 0.0010433620948100131 0.23240638127880581 0 0.01115565641706814 0.2303537873583584 0 0.0010433620948100131 0.23240638127880581 0 0.0091084557899102862 0.2202403998025296 0 0.0010433620948100131 0.23240638127880581 0 0.0001093474821353509 0.22215689039817851 0 0.0091084557899102862 0.2202403998025296 0 0.01115565641706814 0.2303537873583584 0 0.0091084557899102862 0.2202403998025296 0 0.016496999093422449 0.223541986747673 0 0.0091084557899102862 0.2202403998025296 0 0.016496999093422449 0.223541986747673 0 0.01612020317490017 0.2152275371535412 0 0.016496999093422449 0.223541986747673 0 0.02147394042148347 0.23028557103733549 0 0.024626739663750161 0.22160263838659999 0 0.016496999093422449 0.223541986747673 0 0.024626739663750161 0.22160263838659999 0 0.01612020317490017 0.2152275371535412 0 0.01115565641706814 0.2303537873583584 0 0.016496999093422449 0.223541986747673 0 0.02147394042148347 0.23028557103733549 0 0.02117589590128718 0.2395927914801684 0 0.01115565641706814 0.2303537873583584 0 0.02147394042148347 0.23028557103733549 0 0.02147394042148347 0.23028557103733549 0 0.030323397599499081 0.22959965211839081 0 0.024626739663750161 0.22160263838659999 0 0.02117589590128718 0.2395927914801684 0 0.02147394042148347 0.23028557103733549 0 0.030323397599499081 0.22959965211839081 0 0.024626739663750161 0.22160263838659999 0 0.027508903383077599 0.21474836631904051 0 0.034268755792753257 0.2207932912834846 0 0.030323397599499081 0.22959965211839081 0 0.024626739663750161 0.22160263838659999 0 0.034268755792753257 0.2207932912834846 0 0.027508903383077599 0.21474836631904051 0 0.023943201944243639 0.1999111919537408 0 0.034268755792753257 0.2207932912834846 0 0.023943201944243639 0.1999111919537408 0 0.034268755792753257 0.2207932912834846 0 0.027508903383077599 0.21474836631904051 0 0.023922045305692211 0.20684028787671799 0 0.022699459496289199 0.2141990688659105 0 0.024626739663750161 0.22160263838659999 0 0.027508903383077599 0.21474836631904051 0 0.022699459496289199 0.2141990688659105 0 0.027508903383077599 0.21474836631904051 0 0.023922045305692211 0.20684028787671799 0 0.023943201944243639 0.1999111919537408 0 0.01896544066016782 0.20973745132843891 0 0.01612020317490017 0.2152275371535412 0 0.013247665380499421 0.20734461508933349 0 0.023922045305692211 0.20684028787671799 0 0.01896544066016782 0.20973745132843891 0 0.022699459496289199 0.2141990688659105 0 0.023922045305692211 0.20684028787671799 0 0.021734838082019509 0.20302577286306159 0 0.023943201944243639 0.1999111919537408 0 0.023922045305692211 0.20684028787671799 0 0.018650848458870179 0.20436341187488569 0 0.021734838082019509 0.20302577286306159 0 0.023922045305692211 0.20684028787671799 0 0.018650848458870179 0.20436341187488569 0 0.01896544066016782 0.20973745132843891 0 0.018650848458870179 0.20436341187488569 0 0.01896544066016782 0.20973745132843891 0 0.013247665380499421 0.20734461508933349 0 0.024626739663750161 0.22160263838659999 0 0.022699459496289199 0.2141990688659105 0 0.01612020317490017 0.2152275371535412 0 0.01896544066016782 0.20973745132843891 0 0.022699459496289199 0.2141990688659105 0 0.01612020317490017 0.2152275371535412 0 0.01612020317490017 0.2152275371535412 0 0.0085100262700745465 0.21094865931476009 0 0.013247665380499421 0.20734461508933349 0 0.0091084557899102862 0.2202403998025296 0 0.01612020317490017 0.2152275371535412 0 0.0085100262700745465 0.21094865931476009 0 0.0001093474821353509 0.22215689039817851 0 0.0091084557899102862 0.2202403998025296 0 0.00083142932333707279 0.21381627434491049 0 0.0091084557899102862 0.2202403998025296 0 0.0085100262700745465 0.21094865931476009 0 0.00083142932333707279 0.21381627434491049 0 0.0085100262700745465 0.21094865931476009 0 0.00083142932333707279 0.21381627434491049 0 0.0029581381265264858 0.20519393183106241 0 0.0085100262700745465 0.21094865931476009 0 0.0029581381265264858 0.20519393183106241 0 0.0087942658252738396 0.20386919766718339 0 0.0029581381265264858 0.20519393183106241 0 0.0087942658252738396 0.20386919766718339 0 0.0056326315351633537 0.2004899601979887 0 0.0085100262700745465 0.21094865931476009 0 0.0087942658252738396 0.20386919766718339 0 0.013247665380499421 0.20734461508933349 0 0.0087942658252738396 0.20386919766718339 0 0.013247665380499421 0.20734461508933349 0 0.013927284278231049 0.2027684573698135 0 0.018650848458870179 0.20436341187488569 0 0.013247665380499421 0.20734461508933349 0 0.013927284278231049 0.2027684573698135 0 0.013927284278231049 0.2027684573698135 0 0.010260103200158849 0.1991700010832006 0 0.016231602148303749 0.1987520895161983 0 0.010260103200158849 0.1991700010832006 0 0.01183675088797494 0.19419665586736051 0 0.016231602148303749 0.1987520895161983 0 0.010260103200158849 0.1991700010832006 0 0.0061740732670114221 0.19541611365695169 0 0.01183675088797494 0.19419665586736051 0 0.0087942658252738396 0.20386919766718339 0 0.010260103200158849 0.1991700010832006 0 0.0056326315351633537 0.2004899601979887 0 0.0087942658252738396 0.20386919766718339 0 0.013927284278231049 0.2027684573698135 0 0.010260103200158849 0.1991700010832006 0 0.010260103200158849 0.1991700010832006 0 0.0056326315351633537 0.2004899601979887 0 0.0061740732670114221 0.19541611365695169 0 -2.3422743153838069e-05 0.1988005567515452 0 0.0056326315351633537 0.2004899601979887 0 0.0061740732670114221 0.19541611365695169 0 -2.3422743153838069e-05 0.1988005567515452 0 0.0029581381265264858 0.20519393183106241 0 0.0056326315351633537 0.2004899601979887 0 -0.003081975793268537 0.18782002811878001 0 0.003085550936940849 0.18695469644268639 0 0.0015327128313205251 0.1915709431207247 0 -2.3422743153838069e-05 0.1988005567515452 0 0.0061740732670114221 0.19541611365695169 0 0.0015327128313205251 0.1915709431207247 0 0.0061740732670114221 0.19541611365695169 0 0.0015327128313205251 0.1915709431207247 0 0.007927604969267173 0.18944813828794729 0 0.003085550936940849 0.18695469644268639 0 0.0015327128313205251 0.1915709431207247 0 0.007927604969267173 0.18944813828794729 0 0.007927604969267173 0.18944813828794729 0 0.01183675088797494 0.19419665586736051 0 0.012456110925155389 0.1902446129755902 0 0.0115175493401282 0.18523262863701309 0 0.007927604969267173 0.18944813828794729 0 0.012456110925155389 0.1902446129755902 0 0.0061740732670114221 0.19541611365695169 0 0.007927604969267173 0.18944813828794729 0 0.01183675088797494 0.19419665586736051 0 0.01183675088797494 0.19419665586736051 0 0.012456110925155389 0.1902446129755902 0 0.016985704636488509 0.19275209946522329 0 0.01183675088797494 0.19419665586736051 0 0.016985704636488509 0.19275209946522329 0 0.016231602148303749 0.1987520895161983 0 0.0115175493401282 0.18523262863701309 0 0.012456110925155389 0.1902446129755902 0 0.016985704636488509 0.19275209946522329 0 0.021389494149062459 0.18037885708243739 0 0.02230428843080948 0.19662630733770359 0 0.036772518206031037 0.18954494233072339 0 0.013543000689093809 0.1790660034635034 0 0.02230428843080948 0.19662630733770359 0 0.013543000689093809 0.1790660034635034 0 0.016985704636488509 0.19275209946522329 0 0.02230428843080948 0.19662630733770359 0 0.016985704636488509 0.19275209946522329 0 0.019428477636303031 0.19812266709439569 0 0.016231602148303749 0.1987520895161983 0 0.019428477636303031 0.19812266709439569 0 0.016231602148303749 0.1987520895161983 0 0.020423256619271999 0.20098819974690199 0 0.018650848458870179 0.20436341187488569 0 0.016231602148303749 0.1987520895161983 0 0.020423256619271999 0.20098819974690199 0 0.018650848458870179 0.20436341187488569 0 0.013927284278231049 0.2027684573698135 0 0.016231602148303749 0.1987520895161983 0 0.019428477636303031 0.19812266709439569 0 0.020423256619271999 0.20098819974690199 0 0.023943201944243639 0.1999111919537408 0 0.018650848458870179 0.20436341187488569 0 0.020423256619271999 0.20098819974690199 0 0.021734838082019509 0.20302577286306159 0 0.020423256619271999 0.20098819974690199 0 0.021734838082019509 0.20302577286306159 0 0.023943201944243639 0.1999111919537408 0 0.016985704636488509 0.19275209946522329 0 0.02230428843080948 0.19662630733770359 0 0.023943201944243639 0.1999111919537408 0 0.016985704636488509 0.19275209946522329 0 0.019428477636303031 0.19812266709439569 0 0.023943201944243639 0.1999111919537408 0 0.02230428843080948 0.19662630733770359 0 0.023943201944243639 0.1999111919537408 0 0.02230428843080948 0.19662630733770359 0 0.023943201944243639 0.1999111919537408 0 0.035957366435008513 0.20647473970990701 0 0.02230428843080948 0.19662630733770359 0 0.050897121833006063 0.20159486356051531 0 0.035957366435008513 0.20647473970990701 0 0.02230428843080948 0.19662630733770359 0 0.036772518206031037 0.18954494233072339 0 0.050897121833006063 0.20159486356051531 0 0.02230428843080948 0.19662630733770359 0 0.050897121833006063 0.20159486356051531 0 0.036772518206031037 0.18954494233072339 0 0.050897121833006063 0.20159486356051531 0 0.052155542262999663 0.1987110275790093 0 0.036772518206031037 0.18954494233072339 0 0.052155542262999663 0.1987110275790093 0 0.036772518206031037 0.18954494233072339 0 0.046621016020550923 0.1898787739154234 0 0.052155542262999663 0.1987110275790093 0 0.039453436217199322 0.18340126598870379 0 0.036772518206031037 0.18954494233072339 0 0.046621016020550923 0.1898787739154234 0 0.057517378285335978 0.18642367489497111 0 0.046621016020550923 0.1898787739154234 0 0.052155542262999663 0.1987110275790093 0 0.057517378285335978 0.18642367489497111 0 0.052155542262999663 0.1987110275790093 0 0.057517378285335978 0.18642367489497111 0 0.057090951257530269 0.197109929087698 0 0.052155542262999663 0.1987110275790093 0 0.057517378285335978 0.18642367489497111 0 0.060667890749981898 0.1933513013873914 0 0.057090951257530269 0.197109929087698 0 0.060667890749981898 0.1933513013873914 0 0.057090951257530269 0.197109929087698 0 0.058031923789004708 0.2022125116707813 0 0.060667890749981898 0.1933513013873914 0 0.058031923789004708 0.2022125116707813 0 0.060667890749981898 0.1933513013873914 0 0.058031923789004708 0.2022125116707813 0 0.059673977213942478 0.20319094098477611 0 0.058031923789004708 0.2022125116707813 0 0.059673977213942478 0.20319094098477611 0 0.057090951257530269 0.197109929087698 0 0.058031923789004708 0.2022125116707813 0 0.052155542262999663 0.1987110275790093 0 0.058031923789004708 0.2022125116707813 0 0.052155542262999663 0.1987110275790093 0 0.058031923789004708 0.2022125116707813 0 0.050897121833006063 0.20159486356051531 0 0.052155542262999663 0.1987110275790093 0 0.058031923789004708 0.2022125116707813 0 0.050897121833006063 0.20159486356051531 0 0.050897121833006063 0.20159486356051531 0 0.052155542262999663 0.1987110275790093 0 0.050897121833006063 0.20159486356051531 0 0.042542699632676838 0.22074012119599501 0 0.053005439111290922 0.21910981667301421 0 0.058031923789004708 0.2022125116707813 0 0.050897121833006063 0.20159486356051531 0 0.053005439111290922 0.21910981667301421 0 0.058031923789004708 0.2022125116707813 0 0.053005439111290922 0.21910981667301421 0 0.058031923789004708 0.2022125116707813 0 0.061718375040706958 0.21244198365854619 0 0.053005439111290922 0.21910981667301421 0 0.058031923789004708 0.2022125116707813 0 0.059673977213942478 0.20319094098477611 0 0.061718375040706958 0.21244198365854619 0 0.061718375040706958 0.21244198365854619 0 0.053005439111290922 0.21910981667301421 0 0.062081063031912492 0.22413796841031719 0 0.050897121833006063 0.20159486356051531 0 0.042542699632676838 0.22074012119599501 0 0.023943201944243639 0.1999111919537408 0 0.035957366435008513 0.20647473970990701 0 0.034268755792753257 0.2207932912834846 0 0.050897121833006063 0.20159486356051531 0 0.038363073609551428 0.21412918370060571 0 0.042542699632676838 0.22074012119599501 0 0.050897121833006063 0.20159486356051531 0 0.035957366435008513 0.20647473970990701 0 0.038363073609551428 0.21412918370060571 0 0.038363073609551428 0.21412918370060571 0 0.034268755792753257 0.2207932912834846 0 0.042542699632676838 0.22074012119599501 0 0.035957366435008513 0.20647473970990701 0 0.038363073609551428 0.21412918370060571 0 0.034268755792753257 0.2207932912834846 0 0.042542699632676838 0.22074012119599501 0 0.034188277432347557 0.23988537883147459 0 0.042542699632676838 0.22074012119599501 0 0.04817080422001134 0.23536218897101929 0 0.044937254539659167 0.2379713478153713 0 0.030323397599499081 0.22959965211839081 0 0.042542699632676838 0.22074012119599501 0 0.034188277432347557 0.23988537883147459 0 0.042542699632676838 0.22074012119599501 0 0.044937254539659167 0.2379713478153713 0 0.034188277432347557 0.23988537883147459 0 0.030323397599499081 0.22959965211839081 0 0.034268755792753257 0.2207932912834846 0 0.042542699632676838 0.22074012119599501 0 0.053005439111290922 0.21910981667301421 0 0.04817080422001134 0.23536218897101929 0 0.053005439111290922 0.21910981667301421 0 0.062081063031912492 0.22413796841031719 0 0.04817080422001134 0.23536218897101929 0 0.062081063031912492 0.22413796841031719 0 0.04817080422001134 0.23536218897101929 0 0.059531729096570118 0.24099028160929839 0 0.042542699632676838 0.22074012119599501 0 0.053005439111290922 0.21910981667301421 0 0.04817080422001134 0.23536218897101929 0 0.062081063031912492 0.22413796841031719 0 0.04817080422001134 0.23536218897101929 0 0.04817080422001134 0.23536218897101929 0 0.052294646587479003 0.2493466198794505 0 0.04073495957405681 0.26035892983227987 0 0.04817080422001134 0.23536218897101929 0 0.059531729096570118 0.24099028160929839 0 0.052294646587479003 0.2493466198794505 0 0.059531729096570118 0.24099028160929839 0 0.067445722382230539 0.24771064348785149 0 0.06034442261467237 0.25120339486286308 0 0.059531729096570118 0.24099028160929839 0 0.052294646587479003 0.2493466198794505 0 0.06034442261467237 0.25120339486286308 0 0.04817080422001134 0.23536218897101929 0 0.04073495957405681 0.26035892983227987 0 0.04817080422001134 0.23536218897101929 0 0.044937254539659167 0.2379713478153713 0 0.04073495957405681 0.26035892983227987 0 0.04817080422001134 0.23536218897101929 0 0.044937254539659167 0.2379713478153713 0 0.044937254539659167 0.2379713478153713 0 0.034188277432347557 0.23988537883147459 0 0.030652172791378579 0.25229956247347313 0 0.085975255819246227 0.24304742420893821 0 0.091760355399887042 0.24149966876957779 0 0.085886262968569133 0.25948379364412733 0 0.091760355399887042 0.24149966876957779 0 0.10166443252893551 0.23659000017624271 0 0.085886262968569133 0.25948379364412733 0 0.085975255819246227 0.24304742420893821 0 0.091760355399887042 0.24149966876957779 0 0.090327239942362525 0.2312920649275291 0 0.085975255819246227 0.24304742420893821 0 0.075396639696560977 0.24390878816167419 0 0.077103558767455421 0.230534611802553 0 0.085975255819246227 0.24304742420893821 0 0.077103558767455421 0.230534611802553 0 0.090327239942362525 0.2312920649275291 0 0.085975255819246227 0.24304742420893821 0 0.075396639696560977 0.24390878816167419 0 0.080478695998155714 0.25165019938018113 0 0.075396639696560977 0.24390878816167419 0 0.074707437689247702 0.25389633834412328 0 0.080478695998155714 0.25165019938018113 0 0.075396639696560977 0.24390878816167419 0 0.067445722382230539 0.24771064348785149 0 0.068934414955804643 0.23628801399858909 0 0.075396639696560977 0.24390878816167419 0 0.067445722382230539 0.24771064348785149 0 0.074707437689247702 0.25389633834412328 0 0.059531729096570118 0.24099028160929839 0 0.067445722382230539 0.24771064348785149 0 0.068934414955804643 0.23628801399858909 0 0.075396639696560977 0.24390878816167419 0 0.068934414955804643 0.23628801399858909 0 0.077103558767455421 0.230534611802553 0 0.062081063031912492 0.22413796841031719 0 0.059531729096570118 0.24099028160929839 0 0.068934414955804643 0.23628801399858909 0 0.062081063031912492 0.22413796841031719 0 0.077103558767455421 0.230534611802553 0 0.077696208689423979 0.21392961690810641 0 0.077103558767455421 0.230534611802553 0 0.077696208689423979 0.21392961690810641 0 0.062081063031912492 0.22413796841031719 0 0.068934414955804643 0.23628801399858909 0 0.077103558767455421 0.230534611802553 0 0.077103558767455421 0.230534611802553 0 0.086723057100410644 0.21930832929599969 0 0.077696208689423979 0.21392961690810641 0 0.077103558767455421 0.230534611802553 0 0.090327239942362525 0.2312920649275291 0 0.086723057100410644 0.21930832929599969 0 0.090327239942362525 0.2312920649275291 0 0.086723057100410644 0.21930832929599969 0 0.099258091607832458 0.22228701345730209 0 0.08282365066700062 0.20740072564839451 0 0.1001331263781514 0.21054846617837791 0 0.08282365066700062 0.20740072564839451 0 0.0830920941513177 0.21288940176841251 0 0.1001331263781514 0.21054846617837791 0 0.086723057100410644 0.21930832929599969 0 0.0830920941513177 0.21288940176841251 0 0.1001331263781514 0.21054846617837791 0 0.08282365066700062 0.20740072564839451 0 0.077960793866212394 0.2065164116634538 0 0.08282365066700062 0.20740072564839451 0 0.07778409662064556 0.21146715366449201 0 0.077960793866212394 0.2065164116634538 0 0.08282365066700062 0.20740072564839451 0 0.0830920941513177 0.21288940176841251 0 0.07778409662064556 0.21146715366449201 0 0.08282365066700062 0.20740072564839451 0 0.07778409662064556 0.21146715366449201 0 0.086723057100410644 0.21930832929599969 0 0.077696208689423979 0.21392961690810641 0 0.086723057100410644 0.21930832929599969 0 0.0830920941513177 0.21288940176841251 0 0.077696208689423979 0.21392961690810641 0 0.0830920941513177 0.21288940176841251 0 0.07778409662064556 0.21146715366449201 0 0.077696208689423979 0.21392961690810641 0 0.059673977213942478 0.20319094098477611 0 0.077960793866212394 0.2065164116634538 0 0.062081063031912492 0.22413796841031719 0 0.077696208689423979 0.21392961690810641 0 0.075991321843812007 0.21291374784961289 0 0.059673977213942478 0.20319094098477611 0 0.075991321843812007 0.21291374784961289 0 0.059673977213942478 0.20319094098477611 0 0.061718375040706958 0.21244198365854619 0 0.075991321843812007 0.21291374784961289 0 0.059673977213942478 0.20319094098477611 0 0.075991321843812007 0.21291374784961289 0 0.077960793866212394 0.2065164116634538 0 0.07778409662064556 0.21146715366449201 0 0.077696208689423979 0.21392961690810641 0 0.075991321843812007 0.21291374784961289 0 0.07778409662064556 0.21146715366449201 0 0.077696208689423979 0.21392961690810641 0 0.07778409662064556 0.21146715366449201 0 0.075991321843812007 0.21291374784961289 0 0.077696208689423979 0.21392961690810641 0 0.075991321843812007 0.21291374784961289 0 0.062081063031912492 0.22413796841031719 0 0.075991321843812007 0.21291374784961289 0 0.061718375040706958 0.21244198365854619 0 0.062081063031912492 0.22413796841031719 0 0.075991321843812007 0.21291374784961289 0 0.07778409662064556 0.21146715366449201 0 0.075991321843812007 0.21291374784961289 0 0.077960793866212394 0.2065164116634538 0 0.07778409662064556 0.21146715366449201 0 0.077960793866212394 0.2065164116634538 0 0.060667890749981898 0.1933513013873914 0 0.069391780603767286 0.1985353247034998 0 0.078552310067739675 0.1899431815963343 0 0.059673977213942478 0.20319094098477611 0 0.077960793866212394 0.2065164116634538 0 0.069391780603767286 0.1985353247034998 0 0.057517378285335978 0.18642367489497111 0 0.060667890749981898 0.1933513013873914 0 0.078552310067739675 0.1899431815963343 0 0.077960793866212394 0.2065164116634538 0 0.069391780603767286 0.1985353247034998 0 0.078552310067739675 0.1899431815963343 0 0.057517378285335978 0.18642367489497111 0 0.078552310067739675 0.1899431815963343 0 0.060667890749981898 0.1933513013873914 0 0.059673977213942478 0.20319094098477611 0 0.069391780603767286 0.1985353247034998 0 0.077960793866212394 0.2065164116634538 0 0.078552310067739675 0.1899431815963343 0 0.08282365066700062 0.20740072564839451 0 0.078552310067739675 0.1899431815963343 0 0.1000095862482286 0.19353335379614581 0 0.08282365066700062 0.20740072564839451 0 0.077960793866212394 0.2065164116634538 0 0.078552310067739675 0.1899431815963343 0 0.08282365066700062 0.20740072564839451 0 0.1000095862482286 0.19353335379614581 0 0.078552310067739675 0.1899431815963343 0 0.1000095862482286 0.19353335379614581 0 0.1000095862482286 0.19353335379614581 0 0.1119621855324581 0.18388877331391679 0 0.1119621855324581 0.18388877331391679 0 0.12809949413598259 0.1982332796183166 0 0.12623709760602039 0.18867627876683751 0 0.1000095862482286 0.19353335379614581 0 0.12809949413598259 0.1982332796183166 0 0.1000095862482286 0.19353335379614581 0 0.1174426020893027 0.21369620670835879 0 0.12809949413598259 0.1982332796183166 0 0.1000095862482286 0.19353335379614581 0 0.1119621855324581 0.18388877331391679 0 0.12809949413598259 0.1982332796183166 0 0.1174426020893027 0.21369620670835879 0 0.12809949413598259 0.1982332796183166 0 0.1174426020893027 0.21369620670835879 0 0.13079881134157489 0.21612504290720769 0 0.1174426020893027 0.21369620670835879 0 0.1001331263781514 0.21054846617837791 0 0.1000095862482286 0.19353335379614581 0 0.1174426020893027 0.21369620670835879 0 0.1001331263781514 0.21054846617837791 0 0.08282365066700062 0.20740072564839451 0 0.1000095862482286 0.19353335379614581 0 0.1001331263781514 0.21054846617837791 0 0.1174426020893027 0.21369620670835879 0 0.1001331263781514 0.21054846617837791 0 0.099258091607832458 0.22228701345730209 0 0.086723057100410644 0.21930832929599969 0 0.1001331263781514 0.21054846617837791 0 0.099258091607832458 0.22228701345730209 0 0.1174426020893027 0.21369620670835879 0 0.099258091607832458 0.22228701345730209 0 0.10166443252893551 0.23659000017624271 0 0.090327239942362525 0.2312920649275291 0 0.099258091607832458 0.22228701345730209 0 0.10166443252893551 0.23659000017624271 0 0.11193009187841341 0.23778907333103991 0 0.1233060832280653 0.2372070654073864 0 0.13079881134157489 0.21612504290720769 0 0.1174426020893027 0.21369620670835879 0 0.11193009187841341 0.23778907333103991 0 0.10166443252893551 0.23659000017624271 0 0.1174426020893027 0.21369620670835879 0 0.11193009187841341 0.23778907333103991 0 0.13079881134157489 0.21612504290720769 0 0.11193009187841341 0.23778907333103991 0 0.13079881134157489 0.21612504290720769 0 0.1174426020893027 0.21369620670835879 0 0.10166443252893551 0.23659000017624271 0 0.11193009187841341 0.23778907333103991 0 0.1233060832280653 0.2372070654073864 0 0.1152979079485152 0.2467056018988516 0 0.1233060832280653 0.2372070654073864 0 0.1152979079485152 0.2467056018988516 0 0.1250676346401875 0.24796443701554319 0 0.11193009187841341 0.23778907333103991 0 0.1152979079485152 0.2467056018988516 0 0.10650461767427161 0.25132517155921902 0 0.11193009187841341 0.23778907333103991 0 0.10166443252893551 0.23659000017624271 0 0.093061372415253377 0.25945310375487363 0 0.10166443252893551 0.23659000017624271 0 0.085886262968569133 0.25948379364412733 0 0.11193009187841341 0.23778907333103991 0 0.093061372415253377 0.25945310375487363 0 0.11193009187841341 0.23778907333103991 0 0.093061372415253377 0.25945310375487363 0 0.10650461767427161 0.25132517155921902 0 0.091760355399887042 0.24149966876957779 0 0.090327239942362525 0.2312920649275291 0 0.10166443252893551 0.23659000017624271 0 0.08022281403025916 0.14313863688857029 0 0.093167312330706492 0.16073073013935579 0 0.097579150219516186 0.1459852772673329 0 0.08022281403025916 0.14313863688857029 0 0.079387562048995053 0.16654090924245221 0 0.08022281403025916 0.14313863688857029 0 0.097579150219516186 0.1459852772673329 0 0.098136173783193614 0.12855261503670501 0 0.081058066011519173 0.11973636453468819 0 0.08022281403025916 0.14313863688857029 0 0.081058066011519173 0.11973636453468819 0 0.08022281403025916 0.14313863688857029 0 0.098136173783193614 0.12855261503670501 0 0.054704645729867107 0.1303951701743557 0 0.068402942841081005 0.12865021266463919 0 0.06445510108496709 0.14831583671703669 0 0.081058066011519173 0.11973636453468819 0 0.08022281403025916 0.14313863688857029 0 0.068402942841081005 0.12865021266463919 0 0.08022281403025916 0.14313863688857029 0 0.068402942841081005 0.12865021266463919 0 0.06445510108496709 0.14831583671703669 0 0.08022281403025916 0.14313863688857029 0 0.06445510108496709 0.14831583671703669 0 0.079387562048995053 0.16654090924245221 0 0.06445510108496709 0.14831583671703669 0 0.06670876632053821 0.16536039993208129 0 0.079387562048995053 0.16654090924245221 0 0.056759789081437029 0.15816783404816359 0 0.06445510108496709 0.14831583671703669 0 0.06670876632053821 0.16536039993208129 0 0.06670876632053821 0.16536039993208129 0 0.071220178094475839 0.177519435916074 0 0.079387562048995053 0.16654090924245221 0 0.078552310067739675 0.1899431815963343 0 0.071220178094475839 0.177519435916074 0 0.079387562048995053 0.16654090924245221 0 0.057517378285335978 0.18642367489497111 0 0.078552310067739675 0.1899431815963343 0 0.071220178094475839 0.177519435916074 0 0.057517378285335978 0.18642367489497111 0 0.06670876632053821 0.16536039993208129 0 0.071220178094475839 0.177519435916074 0 0.078552310067739675 0.1899431815963343 0 0.079387562048995053 0.16654090924245221 0 0.078552310067739675 0.1899431815963343 0 0.079387562048995053 0.16654090924245221 0 0.094656188726405799 0.1772984468475671 0 0.078552310067739675 0.1899431815963343 0 0.1000095862482286 0.19353335379614581 0 0.094656188726405799 0.1772984468475671 0 0.079387562048995053 0.16654090924245221 0 0.093167312330706492 0.16073073013935579 0 0.094656188726405799 0.1772984468475671 0 0.08022281403025916 0.14313863688857029 0 0.079387562048995053 0.16654090924245221 0 0.093167312330706492 0.16073073013935579 0 0.093167312330706492 0.16073073013935579 0 0.1051682117550992 0.16863341283049499 0 0.094656188726405799 0.1772984468475671 0 0.093167312330706492 0.16073073013935579 0 0.1051682117550992 0.16863341283049499 0 0.10738037989590581 0.15691718048007991 0 0.1051682117550992 0.16863341283049499 0 0.094656188726405799 0.1772984468475671 0 0.1119621855324581 0.18388877331391679 0 0.1000095862482286 0.19353335379614581 0 0.094656188726405799 0.1772984468475671 0 0.1119621855324581 0.18388877331391679 0 0.1051682117550992 0.16863341283049499 0 0.1119621855324581 0.18388877331391679 0 0.1176573055604207 0.16965843036111 0 0.1119621855324581 0.18388877331391679 0 0.1176573055604207 0.16965843036111 0 0.12502668500631101 0.18003223183350331 0 0.1119621855324581 0.18388877331391679 0 0.12502668500631101 0.18003223183350331 0 0.12623709760602039 0.18867627876683751 0 0.10738037989590581 0.15691718048007991 0 0.1176573055604207 0.16965843036111 0 0.1263510041100718 0.15412713222648239 0 0.1051682117550992 0.16863341283049499 0 0.10738037989590581 0.15691718048007991 0 0.1176573055604207 0.16965843036111 0 0.10738037989590581 0.15691718048007991 0 0.1089890710575158 0.14058722379195329 0 0.1263510041100718 0.15412713222648239 0 0.1089890710575158 0.14058722379195329 0 0.1243116374868449 0.136850619307404 0 0.1263510041100718 0.15412713222648239 0 0.10738037989590581 0.15691718048007991 0 0.097579150219516186 0.1459852772673329 0 0.1089890710575158 0.14058722379195329 0 0.093167312330706492 0.16073073013935579 0 0.10738037989590581 0.15691718048007991 0 0.097579150219516186 0.1459852772673329 0 0.097579150219516186 0.1459852772673329 0 0.1089890710575158 0.14058722379195329 0 0.098136173783193614 0.12855261503670501 0 0.11707998843366239 0.12090166170324231 0 0.1089890710575158 0.14058722379195329 0 0.098136173783193614 0.12855261503670501 0 0.11707998843366239 0.12090166170324231 0 0.1089890710575158 0.14058722379195329 0 0.1243116374868449 0.136850619307404 0 0.11707998843366239 0.12090166170324231 0 0.1243116374868449 0.136850619307404 0 0.14061487869327599 0.12738787364596069 0 0.1243116374868449 0.136850619307404 0 0.14061487869327599 0.12738787364596069 0 0.1450893294801871 0.15084825440961219 0 0.14061487869327599 0.12738787364596069 0 0.1450893294801871 0.15084825440961219 0 0.16208469833826319 0.13464304631642149 0 0.1450893294801871 0.15084825440961219 0 0.16208469833826319 0.13464304631642149 0 0.1243116374868449 0.136850619307404 0 0.1450893294801871 0.15084825440961219 0 0.1263510041100718 0.15412713222648239 0 0.1450893294801871 0.15084825440961219 0 0.1263510041100718 0.15412713222648239 0 0.13434892063135129 0.1709012650253654 0 0.1176573055604207 0.16965843036111 0 0.1263510041100718 0.15412713222648239 0 0.13434892063135129 0.1709012650253654 0 0.1176573055604207 0.16965843036111 0 0.13434892063135129 0.1709012650253654 0 0.12502668500631101 0.18003223183350331 0 0.12502668500631101 0.18003223183350331 0 0.13317066441191511 0.18549658195139779 0 0.12623709760602039 0.18867627876683751 0 0.13434892063135129 0.1709012650253654 0 0.12502668500631101 0.18003223183350331 0 0.13317066441191511 0.18549658195139779 0 0.13434892063135129 0.1709012650253654 0 0.13317066441191511 0.18549658195139779 0 0.14289571148574401 0.18421669799074539 0 0.13434892063135129 0.1709012650253654 0 0.14289571148574401 0.18421669799074539 0 0.15014598838012391 0.16812378435884931 0 0.14289571148574401 0.18421669799074539 0 0.15014598838012391 0.16812378435884931 0 0.16340295837154781 0.17869074671240681 0 0.1450893294801871 0.15084825440961219 0 0.15014598838012391 0.16812378435884931 0 0.17025484901730581 0.156442106610301 0 0.1450893294801871 0.15084825440961219 0 0.13434892063135129 0.1709012650253654 0 0.15014598838012391 0.16812378435884931 0 0.15014598838012391 0.16812378435884931 0 0.17025484901730581 0.156442106610301 0 0.16340295837154781 0.17869074671240681 0 0.17025484901730581 0.156442106610301 0 0.16340295837154781 0.17869074671240681 0 0.18344157371591241 0.18406997535271 0 0.17025484901730581 0.156442106610301 0 0.18344157371591241 0.18406997535271 0 0.1981233639171355 0.16578679509823521 0 0.17025484901730581 0.156442106610301 0 0.1886017155567373 0.14211231666073301 0 0.1981233639171355 0.16578679509823521 0 0.17025484901730581 0.156442106610301 0 0.16208469833826319 0.13464304631642149 0 0.1886017155567373 0.14211231666073301 0 0.1886017155567373 0.14211231666073301 0 0.1790800671963392 0.1184378382232308 0 0.16208469833826319 0.13464304631642149 0 0.1886017155567373 0.14211231666073301 0 0.1790800671963392 0.1184378382232308 0 0.19325819231563421 0.12959887947710741 0 0.1886017155567373 0.14211231666073301 0 0.1790800671963392 0.1184378382232308 0 0.16208469833826319 0.13464304631642149 0 0.1790800671963392 0.1184378382232308 0 0.1450893294801871 0.15084825440961219 0 0.17025484901730581 0.156442106610301 0 0.16208469833826319 0.13464304631642149 0 0.1514273965657848 0.24085309905483679 0 0.13478444466321229 0.23767678351231611 0 0.14386495534927929 0.22895205141331151 0 0.1514273965657848 0.24085309905483679 0 0.13478444466321229 0.23767678351231611 0 0.1384713120865835 0.25773302092121009 0 0.1250676346401875 0.24796443701554319 0 0.13478444466321229 0.23767678351231611 0 0.1384713120865835 0.25773302092121009 0 0.1233060832280653 0.2372070654073864 0 0.1250676346401875 0.24796443701554319 0 0.13478444466321229 0.23767678351231611 0 0.1233060832280653 0.2372070654073864 0 0.13478444466321229 0.23767678351231611 0 0.13079881134157489 0.21612504290720769 0 0.13478444466321229 0.23767678351231611 0 0.14386495534927929 0.22895205141331151 0 0.13079881134157489 0.21612504290720769 0 0.14386495534927929 0.22895205141331151 0 0.13079881134157489 0.21612504290720769 0 0.15844916882654519 0.22115328017888419 0 0.1514273965657848 0.24085309905483679 0 0.14386495534927929 0.22895205141331151 0 0.15844916882654519 0.22115328017888419 0 0.13079881134157489 0.21612504290720769 0 0.15844916882654519 0.22115328017888419 0 0.13079881134157489 0.21612504290720769 0 0.14405659807402271 0.2009031781863346 0 0.15844916882654519 0.22115328017888419 0 0.13079881134157489 0.21612504290720769 0 0.12809949413598259 0.1982332796183166 0 0.14405659807402271 0.2009031781863346 0 0.1174426020893027 0.21369620670835879 0 0.13079881134157489 0.21612504290720769 0 0.12809949413598259 0.1982332796183166 0 0.13079881134157489 0.21612504290720769 0 0.14405659807402271 0.2009031781863346 0 0.12809949413598259 0.1982332796183166 0 0.14405659807402271 0.2009031781863346 0 0.12809949413598259 0.1982332796183166 0 0.1377541084679488 0.19338203871321119 0 0.14405659807402271 0.2009031781863346 0 0.12809949413598259 0.1982332796183166 0 0.13022991801334199 0.19514207920620891 0 0.1377541084679488 0.19338203871321119 0 0.12809949413598259 0.1982332796183166 0 0.13022991801334199 0.19514207920620891 0 0.12809949413598259 0.1982332796183166 0 0.12623709760602039 0.18867627876683751 0 0.13022991801334199 0.19514207920620891 0 0.13317066441191511 0.18549658195139779 0 0.12623709760602039 0.18867627876683751 0 0.13022991801334199 0.19514207920620891 0 0.13317066441191511 0.18549658195139779 0 0.14289571148574401 0.18421669799074539 0 0.1377541084679488 0.19338203871321119 0 0.13317066441191511 0.18549658195139779 0 0.13022991801334199 0.19514207920620891 0 0.1377541084679488 0.19338203871321119 0 0.14289571148574401 0.18421669799074539 0 0.1377541084679488 0.19338203871321119 0 0.14405659807402271 0.2009031781863346 0 0.14405659807402271 0.2009031781863346 0 0.1684266189286579 0.20498070278197239 0 0.14289571148574401 0.18421669799074539 0 0.16340295837154781 0.17869074671240681 0 0.14405659807402271 0.2009031781863346 0 0.16340295837154781 0.17869074671240681 0 0.14405659807402271 0.2009031781863346 0 0.16340295837154781 0.17869074671240681 0 0.18344157371591241 0.18406997535271 0 0.1684266189286579 0.20498070278197239 0 0.16340295837154781 0.17869074671240681 0 0.14405659807402271 0.2009031781863346 0 0.1684266189286579 0.20498070278197239 0 0.18344157371591241 0.18406997535271 0 0.1684266189286579 0.20498070278197239 0 0.19279663978329381 0.20905822737760699 0 0.1684266189286579 0.20498070278197239 0 0.19279663978329381 0.20905822737760699 0 0.17869659642439559 0.21414630976549021 0 0.1684266189286579 0.20498070278197239 0 0.19279663978329381 0.20905822737760699 0 0.17869659642439559 0.21414630976549021 0 0.18609952631151591 0.22618151745055959 0 0.19279663978329381 0.20905822737760699 0 0.14405659807402271 0.2009031781863346 0 0.1684266189286579 0.20498070278197239 0 0.15844916882654519 0.22115328017888419 0 0.17869659642439559 0.21414630976549021 0 0.1684266189286579 0.20498070278197239 0 0.15844916882654519 0.22115328017888419 0 0.1514273965657848 0.24085309905483679 0 0.15844916882654519 0.22115328017888419 0 0.1691493644934341 0.23606856512045299 0 0.15844916882654519 0.22115328017888419 0 0.18609952631151591 0.22618151745055959 0 0.1691493644934341 0.23606856512045299 0 0.17869659642439559 0.21414630976549021 0 0.15844916882654519 0.22115328017888419 0 0.18609952631151591 0.22618151745055959 0 0.15844916882654519 0.22115328017888419 0 0.18609952631151591 0.22618151745055959 0 0.18609952631151591 0.22618151745055959 0 0.1971008006350988 0.24422433182354611 0 0.17660728565697029 0.25284173787090108 0 0.18609952631151591 0.22618151745055959 0 0.1691493644934341 0.23606856512045299 0 0.17660728565697029 0.25284173787090108 0 0.1514273965657848 0.24085309905483679 0 0.17660728565697029 0.25284173787090108 0 0.1514273965657848 0.24085309905483679 0 0.1691493644934341 0.23606856512045299 0 0.17660728565697029 0.25284173787090108 0 0.1971008006350988 0.24422433182354611 0 0.21374988379648621 0.2312097547222359 0 0.2257125065402284 0.25431107802280528 0 0.18609952631151591 0.22618151745055959 0 0.19919001424274069 0.21902366269476331 0 0.2102140220753515 0.22438156273492879 0 0.18609952631151591 0.22618151745055959 0 0.1971008006350988 0.24422433182354611 0 0.21374988379648621 0.2312097547222359 0 0.18609952631151591 0.22618151745055959 0 0.21374988379648621 0.2312097547222359 0 0.18609952631151591 0.22618151745055959 0 0.2102140220753515 0.22438156273492879 0 0.21374988379648621 0.2312097547222359 0 0.19919001424274069 0.21902366269476331 0 0.2102140220753515 0.22438156273492879 0 0.22326984787173351 0.22831062181695069 0 0.19919001424274069 0.21902366269476331 0 0.21716666063792969 0.21313575197324039 0 0.22326984787173351 0.22831062181695069 0 0.19919001424274069 0.21902366269476331 0 0.22326984787173351 0.22831062181695069 0 0.2102140220753515 0.22438156273492879 0 0.21374988379648621 0.2312097547222359 0 0.2102140220753515 0.22438156273492879 0 0.21374988379648621 0.2312097547222359 0 0.22326984787173351 0.22831062181695069 0 0.21716666063792969 0.21313575197324039 0 0.19279663978329381 0.20905822737760699 0 0.20764501227753371 0.18946127353573741 0 0.21716666063792969 0.21313575197324039 0 0.19279663978329381 0.20905822737760699 0 0.19919001424274069 0.21902366269476331 0 0.21716666063792969 0.21313575197324039 0 0.19279663978329381 0.20905822737760699 0 0.18609952631151591 0.22618151745055959 0 0.19919001424274069 0.21902366269476331 0 0.19279663978329381 0.20905822737760699 0 0.18344157371591241 0.18406997535271 0 0.19279663978329381 0.20905822737760699 0 0.20764501227753371 0.18946127353573741 0 0.21716666063792969 0.21313575197324039 0 0.20764501227753371 0.18946127353573741 0 0.21716666063792969 0.21313575197324039 0 0.20764501227753371 0.18946127353573741 0 0.22349524510262589 0.1882929917077163 0 0.21716666063792969 0.21313575197324039 0 0.22349524510262589 0.1882929917077163 0 0.23482300448504159 0.1984970970255906 0 0.22349524510262589 0.1882929917077163 0 0.23482300448504159 0.1984970970255906 0 0.23800281531175979 0.18073324988006281 0 0.23482300448504159 0.1984970970255906 0 0.24828008483854189 0.20295934428596721 0 0.25113643024109478 0.19094495075723769 0 0.23482300448504159 0.1984970970255906 0 0.23800281531175979 0.18073324988006281 0 0.25113643024109478 0.19094495075723769 0 0.23482300448504159 0.1984970970255906 0 0.24828008483854189 0.20295934428596721 0 0.24332195560292991 0.2175119837032847 0 0.21716666063792969 0.21313575197324039 0 0.23482300448504159 0.1984970970255906 0 0.24332195560292991 0.2175119837032847 0 0.21716666063792969 0.21313575197324039 0 0.24332195560292991 0.2175119837032847 0 0.22527908084694109 0.23330634744632109 0 0.22326984787173351 0.22831062181695069 0 0.2459873280094696 0.23707215699401071 0 0.21716666063792969 0.21313575197324039 0 0.24332195560292991 0.2175119837032847 0 0.22326984787173351 0.22831062181695069 0 0.21716666063792969 0.21313575197324039 0 0.22326984787173351 0.22831062181695069 0 0.21374988379648621 0.2312097547222359 0 0.22527908084694109 0.23330634744632109 0 0.22326984787173351 0.22831062181695069 0 0.21374988379648621 0.2312097547222359 0 0.22527908084694109 0.23330634744632109 0 0.22527908084694109 0.23330634744632109 0 0.22326984787173351 0.22831062181695069 0 0.22326984787173351 0.22831062181695069 0 0.2459873280094696 0.23707215699401071 0 0.24332195560292991 0.2175119837032847 0 0.22326984787173351 0.22831062181695069 0 0.2459873280094696 0.23707215699401071 0 0.22527908084694109 0.23330634744632109 0 0.2459873280094696 0.23707215699401071 0 0.22527908084694109 0.23330634744632109 0 0.2459873280094696 0.23707215699401071 0 0.23435940432808119 0.2558835225658645 0 0.22527908084694109 0.23330634744632109 0 0.23435940432808119 0.2558835225658645 0 0.21374988379648621 0.2312097547222359 0 0.2257125065402284 0.25431107802280528 0 0.21374988379648621 0.2312097547222359 0 0.22527908084694109 0.23330634744632109 0 0.2257125065402284 0.25431107802280528 0 0.22527908084694109 0.23330634744632109 0 0.2257125065402284 0.25431107802280528 0 0.23435940432808119 0.2558835225658645 0 0.207677409848747 0.15265436726913009 0 0.20799191400454739 0.1375227668896451 0 0.22134903716669199 0.14708536363501609 0 0.20799191400454739 0.1375227668896451 0 0.22703691245497479 0.13189098412415109 0 0.21251029914637609 0.1192952894197942 0 0.20799191400454739 0.1375227668896451 0 0.19325819231563421 0.12959887947710741 0 0.21251029914637609 0.1192952894197942 0 0.20799191400454739 0.1375227668896451 0 0.19325819231563421 0.12959887947710741 0 0.1886017155567373 0.14211231666073301 0 0.1886017155567373 0.14211231666073301 0 0.1981233639171355 0.16578679509823521 0 0.207677409848747 0.15265436726913009 0 0.20799191400454739 0.1375227668896451 0 0.1886017155567373 0.14211231666073301 0 0.207677409848747 0.15265436726913009 0 0.1886017155567373 0.14211231666073301 0 0.1981233639171355 0.16578679509823521 0 0.20764501227753371 0.18946127353573741 0 0.1981233639171355 0.16578679509823521 0 0.18344157371591241 0.18406997535271 0 0.20764501227753371 0.18946127353573741 0 0.1981233639171355 0.16578679509823521 0 0.20764501227753371 0.18946127353573741 0 0.1981233639171355 0.16578679509823521 0 0.22193333897365611 0.16940236618161161 0 0.20764501227753371 0.18946127353573741 0 0.22349524510262589 0.1882929917077163 0 0.22193333897365611 0.16940236618161161 0 0.207677409848747 0.15265436726913009 0 0.1981233639171355 0.16578679509823521 0 0.22193333897365611 0.16940236618161161 0 0.207677409848747 0.15265436726913009 0 0.22193333897365611 0.16940236618161161 0 0.22134903716669199 0.14708536363501609 0 0.22349524510262589 0.1882929917077163 0 0.22193333897365611 0.16940236618161161 0 0.23800281531175979 0.18073324988006281 0 0.23800281531175979 0.18073324988006281 0 0.24342118736862761 0.16410875332904781 0 0.25421457754785548 0.17528354573505059 0 0.23800281531175979 0.18073324988006281 0 0.25421457754785548 0.17528354573505059 0 0.25113643024109478 0.19094495075723769 0 0.22193333897365611 0.16940236618161161 0 0.23800281531175979 0.18073324988006281 0 0.24342118736862761 0.16410875332904781 0 0.22193333897365611 0.16940236618161161 0 0.24342118736862761 0.16410875332904781 0 0.2381959797174126 0.14809141417820801 0 0.2381959797174126 0.14809141417820801 0 0.2471064899150823 0.133463067737116 0 0.25227113898158787 0.14916335431643429 0 0.24342118736862761 0.16410875332904781 0 0.2381959797174126 0.14809141417820801 0 0.25227113898158787 0.14916335431643429 0 0.2381959797174126 0.14809141417820801 0 0.22134903716669199 0.14708536363501609 0 0.22703691245497479 0.13189098412415109 0 0.22193333897365611 0.16940236618161161 0 0.2381959797174126 0.14809141417820801 0 0.22134903716669199 0.14708536363501609 0 0.20799191400454739 0.1375227668896451 0 0.22134903716669199 0.14708536363501609 0 0.22703691245497479 0.13189098412415109 0 0.22703691245497479 0.13189098412415109 0 0.2471064899150823 0.133463067737116 0 0.2348532799323845 0.1126728752525727 0 0.2381959797174126 0.14809141417820801 0 0.22703691245497479 0.13189098412415109 0 0.2471064899150823 0.133463067737116 0 0.2471064899150823 0.133463067737116 0 0.2496952397761337 0.1160329650041991 0 0.2348532799323845 0.1126728752525727 0 0.2348532799323845 0.1126728752525727 0 0.23238347446995899 0.09878858498409393 0 0.25089272908716931 0.092982859712809007 0 0.2496952397761337 0.1160329650041991 0 0.2348532799323845 0.1126728752525727 0 0.25089272908716931 0.092982859712809007 0 0.23238347446995899 0.09878858498409393 0 0.21965336389696419 0.1029970115124081 0 0.22413452496331809 0.086501593458585962 0 0.2348532799323845 0.1126728752525727 0 0.23238347446995899 0.09878858498409393 0 0.21965336389696419 0.1029970115124081 0 0.2348532799323845 0.1126728752525727 0 0.21965336389696419 0.1029970115124081 0 0.21251029914637609 0.1192952894197942 0 0.22703691245497479 0.13189098412415109 0 0.2348532799323845 0.1126728752525727 0 0.21251029914637609 0.1192952894197942 0 0.21965336389696419 0.1029970115124081 0 0.21251029914637609 0.1192952894197942 0 0.20714728240524249 0.10617251279081751 0 0.21251029914637609 0.1192952894197942 0 0.20714728240524249 0.10617251279081751 0 0.2007454095485067 0.1153730887768626 0 0.21965336389696419 0.1029970115124081 0 0.21155544327336909 0.093494818701204518 0 0.22413452496331809 0.086501593458585962 0 0.21965336389696419 0.1029970115124081 0 0.20714728240524249 0.10617251279081751 0 0.21155544327336909 0.093494818701204518 0 0.20029711589946361 0.098207227624031723 0 0.20055037116402991 0.091606906531847498 0 0.21155544327336909 0.093494818701204518 0 0.20714728240524249 0.10617251279081751 0 0.20029711589946361 0.098207227624031723 0 0.21155544327336909 0.093494818701204518 0 0.19812206266677551 0.107667640710604 0 0.20029711589946361 0.098207227624031723 0 0.1885688884481975 0.1093901779912298 0 0.20714728240524249 0.10617251279081751 0 0.19812206266677551 0.107667640710604 0 0.20029711589946361 0.098207227624031723 0 0.20029711589946361 0.098207227624031723 0 0.1929726046438287 0.094705252597794665 0 0.20055037116402991 0.091606906531847498 0 0.1929726046438287 0.094705252597794665 0 0.1885688884481975 0.1093901779912298 0 0.1832996600419958 0.1003897382564244 0 0.20029711589946361 0.098207227624031723 0 0.1929726046438287 0.094705252597794665 0 0.1885688884481975 0.1093901779912298 0 0.20029711589946361 0.098207227624031723 0 0.1885688884481975 0.1093901779912298 0 0.1929726046438287 0.094705252597794665 0 0.1885688884481975 0.1093901779912298 0 0.19812206266677551 0.107667640710604 0 0.19247123508700151 0.1156451737142033 0 0.1885688884481975 0.1093901779912298 0 0.19247123508700151 0.1156451737142033 0 0.1885688884481975 0.1093901779912298 0 0.1858372065203453 0.1184994265274882 0 0.19325819231563421 0.12959887947710741 0 0.21251029914637609 0.1192952894197942 0 0.2007454095485067 0.1153730887768626 0 0.19325819231563421 0.12959887947710741 0 0.19247123508700151 0.1156451737142033 0 0.1858372065203453 0.1184994265274882 0 0.19325819231563421 0.12959887947710741 0 0.19247123508700151 0.1156451737142033 0 0.2007454095485067 0.1153730887768626 0 0.20714728240524249 0.10617251279081751 0 0.19812206266677551 0.107667640710604 0 0.2007454095485067 0.1153730887768626 0 0.19812206266677551 0.107667640710604 0 0.19247123508700151 0.1156451737142033 0 0.2007454095485067 0.1153730887768626 0 0.20238686903042469 0.063311819413239129 0 0.1973763208394673 0.08002032720436178 0 0.18079222374313991 0.066157073385880324 0 0.20238686903042469 0.063311819413239129 0 0.18079222374313991 0.066157073385880324 0 0.1973763208394673 0.08002032720436178 0 0.17868141559437861 0.075492121278057239 0 0.20238686903042469 0.063311819413239129 0 0.1973763208394673 0.08002032720436178 0 0.1929726046438287 0.094705252597794665 0 0.1973763208394673 0.08002032720436178 0 0.1929726046438287 0.094705252597794665 0 0.1973763208394673 0.08002032720436178 0 0.18493574174144031 0.087819629641268118 0 0.1929726046438287 0.094705252597794665 0 0.20055037116402991 0.091606906531847498 0 0.1973763208394673 0.08002032720436178 0 0.1973763208394673 0.08002032720436178 0 0.22413452496331809 0.086501593458585962 0 0.1973763208394673 0.08002032720436178 0 0.21155544327336909 0.093494818701204518 0 0.22413452496331809 0.086501593458585962 0 0.1973763208394673 0.08002032720436178 0 0.21581045027983861 0.072515516379325212 0 0.22413452496331809 0.086501593458585962 0 0.20055037116402991 0.091606906531847498 0 0.1973763208394673 0.08002032720436178 0 0.21155544327336909 0.093494818701204518 0 0.20238686903042469 0.063311819413239129 0 0.21581045027983861 0.072515516379325212 0 0.22639199231908241 0.060148967164815811 0 0.20238686903042469 0.063311819413239129 0 0.1973763208394673 0.08002032720436178 0 0.21581045027983861 0.072515516379325212 0 0.21581045027983861 0.072515516379325212 0 0.22413452496331809 0.086501593458585962 0 0.23571274181676019 0.070187616308315881 0 0.21581045027983861 0.072515516379325212 0 0.23571274181676019 0.070187616308315881 0 0.22639199231908241 0.060148967164815811 0 0.23571274181676019 0.070187616308315881 0 0.23935269316475091 0.05797056278501677 0 0.22639199231908241 0.060148967164815811 0 0.22413452496331809 0.086501593458585962 0 0.25089272908716931 0.092982859712809007 0 0.22413452496331809 0.086501593458585962 0 0.23571274181676019 0.070187616308315881 0 0.25089272908716931 0.092982859712809007 0 0.23238347446995899 0.09878858498409393 0 0.22413452496331809 0.086501593458585962 0 0.25089272908716931 0.092982859712809007 0 0.23571274181676019 0.070187616308315881 0 0.25089272908716931 0.092982859712809007 0 0.23571274181676019 0.070187616308315881 0 0.25282536794073712 0.073272794188635415 0 0.25089272908716931 0.092982859712809007 0 0.23935269316475091 0.05797056278501677 0 0.25425538404847059 0.057624927133231481 0 0.25282536794073712 0.073272794188635415 0 0.23571274181676019 0.070187616308315881 0 0.23935269316475091 0.05797056278501677 0 0.25282536794073712 0.073272794188635415 0 0.2368345322212535 0.044434942105003657 0 0.25425538404847059 0.057624927133231481 0 0.23935269316475091 0.05797056278501677 0 0.2368345322212535 0.044434942105003657 0 0.25425538404847059 0.057624927133231481 0 0.23935269316475091 0.05797056278501677 0 0.2368345322212535 0.044434942105003657 0 0.23127016951469481 0.052559852354376588 0 0.2368345322212535 0.044434942105003657 0 0.25291178968964928 0.037547667281027097 0 0.25425538404847059 0.057624927133231481 0 0.2368345322212535 0.044434942105003657 0 0.24190969492169709 0.024768393557462999 0 0.25291178968964928 0.037547667281027097 0 0.2368345322212535 0.044434942105003657 0 0.21941368039403211 0.031244957076781411 0 0.2368345322212535 0.044434942105003657 0 0.22121604545690071 0.040326540279582428 0 0.22250146035369231 0.047684937362670127 0 0.2368345322212535 0.044434942105003657 0 0.22121604545690071 0.040326540279582428 0 0.21941368039403211 0.031244957076781411 0 0.2368345322212535 0.044434942105003657 0 0.24190969492169709 0.024768393557462999 0 0.21941368039403211 0.031244957076781411 0 0.22121604545690071 0.040326540279582428 0 0.22250146035369231 0.047684937362670127 0 0.2151241054634794 0.043140718643033253 0 0.22250146035369231 0.047684937362670127 0 0.22639199231908241 0.060148967164815811 0 0.21464985550632831 0.05254647609126252 0 0.23935269316475091 0.05797056278501677 0 0.22639199231908241 0.060148967164815811 0 0.23127016951469481 0.052559852354376588 0 0.2368345322212535 0.044434942105003657 0 0.22250146035369231 0.047684937362670127 0 0.23127016951469481 0.052559852354376588 0 0.22250146035369231 0.047684937362670127 0 0.22639199231908241 0.060148967164815811 0 0.23127016951469481 0.052559852354376588 0 0.23517440673197429 0.0051848507458196356 0 0.24190969492169709 0.024768393557462999 0 0.22860778246280219 0.01441509204728152 0 0.23517440673197429 0.0051848507458196356 0 0.2485551203034157 0.0102848256948572 0 0.24190969492169709 0.024768393557462999 0 0.23517440673197429 0.0051848507458196356 0 0.2429424487767215 0.0026164120279975069 0 0.24005113852307369 -0.0027355710512556022 0 0.23517440673197429 0.0051848507458196356 0 0.2429424487767215 0.0026164120279975069 0 0.2485551203034157 0.0102848256948572 0 0.2429424487767215 0.0026164120279975069 0 0.2485551203034157 0.0102848256948572 0 0.2479891295484222 -0.0022684572774312019 0 0.2237082671027216 0.020648212041472009 0 0.22100796739575951 0.001216664300799794 0 0.21337432104441539 0.026672329963493752 0 0.24190969492169709 0.024768393557462999 0 0.21941368039403211 0.031244957076781411 0 0.24190969492169709 0.024768393557462999 0 0.21941368039403211 0.031244957076781411 0 0.2237082671027216 0.020648212041472009 0 0.24190969492169709 0.024768393557462999 0 0.2237082671027216 0.020648212041472009 0 0.22860778246280219 0.01441509204728152 0 0.21941368039403211 0.031244957076781411 0 0.2237082671027216 0.020648212041472009 0 0.21337432104441539 0.026672329963493752 0 0.2237082671027216 0.020648212041472009 0 0.22860778246280219 0.01441509204728152 0 0.22100796739575951 0.001216664300799794 0 0.23517440673197429 0.0051848507458196356 0 0.22860778246280219 0.01441509204728152 0 0.22100796739575951 0.001216664300799794 0 0.22100796739575951 0.001216664300799794 0 0.21337432104441539 0.026672329963493752 0 0.22100796739575951 0.001216664300799794 0 0.21213365429295861 0.01041237886839381 0 0.21337432104441539 0.026672329963493752 0 0.20938161325362409 0.0025060029461209908 0 0.21213365429295861 0.01041237886839381 0 0.19981118715584381 0.0070254328827108366 0 0.20938161325362409 0.0025060029461209908 0 0.19981118715584381 0.0070254328827108366 0 0.20239897911060981 -0.0049616950454924097 0 0.22100796739575951 0.001216664300799794 0 0.21476518088515931 0.0026345493870347861 0 0.21213365429295861 0.01041237886839381 0 0.20938161325362409 0.0025060029461209908 0 0.21476518088515931 0.0026345493870347861 0 0.21653748859829491 -0.0035968485671754561 0 0.20938161325362409 0.0025060029461209908 0 0.21476518088515931 0.0026345493870347861 0 0.21213365429295861 0.01041237886839381 0 0.22100796739575951 0.001216664300799794 0 0.21476518088515931 0.0026345493870347861 0 0.21653748859829491 -0.0035968485671754561 0 0.21213365429295861 0.01041237886839381 0 0.20775643638324501 0.022418817258943329 0 0.19981118715584381 0.0070254328827108366 0 0.20775643638324501 0.022418817258943329 0 0.19981118715584381 0.0070254328827108366 0 0.21213365429295861 0.01041237886839381 0 0.20775643638324501 0.022418817258943329 0 0.21337432104441539 0.026672329963493752 0 0.20775643638324501 0.022418817258943329 0 0.21337432104441539 0.026672329963493752 0 0.21211661331991941 0.030866365927793071 0 0.21941368039403211 0.031244957076781411 0 0.21337432104441539 0.026672329963493752 0 0.21211661331991941 0.030866365927793071 0 0.21941368039403211 0.031244957076781411 0 0.21337432104441539 0.026672329963493752 0 0.21337432104441539 0.026672329963493752 0 0.21211661331991941 0.030866365927793071 0 0.20775643638324501 0.022418817258943329 0 0.21211661331991941 0.030866365927793071 0 0.2008624239423544 0.027751844864101351 0 0.21211661331991941 0.030866365927793071 0 0.2008624239423544 0.027751844864101351 0 0.21130283169949521 0.033580056331867662 0 0.20775643638324501 0.022418817258943329 0 0.21211661331991941 0.030866365927793071 0 0.20775643638324501 0.022418817258943329 0 0.21337432104441539 0.026672329963493752 0 0.2008624239423544 0.027751844864101351 0 0.1914807756371078 0.039286791852227318 0 0.1874867753674215 0.0231110496262097 0 0.2008624239423544 0.027751844864101351 0 0.19503111124693581 0.017247988187571551 0 0.1874867753674215 0.0231110496262097 0 0.19503111124693581 0.017247988187571551 0 0.18734518720319909 0.015281891910368059 0 0.1874867753674215 0.0231110496262097 0 0.20775643638324501 0.022418817258943329 0 0.2008624239423544 0.027751844864101351 0 0.19503111124693581 0.017247988187571551 0 0.20775643638324501 0.022418817258943329 0 0.19503111124693581 0.017247988187571551 0 0.18660242445042999 0.0064023156866817926 0 0.20775643638324501 0.022418817258943329 0 0.18660242445042999 0.0064023156866817926 0 0.20775643638324501 0.022418817258943329 0 0.1894192936343001 0.0060385698470956234 0 0.19981118715584381 0.0070254328827108366 0 0.20775643638324501 0.022418817258943329 0 0.1894192936343001 0.0060385698470956234 0 0.18660242445042999 0.0064023156866817926 0 0.19503111124693581 0.017247988187571551 0 0.18832376542685261 0.012450231659139751 0 0.18660242445042999 0.0064023156866817926 0 0.19503111124693581 0.017247988187571551 0 0.18832376542685261 0.012450231659139751 0 0.18734518720319909 0.015281891910368059 0 0.1894192936343001 0.0060385698470956234 0 0.19981118715584381 0.0070254328827108366 0 0.1918659379284415 -0.0083679514935210662 0 0.20238686903042469 0.063311819413239129 0 0.22639199231908241 0.060148967164815811 0 0.21464985550632831 0.05254647609126252 0 0.20238686903042469 0.063311819413239129 0 0.22639199231908241 0.060148967164815811 0 0.20238686903042469 0.063311819413239129 0 0.20684485036496281 0.04844593787255428 0 0.21464985550632831 0.05254647609126252 0 0.20238686903042469 0.063311819413239129 0 0.20684485036496281 0.04844593787255428 0 0.20684485036496281 0.04844593787255428 0 0.21464985550632831 0.05254647609126252 0 0.2151241054634794 0.043140718643033253 0 0.22250146035369231 0.047684937362670127 0 0.21464985550632831 0.05254647609126252 0 0.2151241054634794 0.043140718643033253 0 0.20684485036496281 0.04844593787255428 0 0.2151241054634794 0.043140718643033253 0 0.21130283169949521 0.033580056331867662 0 0.20684485036496281 0.04844593787255428 0 0.21130283169949521 0.033580056331867662 0 0.1914807756371078 0.039286791852227318 0 0.2151241054634794 0.043140718643033253 0 0.21130283169949521 0.033580056331867662 0 0.21323078658658201 0.03302500146766809 0 0.22121604545690071 0.040326540279582428 0 0.2151241054634794 0.043140718643033253 0 0.21323078658658201 0.03302500146766809 0 0.22121604545690071 0.040326540279582428 0 0.21941368039403211 0.031244957076781411 0 0.21323078658658201 0.03302500146766809 0 0.21941368039403211 0.031244957076781411 0 0.21211661331991941 0.030866365927793071 0 0.21323078658658201 0.03302500146766809 0 0.21941368039403211 0.031244957076781411 0 0.21323078658658201 0.03302500146766809 0 0.21130283169949521 0.033580056331867662 0 0.21323078658658201 0.03302500146766809 0 0.21211661331991941 0.030866365927793071 0 0.21130283169949521 0.033580056331867662 0 0.21323078658658201 0.03302500146766809 0 0.21211661331991941 0.030866365927793071 0 0.21130283169949521 0.033580056331867662 0 0.21211661331991941 0.030866365927793071 0 0.21323078658658201 0.03302500146766809 0 0.20684485036496281 0.04844593787255428 0 0.21130283169949521 0.033580056331867662 0 0.20684485036496281 0.04844593787255428 0 0.1914807756371078 0.039286791852227318 0 0.1906326876700713 0.052439029979298252 0 0.21130283169949521 0.033580056331867662 0 0.1914807756371078 0.039286791852227318 0 0.2008624239423544 0.027751844864101351 0 0.21130283169949521 0.033580056331867662 0 0.1914807756371078 0.039286791852227318 0 0.20238686903042469 0.063311819413239129 0 0.20684485036496281 0.04844593787255428 0 0.1906326876700713 0.052439029979298252 0 0.20238686903042469 0.063311819413239129 0 0.1906326876700713 0.052439029979298252 0 0.18079222374313991 0.066157073385880324 0 0.1906326876700713 0.052439029979298252 0 0.1716587195747214 0.044993527372590117 0 0.18079222374313991 0.066157073385880324 0 0.1914807756371078 0.039286791852227318 0 0.17895959729017549 0.03270519686463521 0 0.1874867753674215 0.0231110496262097 0 0.1914807756371078 0.039286791852227318 0 0.1906326876700713 0.052439029979298252 0 0.1716587195747214 0.044993527372590117 0 0.1914807756371078 0.039286791852227318 0 0.1716587195747214 0.044993527372590117 0 0.1914807756371078 0.039286791852227318 0 0.17895959729017549 0.03270519686463521 0 0.1716587195747214 0.044993527372590117 0 0.17895959729017549 0.03270519686463521 0 0.1716587195747214 0.044993527372590117 0 0.1692336025848987 0.033942773786365128 0 0.1716587195747214 0.044993527372590117 0 0.1692336025848987 0.033942773786365128 0 0.1566962317421734 0.039838803654011962 0 0.1716587195747214 0.044993527372590117 0 0.1566962317421734 0.039838803654011962 0 0.15183666351233449 0.050700262892952028 0 0.1692336025848987 0.033942773786365128 0 0.1566962317421734 0.039838803654011962 0 0.158601754226253 0.030081739901262169 0 0.1716587195747214 0.044993527372590117 0 0.15183666351233449 0.050700262892952028 0 0.15919757845585511 0.069002327358520896 0 0.1716587195747214 0.044993527372590117 0 0.18079222374313991 0.066157073385880324 0 0.15919757845585511 0.069002327358520896 0 0.1716587195747214 0.044993527372590117 0 0.15183666351233449 0.050700262892952028 0 0.17227434920368959 0.00081991249798677823 0 0.17658810010716819 0.0040568459827444014 0 0.17786282304025339 -0.001583287003114023 0 0.17227434920368959 0.00081991249798677823 0 0.17658810010716819 0.0040568459827444014 0 0.17233771352019589 0.0083561011481188656 0 0.17658810010716819 0.0040568459827444014 0 0.18177514670000741 0.0039010391453388991 0 0.17943453638861959 0.0091511058078182841 0 0.17658810010716819 0.0040568459827444014 0 0.17943453638861959 0.0091511058078182841 0 0.17233771352019589 0.0083561011481188656 0 0.17658810010716819 0.0040568459827444014 0 0.18177514670000741 0.0039010391453388991 0 0.17786282304025339 -0.001583287003114023 0 0.18177514670000741 0.0039010391453388991 0 0.18580903226614379 -0.0011502469314075439 0 0.17786282304025339 -0.001583287003114023 0 0.1894192936343001 0.0060385698470956234 0 0.18660242445042999 0.0064023156866817926 0 0.18580903226614379 -0.0011502469314075439 0 0.18177514670000741 0.0039010391453388991 0 0.18660242445042999 0.0064023156866817926 0 0.18580903226614379 -0.0011502469314075439 0 0.18177514670000741 0.0039010391453388991 0 0.18660242445042999 0.0064023156866817926 0 0.18303211158647559 0.0075807978729441382 0 0.18177514670000741 0.0039010391453388991 0 0.18303211158647559 0.0075807978729441382 0 0.17943453638861959 0.0091511058078182841 0 0.18303211158647559 0.0075807978729441382 0 0.18431633880684531 0.01086873085193758 0 0.17943453638861959 0.0091511058078182841 0 0.18660242445042999 0.0064023156866817926 0 0.18303211158647559 0.0075807978729441382 0 0.18431633880684531 0.01086873085193758 0 0.18832376542685261 0.012450231659139751 0 0.18660242445042999 0.0064023156866817926 0 0.18431633880684531 0.01086873085193758 0 0.18431633880684531 0.01086873085193758 0 0.18734518720319909 0.015281891910368059 0 0.18195036267736389 0.015275800378046231 0 0.18832376542685261 0.012450231659139751 0 0.18431633880684531 0.01086873085193758 0 0.18734518720319909 0.015281891910368059 0 0.18431633880684531 0.01086873085193758 0 0.18195036267736389 0.015275800378046231 0 0.17943453638861959 0.0091511058078182841 0 0.18195036267736389 0.015275800378046231 0 0.1761571917665653 0.013806221612761949 0 0.17943453638861959 0.0091511058078182841 0 0.1761571917665653 0.013806221612761949 0 0.17943453638861959 0.0091511058078182841 0 0.17233771352019589 0.0083561011481188656 0 0.1761571917665653 0.013806221612761949 0 0.17233771352019589 0.0083561011481188656 0 0.1709247624247007 0.01466984692398882 0 0.1761571917665653 0.013806221612761949 0 0.17493811328672779 0.022191841685783802 0 0.1709247624247007 0.01466984692398882 0 0.18195036267736389 0.015275800378046231 0 0.1761571917665653 0.013806221612761949 0 0.17493811328672779 0.022191841685783802 0 0.18734518720319909 0.015281891910368059 0 0.18195036267736389 0.015275800378046231 0 0.1874867753674215 0.0231110496262097 0 0.18195036267736389 0.015275800378046231 0 0.17493811328672779 0.022191841685783802 0 0.1874867753674215 0.0231110496262097 0 0.17895959729017549 0.03270519686463521 0 0.17493811328672779 0.022191841685783802 0 0.1874867753674215 0.0231110496262097 0 0.17895959729017549 0.03270519686463521 0 0.1692336025848987 0.033942773786365128 0 0.17493811328672779 0.022191841685783802 0 0.1692336025848987 0.033942773786365128 0 0.1660519956958274 0.025200646889517071 0 0.158601754226253 0.030081739901262169 0 0.1692336025848987 0.033942773786365128 0 0.17493811328672779 0.022191841685783802 0 0.1660519956958274 0.025200646889517071 0 0.1660519956958274 0.025200646889517071 0 0.158601754226253 0.030081739901262169 0 0.15656323758401319 0.020842958383828041 0 0.15656323758401319 0.020842958383828041 0 0.1655425680131333 0.017645951334422452 0 0.15799820797772829 0.01069464001977203 0 0.1660519956958274 0.025200646889517071 0 0.15656323758401319 0.020842958383828041 0 0.1655425680131333 0.017645951334422452 0 0.17493811328672779 0.022191841685783802 0 0.1660519956958274 0.025200646889517071 0 0.1655425680131333 0.017645951334422452 0 0.17493811328672779 0.022191841685783802 0 0.1655425680131333 0.017645951334422452 0 0.1709247624247007 0.01466984692398882 0 0.17233771352019589 0.0083561011481188656 0 0.1709247624247007 0.01466984692398882 0 0.16528784937855559 0.0099045707114697821 0 0.1655425680131333 0.017645951334422452 0 0.1709247624247007 0.01466984692398882 0 0.16528784937855559 0.0099045707114697821 0 0.1655425680131333 0.017645951334422452 0 0.16528784937855559 0.0099045707114697821 0 0.15799820797772829 0.01069464001977203 0 0.16528784937855559 0.0099045707114697821 0 0.15830422717032419 0.0026668804518291322 0 0.16550177429739321 0.001625335581948511 0 0.16528784937855559 0.0099045707114697821 0 0.15799820797772829 0.01069464001977203 0 0.15830422717032419 0.0026668804518291322 0 0.17233771352019589 0.0083561011481188656 0 0.16528784937855559 0.0099045707114697821 0 0.16550177429739321 0.001625335581948511 0 0.17227434920368959 0.00081991249798677823 0 0.17233771352019589 0.0083561011481188656 0 0.16550177429739321 0.001625335581948511 0 0.14127976741107601 0.00215554095495248 0 0.15230472087545879 0.0045339035350271751 0 0.14873370341600839 0.01190124285016711 0 0.15799820797772829 0.01069464001977203 0 0.15830422717032419 0.0026668804518291322 0 0.15230472087545879 0.0045339035350271751 0 0.14127976741107601 0.00215554095495248 0 0.15230472087545879 0.0045339035350271751 0 0.1552076984021574 -0.0047487866015848753 0 0.15830422717032419 0.0026668804518291322 0 0.15230472087545879 0.0045339035350271751 0 0.1552076984021574 -0.0047487866015848753 0 0.15656323758401319 0.020842958383828041 0 0.15799820797772829 0.01069464001977203 0 0.14873370341600839 0.01190124285016711 0 0.15799820797772829 0.01069464001977203 0 0.15230472087545879 0.0045339035350271751 0 0.14873370341600839 0.01190124285016711 0 0.14873370341600839 0.01190124285016711 0 0.1458857290053831 0.021389540043380069 0 0.13967636330765321 0.013174792475989121 0 0.14127976741107601 0.00215554095495248 0 0.14873370341600839 0.01190124285016711 0 0.13967636330765321 0.013174792475989121 0 0.1458857290053831 0.021389540043380069 0 0.13916191736165201 0.019633136795163032 0 0.13967636330765321 0.013174792475989121 0 0.1458857290053831 0.021389540043380069 0 0.14010063181871271 0.02585166497444577 0 0.13916191736165201 0.019633136795163032 0 0.15656323758401319 0.020842958383828041 0 0.1458857290053831 0.021389540043380069 0 0.15175299049851881 0.02729842449465077 0 0.15656323758401319 0.020842958383828041 0 0.14873370341600839 0.01190124285016711 0 0.1458857290053831 0.021389540043380069 0 0.158601754226253 0.030081739901262169 0 0.15656323758401319 0.020842958383828041 0 0.15175299049851881 0.02729842449465077 0 0.158601754226253 0.030081739901262169 0 0.15175299049851881 0.02729842449465077 0 0.15159127196488009 0.032471007951428398 0 0.15175299049851881 0.02729842449465077 0 0.14523576613563741 0.02976945682372012 0 0.15159127196488009 0.032471007951428398 0 0.1458857290053831 0.021389540043380069 0 0.14523576613563741 0.02976945682372012 0 0.14010063181871271 0.02585166497444577 0 0.14523576613563741 0.02976945682372012 0 0.14010063181871271 0.02585166497444577 0 0.1391322595465444 0.03699933077486834 0 0.1458857290053831 0.021389540043380069 0 0.15175299049851881 0.02729842449465077 0 0.14523576613563741 0.02976945682372012 0 0.1309849453148588 0.01811654968683717 0 0.1391322595465444 0.03699933077486834 0 0.14010063181871271 0.02585166497444577 0 0.1309849453148588 0.01811654968683717 0 0.1391322595465444 0.03699933077486834 0 0.11917198148314 0.002581966002757949 0 0.13034027439662041 0.028127834929059549 0 0.1309849453148588 0.01811654968683717 0 0.13034027439662041 0.028127834929059549 0 0.1309849453148588 0.01811654968683717 0 0.1391322595465444 0.03699933077486834 0 0.1309849453148588 0.01811654968683717 0 0.13916191736165201 0.019633136795163032 0 0.13967636330765321 0.013174792475989121 0 0.14010063181871271 0.02585166497444577 0 0.1309849453148588 0.01811654968683717 0 0.13916191736165201 0.019633136795163032 0 0.14127976741107601 0.00215554095495248 0 0.13362755423293271 0.0080562160832345926 0 0.1228376310831711 -0.00076623140119310329 0 0.1309849453148588 0.01811654968683717 0 0.13362755423293271 0.0080562160832345926 0 0.1228376310831711 -0.00076623140119310329 0 0.1309849453148588 0.01811654968683717 0 0.1228376310831711 -0.00076623140119310329 0 0.1309849453148588 0.01811654968683717 0 0.13362755423293271 0.0080562160832345926 0 0.13967636330765321 0.013174792475989121 0 0.14127976741107601 0.00215554095495248 0 0.13362755423293271 0.0080562160832345926 0 0.13967636330765321 0.013174792475989121 0 0.15183666351233449 0.050700262892952028 0 0.15919757845585511 0.069002327358520896 0 0.15048711395973299 0.060532750562707877 0 0.15183666351233449 0.050700262892952028 0 0.15919757845585511 0.069002327358520896 0 0.14215194880052681 0.055145346777992182 0 0.15048711395973299 0.060532750562707877 0 0.13253998066004699 0.064315925604492674 0 0.1415085673101022 0.053673703855360522 0 0.14215194880052681 0.055145346777992182 0 0.15183666351233449 0.050700262892952028 0 0.1415085673101022 0.053673703855360522 0 0.15183666351233449 0.050700262892952028 0 0.1415085673101022 0.053673703855360522 0 0.15183666351233449 0.050700262892952028 0 0.14453550543306221 0.044729731242042367 0 0.1415085673101022 0.053673703855360522 0 0.14215194880052681 0.055145346777992182 0 0.14215194880052681 0.055145346777992182 0 0.15048711395973299 0.060532750562707877 0 0.15183666351233449 0.050700262892952028 0 0.1415085673101022 0.053673703855360522 0 0.14453550543306221 0.044729731242042367 0 0.1391322595465444 0.03699933077486834 0 0.15183666351233449 0.050700262892952028 0 0.14566961722181801 0.035366614883496988 0 0.1566962317421734 0.039838803654011962 0 0.15183666351233449 0.050700262892952028 0 0.14566961722181801 0.035366614883496988 0 0.1566962317421734 0.039838803654011962 0 0.15159127196488009 0.032471007951428398 0 0.14566961722181801 0.035366614883496988 0 0.1566962317421734 0.039838803654011962 0 0.158601754226253 0.030081739901262169 0 0.15159127196488009 0.032471007951428398 0 0.14566961722181801 0.035366614883496988 0 0.14453550543306221 0.044729731242042367 0 0.1391322595465444 0.03699933077486834 0 0.14523576613563741 0.02976945682372012 0 0.15159127196488009 0.032471007951428398 0 0.14566961722181801 0.035366614883496988 0 0.14523576613563741 0.02976945682372012 0 0.14566961722181801 0.035366614883496988 0 0.1391322595465444 0.03699933077486834 0 0.15183666351233449 0.050700262892952028 0 0.14566961722181801 0.035366614883496988 0 0.14453550543306221 0.044729731242042367 0 0.13034027439662041 0.028127834929059549 0 0.1415085673101022 0.053673703855360522 0 0.13034027439662041 0.028127834929059549 0 0.1415085673101022 0.053673703855360522 0 0.1391322595465444 0.03699933077486834 0 0.12367169586596689 0.04413069599522032 0 0.13034027439662041 0.028127834929059549 0 0.1415085673101022 0.053673703855360522 0 0.11892469151436 0.060175562481194378 0 0.12367169586596689 0.04413069599522032 0 0.1415085673101022 0.053673703855360522 0 0.11892469151436 0.060175562481194378 0 0.1415085673101022 0.053673703855360522 0 0.11892469151436 0.060175562481194378 0 0.1415085673101022 0.053673703855360522 0 0.13253998066004699 0.064315925604492674 0 0.1415085673101022 0.053673703855360522 0 0.14215194880052681 0.055145346777992182 0 0.13253998066004699 0.064315925604492674 0 0.13253998066004699 0.064315925604492674 0 0.13121537104960351 0.072689189806444385 0 0.15446329543616341 0.069626104104570485 0 0.1243405792371938 0.066503547411893488 0 0.13253998066004699 0.064315925604492674 0 0.13121537104960351 0.072689189806444385 0 0.11892469151436 0.060175562481194378 0 0.1243405792371938 0.066503547411893488 0 0.13253998066004699 0.064315925604492674 0 0.13121537104960351 0.072689189806444385 0 0.14336397744542301 0.076431171561807093 0 0.13288821721910599 0.083857800247139097 0 0.15048711395973299 0.060532750562707877 0 0.13253998066004699 0.064315925604492674 0 0.15446329543616341 0.069626104104570485 0 0.13121537104960351 0.072689189806444385 0 0.15446329543616341 0.069626104104570485 0 0.13121537104960351 0.072689189806444385 0 0.14336397744542301 0.076431171561807093 0 0.15446329543616341 0.069626104104570485 0 0.13253998066004699 0.064315925604492674 0 0.15446329543616341 0.069626104104570485 0 0.14336397744542301 0.076431171561807093 0 0.15145508435945571 0.07730097997971673 0 0.15446329543616341 0.069626104104570485 0 0.15145508435945571 0.07730097997971673 0 0.15998651034928929 0.070963915351755544 0 0.15635019231632599 0.084708360937410687 0 0.15145508435945571 0.07730097997971673 0 0.15446329543616341 0.069626104104570485 0 0.15998651034928929 0.070963915351755544 0 0.15048711395973299 0.060532750562707877 0 0.15446329543616341 0.069626104104570485 0 0.15919757845585511 0.069002327358520896 0 0.1449478564828334 0.088262465871273704 0 0.15304430801011831 0.09759233646353245 0 0.15635019231632599 0.084708360937410687 0 0.15145508435945571 0.07730097997971673 0 0.1449478564828334 0.088262465871273704 0 0.15635019231632599 0.084708360937410687 0 0.14336397744542301 0.076431171561807093 0 0.15145508435945571 0.07730097997971673 0 0.1449478564828334 0.088262465871273704 0 0.1449478564828334 0.088262465871273704 0 0.13288821721910599 0.083857800247139097 0 0.1333435253298102 0.095432768439741328 0 0.14336397744542301 0.076431171561807093 0 0.1449478564828334 0.088262465871273704 0 0.13288821721910599 0.083857800247139097 0 0.1225478872688979 0.090713611373926736 0 0.1210037722340596 0.082520495593825793 0 0.13288821721910599 0.083857800247139097 0 0.1210037722340596 0.082520495593825793 0 0.13121537104960351 0.072689189806444385 0 0.13288821721910599 0.083857800247139097 0 0.1225478872688979 0.090713611373926736 0 0.13288821721910599 0.083857800247139097 0 0.1333435253298102 0.095432768439741328 0 0.1449478564828334 0.088262465871273704 0 0.1368974078767736 0.107501873099266 0 0.1333435253298102 0.095432768439741328 0 0.12018819637303869 0.10164151191590461 0 0.1368974078767736 0.107501873099266 0 0.1333435253298102 0.095432768439741328 0 0.12018819637303869 0.10164151191590461 0 0.1225478872688979 0.090713611373926736 0 0.1333435253298102 0.095432768439741328 0 0.11707998843366239 0.12090166170324231 0 0.14061487869327599 0.12738787364596069 0 0.1368974078767736 0.107501873099266 0 0.14061487869327599 0.12738787364596069 0 0.1368974078767736 0.107501873099266 0 0.1574927946018469 0.1127881056222175 0 0.14061487869327599 0.12738787364596069 0 0.16208469833826319 0.13464304631642149 0 0.1574927946018469 0.1127881056222175 0 0.1368974078767736 0.107501873099266 0 0.15304430801011831 0.09759233646353245 0 0.1574927946018469 0.1127881056222175 0 0.1449478564828334 0.088262465871273704 0 0.1368974078767736 0.107501873099266 0 0.15304430801011831 0.09759233646353245 0 0.15304430801011831 0.09759233646353245 0 0.1695332887728116 0.094700876787494351 0 0.1574927946018469 0.1127881056222175 0 0.1695332887728116 0.094700876787494351 0 0.1574927946018469 0.1127881056222175 0 0.1790800671963392 0.1184378382232308 0 0.16208469833826319 0.13464304631642149 0 0.1574927946018469 0.1127881056222175 0 0.1790800671963392 0.1184378382232308 0 0.1885688884481975 0.1093901779912298 0 0.1790800671963392 0.1184378382232308 0 0.1832996600419958 0.1003897382564244 0 0.1885688884481975 0.1093901779912298 0 0.1790800671963392 0.1184378382232308 0 0.1858372065203453 0.1184994265274882 0 0.1885688884481975 0.1093901779912298 0 0.1858372065203453 0.1184994265274882 0 0.1885688884481975 0.1093901779912298 0 0.1790800671963392 0.1184378382232308 0 0.19325819231563421 0.12959887947710741 0 0.1790800671963392 0.1184378382232308 0 0.1858372065203453 0.1184994265274882 0 0.1695332887728116 0.094700876787494351 0 0.1790800671963392 0.1184378382232308 0 0.1695332887728116 0.094700876787494351 0 0.1790800671963392 0.1184378382232308 0 0.1832996600419958 0.1003897382564244 0 0.1695332887728116 0.094700876787494351 0 0.1832996600419958 0.1003897382564244 0 0.18493574174144031 0.087819629641268118 0 0.1929726046438287 0.094705252597794665 0 0.1832996600419958 0.1003897382564244 0 0.18493574174144031 0.087819629641268118 0 0.1973763208394673 0.08002032720436178 0 0.18493574174144031 0.087819629641268118 0 0.17868141559437861 0.075492121278057239 0 0.1695332887728116 0.094700876787494351 0 0.18493574174144031 0.087819629641268118 0 0.17868141559437861 0.075492121278057239 0 0.1973763208394673 0.08002032720436178 0 0.17868141559437861 0.075492121278057239 0 0.18079222374313991 0.066157073385880324 0 0.17868141559437861 0.075492121278057239 0 0.18079222374313991 0.066157073385880324 0 0.15998651034928929 0.070963915351755544 0 0.18079222374313991 0.066157073385880324 0 0.15919757845585511 0.069002327358520896 0 0.18079222374313991 0.066157073385880324 0 0.15919757845585511 0.069002327358520896 0 0.15998651034928929 0.070963915351755544 0 0.17868141559437861 0.075492121278057239 0 0.15998651034928929 0.070963915351755544 0 0.15446329543616341 0.069626104104570485 0 0.15919757845585511 0.069002327358520896 0 0.15998651034928929 0.070963915351755544 0 0.15446329543616341 0.069626104104570485 0 0.15919757845585511 0.069002327358520896 0 0.15446329543616341 0.069626104104570485 0 0.15998651034928929 0.070963915351755544 0 0.15919757845585511 0.069002327358520896 0 0.15998651034928929 0.070963915351755544 0 0.1695332887728116 0.094700876787494351 0 0.17868141559437861 0.075492121278057239 0 0.15998651034928929 0.070963915351755544 0 0.15304430801011831 0.09759233646353245 0 0.1695332887728116 0.094700876787494351 0 0.15635019231632599 0.084708360937410687 0 0.1695332887728116 0.094700876787494351 0 0.15998651034928929 0.070963915351755544 0 0.1695332887728116 0.094700876787494351 0 0.15998651034928929 0.070963915351755544 0 0.15635019231632599 0.084708360937410687 0 0.097740131103692757 0.47211576306312553 0 0.10228396963995549 0.48764264937867408 0 0.092199203719590395 0.48872928857719472 0 0.097740131103692757 0.47211576306312553 0 0.1146358595090817 0.48605788153156299 0 0.097740131103692757 0.47211576306312553 0 0.10228396963995549 0.48764264937867408 0 0.1146358595090817 0.48605788153156299 0 0.1038255785689283 0.5 0 0.10228396963995549 0.48764264937867408 0 0.092199203719590395 0.48872928857719472 0 0.1038255785689283 0.5 0 0.10228396963995549 0.48764264937867408 0 0.1146358595090817 0.48605788153156299 0 0.1146358595090817 0.48605788153156299 0 0.13153158791447089 0.50000000000000033 0 0.1038255785689283 0.5 0 0.1146358595090817 0.48605788153156299 0 0.13153158791447089 0.50000000000000033 0 0.097740131103692757 0.47211576306312553 0 0.1146358595090817 0.48605788153156299 0 0.1160915578241386 0.4641835533930308 0 0.1146358595090817 0.48605788153156299 0 0.1160915578241386 0.4641835533930308 0 0.13792901651589951 0.46760966493884959 0 0.1160915578241386 0.4641835533930308 0 0.1237280261196836 0.44463014715047522 0 0.10202961426548091 0.45002724093957291 0 0.1237280261196836 0.44463014715047522 0 0.1057649319772677 0.43759517983083812 0 0.10202961426548091 0.45002724093957291 0 0.1057649319772677 0.43759517983083812 0 0.10202961426548091 0.45002724093957291 0 0.08764391112498858 0.43163178618934439 0 0.097740131103692757 0.47211576306312553 0 0.1160915578241386 0.4641835533930308 0 0.10202961426548091 0.45002724093957291 0 0.080844402698305312 0.45817364459468618 0 0.076730675362011974 0.47423156549521001 0 0.097740131103692757 0.47211576306312553 0 0.080844402698305312 0.45817364459468618 0 0.097740131103692757 0.47211576306312553 0 0.10202961426548091 0.45002724093957291 0 0.080844402698305312 0.45817364459468618 0 0.097740131103692757 0.47211576306312553 0 0.080844402698305312 0.45817364459468618 0 0.076730675362011974 0.47423156549521001 0 0.080844402698305312 0.45817364459468618 0 0.08764391112498858 0.43163178618934439 0 0.10202961426548091 0.45002724093957291 0 0.080844402698305312 0.45817364459468618 0 0.08764391112498858 0.43163178618934439 0 0.080844402698305312 0.45817364459468618 0 0.07540768018483697 0.44030754071393319 0 0.08764391112498858 0.43163178618934439 0 0.080844402698305312 0.45817364459468618 0 0.07540768018483697 0.44030754071393319 0 0.061556592319121653 0.44225761358074578 0 0.080844402698305312 0.45817364459468618 0 0.061556592319121653 0.44225761358074578 0 0.080844402698305312 0.45817364459468618 0 0.067859653170709522 0.45426422462270638 0 0.061556592319121653 0.44225761358074578 0 0.080844402698305312 0.45817364459468618 0 0.064346854003363874 0.46736183993319841 0 0.076730675362011974 0.47423156549521001 0 0.064346854003363874 0.46736183993319841 0 0.067859653170709522 0.45426422462270638 0 0.056076759981020123 0.44443419347066321 0 0.080844402698305312 0.45817364459468618 0 0.064346854003363874 0.46736183993319841 0 0.067859653170709522 0.45426422462270638 0 0.076730675362011974 0.47423156549521001 0 0.072616948025712127 0.490289486395732 0 0.064346854003363874 0.46736183993319841 0 0.072616948025712127 0.490289486395732 0 0.058055043786226751 0.49051055052906067 0 0.064346854003363874 0.46736183993319841 0 0.072616948025712127 0.490289486395732 0 0.064346854003363874 0.46736183993319841 0 0.076730675362011974 0.47423156549521001 0 0.072616948025712127 0.490289486395732 0 0.076730675362011974 0.47423156549521001 0 0.082075002421626492 0.48449271935339733 0 0.072616948025712127 0.490289486395732 0 0.097740131103692757 0.47211576306312553 0 0.076730675362011974 0.47423156549521001 0 0.082075002421626492 0.48449271935339733 0 0.097740131103692757 0.47211576306312553 0 0.092199203719590395 0.48872928857719472 0 0.082075002421626492 0.48449271935339733 0 0.1038255785689283 0.5 0 0.092199203719590395 0.48872928857719472 0 0.076119569223385697 0.50000000000000089 0 0.092199203719590395 0.48872928857719472 0 0.082075002421626492 0.48449271935339733 0 0.076119569223385697 0.50000000000000089 0 0.072616948025712127 0.490289486395732 0 0.07012930311136284 0.49999999999999661 0 0.076119569223385697 0.50000000000000089 0 0.072616948025712127 0.490289486395732 0 0.07012930311136284 0.49999999999999661 0 0.076119569223385697 0.50000000000000089 0 0.072616948025712127 0.490289486395732 0 0.082075002421626492 0.48449271935339733 0 0.076119569223385697 0.50000000000000089 0 0.072616948025712127 0.490289486395732 0 0.072616948025712127 0.490289486395732 0 0.07012930311136284 0.49999999999999661 0 0.058055043786226751 0.49051055052906067 0 0.058055043786226751 0.49051055052906067 0 0.046280597366186747 0.47957307303049429 0 0.044860440428939378 0.4999999999999995 0 0.07012930311136284 0.49999999999999661 0 0.058055043786226751 0.49051055052906067 0 0.044860440428939378 0.4999999999999995 0 0.064346854003363874 0.46736183993319841 0 0.058055043786226751 0.49051055052906067 0 0.046280597366186747 0.47957307303049429 0 0.046280597366186747 0.47957307303049429 0 0.047700754303434179 0.45914614606098908 0 0.046280597366186747 0.47957307303049429 0 0.029897162037545319 0.4839753813588808 0 0.03521852719449324 0.46736449501777538 0 0.044860440428939378 0.4999999999999995 0 0.01907995414838232 0.5 0 0.029897162037545319 0.4839753813588808 0 0.046280597366186747 0.47957307303049429 0 0.044860440428939378 0.4999999999999995 0 0.046280597366186747 0.47957307303049429 0 0.044860440428939378 0.4999999999999995 0 0.029897162037545319 0.4839753813588808 0 0.01907995414838232 0.5 0 0.029897162037545319 0.4839753813588808 0 0.01223017135109394 0.48399563131022733 0 0.029897162037545319 0.4839753813588808 0 0.02313076419329519 0.4718947066398041 0 0.01223017135109394 0.48399563131022733 0 0.029897162037545319 0.4839753813588808 0 0.02313076419329519 0.4718947066398041 0 0.03521852719449324 0.46736449501777538 0 0.02313076419329519 0.4718947066398041 0 0.01223017135109394 0.48399563131022733 0 0.01319884020628341 0.47022233111689332 0 -0.003880604538310756 0.48346324919380129 0 0.01223017135109394 0.48399563131022733 0 0.0050866533922729329 0.47701524235381432 0 0.01223017135109394 0.48399563131022733 0 0.01319884020628341 0.47022233111689332 0 0.0050866533922729329 0.47701524235381432 0 0.01319884020628341 0.47022233111689332 0 0.0053167838454733218 0.46943384557929257 0 0.0050866533922729329 0.47701524235381432 0 -0.001026908195020756 0.47486914558720472 0 0.0053167838454733218 0.46943384557929257 0 0.0050866533922729329 0.47701524235381432 0 -0.003880604538310756 0.48346324919380129 0 -0.001026908195020756 0.47486914558720472 0 0.0050866533922729329 0.47701524235381432 0 -0.0067005321321746969 0.5 0 0.01907995414838232 0.5 0 0.01223017135109394 0.48399563131022733 0 -0.0067005321321746969 0.5 0 -0.003880604538310756 0.48346324919380129 0 0.01223017135109394 0.48399563131022733 0 0.0094816941431487278 0.45086042579757712 0 0.01399183751309625 0.44462120914047132 0 0.0048617880261327502 0.44584476697033082 0 0.0094816941431487278 0.45086042579757712 0 0.01399183751309625 0.44462120914047132 0 0.016302396861864351 0.45114502888407948 0 0.01049598620797234 0.43767394788706171 0 0.01399183751309625 0.44462120914047132 0 0.0048617880261327502 0.44584476697033082 0 0.01049598620797234 0.43767394788706171 0 0.01399183751309625 0.44462120914047132 0 0.020379531913139331 0.43685778481219928 0 0.01049598620797234 0.43767394788706171 0 0.0048617880261327502 0.44584476697033082 0 0.01049598620797234 0.43767394788706171 0 0.0048617880261327502 0.44584476697033082 0 0.0065189226172944724 0.43188650626448272 0 0.0094816941431487278 0.45086042579757712 0 0.0048617880261327502 0.44584476697033082 0 0.0015605482097463411 0.45063228640423969 0 0.0048617880261327502 0.44584476697033082 0 0.0015605482097463411 0.45063228640423969 0 0.0094816941431487278 0.45086042579757712 0 0.0048617880261327502 0.44584476697033082 0 0.0015605482097463411 0.45063228640423969 0 0.0080738590363113663 0.46132998490476868 0 0.01222090350615627 0.45893997922115709 0 0.0015605482097463411 0.45063228640423969 0 0.01222090350615627 0.45893997922115709 0 -0.0094095992007081283 0.46654139838691122 0 0.0053167838454733218 0.46943384557929257 0 0.0080738590363113663 0.46132998490476868 0 0.0094816941431487278 0.45086042579757712 0 0.0015605482097463411 0.45063228640423969 0 0.01222090350615627 0.45893997922115709 0 -0.0094095992007081283 0.46654139838691122 0 0.0015605482097463411 0.45063228640423969 0 0.0080738590363113663 0.46132998490476868 0 0.0080738590363113663 0.46132998490476868 0 0.01222090350615627 0.45893997922115709 0 0.025557317273330941 0.45611857142262657 0 0.01319884020628341 0.47022233111689332 0 0.0080738590363113663 0.46132998490476868 0 0.025557317273330941 0.45611857142262657 0 0.01319884020628341 0.47022233111689332 0 0.0053167838454733218 0.46943384557929257 0 0.0080738590363113663 0.46132998490476868 0 0.0094816941431487278 0.45086042579757712 0 0.01222090350615627 0.45893997922115709 0 0.016302396861864351 0.45114502888407948 0 0.01222090350615627 0.45893997922115709 0 0.025557317273330941 0.45611857142262657 0 0.016302396861864351 0.45114502888407948 0 0.0080738590363113663 0.46132998490476868 0 0.025557317273330941 0.45611857142262657 0 0.02313076419329519 0.4718947066398041 0 0.01319884020628341 0.47022233111689332 0 0.025557317273330941 0.45611857142262657 0 0.02313076419329519 0.4718947066398041 0 0.025557317273330941 0.45611857142262657 0 0.03521852719449324 0.46736449501777538 0 0.025557317273330941 0.45611857142262657 0 0.029497972404799989 0.4465970104894148 0 0.021231693005787571 0.44530579808828252 0 0.025557317273330941 0.45611857142262657 0 0.016302396861864351 0.45114502888407948 0 0.021231693005787571 0.44530579808828252 0 0.01399183751309625 0.44462120914047132 0 0.016302396861864351 0.45114502888407948 0 0.021231693005787571 0.44530579808828252 0 0.01399183751309625 0.44462120914047132 0 0.021231693005787571 0.44530579808828252 0 0.020379531913139331 0.43685778481219928 0 0.029497972404799989 0.4465970104894148 0 0.021231693005787571 0.44530579808828252 0 0.030311313049230751 0.43763339856834432 0 0.021231693005787571 0.44530579808828252 0 0.030311313049230751 0.43763339856834432 0 0.020379531913139331 0.43685778481219928 0 0.038697605999956301 0.44825738244890739 0 0.047700754303434179 0.45914614606098908 0 0.049120911240681603 0.43871921909148398 0 0.029497972404799989 0.4465970104894148 0 0.038697605999956301 0.44825738244890739 0 0.040333793699140981 0.43958103258297831 0 0.029497972404799989 0.4465970104894148 0 0.030311313049230751 0.43763339856834432 0 0.040333793699140981 0.43958103258297831 0 0.025557317273330941 0.45611857142262657 0 0.029497972404799989 0.4465970104894148 0 0.038697605999956301 0.44825738244890739 0 0.038697605999956301 0.44825738244890739 0 0.040333793699140981 0.43958103258297831 0 0.049120911240681603 0.43871921909148398 0 0.046280597366186747 0.47957307303049429 0 0.03521852719449324 0.46736449501777538 0 0.047700754303434179 0.45914614606098908 0 0.025557317273330941 0.45611857142262657 0 0.038697605999956301 0.44825738244890739 0 0.03521852719449324 0.46736449501777538 0 0.038697605999956301 0.44825738244890739 0 0.03521852719449324 0.46736449501777538 0 0.047700754303434179 0.45914614606098908 0 0.064346854003363874 0.46736183993319841 0 0.056076759981020123 0.44443419347066321 0 0.064346854003363874 0.46736183993319841 0 0.046280597366186747 0.47957307303049429 0 0.047700754303434179 0.45914614606098908 0 0.064346854003363874 0.46736183993319841 0 0.047700754303434179 0.45914614606098908 0 0.056076759981020123 0.44443419347066321 0 0.047700754303434179 0.45914614606098908 0 0.049120911240681603 0.43871921909148398 0 0.056076759981020123 0.44443419347066321 0 0.047700754303434179 0.45914614606098908 0 0.049120911240681603 0.43871921909148398 0 0.067859653170709522 0.45426422462270638 0 0.056076759981020123 0.44443419347066321 0 0.061556592319121653 0.44225761358074578 0 0.056076759981020123 0.44443419347066321 0 0.061556592319121653 0.44225761358074578 0 0.059201111644200437 0.43099696977894508 0 0.056076759981020123 0.44443419347066321 0 0.047806665958676359 0.42150654700812801 0 0.049120911240681603 0.43871921909148398 0 0.056076759981020123 0.44443419347066321 0 0.047806665958676359 0.42150654700812801 0 0.056076759981020123 0.44443419347066321 0 0.059201111644200437 0.43099696977894508 0 0.047806665958676359 0.42150654700812801 0 0.059201111644200437 0.43099696977894508 0 0.058979725365252707 0.4176193763442323 0 0.047806665958676359 0.42150654700812801 0 0.058979725365252707 0.4176193763442323 0 0.039536571936328653 0.39857890054559408 0 0.063240005814886313 0.40658319209587829 0 0.058979725365252707 0.4176193763442323 0 0.047806665958676359 0.42150654700812801 0 0.039536571936328653 0.39857890054559408 0 0.035113551011259521 0.41687403621696922 0 0.02872917033170445 0.40503675834663061 0 0.039536571936328653 0.39857890054559408 0 0.047806665958676359 0.42150654700812801 0 0.039536571936328653 0.39857890054559408 0 0.047806665958676359 0.42150654700812801 0 0.035113551011259521 0.41687403621696922 0 0.039536571936328653 0.39857890054559408 0 0.049120911240681603 0.43871921909148398 0 0.047806665958676359 0.42150654700812801 0 0.039708047704291503 0.4306454839277386 0 0.040333793699140981 0.43958103258297831 0 0.049120911240681603 0.43871921909148398 0 0.039708047704291503 0.4306454839277386 0 0.047806665958676359 0.42150654700812801 0 0.035113551011259521 0.41687403621696922 0 0.039708047704291503 0.4306454839277386 0 0.035113551011259521 0.41687403621696922 0 0.039708047704291503 0.4306454839277386 0 0.028741688689164512 0.42811504149697438 0 0.030311313049230751 0.43763339856834432 0 0.039708047704291503 0.4306454839277386 0 0.028741688689164512 0.42811504149697438 0 0.030311313049230751 0.43763339856834432 0 0.040333793699140981 0.43958103258297831 0 0.039708047704291503 0.4306454839277386 0 0.030311313049230751 0.43763339856834432 0 0.020379531913139331 0.43685778481219928 0 0.028741688689164512 0.42811504149697438 0 0.01049598620797234 0.43767394788706171 0 0.020379531913139331 0.43685778481219928 0 0.01750467301358458 0.42779731369206181 0 0.020379531913139331 0.43685778481219928 0 0.01750467301358458 0.42779731369206181 0 0.028741688689164512 0.42811504149697438 0 0.01750467301358458 0.42779731369206181 0 0.028741688689164512 0.42811504149697438 0 0.02615916144738779 0.41736148597675132 0 0.035113551011259521 0.41687403621696922 0 0.028741688689164512 0.42811504149697438 0 0.02615916144738779 0.41736148597675132 0 0.02615916144738779 0.41736148597675132 0 0.010437450069317761 0.40463061763750507 0 0.02872917033170445 0.40503675834663061 0 0.02615916144738779 0.41736148597675132 0 0.01517065216307991 0.41806138940930709 0 0.010437450069317761 0.40463061763750507 0 0.035113551011259521 0.41687403621696922 0 0.02615916144738779 0.41736148597675132 0 0.02872917033170445 0.40503675834663061 0 0.01750467301358458 0.42779731369206181 0 0.02615916144738779 0.41736148597675132 0 0.01517065216307991 0.41806138940930709 0 -0.003174347114314008 0.41591217031924949 0 0.0065813241220295041 0.42245614033091039 0 0.010437450069317761 0.40463061763750507 0 -0.0064316016559190746 0.3999483233353413 0 -0.003174347114314008 0.41591217031924949 0 0.010437450069317761 0.40463061763750507 0 0.01517065216307991 0.41806138940930709 0 0.0065813241220295041 0.42245614033091039 0 0.010437450069317761 0.40463061763750507 0 -0.003174347114314008 0.41591217031924949 0 0.010437450069317761 0.40463061763750507 0 -0.003174347114314008 0.41591217031924949 0 0.0065813241220295041 0.42245614033091039 0 -0.0026301228576318379 0.42717885202372191 0 -0.003174347114314008 0.41591217031924949 0 0.0065813241220295041 0.42245614033091039 0 -0.0026301228576318379 0.42717885202372191 0 0.0065813241220295041 0.42245614033091039 0 0.0065189226172944724 0.43188650626448272 0 -0.0026301228576318379 0.42717885202372191 0 0.0048617880261327502 0.44584476697033082 0 0.0065189226172944724 0.43188650626448272 0 0.01049598620797234 0.43767394788706171 0 0.01750467301358458 0.42779731369206181 0 0.0065189226172944724 0.43188650626448272 0 0.01750467301358458 0.42779731369206181 0 0.0065813241220295041 0.42245614033091039 0 0.0065189226172944724 0.43188650626448272 0 0.01750467301358458 0.42779731369206181 0 0.01517065216307991 0.41806138940930709 0 0.0065813241220295041 0.42245614033091039 0 -0.0042030409966118051 0.38380869400061962 0 0.01009735409817194 0.38238429504652488 0 0.02404924725294803 0.393349064955759 0 -0.0042030409966118051 0.38380869400061962 0 0.02404924725294803 0.393349064955759 0 0.01009735409817194 0.38238429504652488 0 0.0197357255374827 0.37571737083264412 0 0.011110712074150059 0.37343232972227269 0 -0.001064505034491721 0.37161458349227261 0 0.01009735409817194 0.38238429504652488 0 0.011110712074150059 0.37343232972227269 0 -0.001064505034491721 0.37161458349227261 0 -0.0042030409966118051 0.38380869400061962 0 0.01009735409817194 0.38238429504652488 0 -0.0042030409966118051 0.38380869400061962 0 0.01009735409817194 0.38238429504652488 0 -0.0042030409966118051 0.38380869400061962 0 0.010437450069317761 0.40463061763750507 0 0.02404924725294803 0.393349064955759 0 0.010437450069317761 0.40463061763750507 0 0.02872917033170445 0.40503675834663061 0 0.02404924725294803 0.393349064955759 0 0.010437450069317761 0.40463061763750507 0 0.02404924725294803 0.393349064955759 0 0.02872917033170445 0.40503675834663061 0 0.02404924725294803 0.393349064955759 0 0.039536571936328653 0.39857890054559408 0 0.02404924725294803 0.393349064955759 0 0.034519904376963118 0.38467091111880503 0 0.02404924725294803 0.393349064955759 0 0.0197357255374827 0.37571737083264412 0 0.034519904376963118 0.38467091111880503 0 0.01009735409817194 0.38238429504652488 0 0.02404924725294803 0.393349064955759 0 0.0197357255374827 0.37571737083264412 0 0.034519904376963118 0.38467091111880503 0 0.050307067216076778 0.37158640017128619 0 0.034519904376963118 0.38467091111880503 0 0.039536571936328653 0.39857890054559408 0 0.056773536515482913 0.38908479613358171 0 0.02404924725294803 0.393349064955759 0 0.039536571936328653 0.39857890054559408 0 0.034519904376963118 0.38467091111880503 0 0.039536571936328653 0.39857890054559408 0 0.02404924725294803 0.393349064955759 0 0.034519904376963118 0.38467091111880503 0 0.039536571936328653 0.39857890054559408 0 0.039536571936328653 0.39857890054559408 0 0.063240005814886313 0.40658319209587829 0 0.039536571936328653 0.39857890054559408 0 0.056773536515482913 0.38908479613358171 0 0.063240005814886313 0.40658319209587829 0 0.056773536515482913 0.38908479613358171 0 0.063240005814886313 0.40658319209587829 0 0.056773536515482913 0.38908479613358171 0 0.059721524030669819 0.37431687333309788 0 0.050307067216076778 0.37158640017128619 0 0.056773536515482913 0.38908479613358171 0 0.050307067216076778 0.37158640017128619 0 0.034519904376963118 0.38467091111880503 0 0.056773536515482913 0.38908479613358171 0 0.050307067216076778 0.37158640017128619 0 0.056773536515482913 0.38908479613358171 0 0.069041936002645535 0.37820082441249081 0 0.059721524030669819 0.37431687333309788 0 0.056773536515482913 0.38908479613358171 0 0.069041936002645535 0.37820082441249081 0 0.068225210254675303 0.39186969982647402 0 0.069041936002645535 0.37820082441249081 0 0.078928226936330073 0.3918395352538776 0 0.068225210254675303 0.39186969982647402 0 0.069041936002645535 0.37820082441249081 0 0.087739402474845588 0.37833299208434412 0 0.078928226936330073 0.3918395352538776 0 0.087739402474845588 0.37833299208434412 0 0.078928226936330073 0.3918395352538776 0 0.094443419551670932 0.40508992778400232 0 0.078928226936330073 0.3918395352538776 0 0.080832552055978585 0.40498983155533402 0 0.094443419551670932 0.40508992778400232 0 0.080832552055978585 0.40498983155533402 0 0.073695702888484968 0.40005040040525608 0 0.075088081656536507 0.41058410832735293 0 0.078928226936330073 0.3918395352538776 0 0.080832552055978585 0.40498983155533402 0 0.073695702888484968 0.40005040040525608 0 0.056773536515482913 0.38908479613358171 0 0.068225210254675303 0.39186969982647402 0 0.063240005814886313 0.40658319209587829 0 0.073695702888484968 0.40005040040525608 0 0.063240005814886313 0.40658319209587829 0 0.075088081656536507 0.41058410832735293 0 0.078928226936330073 0.3918395352538776 0 0.073695702888484968 0.40005040040525608 0 0.068225210254675303 0.39186969982647402 0 0.073695702888484968 0.40005040040525608 0 0.068225210254675303 0.39186969982647402 0 0.063240005814886313 0.40658319209587829 0 0.058979725365252707 0.4176193763442323 0 0.063240005814886313 0.40658319209587829 0 0.071585814596931419 0.42916711849095618 0 0.063240005814886313 0.40658319209587829 0 0.075088081656536507 0.41058410832735293 0 0.071585814596931419 0.42916711849095618 0 0.063240005814886313 0.40658319209587829 0 0.071585814596931419 0.42916711849095618 0 0.063240005814886313 0.40658319209587829 0 0.075088081656536507 0.41058410832735293 0 0.075088081656536507 0.41058410832735293 0 0.071585814596931419 0.42916711849095618 0 0.082007329246870417 0.41738518600618091 0 0.061556592319121653 0.44225761358074578 0 0.059201111644200437 0.43099696977894508 0 0.071585814596931419 0.42916711849095618 0 0.07540768018483697 0.44030754071393319 0 0.061556592319121653 0.44225761358074578 0 0.071585814596931419 0.42916711849095618 0 0.059201111644200437 0.43099696977894508 0 0.058979725365252707 0.4176193763442323 0 0.071585814596931419 0.42916711849095618 0 0.07540768018483697 0.44030754071393319 0 0.071585814596931419 0.42916711849095618 0 0.08764391112498858 0.43163178618934439 0 0.071585814596931419 0.42916711849095618 0 0.08764391112498858 0.43163178618934439 0 0.082007329246870417 0.41738518600618091 0 0.08764391112498858 0.43163178618934439 0 0.082007329246870417 0.41738518600618091 0 0.094443419551670932 0.40508992778400232 0 0.08764391112498858 0.43163178618934439 0 0.094443419551670932 0.40508992778400232 0 0.080832552055978585 0.40498983155533402 0 0.075088081656536507 0.41058410832735293 0 0.082007329246870417 0.41738518600618091 0 0.080832552055978585 0.40498983155533402 0 0.082007329246870417 0.41738518600618091 0 0.094443419551670932 0.40508992778400232 0 0.08764391112498858 0.43163178618934439 0 0.1096581763989177 0.42409154504396013 0 0.094443419551670932 0.40508992778400232 0 0.1096581763989177 0.42409154504396013 0 0.11163148259572971 0.40863234267508453 0 0.094443419551670932 0.40508992778400232 0 0.1057649319772677 0.43759517983083812 0 0.08764391112498858 0.43163178618934439 0 0.1096581763989177 0.42409154504396013 0 0.1237280261196836 0.44463014715047522 0 0.1096581763989177 0.42409154504396013 0 0.13502200614688589 0.42010390008240672 0 0.1237280261196836 0.44463014715047522 0 0.1057649319772677 0.43759517983083812 0 0.1096581763989177 0.42409154504396013 0 0.11163148259572971 0.40863234267508453 0 0.1236499924648251 0.3984302041169589 0 0.13502200614688589 0.42010390008240672 0 0.1096581763989177 0.42409154504396013 0 0.11163148259572971 0.40863234267508453 0 0.13502200614688589 0.42010390008240672 0 0.11163148259572971 0.40863234267508453 0 0.1236499924648251 0.3984302041169589 0 0.10863659533572551 0.39290197353284961 0 0.10863659533572551 0.39290197353284961 0 0.114060711710889 0.37342974127053702 0 0.12550685613774351 0.37951055496914998 0 0.1236499924648251 0.3984302041169589 0 0.10863659533572551 0.39290197353284961 0 0.12550685613774351 0.37951055496914998 0 0.1012429279783533 0.37854806937866009 0 0.10863659533572551 0.39290197353284961 0 0.114060711710889 0.37342974127053702 0 0.087739402474845588 0.37833299208434412 0 0.1012429279783533 0.37854806937866009 0 0.094443419551670932 0.40508992778400232 0 0.11163148259572971 0.40863234267508453 0 0.10863659533572551 0.39290197353284961 0 0.094443419551670932 0.40508992778400232 0 0.1012429279783533 0.37854806937866009 0 0.094443419551670932 0.40508992778400232 0 0.1012429279783533 0.37854806937866009 0 0.10863659533572551 0.39290197353284961 0 0.094443419551670932 0.40508992778400232 0 0.10055213054656729 0.36013865237867942 0 0.1100489009895301 0.33374314175173209 0 0.10055213054656729 0.36013865237867942 0 0.1100489009895301 0.33374314175173209 0 0.08625589277749264 0.346999797836966 0 0.1069344999541316 0.36147573913557879 0 0.10055213054656729 0.36013865237867942 0 0.1165634558871128 0.3492406052842485 0 0.10055213054656729 0.36013865237867942 0 0.1165634558871128 0.3492406052842485 0 0.1100489009895301 0.33374314175173209 0 0.087739402474845588 0.37833299208434412 0 0.1012429279783533 0.37854806937866009 0 0.1069344999541316 0.36147573913557879 0 0.1012429279783533 0.37854806937866009 0 0.1069344999541316 0.36147573913557879 0 0.114060711710889 0.37342974127053702 0 0.1069344999541316 0.36147573913557879 0 0.10055213054656729 0.36013865237867942 0 0.081229983254247365 0.36650003300062722 0 0.1069344999541316 0.36147573913557879 0 0.081229983254247365 0.36650003300062722 0 0.114060711710889 0.37342974127053702 0 0.1326390166540157 0.35645144527053041 0 0.12550685613774351 0.37951055496914998 0 0.1069344999541316 0.36147573913557879 0 0.114060711710889 0.37342974127053702 0 0.1326390166540157 0.35645144527053041 0 0.1069344999541316 0.36147573913557879 0 0.1165634558871128 0.3492406052842485 0 0.1326390166540157 0.35645144527053041 0 0.1069344999541316 0.36147573913557879 0 0.1326390166540157 0.35645144527053041 0 0.1165634558871128 0.3492406052842485 0 0.1100489009895301 0.33374314175173209 0 0.13264273129131951 0.33439404788472138 0 0.1100489009895301 0.33374314175173209 0 0.099713977183769634 0.31807175575135088 0 0.11954567143249289 0.30734763112478491 0 0.1100489009895301 0.33374314175173209 0 0.11954567143249289 0.30734763112478491 0 0.13264273129131951 0.33439404788472138 0 0.1100489009895301 0.33374314175173209 0 0.11954567143249289 0.30734763112478491 0 0.1100489009895301 0.33374314175173209 0 0.099713977183769634 0.31807175575135088 0 0.083894735805945045 0.32735700357097808 0 0.1100489009895301 0.33374314175173209 0 0.083894735805945045 0.32735700357097808 0 0.08625589277749264 0.346999797836966 0 0.083894735805945045 0.32735700357097808 0 0.068148884279383815 0.34110740296781622 0 0.08625589277749264 0.346999797836966 0 0.099713977183769634 0.31807175575135088 0 0.083894735805945045 0.32735700357097808 0 0.079241751540062577 0.3091409184095229 0 0.083894735805945045 0.32735700357097808 0 0.067542665246266162 0.32227296773822012 0 0.079241751540062577 0.3091409184095229 0 0.067542665246266162 0.32227296773822012 0 0.068148884279383815 0.34110740296781622 0 0.052098030758102709 0.32848813316288678 0 0.083894735805945045 0.32735700357097808 0 0.067542665246266162 0.32227296773822012 0 0.068148884279383815 0.34110740296781622 0 0.068148884279383815 0.34110740296781622 0 0.072981575438615956 0.35429511825148829 0 0.08625589277749264 0.346999797836966 0 0.068148884279383815 0.34110740296781622 0 0.072981575438615956 0.35429511825148829 0 0.059971533893319953 0.35265308331869138 0 0.072981575438615956 0.35429511825148829 0 0.066555082361941326 0.36578627017444021 0 0.059971533893319953 0.35265308331869138 0 0.10055213054656729 0.36013865237867942 0 0.08625589277749264 0.346999797836966 0 0.081229983254247365 0.36650003300062722 0 0.072981575438615956 0.35429511825148829 0 0.08625589277749264 0.346999797836966 0 0.081229983254247365 0.36650003300062722 0 0.087739402474845588 0.37833299208434412 0 0.1069344999541316 0.36147573913557879 0 0.081229983254247365 0.36650003300062722 0 0.069041936002645535 0.37820082441249081 0 0.087739402474845588 0.37833299208434412 0 0.081229983254247365 0.36650003300062722 0 0.069041936002645535 0.37820082441249081 0 0.081229983254247365 0.36650003300062722 0 0.066555082361941326 0.36578627017444021 0 0.072981575438615956 0.35429511825148829 0 0.081229983254247365 0.36650003300062722 0 0.066555082361941326 0.36578627017444021 0 0.069041936002645535 0.37820082441249081 0 0.066555082361941326 0.36578627017444021 0 0.059721524030669819 0.37431687333309788 0 0.055929998057201551 0.36692607577369102 0 0.050307067216076778 0.37158640017128619 0 0.041108453413194898 0.34669476624024848 0 0.066555082361941326 0.36578627017444021 0 0.059721524030669819 0.37431687333309788 0 0.055929998057201551 0.36692607577369102 0 0.059721524030669819 0.37431687333309788 0 0.055929998057201551 0.36692607577369102 0 0.050307067216076778 0.37158640017128619 0 0.066555082361941326 0.36578627017444021 0 0.055929998057201551 0.36692607577369102 0 0.059971533893319953 0.35265308331869138 0 0.055929998057201551 0.36692607577369102 0 0.050307067216076778 0.37158640017128619 0 0.055929998057201551 0.36692607577369102 0 0.059971533893319953 0.35265308331869138 0 0.041108453413194898 0.34669476624024848 0 0.059971533893319953 0.35265308331869138 0 0.041108453413194898 0.34669476624024848 0 0.053731959496234848 0.34189436452501393 0 0.068148884279383815 0.34110740296781622 0 0.059971533893319953 0.35265308331869138 0 0.053731959496234848 0.34189436452501393 0 0.050307067216076778 0.37158640017128619 0 0.041108453413194898 0.34669476624024848 0 0.036325720293778493 0.35734230210966361 0 0.050307067216076778 0.37158640017128619 0 0.041108453413194898 0.34669476624024848 0 0.041108453413194898 0.34669476624024848 0 0.036325720293778493 0.35734230210966361 0 0.028822601092593811 0.34272768621728472 0 0.034519904376963118 0.38467091111880503 0 0.036565816098641138 0.36791040757449411 0 0.02482466364838485 0.35779225034500489 0 0.034519904376963118 0.38467091111880503 0 0.050307067216076778 0.37158640017128619 0 0.036565816098641138 0.36791040757449411 0 0.050307067216076778 0.37158640017128619 0 0.036325720293778493 0.35734230210966361 0 0.036565816098641138 0.36791040757449411 0 0.036325720293778493 0.35734230210966361 0 0.036565816098641138 0.36791040757449411 0 0.02482466364838485 0.35779225034500489 0 0.034519904376963118 0.38467091111880503 0 0.02482466364838485 0.35779225034500489 0 0.0197357255374827 0.37571737083264412 0 0.034519904376963118 0.38467091111880503 0 0.02482466364838485 0.35779225034500489 0 0.0197357255374827 0.37571737083264412 0 0.015674273695437339 0.36401306951764911 0 0.02482466364838485 0.35779225034500489 0 0.015674273695437339 0.36401306951764911 0 0.02482466364838485 0.35779225034500489 0 0.015768167676543349 0.35713923686247862 0 0.02482466364838485 0.35779225034500489 0 0.01512942291980679 0.33091358957120492 0 0.02482466364838485 0.35779225034500489 0 0.01512942291980679 0.33091358957120492 0 0.028822601092593811 0.34272768621728472 0 0.036325720293778493 0.35734230210966361 0 0.02482466364838485 0.35779225034500489 0 0.028822601092593811 0.34272768621728472 0 0.02482466364838485 0.35779225034500489 0 0.012196298529549159 0.34905700984651278 0 0.01512942291980679 0.33091358957120492 0 0.02482466364838485 0.35779225034500489 0 0.015768167676543349 0.35713923686247862 0 0.012196298529549159 0.34905700984651278 0 0.01037743483280206 0.35769461774074762 0 0.012196298529549159 0.34905700984651278 0 0.0032447233134405931 0.35422125060834359 0 0.015768167676543349 0.35713923686247862 0 0.01037743483280206 0.35769461774074762 0 0.012196298529549159 0.34905700984651278 0 -0.002583240235104544 0.34489224502179239 0 0.012196298529549159 0.34905700984651278 0 0.0065182143906638264 0.33911035096943482 0 -0.002583240235104544 0.34489224502179239 0 0.012196298529549159 0.34905700984651278 0 0.0032447233134405931 0.35422125060834359 0 0.01037743483280206 0.35769461774074762 0 0.0032447233134405931 0.35422125060834359 0 0.0039428335920915006 0.36531030276633031 0 -0.0064988099748367559 0.35299106404641623 0 0.0032447233134405931 0.35422125060834359 0 0.0039428335920915006 0.36531030276633031 0 -0.001064505034491721 0.37161458349227261 0 0.015674273695437339 0.36401306951764911 0 0.0039428335920915006 0.36531030276633031 0 -0.001064505034491721 0.37161458349227261 0 0.015674273695437339 0.36401306951764911 0 0.011110712074150059 0.37343232972227269 0 -0.001064505034491721 0.37161458349227261 0 0.015674273695437339 0.36401306951764911 0 0.0197357255374827 0.37571737083264412 0 0.015674273695437339 0.36401306951764911 0 0.011110712074150059 0.37343232972227269 0 0.015674273695437339 0.36401306951764911 0 0.01037743483280206 0.35769461774074762 0 0.0039428335920915006 0.36531030276633031 0 0.015674273695437339 0.36401306951764911 0 0.015768167676543349 0.35713923686247862 0 0.01037743483280206 0.35769461774074762 0 -0.00058836015198596755 0.32088344941533808 0 0.01512942291980679 0.33091358957120492 0 0.0054341821912287152 0.30403492879740468 0 0.01512942291980679 0.33091358957120492 0 0.0054341821912287152 0.30403492879740468 0 0.01512942291980679 0.33091358957120492 0 0.018796167632194181 0.3134157872639986 0 0.0054341821912287152 0.30403492879740468 0 0.012196298529549159 0.34905700984651278 0 0.01512942291980679 0.33091358957120492 0 0.0065182143906638264 0.33911035096943482 0 -0.0025616559074486049 0.3329031852911295 0 -0.00058836015198596755 0.32088344941533808 0 0.01512942291980679 0.33091358957120492 0 -0.0025616559074486049 0.3329031852911295 0 0.01512942291980679 0.33091358957120492 0 0.0065182143906638264 0.33911035096943482 0 -0.0025616559074486049 0.3329031852911295 0 -0.002583240235104544 0.34489224502179239 0 0.0065182143906638264 0.33911035096943482 0 0.01512942291980679 0.33091358957120492 0 0.028822601092593811 0.34272768621728472 0 0.031909839610312053 0.3218031323092112 0 0.01512942291980679 0.33091358957120492 0 0.018796167632194181 0.3134157872639986 0 0.031909839610312053 0.3218031323092112 0 0.031909839610312053 0.3218031323092112 0 0.052098030758102709 0.32848813316288678 0 0.054329923847836643 0.30527138057989611 0 0.041108453413194898 0.34669476624024848 0 0.031909839610312053 0.3218031323092112 0 0.041108453413194898 0.34669476624024848 0 0.028822601092593811 0.34272768621728472 0 0.031909839610312053 0.3218031323092112 0 0.041108453413194898 0.34669476624024848 0 0.031909839610312053 0.3218031323092112 0 0.052098030758102709 0.32848813316288678 0 0.041108453413194898 0.34669476624024848 0 0.052098030758102709 0.32848813316288678 0 0.053731959496234848 0.34189436452501393 0 0.068148884279383815 0.34110740296781622 0 0.052098030758102709 0.32848813316288678 0 0.053731959496234848 0.34189436452501393 0 0.067542665246266162 0.32227296773822012 0 0.052098030758102709 0.32848813316288678 0 0.054329923847836643 0.30527138057989611 0 0.054329923847836643 0.30527138057989611 0 0.058643640903709077 0.2841886380467647 0 0.070108093408202884 0.28237758711201172 0 0.054329923847836643 0.30527138057989611 0 0.058643640903709077 0.2841886380467647 0 0.046708945964444748 0.28470371633566799 0 0.054329923847836643 0.30527138057989611 0 0.070108093408202884 0.28237758711201172 0 0.033299114928103571 0.2853556706935409 0 0.038381760441483573 0.30030485014671859 0 0.022711225807429191 0.29691149837817382 0 0.054329923847836643 0.30527138057989611 0 0.046708945964444748 0.28470371633566799 0 0.038381760441483573 0.30030485014671859 0 0.046708945964444748 0.28470371633566799 0 0.033299114928103571 0.2853556706935409 0 0.038381760441483573 0.30030485014671859 0 0.031909839610312053 0.3218031323092112 0 0.054329923847836643 0.30527138057989611 0 0.038381760441483573 0.30030485014671859 0 0.031909839610312053 0.3218031323092112 0 0.022711225807429191 0.29691149837817382 0 0.018796167632194181 0.3134157872639986 0 0.031909839610312053 0.3218031323092112 0 0.022711225807429191 0.29691149837817382 0 0.018796167632194181 0.3134157872639986 0 0.022711225807429191 0.29691149837817382 0 0.0054341821912287152 0.30403492879740468 0 0.031909839610312053 0.3218031323092112 0 0.038381760441483573 0.30030485014671859 0 0.022711225807429191 0.29691149837817382 0 0.022711225807429191 0.29691149837817382 0 0.0097135815956244098 0.28932323485025419 0 0.01496997692118909 0.27919024420183391 0 0.033299114928103571 0.2853556706935409 0 0.022711225807429191 0.29691149837817382 0 0.01496997692118909 0.27919024420183391 0 -0.0042610585373493576 0.2771562680236046 0 0.0097135815956244098 0.28932323485025419 0 0.01496997692118909 0.27919024420183391 0 -0.0042610585373493576 0.2771562680236046 0 0.0097135815956244098 0.28932323485025419 0 0.0054341821912287152 0.30403492879740468 0 0.022711225807429191 0.29691149837817382 0 0.0097135815956244098 0.28932323485025419 0 0.0054341821912287152 0.30403492879740468 0 -0.0042610585373493576 0.2771562680236046 0 0.0054341821912287152 0.30403492879740468 0 0.012156823249103331 0.25259817100369902 0 0.0071094060709509964 0.26564087220093879 0 0.023079021189564172 0.26593697868694532 0 -0.0082457657602449386 0.25246627485226031 0 0.012156823249103331 0.25259817100369902 0 0.0071094060709509964 0.26564087220093879 0 0.0071094060709509964 0.26564087220093879 0 0.01496997692118909 0.27919024420183391 0 0.023079021189564172 0.26593697868694532 0 -0.0042610585373493576 0.2771562680236046 0 0.0071094060709509964 0.26564087220093879 0 0.01496997692118909 0.27919024420183391 0 0.033299114928103571 0.2853556706935409 0 0.01496997692118909 0.27919024420183391 0 0.023079021189564172 0.26593697868694532 0 0.012156823249103331 0.25259817100369902 0 0.023079021189564172 0.26593697868694532 0 0.030652172791378579 0.25229956247347313 0 0.023079021189564172 0.26593697868694532 0 0.030652172791378579 0.25229956247347313 0 0.04073495957405681 0.26035892983227987 0 0.044937254539659167 0.2379713478153713 0 0.030652172791378579 0.25229956247347313 0 0.04073495957405681 0.26035892983227987 0 0.033299114928103571 0.2853556706935409 0 0.023079021189564172 0.26593697868694532 0 0.04073495957405681 0.26035892983227987 0 0.033299114928103571 0.2853556706935409 0 0.04073495957405681 0.26035892983227987 0 0.046708945964444748 0.28470371633566799 0 0.033299114928103571 0.2853556706935409 0 0.04073495957405681 0.26035892983227987 0 0.046708945964444748 0.28470371633566799 0 0.04073495957405681 0.26035892983227987 0 0.054656664038459993 0.27221644551962948 0 0.058643640903709077 0.2841886380467647 0 0.046708945964444748 0.28470371633566799 0 0.054656664038459993 0.27221644551962948 0 0.054656664038459993 0.27221644551962948 0 0.05595459183600883 0.25980758553240452 0 0.063151913248908592 0.26702092668087168 0 0.054656664038459993 0.27221644551962948 0 0.063151913248908592 0.26702092668087168 0 0.062868354845155253 0.27542318723842002 0 0.058643640903709077 0.2841886380467647 0 0.054656664038459993 0.27221644551962948 0 0.062868354845155253 0.27542318723842002 0 0.058643640903709077 0.2841886380467647 0 0.062868354845155253 0.27542318723842002 0 0.06481936793225318 0.27971168374165578 0 0.052294646587479003 0.2493466198794505 0 0.04073495957405681 0.26035892983227987 0 0.05595459183600883 0.25980758553240452 0 0.04073495957405681 0.26035892983227987 0 0.054656664038459993 0.27221644551962948 0 0.05595459183600883 0.25980758553240452 0 0.05595459183600883 0.25980758553240452 0 0.066495423171073403 0.25816184380531082 0 0.063151913248908592 0.26702092668087168 0 0.052294646587479003 0.2493466198794505 0 0.05595459183600883 0.25980758553240452 0 0.06034442261467237 0.25120339486286308 0 0.05595459183600883 0.25980758553240452 0 0.06034442261467237 0.25120339486286308 0 0.066495423171073403 0.25816184380531082 0 0.067445722382230539 0.24771064348785149 0 0.066495423171073403 0.25816184380531082 0 0.074707437689247702 0.25389633834412328 0 0.067445722382230539 0.24771064348785149 0 0.06034442261467237 0.25120339486286308 0 0.066495423171073403 0.25816184380531082 0 0.066495423171073403 0.25816184380531082 0 0.070468357435777063 0.2657419037057816 0 0.063151913248908592 0.26702092668087168 0 0.066495423171073403 0.25816184380531082 0 0.074357597956477339 0.26064435546358339 0 0.070468357435777063 0.2657419037057816 0 0.074357597956477339 0.26064435546358339 0 0.075194191089397802 0.26640127341757941 0 0.070468357435777063 0.2657419037057816 0 0.074357597956477339 0.26064435546358339 0 0.080427883817154544 0.25791465254204288 0 0.078852294536213494 0.26175012096666261 0 0.074357597956477339 0.26064435546358339 0 0.078852294536213494 0.26175012096666261 0 0.075194191089397802 0.26640127341757941 0 0.066495423171073403 0.25816184380531082 0 0.074357597956477339 0.26064435546358339 0 0.074707437689247702 0.25389633834412328 0 0.074357597956477339 0.26064435546358339 0 0.074707437689247702 0.25389633834412328 0 0.080427883817154544 0.25791465254204288 0 0.085975255819246227 0.24304742420893821 0 0.080478695998155714 0.25165019938018113 0 0.085886262968569133 0.25948379364412733 0 0.080478695998155714 0.25165019938018113 0 0.080427883817154544 0.25791465254204288 0 0.085886262968569133 0.25948379364412733 0 0.10166443252893551 0.23659000017624271 0 0.085886262968569133 0.25948379364412733 0 0.093061372415253377 0.25945310375487363 0 0.074707437689247702 0.25389633834412328 0 0.080478695998155714 0.25165019938018113 0 0.080427883817154544 0.25791465254204288 0 0.078852294536213494 0.26175012096666261 0 0.085886262968569133 0.25948379364412733 0 0.075194191089397802 0.26640127341757941 0 0.080427883817154544 0.25791465254204288 0 0.078852294536213494 0.26175012096666261 0 0.085886262968569133 0.25948379364412733 0 0.093061372415253377 0.25945310375487363 0 0.088669334409182038 0.27365465257629329 0 0.074192652952093263 0.28111713417870732 0 0.093061372415253377 0.25945310375487363 0 0.074192652952093263 0.28111713417870732 0 0.085886262968569133 0.25948379364412733 0 0.093061372415253377 0.25945310375487363 0 0.074192652952093263 0.28111713417870732 0 0.088669334409182038 0.27365465257629329 0 0.090629520296699906 0.27989165378522829 0 0.096617072050330918 0.27420358010706619 0 0.088669334409182038 0.27365465257629329 0 0.090629520296699906 0.27989165378522829 0 0.083300485689734874 0.28178689503457671 0 0.093061372415253377 0.25945310375487363 0 0.088669334409182038 0.27365465257629329 0 0.097208854645582696 0.26674380090640232 0 0.088669334409182038 0.27365465257629329 0 0.074192652952093263 0.28111713417870732 0 0.083300485689734874 0.28178689503457671 0 0.085886262968569133 0.25948379364412733 0 0.072732619288592745 0.27411268144752271 0 0.070108093408202884 0.28237758711201172 0 0.085886262968569133 0.25948379364412733 0 0.074192652952093263 0.28111713417870732 0 0.070108093408202884 0.28237758711201172 0 0.085886262968569133 0.25948379364412733 0 0.070108093408202884 0.28237758711201172 0 0.085886262968569133 0.25948379364412733 0 0.072732619288592745 0.27411268144752271 0 0.075194191089397802 0.26640127341757941 0 0.072732619288592745 0.27411268144752271 0 0.075194191089397802 0.26640127341757941 0 0.068678803079962825 0.27092621584326698 0 0.075194191089397802 0.26640127341757941 0 0.070468357435777063 0.2657419037057816 0 0.068678803079962825 0.27092621584326698 0 0.068678803079962825 0.27092621584326698 0 0.063151913248908592 0.26702092668087168 0 0.062868354845155253 0.27542318723842002 0 0.070468357435777063 0.2657419037057816 0 0.068678803079962825 0.27092621584326698 0 0.063151913248908592 0.26702092668087168 0 0.072732619288592745 0.27411268144752271 0 0.067657382571945521 0.27685732256942691 0 0.070108093408202884 0.28237758711201172 0 0.067657382571945521 0.27685732256942691 0 0.06481936793225318 0.27971168374165578 0 0.070108093408202884 0.28237758711201172 0 0.072732619288592745 0.27411268144752271 0 0.068678803079962825 0.27092621584326698 0 0.067657382571945521 0.27685732256942691 0 0.067657382571945521 0.27685732256942691 0 0.062868354845155253 0.27542318723842002 0 0.06481936793225318 0.27971168374165578 0 0.068678803079962825 0.27092621584326698 0 0.067657382571945521 0.27685732256942691 0 0.062868354845155253 0.27542318723842002 0 0.058643640903709077 0.2841886380467647 0 0.06481936793225318 0.27971168374165578 0 0.070108093408202884 0.28237758711201172 0 0.054329923847836643 0.30527138057989611 0 0.070108093408202884 0.28237758711201172 0 0.07616196246918229 0.29401120062856562 0 0.070108093408202884 0.28237758711201172 0 0.07616196246918229 0.29401120062856562 0 0.077305327314718786 0.28670206069564769 0 0.074192652952093263 0.28111713417870732 0 0.070108093408202884 0.28237758711201172 0 0.077305327314718786 0.28670206069564769 0 0.054329923847836643 0.30527138057989611 0 0.07616196246918229 0.29401120062856562 0 0.079241751540062577 0.3091409184095229 0 0.067542665246266162 0.32227296773822012 0 0.054329923847836643 0.30527138057989611 0 0.079241751540062577 0.3091409184095229 0 0.07616196246918229 0.29401120062856562 0 0.079241751540062577 0.3091409184095229 0 0.093760017070794913 0.30048783451418309 0 0.099713977183769634 0.31807175575135088 0 0.079241751540062577 0.3091409184095229 0 0.093760017070794913 0.30048783451418309 0 0.07616196246918229 0.29401120062856562 0 0.086675975183887061 0.28808357667035972 0 0.093760017070794913 0.30048783451418309 0 0.074192652952093263 0.28111713417870732 0 0.077305327314718786 0.28670206069564769 0 0.083300485689734874 0.28178689503457671 0 0.077305327314718786 0.28670206069564769 0 0.083300485689734874 0.28178689503457671 0 0.086675975183887061 0.28808357667035972 0 0.07616196246918229 0.29401120062856562 0 0.077305327314718786 0.28670206069564769 0 0.086675975183887061 0.28808357667035972 0 0.090629520296699906 0.27989165378522829 0 0.083300485689734874 0.28178689503457671 0 0.086675975183887061 0.28808357667035972 0 0.090629520296699906 0.27989165378522829 0 0.086675975183887061 0.28808357667035972 0 0.1012207646153751 0.28627192450051492 0 0.086675975183887061 0.28808357667035972 0 0.1012207646153751 0.28627192450051492 0 0.093760017070794913 0.30048783451418309 0 0.099713977183769634 0.31807175575135088 0 0.093760017070794913 0.30048783451418309 0 0.11954567143249289 0.30734763112478491 0 0.1012207646153751 0.28627192450051492 0 0.093760017070794913 0.30048783451418309 0 0.11954567143249289 0.30734763112478491 0 0.11954567143249289 0.30734763112478491 0 0.1141818460752707 0.27714397317686529 0 0.12904244187545569 0.2809521204978378 0 0.1012207646153751 0.28627192450051492 0 0.11954567143249289 0.30734763112478491 0 0.1141818460752707 0.27714397317686529 0 0.11954567143249289 0.30734763112478491 0 0.12904244187545569 0.2809521204978378 0 0.1141818460752707 0.27714397317686529 0 0.11615378911320511 0.26032519799560372 0 0.1048644735931679 0.26655228778042589 0 0.1141818460752707 0.27714397317686529 0 0.11615378911320511 0.26032519799560372 0 0.12904244187545569 0.2809521204978378 0 0.1152979079485152 0.2467056018988516 0 0.1250676346401875 0.24796443701554319 0 0.11615378911320511 0.26032519799560372 0 0.1152979079485152 0.2467056018988516 0 0.11615378911320511 0.26032519799560372 0 0.10650461767427161 0.25132517155921902 0 0.11615378911320511 0.26032519799560372 0 0.1028320207599793 0.25985538031335248 0 0.1048644735931679 0.26655228778042589 0 0.1028320207599793 0.25985538031335248 0 0.097208854645582696 0.26674380090640232 0 0.1048644735931679 0.26655228778042589 0 0.11615378911320511 0.26032519799560372 0 0.1028320207599793 0.25985538031335248 0 0.10650461767427161 0.25132517155921902 0 0.093061372415253377 0.25945310375487363 0 0.1028320207599793 0.25985538031335248 0 0.10650461767427161 0.25132517155921902 0 0.093061372415253377 0.25945310375487363 0 0.1028320207599793 0.25985538031335248 0 0.097208854645582696 0.26674380090640232 0 0.088669334409182038 0.27365465257629329 0 0.097208854645582696 0.26674380090640232 0 0.096617072050330918 0.27420358010706619 0 0.097208854645582696 0.26674380090640232 0 0.096617072050330918 0.27420358010706619 0 0.1048644735931679 0.26655228778042589 0 0.1141818460752707 0.27714397317686529 0 0.096617072050330918 0.27420358010706619 0 0.1048644735931679 0.26655228778042589 0 0.1012207646153751 0.28627192450051492 0 0.1141818460752707 0.27714397317686529 0 0.096617072050330918 0.27420358010706619 0 0.090629520296699906 0.27989165378522829 0 0.1012207646153751 0.28627192450051492 0 0.096617072050330918 0.27420358010706619 0 0.1384713120865835 0.25773302092121009 0 0.12904244187545569 0.2809521204978378 0 0.15915390062653459 0.27760612704708998 0 0.1514273965657848 0.24085309905483679 0 0.1384713120865835 0.25773302092121009 0 0.156278998070083 0.25778272565978 0 0.1384713120865835 0.25773302092121009 0 0.15915390062653459 0.27760612704708998 0 0.156278998070083 0.25778272565978 0 0.1250676346401875 0.24796443701554319 0 0.11615378911320511 0.26032519799560372 0 0.1384713120865835 0.25773302092121009 0 0.11615378911320511 0.26032519799560372 0 0.1384713120865835 0.25773302092121009 0 0.12904244187545569 0.2809521204978378 0 0.11954567143249289 0.30734763112478491 0 0.12904244187545569 0.2809521204978378 0 0.14488164426314301 0.29594920495010729 0 0.11954567143249289 0.30734763112478491 0 0.14488164426314301 0.29594920495010729 0 0.15139514334923471 0.31791608062108467 0 0.14488164426314301 0.29594920495010729 0 0.16637322996135739 0.30016678813796199 0 0.15139514334923471 0.31791608062108467 0 0.12904244187545569 0.2809521204978378 0 0.14488164426314301 0.29594920495010729 0 0.15915390062653459 0.27760612704708998 0 0.14488164426314301 0.29594920495010729 0 0.16637322996135739 0.30016678813796199 0 0.15915390062653459 0.27760612704708998 0 0.16637322996135739 0.30016678813796199 0 0.18265278236186541 0.28020603593405619 0 0.15915390062653459 0.27760612704708998 0 0.16637322996135739 0.30016678813796199 0 0.18588027836364171 0.30417070427619303 0 0.17427563080372541 0.32515257599924119 0 0.16637322996135739 0.30016678813796199 0 0.18588027836364171 0.30417070427619303 0 0.18265278236186541 0.28020603593405619 0 0.18265278236186541 0.28020603593405619 0 0.15915390062653459 0.27760612704708998 0 0.17660728565697029 0.25284173787090108 0 0.18265278236186541 0.28020603593405619 0 0.17660728565697029 0.25284173787090108 0 0.20178717474815569 0.26483037668696541 0 0.1514273965657848 0.24085309905483679 0 0.156278998070083 0.25778272565978 0 0.17660728565697029 0.25284173787090108 0 0.15915390062653459 0.27760612704708998 0 0.156278998070083 0.25778272565978 0 0.17660728565697029 0.25284173787090108 0 0.1971008006350988 0.24422433182354611 0 0.17660728565697029 0.25284173787090108 0 0.20178717474815569 0.26483037668696541 0 0.17660728565697029 0.25284173787090108 0 0.20178717474815569 0.26483037668696541 0 0.18265278236186541 0.28020603593405619 0 0.20178717474815569 0.26483037668696541 0 0.20721699074389299 0.28586320426344869 0 0.20178717474815569 0.26483037668696541 0 0.22696706383934109 0.27681901550302962 0 0.20721699074389299 0.28586320426344869 0 0.20178717474815569 0.26483037668696541 0 0.22696706383934109 0.27681901550302962 0 0.1971008006350988 0.24422433182354611 0 0.20178717474815569 0.26483037668696541 0 0.2257125065402284 0.25431107802280528 0 0.20178717474815569 0.26483037668696541 0 0.2257125065402284 0.25431107802280528 0 0.22696706383934109 0.27681901550302962 0 0.2257125065402284 0.25431107802280528 0 0.23435940432808119 0.2558835225658645 0 0.2376751292839718 0.27741240132337408 0 0.2257125065402284 0.25431107802280528 0 0.22696706383934109 0.27681901550302962 0 0.2376751292839718 0.27741240132337408 0 0.2257125065402284 0.25431107802280528 0 0.2376751292839718 0.27741240132337408 0 0.22696706383934109 0.27681901550302962 0 0.2376751292839718 0.27741240132337408 0 0.2318681827461313 0.28775992326468519 0 0.23435940432808119 0.2558835225658645 0 0.2434397278092077 0.27846069768541332 0 0.2376751292839718 0.27741240132337408 0 0.23435940432808119 0.2558835225658645 0 0.2434397278092077 0.27846069768541332 0 0.23435940432808119 0.2558835225658645 0 0.2434397278092077 0.27846069768541332 0 0.24763005152173001 0.25910176257370959 0 0.2459873280094696 0.23707215699401071 0 0.23435940432808119 0.2558835225658645 0 0.24763005152173001 0.25910176257370959 0 0.24963775202771521 0.30051372462394288 0 0.22557231514573739 0.29747977878921561 0 0.2305146992996441 0.31691702429977642 0 0.2376751292839718 0.27741240132337408 0 0.24963775202771521 0.30051372462394288 0 0.2318681827461313 0.28775992326468519 0 0.2434397278092077 0.27846069768541332 0 0.25252005129033422 0.30103787280496203 0 0.2434397278092077 0.27846069768541332 0 0.2376751292839718 0.27741240132337408 0 0.24963775202771521 0.30051372462394288 0 0.2434397278092077 0.27846069768541332 0 0.24963775202771521 0.30051372462394288 0 0.25252005129033422 0.30103787280496203 0 0.24963775202771521 0.30051372462394288 0 0.2318681827461313 0.28775992326468519 0 0.22557231514573739 0.29747977878921561 0 0.2376751292839718 0.27741240132337408 0 0.24963775202771521 0.30051372462394288 0 0.22696706383934109 0.27681901550302962 0 0.2318681827461313 0.28775992326468519 0 0.22192971392309441 0.28686454206331458 0 0.2318681827461313 0.28775992326468519 0 0.22192971392309441 0.28686454206331458 0 0.22557231514573739 0.29747977878921561 0 0.22557231514573739 0.29747977878921561 0 0.21067009246602381 0.31050760251916348 0 0.2305146992996441 0.31691702429977642 0 0.22557231514573739 0.29747977878921561 0 0.2305146992996441 0.31691702429977642 0 0.22557231514573739 0.29747977878921561 0 0.21067009246602381 0.31050760251916348 0 0.20721699074389299 0.28586320426344869 0 0.22192971392309441 0.28686454206331458 0 0.22557231514573739 0.29747977878921561 0 0.20721699074389299 0.28586320426344869 0 0.22696706383934109 0.27681901550302962 0 0.22192971392309441 0.28686454206331458 0 0.20721699074389299 0.28586320426344869 0 0.18588027836364171 0.30417070427619303 0 0.18265278236186541 0.28020603593405619 0 0.20721699074389299 0.28586320426344869 0 0.18588027836364171 0.30417070427619303 0 0.21067009246602381 0.31050760251916348 0 0.20721699074389299 0.28586320426344869 0 0.18588027836364171 0.30417070427619303 0 0.21067009246602381 0.31050760251916348 0 0.1975742485098208 0.32622361772240582 0 0.1975742485098208 0.32622361772240582 0 0.2097525667536678 0.34137856367538538 0 0.18404805005378369 0.34640285754043382 0 0.1975742485098208 0.32622361772240582 0 0.2097525667536678 0.34137856367538538 0 0.2167937380965417 0.3262762156054137 0 0.21067009246602381 0.31050760251916348 0 0.1975742485098208 0.32622361772240582 0 0.2167937380965417 0.3262762156054137 0 0.21067009246602381 0.31050760251916348 0 0.2167937380965417 0.3262762156054137 0 0.2305146992996441 0.31691702429977642 0 0.2305146992996441 0.31691702429977642 0 0.2354570834535519 0.33635426981033711 0 0.2167937380965417 0.3262762156054137 0 0.2305146992996441 0.31691702429977642 0 0.2354570834535519 0.33635426981033711 0 0.2097525667536678 0.34137856367538538 0 0.2167937380965417 0.3262762156054137 0 0.2354570834535519 0.33635426981033711 0 0.2097525667536678 0.34137856367538538 0 0.2354570834535519 0.33635426981033711 0 0.2097525667536678 0.34137856367538538 0 0.2354570834535519 0.33635426981033711 0 0.22572342153310379 0.35183723080414581 0 0.2354570834535519 0.33635426981033711 0 0.24833100513142109 0.32161764704062729 0 0.26518788721623437 0.33054298393043219 0 0.24963775202771521 0.30051372462394288 0 0.2305146992996441 0.31691702429977642 0 0.24833100513142109 0.32161764704062729 0 0.2305146992996441 0.31691702429977642 0 0.2354570834535519 0.33635426981033711 0 0.24833100513142109 0.32161764704062729 0 0.2354570834535519 0.33635426981033711 0 0.24217950803475169 0.36279199964721098 0 0.25397109136889212 0.34953950795812871 0 0.2354570834535519 0.33635426981033711 0 0.24217950803475169 0.36279199964721098 0 0.22572342153310379 0.35183723080414581 0 0.2354570834535519 0.33635426981033711 0 0.24217950803475169 0.36279199964721098 0 0.24217950803475169 0.36279199964721098 0 0.22572342153310379 0.35183723080414581 0 0.21637712922286109 0.36651385017664678 0 0.24217950803475169 0.36279199964721098 0 0.21637712922286109 0.36651385017664678 0 0.22693728272114971 0.38251641872149622 0 0.2097525667536678 0.34137856367538538 0 0.22572342153310379 0.35183723080414581 0 0.21637712922286109 0.36651385017664678 0 0.2097525667536678 0.34137856367538538 0 0.21637712922286109 0.36651385017664678 0 0.19198276408895759 0.36846918068195189 0 0.2097525667536678 0.34137856367538538 0 0.19198276408895759 0.36846918068195189 0 0.18404805005378369 0.34640285754043382 0 0.2097525667536678 0.34137856367538538 0 0.18404805005378369 0.34640285754043382 0 0.21637712922286109 0.36651385017664678 0 0.19198276408895759 0.36846918068195189 0 0.2008438189570996 0.38963870543367402 0 0.1583435333538997 0.35142715140548209 0 0.18404805005378369 0.34640285754043382 0 0.17157629822801171 0.38002160271682978 0 0.19198276408895759 0.36846918068195189 0 0.18404805005378369 0.34640285754043382 0 0.17157629822801171 0.38002160271682978 0 0.1583435333538997 0.35142715140548209 0 0.14756927440754089 0.37573381366887992 0 0.17157629822801171 0.38002160271682978 0 0.1583435333538997 0.35142715140548209 0 0.18404805005378369 0.34640285754043382 0 0.1583435333538997 0.35142715140548209 0 0.17427563080372541 0.32515257599924119 0 0.15139514334923471 0.31791608062108467 0 0.1975742485098208 0.32622361772240582 0 0.18404805005378369 0.34640285754043382 0 0.17427563080372541 0.32515257599924119 0 0.1583435333538997 0.35142715140548209 0 0.18404805005378369 0.34640285754043382 0 0.17427563080372541 0.32515257599924119 0 0.18588027836364171 0.30417070427619303 0 0.1975742485098208 0.32622361772240582 0 0.17427563080372541 0.32515257599924119 0 0.16637322996135739 0.30016678813796199 0 0.17427563080372541 0.32515257599924119 0 0.15139514334923471 0.31791608062108467 0 0.1583435333538997 0.35142715140548209 0 0.15139514334923471 0.31791608062108467 0 0.13264273129131951 0.33439404788472138 0 0.11954567143249289 0.30734763112478491 0 0.15139514334923471 0.31791608062108467 0 0.13264273129131951 0.33439404788472138 0 0.1165634558871128 0.3492406052842485 0 0.13264273129131951 0.33439404788472138 0 0.1326390166540157 0.35645144527053041 0 0.1326390166540157 0.35645144527053041 0 0.14756927440754089 0.37573381366887992 0 0.12550685613774351 0.37951055496914998 0 0.1583435333538997 0.35142715140548209 0 0.1326390166540157 0.35645144527053041 0 0.14756927440754089 0.37573381366887992 0 0.1583435333538997 0.35142715140548209 0 0.1326390166540157 0.35645144527053041 0 0.1583435333538997 0.35142715140548209 0 0.13264273129131951 0.33439404788472138 0 0.1326390166540157 0.35645144527053041 0 0.1528019220027558 0.40532518960412911 0 0.14756927440754089 0.37573381366887992 0 0.13567422075440499 0.38715007620423969 0 0.14756927440754089 0.37573381366887992 0 0.12550685613774351 0.37951055496914998 0 0.13567422075440499 0.38715007620423969 0 0.1236499924648251 0.3984302041169589 0 0.12550685613774351 0.37951055496914998 0 0.13567422075440499 0.38715007620423969 0 0.1236499924648251 0.3984302041169589 0 0.1528019220027558 0.40532518960412911 0 0.13567422075440499 0.38715007620423969 0 0.1528019220027558 0.40532518960412911 0 0.13502200614688589 0.42010390008240672 0 0.17098438647877001 0.42850314348833868 0 0.13502200614688589 0.42010390008240672 0 0.17098438647877001 0.42850314348833868 0 0.1532788809183856 0.44756588495706878 0 0.1236499924648251 0.3984302041169589 0 0.1528019220027558 0.40532518960412911 0 0.13502200614688589 0.42010390008240672 0 0.1237280261196836 0.44463014715047522 0 0.13502200614688589 0.42010390008240672 0 0.1532788809183856 0.44756588495706878 0 0.1528019220027558 0.40532518960412911 0 0.17098438647877001 0.42850314348833868 0 0.1528019220027558 0.40532518960412911 0 0.17098438647877001 0.42850314348833868 0 0.17902253221663289 0.40492788695933207 0 0.17098438647877001 0.42850314348833868 0 0.19890623541652749 0.42115079355368912 0 0.18916685095478419 0.4516810973725483 0 0.17098438647877001 0.42850314348833868 0 0.17902253221663289 0.40492788695933207 0 0.19890623541652749 0.42115079355368912 0 0.17902253221663289 0.40492788695933207 0 0.17157629822801171 0.38002160271682978 0 0.2008438189570996 0.38963870543367402 0 0.1528019220027558 0.40532518960412911 0 0.17902253221663289 0.40492788695933207 0 0.17157629822801171 0.38002160271682978 0 0.1528019220027558 0.40532518960412911 0 0.14756927440754089 0.37573381366887992 0 0.17157629822801171 0.38002160271682978 0 0.17902253221663289 0.40492788695933207 0 0.2008438189570996 0.38963870543367402 0 0.19890623541652749 0.42115079355368912 0 0.19198276408895759 0.36846918068195189 0 0.17157629822801171 0.38002160271682978 0 0.2008438189570996 0.38963870543367402 0 0.2008438189570996 0.38963870543367402 0 0.22638402477508329 0.40440780886586492 0 0.19890623541652749 0.42115079355368912 0 0.2008438189570996 0.38963870543367402 0 0.22693728272114971 0.38251641872149622 0 0.22638402477508329 0.40440780886586492 0 0.21637712922286109 0.36651385017664678 0 0.2008438189570996 0.38963870543367402 0 0.22693728272114971 0.38251641872149622 0 0.22693728272114971 0.38251641872149622 0 0.22638402477508329 0.40440780886586492 0 0.24890193261595259 0.38922972948408457 0 0.22638402477508329 0.40440780886586492 0 0.24890193261595259 0.38922972948408457 0 0.25562435719715348 0.41566745932095828 0 0.24217950803475169 0.36279199964721098 0 0.24890193261595259 0.38922972948408457 0 0.24217950803475169 0.36279199964721098 0 0.22693728272114971 0.38251641872149622 0 0.24890193261595259 0.38922972948408457 0 0.22638402477508329 0.40440780886586492 0 0.23929670148200641 0.42651558303428039 0 0.25562435719715348 0.41566745932095828 0 0.22638402477508329 0.40440780886586492 0 0.23929670148200641 0.42651558303428039 0 0.21947817947708001 0.42577831055793047 0 0.23929670148200641 0.42651558303428039 0 0.21947817947708001 0.42577831055793047 0 0.23265016418236131 0.44461914726881641 0 0.21947817947708001 0.42577831055793047 0 0.19890623541652749 0.42115079355368912 0 0.21144352365240529 0.44700262568134053 0 0.22638402477508329 0.40440780886586492 0 0.21947817947708001 0.42577831055793047 0 0.19890623541652749 0.42115079355368912 0 0.19890623541652749 0.42115079355368912 0 0.18916685095478419 0.4516810973725483 0 0.21144352365240529 0.44700262568134053 0 0.18916685095478419 0.4516810973725483 0 0.20734931543079829 0.47485905125675792 0 0.18916685095478419 0.4516810973725483 0 0.21144352365240529 0.44700262568134053 0 0.20734931543079829 0.47485905125675792 0 0.21144352365240529 0.44700262568134053 0 0.22111039645288069 0.46392735407830132 0 0.20734931543079829 0.47485905125675792 0 0.21144352365240529 0.44700262568134053 0 0.23265016418236131 0.44461914726881641 0 0.22111039645288069 0.46392735407830132 0 0.21947817947708001 0.42577831055793047 0 0.21144352365240529 0.44700262568134053 0 0.23265016418236131 0.44461914726881641 0 0.23265016418236131 0.44461914726881641 0 0.22111039645288069 0.46392735407830132 0 0.24508980140621781 0.46623513653650361 0 0.22111039645288069 0.46392735407830132 0 0.24508980140621781 0.46623513653650361 0 0.23265016418236131 0.44461914726881641 0 0.24508980140621781 0.46623513653650361 0 0.26234678177835441 0.44210518915783192 0 0.23929670148200641 0.42651558303428039 0 0.23265016418236131 0.44461914726881641 0 0.26234678177835441 0.44210518915783192 0 0.2479606543192433 0.5 0 0.23772208332050199 0.48786840683281429 0 0.2255317799068125 0.49803700514096738 0 0.2479606543192433 0.5 0 0.23772208332050199 0.48786840683281429 0 0.25513941322049821 0.48355515434954122 0 0.24508980140621781 0.46623513653650361 0 0.23688712964706901 0.4763018139788181 0 0.25513941322049821 0.48355515434954122 0 0.23772208332050199 0.48786840683281429 0 0.23688712964706901 0.4763018139788181 0 0.25513941322049821 0.48355515434954122 0 0.22111039645288069 0.46392735407830132 0 0.23688712964706901 0.4763018139788181 0 0.22537395383524639 0.47992301809693011 0 0.22537395383524639 0.47992301809693011 0 0.2255317799068125 0.49803700514096738 0 0.20734931543079829 0.47485905125675792 0 0.23772208332050199 0.48786840683281429 0 0.23688712964706901 0.4763018139788181 0 0.22537395383524639 0.47992301809693011 0 0.22111039645288069 0.46392735407830132 0 0.24508980140621781 0.46623513653650361 0 0.23688712964706901 0.4763018139788181 0 0.23772208332050199 0.48786840683281429 0 0.22537395383524639 0.47992301809693011 0 0.2255317799068125 0.49803700514096738 0 0.2479606543192433 0.5 0 0.21885338771805021 0.5 0 0.2255317799068125 0.49803700514096738 0 0.21885338771805021 0.5 0 0.2255317799068125 0.49803700514096738 0 0.20734931543079829 0.47485905125675792 0 0.21885338771805021 0.5 0 0.20734931543079829 0.47485905125675792 0 0.1897461211168571 0.5 0 0.2255317799068125 0.49803700514096738 0 0.20734931543079829 0.47485905125675792 0 0.22111039645288069 0.46392735407830132 0 0.22537395383524639 0.47992301809693011 0 0.20734931543079829 0.47485905125675792 0 0.18916685095478419 0.4516810973725483 0 0.20734931543079829 0.47485905125675792 0 0.18375498264642379 0.4799820804674747 0 0.20734931543079829 0.47485905125675792 0 0.1897461211168571 0.5 0 0.18375498264642379 0.4799820804674747 0 0.1897461211168571 0.5 0 0.1606388545156639 0.5 0 0.18375498264642379 0.4799820804674747 0 0.1606388545156639 0.5 0 0.16284299929429041 0.47286735670979418 0 0.18375498264642379 0.4799820804674747 0 0.17098438647877001 0.42850314348833868 0 0.18916685095478419 0.4516810973725483 0 0.1532788809183856 0.44756588495706878 0 0.18916685095478419 0.4516810973725483 0 0.16284299929429041 0.47286735670979418 0 0.18375498264642379 0.4799820804674747 0 0.18916685095478419 0.4516810973725483 0 0.16284299929429041 0.47286735670979418 0 0.1532788809183856 0.44756588495706878 0 0.17098438647877001 0.42850314348833868 0 0.18916685095478419 0.4516810973725483 0 0.16284299929429041 0.47286735670979418 0 0.1532788809183856 0.44756588495706878 0 0.13792901651589951 0.46760966493884959 0 0.1160915578241386 0.4641835533930308 0 0.1237280261196836 0.44463014715047522 0 0.13792901651589951 0.46760966493884959 0 0.1237280261196836 0.44463014715047522 0 0.1532788809183856 0.44756588495706878 0 0.13792901651589951 0.46760966493884959 0 0.1146358595090817 0.48605788153156299 0 0.13792901651589951 0.46760966493884959 0 0.14375381424303349 0.48699105670781317 0 0.1146358595090817 0.48605788153156299 0 0.13153158791447089 0.50000000000000033 0 0.14375381424303349 0.48699105670781317 0 0.1606388545156639 0.5 0 0.13153158791447089 0.50000000000000033 0 0.14375381424303349 0.48699105670781317 0 0.1606388545156639 0.5 0 0.16284299929429041 0.47286735670979418 0 0.14375381424303349 0.48699105670781317 0 0.16284299929429041 0.47286735670979418 0 0.13792901651589951 0.46760966493884959 0 0.14375381424303349 0.48699105670781317 0 0.35818797179075601 0.47458138126870081 0 0.34642182508771258 0.48585203466637861 0 0.33573625410597768 0.47071191077640329 0 0.35818797179075601 0.47458138126870081 0 0.34642182508771258 0.48585203466637861 0 0.35839011049240282 0.5 0 0.34642182508771258 0.48585203466637861 0 0.35839011049240282 0.5 0 0.33128271396841408 0.5 0 0.35818797179075601 0.47458138126870081 0 0.35839011049240282 0.5 0 0.37951078222479251 0.47868038482078018 0 0.35839011049240282 0.5 0 0.37951078222479251 0.47868038482078018 0 0.38549750701639152 0.5 0 0.35818797179075601 0.47458138126870081 0 0.37565915938479377 0.45849116020829678 0 0.37951078222479251 0.47868038482078018 0 0.35818797179075601 0.47458138126870081 0 0.35384759317055892 0.4558722467826386 0 0.37565915938479377 0.45849116020829678 0 0.3672128213662551 0.44140310366938379 0 0.35384759317055892 0.4558722467826386 0 0.37565915938479377 0.45849116020829678 0 0.35041805056504127 0.44039830756831011 0 0.35384759317055892 0.4558722467826386 0 0.33587130181052999 0.44964761720473639 0 0.3672128213662551 0.44140310366938379 0 0.35041805056504127 0.44039830756831011 0 0.35384759317055892 0.4558722467826386 0 0.35818797179075601 0.47458138126870081 0 0.35384759317055892 0.4558722467826386 0 0.33573625410597768 0.47071191077640329 0 0.33587130181052999 0.44964761720473639 0 0.32245641590876828 0.45710047073305682 0 0.33573625410597768 0.47071191077640329 0 0.35384759317055892 0.4558722467826386 0 0.33587130181052999 0.44964761720473639 0 0.33573625410597768 0.47071191077640329 0 0.35041805056504127 0.44039830756831011 0 0.33587130181052999 0.44964761720473639 0 0.34011375395909899 0.42827966665244982 0 0.33587130181052999 0.44964761720473639 0 0.32313042491148092 0.43915640659962429 0 0.34011375395909899 0.42827966665244982 0 0.33587130181052999 0.44964761720473639 0 0.32313042491148092 0.43915640659962429 0 0.32245641590876828 0.45710047073305682 0 0.32313042491148092 0.43915640659962429 0 0.32245641590876828 0.45710047073305682 0 0.3069723578181176 0.44921026163567479 0 0.32313042491148092 0.43915640659962429 0 0.3069723578181176 0.44921026163567479 0 0.30967478190587899 0.43248339293908478 0 0.32245641590876828 0.45710047073305682 0 0.31479002533830769 0.47294309924184441 0 0.33573625410597768 0.47071191077640329 0 0.32245641590876828 0.45710047073305682 0 0.31479002533830769 0.47294309924184441 0 0.3069723578181176 0.44921026163567479 0 0.31479002533830769 0.47294309924184441 0 0.33573625410597768 0.47071191077640329 0 0.33128271396841408 0.5 0 0.34642182508771258 0.48585203466637861 0 0.33573625410597768 0.47071191077640329 0 0.33128271396841408 0.5 0 0.31479002533830769 0.47294309924184441 0 0.33128271396841408 0.5 0 0.30417531744442527 0.5 0 0.31479002533830769 0.47294309924184441 0 0.30417531744442527 0.5 0 0.29074220063683293 0.48758109823480927 0 0.31479002533830769 0.47294309924184441 0 0.29192961584893129 0.47074300911827521 0 0.29074220063683293 0.48758109823480927 0 0.31479002533830769 0.47294309924184441 0 0.29192961584893129 0.47074300911827521 0 0.29192961584893129 0.47074300911827521 0 0.29074220063683293 0.48758109823480927 0 0.27306856363999571 0.4842714594973539 0 0.30417531744442527 0.5 0 0.29074220063683293 0.48758109823480927 0 0.27706792092043642 0.500000000000002 0 0.27706792092043642 0.500000000000002 0 0.27306856363999571 0.4842714594973539 0 0.25513941322049821 0.48355515434954122 0 0.29074220063683293 0.48758109823480927 0 0.27706792092043642 0.500000000000002 0 0.27306856363999571 0.4842714594973539 0 0.27706792092043642 0.500000000000002 0 0.27306856363999571 0.4842714594973539 0 0.29192961584893129 0.47074300911827521 0 0.26906920635955489 0.46854291899470579 0 0.27306856363999571 0.4842714594973539 0 0.25513941322049821 0.48355515434954122 0 0.26906920635955489 0.46854291899470579 0 0.29192961584893129 0.47074300911827521 0 0.27306856363999571 0.4842714594973539 0 0.26906920635955489 0.46854291899470579 0 0.27306856363999571 0.4842714594973539 0 0.26906920635955489 0.46854291899470579 0 0.24508980140621781 0.46623513653650361 0 0.25513941322049821 0.48355515434954122 0 0.26906920635955489 0.46854291899470579 0 0.2479606543192433 0.5 0 0.27706792092043642 0.500000000000002 0 0.25513941322049821 0.48355515434954122 0 0.24508980140621781 0.46623513653650361 0 0.26906920635955489 0.46854291899470579 0 0.24508980140621781 0.46623513653650361 0 0.26234678177835441 0.44210518915783192 0 0.26906920635955489 0.46854291899470579 0 0.29192961584893129 0.47074300911827521 0 0.26906920635955489 0.46854291899470579 0 0.2825318911539082 0.44937975844880462 0 0.26234678177835441 0.44210518915783192 0 0.26906920635955489 0.46854291899470579 0 0.26234678177835441 0.44210518915783192 0 0.26906920635955489 0.46854291899470579 0 0.2825318911539082 0.44937975844880462 0 0.26234678177835441 0.44210518915783192 0 0.2825318911539082 0.44937975844880462 0 0.2735489225425754 0.42398780939214897 0 0.2825318911539082 0.44937975844880462 0 0.3069723578181176 0.44921026163567479 0 0.29424437368670248 0.43173942196487358 0 0.29192961584893129 0.47074300911827521 0 0.2825318911539082 0.44937975844880462 0 0.3069723578181176 0.44921026163567479 0 0.31479002533830769 0.47294309924184441 0 0.29192961584893129 0.47074300911827521 0 0.3069723578181176 0.44921026163567479 0 0.3069723578181176 0.44921026163567479 0 0.30967478190587899 0.43248339293908478 0 0.29424437368670248 0.43173942196487358 0 0.30967478190587899 0.43248339293908478 0 0.3045281829251868 0.41996349248923659 0 0.31949857018790712 0.42234738200601463 0 0.30967478190587899 0.43248339293908478 0 0.3045281829251868 0.41996349248923659 0 0.29424437368670248 0.43173942196487358 0 0.31221380766262308 0.41141105291454111 0 0.3045281829251868 0.41996349248923659 0 0.30175255758949709 0.40539483602959481 0 0.31221380766262308 0.41141105291454111 0 0.3045281829251868 0.41996349248923659 0 0.31949857018790712 0.42234738200601463 0 0.3045281829251868 0.41996349248923659 0 0.29116822628179151 0.41527777958226658 0 0.30175255758949709 0.40539483602959481 0 0.29116822628179151 0.41527777958226658 0 0.2735489225425754 0.42398780939214897 0 0.28009549588900451 0.40671294327225221 0 0.29116822628179151 0.41527777958226658 0 0.29046685710439091 0.40365495696152731 0 0.30175255758949709 0.40539483602959481 0 0.29116822628179151 0.41527777958226658 0 0.28009549588900451 0.40671294327225221 0 0.29046685710439091 0.40365495696152731 0 0.29116822628179151 0.41527777958226658 0 0.29424437368670248 0.43173942196487358 0 0.2735489225425754 0.42398780939214897 0 0.3045281829251868 0.41996349248923659 0 0.29116822628179151 0.41527777958226658 0 0.29424437368670248 0.43173942196487358 0 0.2825318911539082 0.44937975844880462 0 0.29424437368670248 0.43173942196487358 0 0.2735489225425754 0.42398780939214897 0 0.2735489225425754 0.42398780939214897 0 0.28009549588900451 0.40671294327225221 0 0.26594594197715632 0.40587542564026857 0 0.2735489225425754 0.42398780939214897 0 0.25562435719715348 0.41566745932095828 0 0.26594594197715632 0.40587542564026857 0 0.26234678177835441 0.44210518915783192 0 0.25562435719715348 0.41566745932095828 0 0.23929670148200641 0.42651558303428039 0 0.26234678177835441 0.44210518915783192 0 0.25562435719715348 0.41566745932095828 0 0.26234678177835441 0.44210518915783192 0 0.2735489225425754 0.42398780939214897 0 0.25562435719715348 0.41566745932095828 0 0.24890193261595259 0.38922972948408457 0 0.27155900164109531 0.39377918673189899 0 0.26817635423288699 0.37969346344739391 0 0.24890193261595259 0.38922972948408457 0 0.26817635423288699 0.37969346344739391 0 0.26082178769032438 0.36496323128775521 0 0.24890193261595259 0.38922972948408457 0 0.25562435719715348 0.41566745932095828 0 0.24890193261595259 0.38922972948408457 0 0.27155900164109531 0.39377918673189899 0 0.26594594197715632 0.40587542564026857 0 0.24890193261595259 0.38922972948408457 0 0.25562435719715348 0.41566745932095828 0 0.26594594197715632 0.40587542564026857 0 0.28009549588900451 0.40671294327225221 0 0.27155900164109531 0.39377918673189899 0 0.26594594197715632 0.40587542564026857 0 0.28009549588900451 0.40671294327225221 0 0.27155900164109531 0.39377918673189899 0 0.2841626669368148 0.39603484022980262 0 0.27155900164109531 0.39377918673189899 0 0.27917556467927279 0.38707504911542251 0 0.2841626669368148 0.39603484022980262 0 0.27917556467927279 0.38707504911542251 0 0.27737653217987568 0.3763299637903077 0 0.28641533258273322 0.38531457319514678 0 0.27155900164109531 0.39377918673189899 0 0.27917556467927279 0.38707504911542251 0 0.26817635423288699 0.37969346344739391 0 0.26817635423288699 0.37969346344739391 0 0.27737653217987568 0.3763299637903077 0 0.26995518240551242 0.36922466410125959 0 0.27917556467927279 0.38707504911542251 0 0.26817635423288699 0.37969346344739391 0 0.27737653217987568 0.3763299637903077 0 0.27917556467927279 0.38707504911542251 0 0.28749669470930389 0.39059918652862902 0 0.28641533258273322 0.38531457319514678 0 0.28749669470930389 0.39059918652862902 0 0.28641533258273322 0.38531457319514678 0 0.29321390271680048 0.38636149671614523 0 0.28641533258273322 0.38531457319514678 0 0.29321390271680048 0.38636149671614523 0 0.29155132770994241 0.38145409056705559 0 0.28749669470930389 0.39059918652862902 0 0.29321390271680048 0.38636149671614523 0 0.2951553388248469 0.39485438569372039 0 0.29321390271680048 0.38636149671614523 0 0.2951553388248469 0.39485438569372039 0 0.30172663999730548 0.38411556817588999 0 0.2951337916801352 0.37545299726164849 0 0.29155132770994241 0.38145409056705559 0 0.29028041611347422 0.37131190521640561 0 0.29650911823343812 0.38027524721939082 0 0.2951337916801352 0.37545299726164849 0 0.29155132770994241 0.38145409056705559 0 0.29321390271680048 0.38636149671614523 0 0.29650911823343812 0.38027524721939082 0 0.29155132770994241 0.38145409056705559 0 0.28009549588900451 0.40671294327225221 0 0.2841626669368148 0.39603484022980262 0 0.29046685710439091 0.40365495696152731 0 0.27917556467927279 0.38707504911542251 0 0.28749669470930389 0.39059918652862902 0 0.2841626669368148 0.39603484022980262 0 0.28749669470930389 0.39059918652862902 0 0.2841626669368148 0.39603484022980262 0 0.2951553388248469 0.39485438569372039 0 0.2841626669368148 0.39603484022980262 0 0.2951553388248469 0.39485438569372039 0 0.29046685710439091 0.40365495696152731 0 0.2951553388248469 0.39485438569372039 0 0.29046685710439091 0.40365495696152731 0 0.30175255758949709 0.40539483602959481 0 0.2951553388248469 0.39485438569372039 0 0.30416997859767031 0.39496190780794832 0 0.30172663999730548 0.38411556817588999 0 0.2951553388248469 0.39485438569372039 0 0.30175255758949709 0.40539483602959481 0 0.30416997859767031 0.39496190780794832 0 0.30416997859767031 0.39496190780794832 0 0.31194754139156228 0.39992908639018659 0 0.31058504665001713 0.38993607806902841 0 0.31221380766262308 0.41141105291454111 0 0.30175255758949709 0.40539483602959481 0 0.31194754139156228 0.39992908639018659 0 0.30175255758949709 0.40539483602959481 0 0.30416997859767031 0.39496190780794832 0 0.31194754139156228 0.39992908639018659 0 0.29650911823343812 0.38027524721939082 0 0.30172663999730548 0.38411556817588999 0 0.30091992906300691 0.3739920833762147 0 0.30172663999730548 0.38411556817588999 0 0.31077839752677883 0.37658419253607489 0 0.30091992906300691 0.3739920833762147 0 0.29650911823343812 0.38027524721939082 0 0.2951337916801352 0.37545299726164849 0 0.30091992906300691 0.3739920833762147 0 0.29321390271680048 0.38636149671614523 0 0.29650911823343812 0.38027524721939082 0 0.30172663999730548 0.38411556817588999 0 0.30416997859767031 0.39496190780794832 0 0.30172663999730548 0.38411556817588999 0 0.31058504665001713 0.38993607806902841 0 0.30172663999730548 0.38411556817588999 0 0.31058504665001713 0.38993607806902841 0 0.31077839752677883 0.37658419253607489 0 0.31077839752677883 0.37658419253607489 0 0.31867525833463911 0.38494833593070971 0 0.32306703930603953 0.37623237809600169 0 0.31058504665001713 0.38993607806902841 0 0.31867525833463911 0.38494833593070971 0 0.31878199461777879 0.39362573130725731 0 0.31058504665001713 0.38993607806902841 0 0.31077839752677883 0.37658419253607489 0 0.31867525833463911 0.38494833593070971 0 0.31867525833463911 0.38494833593070971 0 0.32306703930603953 0.37623237809600169 0 0.32934203852673438 0.38871677178939867 0 0.31867525833463911 0.38494833593070971 0 0.32934203852673438 0.38871677178939867 0 0.31878199461777879 0.39362573130725731 0 0.32306703930603953 0.37623237809600169 0 0.33555471090824662 0.37714848622012531 0 0.32934203852673438 0.38871677178939867 0 0.33555471090824662 0.37714848622012531 0 0.32934203852673438 0.38871677178939867 0 0.34865402358820241 0.38746960960344728 0 0.32934203852673438 0.38871677178939867 0 0.33838050486014071 0.40132571833470809 0 0.34865402358820241 0.38746960960344728 0 0.32934203852673438 0.38871677178939867 0 0.33838050486014071 0.40132571833470809 0 0.32336008818594092 0.40459838435696299 0 0.32934203852673438 0.38871677178939867 0 0.32336008818594092 0.40459838435696299 0 0.31878199461777879 0.39362573130725731 0 0.31194754139156228 0.39992908639018659 0 0.31058504665001713 0.38993607806902841 0 0.31878199461777879 0.39362573130725731 0 0.31221380766262308 0.41141105291454111 0 0.31194754139156228 0.39992908639018659 0 0.32336008818594092 0.40459838435696299 0 0.31194754139156228 0.39992908639018659 0 0.32336008818594092 0.40459838435696299 0 0.31878199461777879 0.39362573130725731 0 0.31221380766262308 0.41141105291454111 0 0.32336008818594092 0.40459838435696299 0 0.31949857018790712 0.42234738200601463 0 0.32336008818594092 0.40459838435696299 0 0.31949857018790712 0.42234738200601463 0 0.33335541567677851 0.41413927737501682 0 0.32313042491148092 0.43915640659962429 0 0.31949857018790712 0.42234738200601463 0 0.34011375395909899 0.42827966665244982 0 0.32313042491148092 0.43915640659962429 0 0.30967478190587899 0.43248339293908478 0 0.31949857018790712 0.42234738200601463 0 0.31949857018790712 0.42234738200601463 0 0.34011375395909899 0.42827966665244982 0 0.33335541567677851 0.41413927737501682 0 0.34011375395909899 0.42827966665244982 0 0.33335541567677851 0.41413927737501682 0 0.35251535500997389 0.4097633894025835 0 0.33838050486014071 0.40132571833470809 0 0.33335541567677851 0.41413927737501682 0 0.35251535500997389 0.4097633894025835 0 0.33838050486014071 0.40132571833470809 0 0.32336008818594092 0.40459838435696299 0 0.33335541567677851 0.41413927737501682 0 0.34011375395909899 0.42827966665244982 0 0.35251535500997389 0.4097633894025835 0 0.3591301267131588 0.42602683944016839 0 0.3672128213662551 0.44140310366938379 0 0.35041805056504127 0.44039830756831011 0 0.3591301267131588 0.42602683944016839 0 0.35041805056504127 0.44039830756831011 0 0.34011375395909899 0.42827966665244982 0 0.3591301267131588 0.42602683944016839 0 0.3672128213662551 0.44140310366938379 0 0.3591301267131588 0.42602683944016839 0 0.37786999239799629 0.42201923841731348 0 0.3591301267131588 0.42602683944016839 0 0.36674031876838431 0.41287021939491358 0 0.37786999239799629 0.42201923841731348 0 0.35251535500997389 0.4097633894025835 0 0.36674031876838431 0.41287021939491358 0 0.36672310374365391 0.3972274770167053 0 0.36674031876838431 0.41287021939491358 0 0.37714557779446961 0.40580011292323048 0 0.37786999239799629 0.42201923841731348 0 0.35251535500997389 0.4097633894025835 0 0.3591301267131588 0.42602683944016839 0 0.36674031876838431 0.41287021939491358 0 0.36674031876838431 0.41287021939491358 0 0.36672310374365391 0.3972274770167053 0 0.37714557779446961 0.40580011292323048 0 0.36672310374365391 0.3972274770167053 0 0.34865402358820241 0.38746960960344728 0 0.36927583114563117 0.37168826674887129 0 0.36672310374365391 0.3972274770167053 0 0.36927583114563117 0.37168826674887129 0 0.38594138320053972 0.39504117240748449 0 0.34865402358820241 0.38746960960344728 0 0.34769055634412588 0.36745966958429022 0 0.36927583114563117 0.37168826674887129 0 0.33555471090824662 0.37714848622012531 0 0.34865402358820241 0.38746960960344728 0 0.34769055634412588 0.36745966958429022 0 0.35251535500997389 0.4097633894025835 0 0.36672310374365391 0.3972274770167053 0 0.34865402358820241 0.38746960960344728 0 0.33838050486014071 0.40132571833470809 0 0.35251535500997389 0.4097633894025835 0 0.34865402358820241 0.38746960960344728 0 0.35261027909072251 0.34833536109025781 0 0.34769055634412588 0.36745966958429022 0 0.33944519881702218 0.35670643516570921 0 0.35261027909072251 0.34833536109025781 0 0.34769055634412588 0.36745966958429022 0 0.36927583114563117 0.37168826674887129 0 0.35261027909072251 0.34833536109025781 0 0.36927583114563117 0.37168826674887129 0 0.35261027909072251 0.34833536109025781 0 0.36927583114563117 0.37168826674887129 0 0.38014707859742553 0.358601566133181 0 0.35261027909072251 0.34833536109025781 0 0.37418757138316661 0.34003979241565702 0 0.38014707859742553 0.358601566133181 0 0.37418757138316661 0.34003979241565702 0 0.36114413796306788 0.32433110896381118 0 0.38634354889032002 0.32367976249598251 0 0.35261027909072251 0.34833536109025781 0 0.37418757138316661 0.34003979241565702 0 0.36114413796306788 0.32433110896381118 0 0.36114413796306788 0.32433110896381118 0 0.38634354889032002 0.32367976249598251 0 0.36114413796306788 0.32433110896381118 0 0.36246687595182442 0.30494518477727961 0 0.38634354889032002 0.32367976249598251 0 0.36114413796306788 0.32433110896381118 0 0.33594472703581602 0.32498245543164278 0 0.36114413796306788 0.32433110896381118 0 0.33594472703581602 0.32498245543164278 0 0.34448717235649018 0.30756264321984922 0 0.35261027909072251 0.34833536109025781 0 0.36114413796306788 0.32433110896381118 0 0.33594472703581602 0.32498245543164278 0 0.35261027909072251 0.34833536109025781 0 0.33594472703581602 0.32498245543164278 0 0.35261027909072251 0.34833536109025781 0 0.33361265820108371 0.33601463685995558 0 0.33594472703581602 0.32498245543164278 0 0.35261027909072251 0.34833536109025781 0 0.33361265820108371 0.33601463685995558 0 0.33117650937159632 0.34590223044488833 0 0.33361265820108371 0.33601463685995558 0 0.33594472703581602 0.32498245543164278 0 0.32592845192929348 0.32524135296818618 0 0.33361265820108371 0.33601463685995558 0 0.32240332357799001 0.33561178436480271 0 0.33117650937159632 0.34590223044488833 0 0.33594472703581602 0.32498245543164278 0 0.32420479997372442 0.30853167071016102 0 0.33594472703581602 0.32498245543164278 0 0.32592845192929348 0.32524135296818618 0 0.32420479997372442 0.30853167071016102 0 0.33594472703581602 0.32498245543164278 0 0.32420479997372442 0.30853167071016102 0 0.34448717235649018 0.30756264321984922 0 0.33594472703581602 0.32498245543164278 0 0.32592845192929348 0.32524135296818618 0 0.32592845192929348 0.32524135296818618 0 0.31778971146991503 0.31788997842391498 0 0.32420479997372442 0.30853167071016102 0 0.32592845192929348 0.32524135296818618 0 0.31591730865868939 0.32743152395768732 0 0.31778971146991503 0.31788997842391498 0 0.31591730865868939 0.32743152395768732 0 0.31778971146991503 0.31788997842391498 0 0.30920411140212778 0.3196886032463338 0 0.32240332357799001 0.33561178436480271 0 0.31863003654071292 0.34601962911411782 0 0.33117650937159632 0.34590223044488833 0 0.33361265820108371 0.33601463685995558 0 0.32592845192929348 0.32524135296818618 0 0.32240332357799001 0.33561178436480271 0 0.32592845192929348 0.32524135296818618 0 0.31591730865868939 0.32743152395768732 0 0.32240332357799001 0.33561178436480271 0 0.31591730865868939 0.32743152395768732 0 0.32240332357799001 0.33561178436480271 0 0.31164832743931292 0.33689503642828789 0 0.32240332357799001 0.33561178436480271 0 0.31863003654071292 0.34601962911411782 0 0.31164832743931292 0.33689503642828789 0 0.31863003654071292 0.34601962911411782 0 0.30992842843050988 0.3457112388019602 0 0.31164832743931292 0.33689503642828789 0 0.31863003654071292 0.34601962911411782 0 0.30992842843050988 0.3457112388019602 0 0.31160887743439081 0.35478490180041172 0 0.32445766980723489 0.35579424438156659 0 0.31686549990355672 0.36548826773678422 0 0.31160887743439081 0.35478490180041172 0 0.31863003654071292 0.34601962911411782 0 0.32445766980723489 0.35579424438156659 0 0.31160887743439081 0.35478490180041172 0 0.31863003654071292 0.34601962911411782 0 0.32445766980723489 0.35579424438156659 0 0.33117650937159632 0.34590223044488833 0 0.35261027909072251 0.34833536109025781 0 0.33117650937159632 0.34590223044488833 0 0.33944519881702218 0.35670643516570921 0 0.32445766980723489 0.35579424438156659 0 0.33117650937159632 0.34590223044488833 0 0.33944519881702218 0.35670643516570921 0 0.33555471090824662 0.37714848622012531 0 0.34769055634412588 0.36745966958429022 0 0.3290198967761308 0.36586400202748842 0 0.34769055634412588 0.36745966958429022 0 0.33944519881702218 0.35670643516570921 0 0.3290198967761308 0.36586400202748842 0 0.32445766980723489 0.35579424438156659 0 0.33944519881702218 0.35670643516570921 0 0.3290198967761308 0.36586400202748842 0 0.32306703930603953 0.37623237809600169 0 0.33555471090824662 0.37714848622012531 0 0.3290198967761308 0.36586400202748842 0 0.32306703930603953 0.37623237809600169 0 0.3290198967761308 0.36586400202748842 0 0.31686549990355672 0.36548826773678422 0 0.32445766980723489 0.35579424438156659 0 0.3290198967761308 0.36586400202748842 0 0.31686549990355672 0.36548826773678422 0 0.31077839752677883 0.37658419253607489 0 0.32306703930603953 0.37623237809600169 0 0.31686549990355672 0.36548826773678422 0 0.31077839752677883 0.37658419253607489 0 0.30653952356419251 0.36486132392814918 0 0.30091992906300691 0.3739920833762147 0 0.31077839752677883 0.37658419253607489 0 0.31686549990355672 0.36548826773678422 0 0.30653952356419251 0.36486132392814918 0 0.31686549990355672 0.36548826773678422 0 0.30653952356419251 0.36486132392814918 0 0.31160887743439081 0.35478490180041172 0 0.30653952356419251 0.36486132392814918 0 0.29956039950038399 0.36055845947794762 0 0.29968882481084308 0.36620473963642819 0 0.30653952356419251 0.36486132392814918 0 0.29956039950038399 0.36055845947794762 0 0.30450437459886343 0.35739179545954242 0 0.29956039950038399 0.36055845947794762 0 0.29968882481084308 0.36620473963642819 0 0.2946843591870788 0.36349444767638139 0 0.29968882481084308 0.36620473963642819 0 0.30091992906300691 0.3739920833762147 0 0.29515321138997108 0.36891281366618561 0 0.30653952356419251 0.36486132392814918 0 0.29968882481084308 0.36620473963642819 0 0.30091992906300691 0.3739920833762147 0 0.2951337916801352 0.37545299726164849 0 0.30091992906300691 0.3739920833762147 0 0.29515321138997108 0.36891281366618561 0 0.30992842843050988 0.3457112388019602 0 0.31160887743439081 0.35478490180041172 0 0.30300584901730271 0.34938636887413438 0 0.30992842843050988 0.3457112388019602 0 0.30300584901730271 0.34938636887413438 0 0.30284961949963451 0.34180688944884569 0 0.31160887743439081 0.35478490180041172 0 0.30450437459886343 0.35739179545954242 0 0.30300584901730271 0.34938636887413438 0 0.30653952356419251 0.36486132392814918 0 0.31160887743439081 0.35478490180041172 0 0.30450437459886343 0.35739179545954242 0 0.30450437459886343 0.35739179545954242 0 0.29772286606791931 0.35422336501427332 0 0.30300584901730271 0.34938636887413438 0 0.29956039950038399 0.36055845947794762 0 0.30450437459886343 0.35739179545954242 0 0.29772286606791931 0.35422336501427332 0 0.29772286606791931 0.35422336501427332 0 0.30300584901730271 0.34938636887413438 0 0.29508057650716829 0.34607515835053693 0 0.30300584901730271 0.34938636887413438 0 0.29508057650716829 0.34607515835053693 0 0.30284961949963451 0.34180688944884569 0 0.29508057650716829 0.34607515835053693 0 0.29128433478161492 0.3514692197730912 0 0.28696318970460172 0.34507386829548542 0 0.29772286606791931 0.35422336501427332 0 0.29508057650716829 0.34607515835053693 0 0.29128433478161492 0.3514692197730912 0 0.29128433478161492 0.3514692197730912 0 0.29260686737414288 0.35803349489433017 0 0.28831593146678952 0.35482697607295582 0 0.29772286606791931 0.35422336501427332 0 0.29128433478161492 0.3514692197730912 0 0.29260686737414288 0.35803349489433017 0 0.29956039950038399 0.36055845947794762 0 0.29772286606791931 0.35422336501427332 0 0.29260686737414288 0.35803349489433017 0 0.29260686737414288 0.35803349489433017 0 0.28714468874269172 0.35854684035017659 0 0.29097547274489571 0.36086700820637557 0 0.29260686737414288 0.35803349489433017 0 0.28714468874269172 0.35854684035017659 0 0.28831593146678952 0.35482697607295582 0 0.28714468874269172 0.35854684035017659 0 0.28946597567566928 0.3633932499046143 0 0.27836960746308909 0.35599853724874359 0 0.28714468874269172 0.35854684035017659 0 0.28392422607346179 0.35383006020545288 0 0.27836960746308909 0.35599853724874359 0 0.28714468874269172 0.35854684035017659 0 0.28392422607346179 0.35383006020545288 0 0.28831593146678952 0.35482697607295582 0 0.28392422607346179 0.35383006020545288 0 0.28273558166129192 0.34922596943765521 0 0.28101653893848899 0.35208327708388421 0 0.28392422607346179 0.35383006020545288 0 0.28831593146678952 0.35482697607295582 0 0.2863539578433606 0.35136140079780598 0 0.29128433478161492 0.3514692197730912 0 0.28831593146678952 0.35482697607295582 0 0.2863539578433606 0.35136140079780598 0 0.29128433478161492 0.3514692197730912 0 0.2863539578433606 0.35136140079780598 0 0.28696318970460172 0.34507386829548542 0 0.2863539578433606 0.35136140079780598 0 0.28273558166129192 0.34922596943765521 0 0.28696318970460172 0.34507386829548542 0 0.28392422607346179 0.35383006020545288 0 0.2863539578433606 0.35136140079780598 0 0.28273558166129192 0.34922596943765521 0 0.28696318970460172 0.34507386829548542 0 0.28013569367420871 0.34584772387197749 0 0.28119375649751349 0.3415044430455576 0 0.28273558166129192 0.34922596943765521 0 0.28696318970460172 0.34507386829548542 0 0.28013569367420871 0.34584772387197749 0 0.29155132770994241 0.38145409056705559 0 0.29028041611347422 0.37131190521640561 0 0.27836960746308909 0.35599853724874359 0 0.28641533258273322 0.38531457319514678 0 0.29155132770994241 0.38145409056705559 0 0.2754302243437341 0.35800137086985789 0 0.29155132770994241 0.38145409056705559 0 0.2754302243437341 0.35800137086985789 0 0.27836960746308909 0.35599853724874359 0 0.29155132770994241 0.38145409056705559 0 0.27836960746308909 0.35599853724874359 0 0.29028041611347422 0.37131190521640561 0 0.29515321138997108 0.36891281366618561 0 0.28946597567566928 0.3633932499046143 0 0.2951337916801352 0.37545299726164849 0 0.29028041611347422 0.37131190521640561 0 0.29515321138997108 0.36891281366618561 0 0.29968882481084308 0.36620473963642819 0 0.29515321138997108 0.36891281366618561 0 0.2946843591870788 0.36349444767638139 0 0.29515321138997108 0.36891281366618561 0 0.2946843591870788 0.36349444767638139 0 0.28946597567566928 0.3633932499046143 0 0.29956039950038399 0.36055845947794762 0 0.29260686737414288 0.35803349489433017 0 0.2946843591870788 0.36349444767638139 0 0.28714468874269172 0.35854684035017659 0 0.29097547274489571 0.36086700820637557 0 0.28946597567566928 0.3633932499046143 0 0.2946843591870788 0.36349444767638139 0 0.29097547274489571 0.36086700820637557 0 0.28946597567566928 0.3633932499046143 0 0.29260686737414288 0.35803349489433017 0 0.2946843591870788 0.36349444767638139 0 0.29097547274489571 0.36086700820637557 0 0.29028041611347422 0.37131190521640561 0 0.28946597567566928 0.3633932499046143 0 0.27836960746308909 0.35599853724874359 0 0.28641533258273322 0.38531457319514678 0 0.2754302243437341 0.35800137086985789 0 0.27737653217987568 0.3763299637903077 0 0.28641533258273322 0.38531457319514678 0 0.2754302243437341 0.35800137086985789 0 0.27737653217987568 0.3763299637903077 0 0.27292546410526491 0.36629585246079138 0 0.2754302243437341 0.35800137086985789 0 0.27737653217987568 0.3763299637903077 0 0.26995518240551242 0.36922466410125959 0 0.27292546410526491 0.36629585246079138 0 0.26817635423288699 0.37969346344739391 0 0.26995518240551242 0.36922466410125959 0 0.26082178769032438 0.36496323128775521 0 0.26995518240551242 0.36922466410125959 0 0.26893991749193752 0.36162741108174062 0 0.26082178769032438 0.36496323128775521 0 0.26893991749193752 0.36162741108174062 0 0.27292546410526491 0.36629585246079138 0 0.2754302243437341 0.35800137086985789 0 0.26995518240551242 0.36922466410125959 0 0.26893991749193752 0.36162741108174062 0 0.27292546410526491 0.36629585246079138 0 0.2754302243437341 0.35800137086985789 0 0.26518788721623437 0.33054298393043219 0 0.2754302243437341 0.35800137086985789 0 0.27836960746308909 0.35599853724874359 0 0.26518788721623437 0.33054298393043219 0 0.2754302243437341 0.35800137086985789 0 0.26469999689944002 0.35285812485780471 0 0.26518788721623437 0.33054298393043219 0 0.27836960746308909 0.35599853724874359 0 0.28101653893848899 0.35208327708388421 0 0.2797945401242129 0.34946851842389731 0 0.28392422607346179 0.35383006020545288 0 0.27836960746308909 0.35599853724874359 0 0.28101653893848899 0.35208327708388421 0 0.27836960746308909 0.35599853724874359 0 0.2797945401242129 0.34946851842389731 0 0.27671527888398562 0.3441870844772259 0 0.28013569367420871 0.34584772387197749 0 0.2797945401242129 0.34946851842389731 0 0.27671527888398562 0.3441870844772259 0 0.28013569367420871 0.34584772387197749 0 0.27671527888398562 0.3441870844772259 0 0.28119375649751349 0.3415044430455576 0 0.28273558166129192 0.34922596943765521 0 0.28013569367420871 0.34584772387197749 0 0.2797945401242129 0.34946851842389731 0 0.28273558166129192 0.34922596943765521 0 0.28101653893848899 0.35208327708388421 0 0.2797945401242129 0.34946851842389731 0 0.26893991749193752 0.36162741108174062 0 0.2754302243437341 0.35800137086985789 0 0.26469999689944002 0.35285812485780471 0 0.26469999689944002 0.35285812485780471 0 0.25397109136889212 0.34953950795812871 0 0.26518788721623437 0.33054298393043219 0 0.26469999689944002 0.35285812485780471 0 0.25397109136889212 0.34953950795812871 0 0.26082178769032438 0.36496323128775521 0 0.24217950803475169 0.36279199964721098 0 0.25397109136889212 0.34953950795812871 0 0.26082178769032438 0.36496323128775521 0 0.24217950803475169 0.36279199964721098 0 0.24890193261595259 0.38922972948408457 0 0.26082178769032438 0.36496323128775521 0 0.26893991749193752 0.36162741108174062 0 0.26469999689944002 0.35285812485780471 0 0.26082178769032438 0.36496323128775521 0 0.26160037477145948 0.32361504792451118 0 0.26961523156275707 0.31863310602586059 0 0.25252005129033422 0.30103787280496203 0 0.24833100513142109 0.32161764704062729 0 0.26160037477145948 0.32361504792451118 0 0.26518788721623437 0.33054298393043219 0 0.24963775202771521 0.30051372462394288 0 0.24833100513142109 0.32161764704062729 0 0.26160037477145948 0.32361504792451118 0 0.26160037477145948 0.32361504792451118 0 0.26518788721623437 0.33054298393043219 0 0.26731122343739822 0.32545953491366858 0 0.26160037477145948 0.32361504792451118 0 0.26518788721623437 0.33054298393043219 0 0.2354570834535519 0.33635426981033711 0 0.26518788721623437 0.33054298393043219 0 0.2354570834535519 0.33635426981033711 0 0.25397109136889212 0.34953950795812871 0 0.26518788721623437 0.33054298393043219 0 0.27836960746308909 0.35599853724874359 0 0.27671527888398562 0.3441870844772259 0 0.26518788721623437 0.33054298393043219 0 0.26518788721623437 0.33054298393043219 0 0.2728414001991406 0.32904700177387047 0 0.26518788721623437 0.33054298393043219 0 0.2728414001991406 0.32904700177387047 0 0.26731122343739822 0.32545953491366858 0 0.27836960746308909 0.35599853724874359 0 0.26518788721623437 0.33054298393043219 0 0.26518788721623437 0.33054298393043219 0 0.2728414001991406 0.32904700177387047 0 0.27786043041236869 0.33471626715991409 0 0.27671527888398562 0.3441870844772259 0 0.26518788721623437 0.33054298393043219 0 0.27786043041236869 0.33471626715991409 0 0.27671527888398562 0.3441870844772259 0 0.28119375649751349 0.3415044430455576 0 0.27786043041236869 0.33471626715991409 0 0.2728414001991406 0.32904700177387047 0 0.27786043041236869 0.33471626715991409 0 0.27936204924768121 0.32498307102898349 0 0.27786043041236869 0.33471626715991409 0 0.27936204924768121 0.32498307102898349 0 0.28525590824973168 0.33019860290154568 0 0.2728414001991406 0.32904700177387047 0 0.27936204924768121 0.32498307102898349 0 0.26961523156275707 0.31863310602586059 0 0.2728414001991406 0.32904700177387047 0 0.26731122343739822 0.32545953491366858 0 0.26961523156275707 0.31863310602586059 0 0.26160037477145948 0.32361504792451118 0 0.26731122343739822 0.32545953491366858 0 0.26961523156275707 0.31863310602586059 0 0.27936204924768121 0.32498307102898349 0 0.26961523156275707 0.31863310602586059 0 0.28133089707177739 0.31565660162935461 0 0.26961523156275707 0.31863310602586059 0 0.28133089707177739 0.31565660162935461 0 0.27162220014601168 0.30819847959926649 0 0.28133089707177739 0.31565660162935461 0 0.28926842799031183 0.32164684668335553 0 0.29289622389348391 0.31173450207074938 0 0.27936204924768121 0.32498307102898349 0 0.28926842799031183 0.32164684668335553 0 0.28525590824973168 0.33019860290154568 0 0.27936204924768121 0.32498307102898349 0 0.28133089707177739 0.31565660162935461 0 0.28926842799031183 0.32164684668335553 0 0.28926842799031183 0.32164684668335553 0 0.29270679870612148 0.33133919612790758 0 0.29864702146159328 0.32643954785611667 0 0.28926842799031183 0.32164684668335553 0 0.28525590824973168 0.33019860290154568 0 0.29270679870612148 0.33133919612790758 0 0.28926842799031183 0.32164684668335553 0 0.30057412006284873 0.3182848580649148 0 0.29864702146159328 0.32643954785611667 0 0.28926842799031183 0.32164684668335553 0 0.30057412006284873 0.3182848580649148 0 0.29289622389348391 0.31173450207074938 0 0.28696318970460172 0.34507386829548542 0 0.28119375649751349 0.3415044430455576 0 0.28563489893157912 0.33697664508827291 0 0.28696318970460172 0.34507386829548542 0 0.28563489893157912 0.33697664508827291 0 0.29440715639490739 0.33866623850310912 0 0.28119375649751349 0.3415044430455576 0 0.27786043041236869 0.33471626715991409 0 0.28563489893157912 0.33697664508827291 0 0.28563489893157912 0.33697664508827291 0 0.28525590824973168 0.33019860290154568 0 0.29270679870612148 0.33133919612790758 0 0.27786043041236869 0.33471626715991409 0 0.28563489893157912 0.33697664508827291 0 0.28525590824973168 0.33019860290154568 0 0.29270679870612148 0.33133919612790758 0 0.29440715639490739 0.33866623850310912 0 0.30302737920860612 0.33410729573504611 0 0.28563489893157912 0.33697664508827291 0 0.29270679870612148 0.33133919612790758 0 0.29440715639490739 0.33866623850310912 0 0.29508057650716829 0.34607515835053693 0 0.28696318970460172 0.34507386829548542 0 0.29440715639490739 0.33866623850310912 0 0.29508057650716829 0.34607515835053693 0 0.29440715639490739 0.33866623850310912 0 0.30284961949963451 0.34180688944884569 0 0.29440715639490739 0.33866623850310912 0 0.30284961949963451 0.34180688944884569 0 0.30302737920860612 0.33410729573504611 0 0.29270679870612148 0.33133919612790758 0 0.30302737920860612 0.33410729573504611 0 0.29864702146159328 0.32643954785611667 0 0.30302737920860612 0.33410729573504611 0 0.29864702146159328 0.32643954785611667 0 0.30648676239126638 0.32698903389663531 0 0.30302737920860612 0.33410729573504611 0 0.31164832743931292 0.33689503642828789 0 0.30648676239126638 0.32698903389663531 0 0.31591730865868939 0.32743152395768732 0 0.31164832743931292 0.33689503642828789 0 0.30648676239126638 0.32698903389663531 0 0.30284961949963451 0.34180688944884569 0 0.30302737920860612 0.33410729573504611 0 0.31164832743931292 0.33689503642828789 0 0.30992842843050988 0.3457112388019602 0 0.30284961949963451 0.34180688944884569 0 0.31164832743931292 0.33689503642828789 0 0.30057412006284873 0.3182848580649148 0 0.3075048900192453 0.30846754722968978 0 0.29289622389348391 0.31173450207074938 0 0.30057412006284873 0.3182848580649148 0 0.29864702146159328 0.32643954785611667 0 0.30648676239126638 0.32698903389663531 0 0.30057412006284873 0.3182848580649148 0 0.30648676239126638 0.32698903389663531 0 0.30920411140212778 0.3196886032463338 0 0.31591730865868939 0.32743152395768732 0 0.30648676239126638 0.32698903389663531 0 0.30920411140212778 0.3196886032463338 0 0.30057412006284873 0.3182848580649148 0 0.30920411140212778 0.3196886032463338 0 0.3075048900192453 0.30846754722968978 0 0.31778971146991503 0.31788997842391498 0 0.30920411140212778 0.3196886032463338 0 0.3075048900192453 0.30846754722968978 0 0.3075048900192453 0.30846754722968978 0 0.29694347339530303 0.29848366127231912 0 0.31246487291163488 0.29208088598867771 0 0.3075048900192453 0.30846754722968978 0 0.29694347339530303 0.29848366127231912 0 0.29289622389348391 0.31173450207074938 0 0.31246487291163488 0.29208088598867771 0 0.29888580149873889 0.28140566667868477 0 0.31966717048778492 0.28020807462702291 0 0.29694347339530303 0.29848366127231912 0 0.31246487291163488 0.29208088598867771 0 0.29888580149873889 0.28140566667868477 0 0.29694347339530303 0.29848366127231912 0 0.29888580149873889 0.28140566667868477 0 0.28532215262680061 0.29218967158653381 0 0.29888580149873889 0.28140566667868477 0 0.28532215262680061 0.29218967158653381 0 0.27597263544757811 0.27926985653850322 0 0.29694347339530303 0.29848366127231912 0 0.29289622389348391 0.31173450207074938 0 0.28421062956037713 0.3046253325656294 0 0.29694347339530303 0.29848366127231912 0 0.28532215262680061 0.29218967158653381 0 0.28421062956037713 0.3046253325656294 0 0.28133089707177739 0.31565660162935461 0 0.29289622389348391 0.31173450207074938 0 0.28421062956037713 0.3046253325656294 0 0.28133089707177739 0.31565660162935461 0 0.28421062956037713 0.3046253325656294 0 0.27162220014601168 0.30819847959926649 0 0.28421062956037713 0.3046253325656294 0 0.27162220014601168 0.30819847959926649 0 0.27073357959762612 0.29469717476731772 0 0.28532215262680061 0.29218967158653381 0 0.28421062956037713 0.3046253325656294 0 0.27073357959762612 0.29469717476731772 0 0.27073357959762612 0.29469717476731772 0 0.25964825064670849 0.2811944406245902 0 0.27597263544757811 0.27926985653850322 0 0.28532215262680061 0.29218967158653381 0 0.27073357959762612 0.29469717476731772 0 0.27597263544757811 0.27926985653850322 0 0.2434397278092077 0.27846069768541332 0 0.25252005129033422 0.30103787280496203 0 0.25964825064670849 0.2811944406245902 0 0.27073357959762612 0.29469717476731772 0 0.25252005129033422 0.30103787280496203 0 0.25964825064670849 0.2811944406245902 0 0.24963775202771521 0.30051372462394288 0 0.26160037477145948 0.32361504792451118 0 0.26160037477145948 0.32361504792451118 0 0.25252005129033422 0.30103787280496203 0 0.24963775202771521 0.30051372462394288 0 0.26160037477145948 0.32361504792451118 0 0.25252005129033422 0.30103787280496203 0 0.27162220014601168 0.30819847959926649 0 0.27073357959762612 0.29469717476731772 0 0.25252005129033422 0.30103787280496203 0 0.26961523156275707 0.31863310602586059 0 0.27162220014601168 0.30819847959926649 0 0.25252005129033422 0.30103787280496203 0 0.26005695654466249 0.26476207857526007 0 0.25877170878786238 0.25302463852503437 0 0.26784118605052742 0.25766384122118591 0 0.26005695654466249 0.26476207857526007 0 0.26877199542094288 0.271185286046489 0 0.26784118605052742 0.25766384122118591 0 0.24763005152173001 0.25910176257370959 0 0.26005695654466249 0.26476207857526007 0 0.25877170878786238 0.25302463852503437 0 0.26005695654466249 0.26476207857526007 0 0.25964825064670849 0.2811944406245902 0 0.26877199542094288 0.271185286046489 0 0.2434397278092077 0.27846069768541332 0 0.26005695654466249 0.26476207857526007 0 0.25964825064670849 0.2811944406245902 0 0.2434397278092077 0.27846069768541332 0 0.24763005152173001 0.25910176257370959 0 0.26005695654466249 0.26476207857526007 0 0.25964825064670849 0.2811944406245902 0 0.26877199542094288 0.271185286046489 0 0.27597263544757811 0.27926985653850322 0 0.26877199542094288 0.271185286046489 0 0.27597263544757811 0.27926985653850322 0 0.27647749418933931 0.26389562134405542 0 0.27597263544757811 0.27926985653850322 0 0.27647749418933931 0.26389562134405542 0 0.28921799240021828 0.26815650339571012 0 0.27647749418933931 0.26389562134405542 0 0.27542464597538868 0.25681776053554017 0 0.28272693040926428 0.25881526167589219 0 0.27647749418933931 0.26389562134405542 0 0.26784118605052742 0.25766384122118591 0 0.27542464597538868 0.25681776053554017 0 0.26877199542094288 0.271185286046489 0 0.27647749418933931 0.26389562134405542 0 0.26784118605052742 0.25766384122118591 0 0.26784118605052742 0.25766384122118591 0 0.27542464597538868 0.25681776053554017 0 0.27283394916361492 0.24742619336605559 0 0.25877170878786238 0.25302463852503437 0 0.26784118605052742 0.25766384122118591 0 0.27283394916361492 0.24742619336605559 0 0.27542464597538868 0.25681776053554017 0 0.28272693040926428 0.25881526167589219 0 0.27283394916361492 0.24742619336605559 0 0.28272693040926428 0.25881526167589219 0 0.29968057031776052 0.25778022973809978 0 0.27283394916361492 0.24742619336605559 0 0.28272693040926428 0.25881526167589219 0 0.28921799240021828 0.26815650339571012 0 0.29968057031776052 0.25778022973809978 0 0.29968057031776052 0.25778022973809978 0 0.27283394916361492 0.24742619336605559 0 0.29968057031776052 0.25778022973809978 0 0.27283394916361492 0.24742619336605559 0 0.3016365876598241 0.24719201463661561 0 0.27647749418933931 0.26389562134405542 0 0.28272693040926428 0.25881526167589219 0 0.28921799240021828 0.26815650339571012 0 0.28921799240021828 0.26815650339571012 0 0.29917140266547992 0.2696271248040239 0 0.29968057031776052 0.25778022973809978 0 0.29888580149873889 0.28140566667868477 0 0.27597263544757811 0.27926985653850322 0 0.28921799240021828 0.26815650339571012 0 0.29888580149873889 0.28140566667868477 0 0.28921799240021828 0.26815650339571012 0 0.29917140266547992 0.2696271248040239 0 0.30890124644520212 0.27116609940360098 0 0.29968057031776052 0.25778022973809978 0 0.32652719147190618 0.26813426611014402 0 0.29888580149873889 0.28140566667868477 0 0.30890124644520212 0.27116609940360098 0 0.31966717048778492 0.28020807462702291 0 0.29888580149873889 0.28140566667868477 0 0.29917140266547992 0.2696271248040239 0 0.30890124644520212 0.27116609940360098 0 0.29917140266547992 0.2696271248040239 0 0.30890124644520212 0.27116609940360098 0 0.29968057031776052 0.25778022973809978 0 0.29968057031776052 0.25778022973809978 0 0.31432639173362298 0.2563396134856944 0 0.3016365876598241 0.24719201463661561 0 0.29968057031776052 0.25778022973809978 0 0.32652719147190618 0.26813426611014402 0 0.29968057031776052 0.25778022973809978 0 0.31432639173362298 0.2563396134856944 0 0.32652719147190618 0.26813426611014402 0 0.31432639173362298 0.2563396134856944 0 0.32946121748500129 0.25225194345791829 0 0.3016365876598241 0.24719201463661561 0 0.31432639173362298 0.2563396134856944 0 0.32946121748500129 0.25225194345791829 0 0.32652719147190618 0.26813426611014402 0 0.32946121748500129 0.25225194345791829 0 0.35728584731017871 0.25731187227922109 0 0.32946121748500129 0.25225194345791829 0 0.33854302537622011 0.27351786473126699 0 0.35728584731017871 0.25731187227922109 0 0.32946121748500129 0.25225194345791829 0 0.33854302537622011 0.27351786473126699 0 0.32652719147190618 0.26813426611014402 0 0.33854302537622011 0.27351786473126699 0 0.32652719147190618 0.26813426611014402 0 0.31966717048778492 0.28020807462702291 0 0.30890124644520212 0.27116609940360098 0 0.32652719147190618 0.26813426611014402 0 0.31966717048778492 0.28020807462702291 0 0.31246487291163488 0.29208088598867771 0 0.31966717048778492 0.28020807462702291 0 0.33172871425663403 0.29269405324557379 0 0.31778971146991503 0.31788997842391498 0 0.3075048900192453 0.30846754722968978 0 0.32420479997372442 0.30853167071016102 0 0.31246487291163488 0.29208088598867771 0 0.32420479997372442 0.30853167071016102 0 0.31246487291163488 0.29208088598867771 0 0.32420479997372442 0.30853167071016102 0 0.33172871425663403 0.29269405324557379 0 0.3075048900192453 0.30846754722968978 0 0.31246487291163488 0.29208088598867771 0 0.32420479997372442 0.30853167071016102 0 0.32420479997372442 0.30853167071016102 0 0.33172871425663403 0.29269405324557379 0 0.34448717235649018 0.30756264321984922 0 0.33854302537622011 0.27351786473126699 0 0.31966717048778492 0.28020807462702291 0 0.33172871425663403 0.29269405324557379 0 0.33172871425663403 0.29269405324557379 0 0.3503635169770366 0.28966006865463678 0 0.34448717235649018 0.30756264321984922 0 0.33854302537622011 0.27351786473126699 0 0.33172871425663403 0.29269405324557379 0 0.3503635169770366 0.28966006865463678 0 0.3503635169770366 0.28966006865463678 0 0.34448717235649018 0.30756264321984922 0 0.36246687595182442 0.30494518477727961 0 0.36114413796306788 0.32433110896381118 0 0.34448717235649018 0.30756264321984922 0 0.36246687595182442 0.30494518477727961 0 0.36246687595182442 0.30494518477727961 0 0.37008896088821891 0.27907488192658342 0 0.38127772340545701 0.29855436992749679 0 0.3503635169770366 0.28966006865463678 0 0.36246687595182442 0.30494518477727961 0 0.37008896088821891 0.27907488192658342 0 0.37008896088821891 0.27907488192658342 0 0.35728584731017871 0.25731187227922109 0 0.35441181453934328 0.27463334472066592 0 0.37008896088821891 0.27907488192658342 0 0.35728584731017871 0.25731187227922109 0 0.38511047713535562 0.2623718011005241 0 0.35728584731017871 0.25731187227922109 0 0.38511047713535562 0.2623718011005241 0 0.37293454716760283 0.2396311516560117 0 0.35728584731017871 0.25731187227922109 0 0.38511047713535562 0.2623718011005241 0 0.33854302537622011 0.27351786473126699 0 0.3503635169770366 0.28966006865463678 0 0.35441181453934328 0.27463334472066592 0 0.33854302537622011 0.27351786473126699 0 0.35728584731017871 0.25731187227922109 0 0.35441181453934328 0.27463334472066592 0 0.3503635169770366 0.28966006865463678 0 0.37008896088821891 0.27907488192658342 0 0.35441181453934328 0.27463334472066592 0 0.4059739891301799 0.26616584566893298 0 0.38511047713535562 0.2623718011005241 0 0.39575362435311728 0.2822497143692822 0 0.4059739891301799 0.26616584566893298 0 0.39575362435311728 0.2822497143692822 0 0.41466985898722469 0.28617745239982811 0 0.4059739891301799 0.26616584566893298 0 0.38511047713535562 0.2623718011005241 0 0.39933451681408499 0.24222051247515669 0 0.4059739891301799 0.26616584566893298 0 0.38511047713535562 0.2623718011005241 0 0.38511047713535562 0.2623718011005241 0 0.37293454716760283 0.2396311516560117 0 0.37008896088821891 0.27907488192658342 0 0.38511047713535562 0.2623718011005241 0 0.39575362435311728 0.2822497143692822 0 0.38511047713535562 0.2623718011005241 0 0.39575362435311728 0.2822497143692822 0 0.37008896088821891 0.27907488192658342 0 0.38127772340545701 0.29855436992749679 0 0.39575362435311728 0.2822497143692822 0 0.38127772340545701 0.29855436992749679 0 0.39341545683502421 0.31015448597301559 0 0.38634354889032002 0.32367976249598251 0 0.38127772340545701 0.29855436992749679 0 0.38634354889032002 0.32367976249598251 0 0.36246687595182442 0.30494518477727961 0 0.38127772340545701 0.29855436992749679 0 0.38634354889032002 0.32367976249598251 0 0.38127772340545701 0.29855436992749679 0 0.39341545683502421 0.31015448597301559 0 0.40639677157087911 0.30212762763804019 0 0.39341545683502421 0.31015448597301559 0 0.40639677157087911 0.30212762763804019 0 0.4081981699382346 0.3139513768470385 0 0.39575362435311728 0.2822497143692822 0 0.40639677157087911 0.30212762763804019 0 0.38127772340545701 0.29855436992749679 0 0.39575362435311728 0.2822497143692822 0 0.40639677157087911 0.30212762763804019 0 0.39575362435311728 0.2822497143692822 0 0.41466985898722469 0.28617745239982811 0 0.40639677157087911 0.30212762763804019 0 0.41466985898722469 0.28617745239982811 0 0.40639677157087911 0.30212762763804019 0 0.42063747895650733 0.30228076741981708 0 0.40639677157087911 0.30212762763804019 0 0.417039918788641 0.32200554090679828 0 0.40639677157087911 0.30212762763804019 0 0.42063747895650733 0.30228076741981708 0 0.41590325438833858 0.31571238371771643 0 0.42063747895650733 0.30228076741981708 0 0.43554340190627211 0.31006971119553528 0 0.43241978878766019 0.29428086906555412 0 0.42063747895650733 0.30228076741981708 0 0.43554340190627211 0.31006971119553528 0 0.41590325438833858 0.31571238371771643 0 0.43241978878766019 0.29428086906555412 0 0.42683750112500368 0.26995989023734401 0 0.43795337608323548 0.28151673092589807 0 0.41466985898722469 0.28617745239982811 0 0.43241978878766019 0.29428086906555412 0 0.42683750112500368 0.26995989023734401 0 0.43241978878766019 0.29428086906555412 0 0.42683750112500368 0.26995989023734401 0 0.41466985898722469 0.28617745239982811 0 0.42063747895650733 0.30228076741981708 0 0.43241978878766019 0.29428086906555412 0 0.4059739891301799 0.26616584566893298 0 0.42683750112500368 0.26995989023734401 0 0.4059739891301799 0.26616584566893298 0 0.41466985898722469 0.28617745239982811 0 0.42683750112500368 0.26995989023734401 0 0.4059739891301799 0.26616584566893298 0 0.42683750112500368 0.26995989023734401 0 0.42092918023873821 0.24421844589255121 0 0.4059739891301799 0.26616584566893298 0 0.39933451681408499 0.24222051247515669 0 0.42092918023873821 0.24421844589255121 0 0.42683750112500368 0.26995989023734401 0 0.44089414042045799 0.25771217685885472 0 0.42092918023873821 0.24421844589255121 0 0.42683750112500368 0.26995989023734401 0 0.42092918023873821 0.24421844589255121 0 0.44089414042045799 0.25771217685885472 0 0.45301423403414209 0.26007999789895508 0 0.4569230610569987 0.24819013429900669 0 0.44089414042045799 0.25771217685885472 0 0.45301423403414209 0.26007999789895508 0 0.44973892600361531 0.27412453072026172 0 0.42683750112500368 0.26995989023734401 0 0.44089414042045799 0.25771217685885472 0 0.44973892600361531 0.27412453072026172 0 0.42683750112500368 0.26995989023734401 0 0.44973892600361531 0.27412453072026172 0 0.43795337608323548 0.28151673092589807 0 0.42683750112500368 0.26995989023734401 0 0.44973892600361531 0.27412453072026172 0 0.44973892600361531 0.27412453072026172 0 0.46478170596961249 0.26323965275109401 0 0.47264035088222628 0.27828917120318131 0 0.44973892600361531 0.27412453072026172 0 0.47264035088222628 0.27828917120318131 0 0.44973892600361531 0.27412453072026172 0 0.47264035088222628 0.27828917120318131 0 0.46226850420995219 0.28814127863090738 0 0.45301423403414209 0.26007999789895508 0 0.44973892600361531 0.27412453072026172 0 0.46478170596961249 0.26323965275109401 0 0.46478170596961249 0.26323965275109401 0 0.47264035088222628 0.27828917120318131 0 0.46478170596961249 0.26323965275109401 0 0.4569230610569987 0.24819013429900669 0 0.45301423403414209 0.26007999789895508 0 0.46478170596961249 0.26323965275109401 0 0.4569230610569987 0.24819013429900669 0 0.46478170596961249 0.26323965275109401 0 0.46750550623703407 0.25349570762290419 0 0.47341939214644252 0.26170481890296848 0 0.46478170596961249 0.26323965275109401 0 0.46750550623703407 0.25349570762290419 0 0.4569230610569987 0.24819013429900669 0 0.47341939214644252 0.26170481890296848 0 0.48489893488970792 0.25686202981026901 0 0.47278153852907701 0.24486280325581439 0 0.46750550623703407 0.25349570762290419 0 0.47341939214644252 0.26170481890296848 0 0.47278153852907701 0.24486280325581439 0 0.47341939214644252 0.26170481890296848 0 0.47278153852907701 0.24486280325581439 0 0.47341939214644252 0.26170481890296848 0 0.48000757765913032 0.26759533659828072 0 0.48489893488970792 0.25686202981026901 0 0.47341939214644252 0.26170481890296848 0 0.47405724576380859 0.27854683455012252 0 0.48000757765913032 0.26759533659828072 0 0.47341939214644252 0.26170481890296848 0 0.47264035088222628 0.27828917120318131 0 0.47405724576380859 0.27854683455012252 0 0.46478170596961249 0.26323965275109401 0 0.47341939214644252 0.26170481890296848 0 0.47264035088222628 0.27828917120318131 0 0.47405724576380859 0.27854683455012252 0 0.47415752390174082 0.28119459874267072 0 0.50000000000001354 0.28326454295050368 0 0.47341939214644252 0.26170481890296848 0 0.47405724576380859 0.27854683455012252 0 0.47264035088222628 0.27828917120318131 0 0.47405724576380859 0.27854683455012252 0 0.47405724576380859 0.27854683455012252 0 0.47415752390174082 0.28119459874267072 0 0.47264035088222628 0.27828917120318131 0 0.47405724576380859 0.27854683455012252 0 0.47415752390174082 0.28119459874267072 0 0.47264035088222628 0.27828917120318131 0 0.47415752390174082 0.28119459874267072 0 0.47405724576380859 0.27854683455012252 0 0.48000757765913032 0.26759533659828072 0 0.48909471086131839 0.26954423778064313 0 0.47405724576380859 0.27854683455012252 0 0.50000000000001354 0.28326454295050368 0 0.47405724576380859 0.27854683455012252 0 0.48909471086131839 0.26954423778064313 0 0.50000000000001354 0.28326454295050368 0 0.48909471086131839 0.26954423778064313 0 0.5 0.25553121794514477 0 0.50000000000001354 0.28326454295050368 0 0.5 0.25553121794514477 0 0.48489893488970792 0.25686202981026901 0 0.48903365503734891 0.24299047468837701 0 0.48909471086131839 0.26954423778064313 0 0.5 0.25553121794514477 0 0.48489893488970792 0.25686202981026901 0 0.48000757765913032 0.26759533659828072 0 0.48909471086131839 0.26954423778064313 0 0.48489893488970792 0.25686202981026901 0 0.48223131843763373 0.29665613456690521 0 0.49274985611107969 0.31679941989990179 0 0.48223131843763373 0.29665613456690521 0 0.49274985611107969 0.31679941989990179 0 0.48532411314893581 0.31403081790115361 0 0.49298554246438231 0.30475618362627349 0 0.48223131843763373 0.29665613456690521 0 0.49274985611107969 0.31679941989990179 0 0.49298554246438231 0.30475618362627349 0 0.4969609953088156 0.2924242547978898 0 0.5 0.31314492524039728 0 0.49298554246438231 0.30475618362627349 0 0.4969609953088156 0.2924242547978898 0 0.48223131843763373 0.29665613456690521 0 0.49298554246438231 0.30475618362627349 0 0.49274985611107969 0.31679941989990179 0 0.5 0.31314492524039728 0 0.4969609953088156 0.2924242547978898 0 0.50000000000001354 0.28326454295050368 0 0.5 0.31314492524039728 0 0.47415752390174082 0.28119459874267072 0 0.4969609953088156 0.2924242547978898 0 0.50000000000001354 0.28326454295050368 0 0.47415752390174082 0.28119459874267072 0 0.4969609953088156 0.2924242547978898 0 0.48223131843763373 0.29665613456690521 0 0.4969609953088156 0.2924242547978898 0 0.48223131843763373 0.29665613456690521 0 0.47415752390174082 0.28119459874267072 0 0.47482369694213911 0.29878436615117387 0 0.47415752390174082 0.28119459874267072 0 0.47482369694213911 0.29878436615117387 0 0.46226850420995219 0.28814127863090738 0 0.47415752390174082 0.28119459874267072 0 0.48223131843763373 0.29665613456690521 0 0.47482369694213911 0.29878436615117387 0 0.47415752390174082 0.28119459874267072 0 0.48223131843763373 0.29665613456690521 0 0.47264035088222628 0.27828917120318131 0 0.47415752390174082 0.28119459874267072 0 0.46226850420995219 0.28814127863090738 0 0.48223131843763373 0.29665613456690521 0 0.48022688714188239 0.30485617861310249 0 0.48532411314893581 0.31403081790115361 0 0.47482369694213911 0.29878436615117387 0 0.4785284200388214 0.30995339583317788 0 0.47567910166728178 0.32137064515506791 0 0.47482369694213911 0.29878436615117387 0 0.46683928615616721 0.31034493157342358 0 0.47567910166728178 0.32137064515506791 0 0.47482369694213911 0.29878436615117387 0 0.47567910166728178 0.32137064515506791 0 0.47482369694213911 0.29878436615117387 0 0.48022688714188239 0.30485617861310249 0 0.4785284200388214 0.30995339583317788 0 0.48223131843763373 0.29665613456690521 0 0.47482369694213911 0.29878436615117387 0 0.48022688714188239 0.30485617861310249 0 0.48223131843763373 0.29665613456690521 0 0.47482369694213911 0.29878436615117387 0 0.48022688714188239 0.30485617861310249 0 0.4785284200388214 0.30995339583317788 0 0.48532411314893581 0.31403081790115361 0 0.47482369694213911 0.29878436615117387 0 0.46683928615616721 0.31034493157342358 0 0.45518354942420552 0.3044270386733543 0 0.47482369694213911 0.29878436615117387 0 0.45518354942420552 0.3044270386733543 0 0.46683928615616721 0.31034493157342358 0 0.45518354942420552 0.3044270386733543 0 0.46090063033065398 0.31457074158430443 0 0.47482369694213911 0.29878436615117387 0 0.45518354942420552 0.3044270386733543 0 0.46226850420995219 0.28814127863090738 0 0.45518354942420552 0.3044270386733543 0 0.46226850420995219 0.28814127863090738 0 0.44650245416143669 0.29205179777212908 0 0.44973892600361531 0.27412453072026172 0 0.46226850420995219 0.28814127863090738 0 0.44650245416143669 0.29205179777212908 0 0.44973892600361531 0.27412453072026172 0 0.44650245416143669 0.29205179777212908 0 0.43795337608323548 0.28151673092589807 0 0.43241978878766019 0.29428086906555412 0 0.44650245416143669 0.29205179777212908 0 0.43795337608323548 0.28151673092589807 0 0.43554340190627211 0.31006971119553528 0 0.45518354942420552 0.3044270386733543 0 0.44650245416143669 0.29205179777212908 0 0.43554340190627211 0.31006971119553528 0 0.43241978878766019 0.29428086906555412 0 0.44650245416143669 0.29205179777212908 0 0.43554340190627211 0.31006971119553528 0 0.45518354942420552 0.3044270386733543 0 0.44590058407496119 0.32214035093537202 0 0.43554340190627211 0.31006971119553528 0 0.45518354942420552 0.3044270386733543 0 0.44438162939182968 0.33527616080122319 0 0.43941431748234389 0.34697694962204328 0 0.43138153093963261 0.33684778794266318 0 0.44438162939182968 0.33527616080122319 0 0.43138153093963261 0.33684778794266318 0 0.43736796180383269 0.33070162376080392 0 0.44590058407496119 0.32214035093537202 0 0.44438162939182968 0.33527616080122319 0 0.43736796180383269 0.33070162376080392 0 0.44590058407496119 0.32214035093537202 0 0.44438162939182968 0.33527616080122319 0 0.45938090137280319 0.33331169935871768 0 0.44438162939182968 0.33527616080122319 0 0.45466128638888681 0.34537342559846479 0 0.43941431748234389 0.34697694962204328 0 0.44438162939182968 0.33527616080122319 0 0.45938090137280319 0.33331169935871768 0 0.45466128638888681 0.34537342559846479 0 0.45938090137280319 0.33331169935871768 0 0.47648750655815691 0.34271593104932652 0 0.45466128638888681 0.34537342559846479 0 0.45518354942420552 0.3044270386733543 0 0.44590058407496119 0.32214035093537202 0 0.46090063033065398 0.31457074158430443 0 0.44590058407496119 0.32214035093537202 0 0.47567910166728178 0.32137064515506791 0 0.44590058407496119 0.32214035093537202 0 0.45938090137280319 0.33331169935871768 0 0.47567910166728178 0.32137064515506791 0 0.44590058407496119 0.32214035093537202 0 0.46090063033065398 0.31457074158430443 0 0.47567910166728178 0.32137064515506791 0 0.46683928615616721 0.31034493157342358 0 0.46090063033065398 0.31457074158430443 0 0.47567910166728178 0.32137064515506791 0 0.4785284200388214 0.30995339583317788 0 0.48037384835626529 0.31664076505113292 0 0.47567910166728178 0.32137064515506791 0 0.48037384835626529 0.31664076505113292 0 0.48196375857002199 0.32120820131513239 0 0.47567910166728178 0.32137064515506791 0 0.48037384835626529 0.31664076505113292 0 0.48196375857002199 0.32120820131513239 0 0.48532411314893581 0.31403081790115361 0 0.4785284200388214 0.30995339583317788 0 0.48037384835626529 0.31664076505113292 0 0.48532411314893581 0.31403081790115361 0 0.48196375857002199 0.32120820131513239 0 0.48271443300740718 0.32966898805558448 0 0.48700966075600671 0.32276244140519528 0 0.48196375857002199 0.32120820131513239 0 0.47567910166728178 0.32137064515506791 0 0.48271443300740718 0.32966898805558448 0 0.48196375857002199 0.32120820131513239 0 0.47567910166728178 0.32137064515506791 0 0.47567910166728178 0.32137064515506791 0 0.47648750655815691 0.34271593104932652 0 0.47567910166728178 0.32137064515506791 0 0.47648750655815691 0.34271593104932652 0 0.48271443300740718 0.32966898805558448 0 0.45938090137280319 0.33331169935871768 0 0.47567910166728178 0.32137064515506791 0 0.47648750655815691 0.34271593104932652 0 0.47648750655815691 0.34271593104932652 0 0.48271443300740718 0.32966898805558448 0 0.49227852706914571 0.3310448133387906 0 0.47648750655815691 0.34271593104932652 0 0.5 0.34302530753029081 0 0.49227852706914571 0.3310448133387906 0 0.5 0.34302530753029081 0 0.49227852706914571 0.3310448133387906 0 0.5 0.31314492524039728 0 0.49227852706914571 0.3310448133387906 0 0.49274985611107969 0.31679941989990179 0 0.5 0.31314492524039728 0 0.48196375857002199 0.32120820131513239 0 0.48532411314893581 0.31403081790115361 0 0.48700966075600671 0.32276244140519528 0 0.49274985611107969 0.31679941989990179 0 0.48532411314893581 0.31403081790115361 0 0.48700966075600671 0.32276244140519528 0 0.48271443300740718 0.32966898805558448 0 0.49227852706914571 0.3310448133387906 0 0.48700966075600671 0.32276244140519528 0 0.49227852706914571 0.3310448133387906 0 0.49274985611107969 0.31679941989990179 0 0.48700966075600671 0.32276244140519528 0 0.5 0.37290568982018429 0 0.48906820236105919 0.3579654986752378 0 0.48477613844387402 0.38021688004838439 0 0.47648750655815691 0.34271593104932652 0 0.5 0.34302530753029081 0 0.48906820236105919 0.3579654986752378 0 0.5 0.34302530753029081 0 0.5 0.37290568982018429 0 0.48906820236105919 0.3579654986752378 0 0.47648750655815691 0.34271593104932652 0 0.4736556537454587 0.3678330253399309 0 0.4628011452372443 0.35721885356897543 0 0.47648750655815691 0.34271593104932652 0 0.48906820236105919 0.3579654986752378 0 0.4736556537454587 0.3678330253399309 0 0.48906820236105919 0.3579654986752378 0 0.4736556537454587 0.3678330253399309 0 0.48477613844387402 0.38021688004838439 0 0.4736556537454587 0.3678330253399309 0 0.45151374504626951 0.36758660991241321 0 0.46980882541715813 0.38208294099771128 0 0.4736556537454587 0.3678330253399309 0 0.4628011452372443 0.35721885356897543 0 0.45151374504626951 0.36758660991241321 0 0.47648750655815691 0.34271593104932652 0 0.4628011452372443 0.35721885356897543 0 0.45466128638888681 0.34537342559846479 0 0.4628011452372443 0.35721885356897543 0 0.45466128638888681 0.34537342559846479 0 0.45151374504626951 0.36758660991241321 0 0.43941431748234389 0.34697694962204328 0 0.45151374504626951 0.36758660991241321 0 0.43248649325656402 0.35912170041613489 0 0.45466128638888681 0.34537342559846479 0 0.43941431748234389 0.34697694962204328 0 0.45151374504626951 0.36758660991241321 0 0.45151374504626951 0.36758660991241321 0 0.4343808670510142 0.37207818795490849 0 0.43248649325656402 0.35912170041613489 0 0.4343808670510142 0.37207818795490849 0 0.41565945607251759 0.36236511110304392 0 0.42235721568131929 0.38220686924127689 0 0.4343808670510142 0.37207818795490849 0 0.41565945607251759 0.36236511110304392 0 0.43248649325656402 0.35912170041613489 0 0.41565945607251759 0.36236511110304392 0 0.40683499004542412 0.37566900985645529 0 0.42235721568131929 0.38220686924127689 0 0.41565945607251759 0.36236511110304392 0 0.42423344021441339 0.3469403641650044 0 0.40881868850316022 0.34319093436892228 0 0.41565945607251759 0.36236511110304392 0 0.40881868850316022 0.34319093436892228 0 0.40255325820206211 0.35440744329028528 0 0.41565945607251759 0.36236511110304392 0 0.42423344021441339 0.3469403641650044 0 0.43248649325656402 0.35912170041613489 0 0.43941431748234389 0.34697694962204328 0 0.42423344021441339 0.3469403641650044 0 0.43248649325656402 0.35912170041613489 0 0.43941431748234389 0.34697694962204328 0 0.42423344021441339 0.3469403641650044 0 0.43138153093963261 0.33684778794266318 0 0.43138153093963261 0.33684778794266318 0 0.43736796180383269 0.33070162376080392 0 0.42780810280890752 0.32854219536395729 0 0.43138153093963261 0.33684778794266318 0 0.42780810280890752 0.32854219536395729 0 0.41974391964010321 0.33544292333485398 0 0.42780810280890752 0.32854219536395729 0 0.41816216709540432 0.32913892271221878 0 0.41974391964010321 0.33544292333485398 0 0.42423344021441339 0.3469403641650044 0 0.43138153093963261 0.33684778794266318 0 0.41974391964010321 0.33544292333485398 0 0.44590058407496119 0.32214035093537202 0 0.417039918788641 0.32200554090679828 0 0.43554340190627211 0.31006971119553528 0 0.42610184512817068 0.31856760869421968 0 0.41590325438833858 0.31571238371771643 0 0.44590058407496119 0.32214035093537202 0 0.42610184512817068 0.31856760869421968 0 0.417039918788641 0.32200554090679828 0 0.44590058407496119 0.32214035093537202 0 0.42780810280890752 0.32854219536395729 0 0.417039918788641 0.32200554090679828 0 0.44590058407496119 0.32214035093537202 0 0.43736796180383269 0.33070162376080392 0 0.42780810280890752 0.32854219536395729 0 0.43554340190627211 0.31006971119553528 0 0.41590325438833858 0.31571238371771643 0 0.43554340190627211 0.31006971119553528 0 0.44590058407496119 0.32214035093537202 0 0.42610184512817068 0.31856760869421968 0 0.40639677157087911 0.30212762763804019 0 0.417039918788641 0.32200554090679828 0 0.4081981699382346 0.3139513768470385 0 0.40639677157087911 0.30212762763804019 0 0.41590325438833858 0.31571238371771643 0 0.417039918788641 0.32200554090679828 0 0.42610184512817068 0.31856760869421968 0 0.41590325438833858 0.31571238371771643 0 0.417039918788641 0.32200554090679828 0 0.417039918788641 0.32200554090679828 0 0.41816216709540432 0.32913892271221878 0 0.41176425843116088 0.33156610519561941 0 0.42780810280890752 0.32854219536395729 0 0.417039918788641 0.32200554090679828 0 0.41816216709540432 0.32913892271221878 0 0.42423344021441339 0.3469403641650044 0 0.41974391964010321 0.33544292333485398 0 0.40881868850316022 0.34319093436892228 0 0.41816216709540432 0.32913892271221878 0 0.41974391964010321 0.33544292333485398 0 0.41176425843116088 0.33156610519561941 0 0.417039918788641 0.32200554090679828 0 0.41176425843116088 0.33156610519561941 0 0.40171431040203109 0.33103781916521291 0 0.41176425843116088 0.33156610519561941 0 0.40881868850316022 0.34319093436892228 0 0.40171431040203109 0.33103781916521291 0 0.41974391964010321 0.33544292333485398 0 0.41176425843116088 0.33156610519561941 0 0.40881868850316022 0.34319093436892228 0 0.40171431040203109 0.33103781916521291 0 0.38634354889032002 0.32367976249598251 0 0.39069281237429682 0.34525116339505252 0 0.40881868850316022 0.34319093436892228 0 0.40171431040203109 0.33103781916521291 0 0.39069281237429682 0.34525116339505252 0 0.417039918788641 0.32200554090679828 0 0.40171431040203109 0.33103781916521291 0 0.38634354889032002 0.32367976249598251 0 0.417039918788641 0.32200554090679828 0 0.4081981699382346 0.3139513768470385 0 0.38634354889032002 0.32367976249598251 0 0.39341545683502421 0.31015448597301559 0 0.4081981699382346 0.3139513768470385 0 0.38634354889032002 0.32367976249598251 0 0.417039918788641 0.32200554090679828 0 0.38634354889032002 0.32367976249598251 0 0.38634354889032002 0.32367976249598251 0 0.39069281237429682 0.34525116339505252 0 0.37418757138316661 0.34003979241565702 0 0.38634354889032002 0.32367976249598251 0 0.39069281237429682 0.34525116339505252 0 0.37418757138316661 0.34003979241565702 0 0.38014707859742553 0.358601566133181 0 0.39069281237429682 0.34525116339505252 0 0.38014707859742553 0.358601566133181 0 0.39504207585827378 0.36682256429412252 0 0.39069281237429682 0.34525116339505252 0 0.36927583114563117 0.37168826674887129 0 0.38014707859742553 0.358601566133181 0 0.3861818138235471 0.37714139125663793 0 0.38014707859742553 0.358601566133181 0 0.39504207585827378 0.36682256429412252 0 0.3861818138235471 0.37714139125663793 0 0.41565945607251759 0.36236511110304392 0 0.39504207585827378 0.36682256429412252 0 0.40683499004542412 0.37566900985645529 0 0.41565945607251759 0.36236511110304392 0 0.39504207585827378 0.36682256429412252 0 0.40255325820206211 0.35440744329028528 0 0.39504207585827378 0.36682256429412252 0 0.40255325820206211 0.35440744329028528 0 0.39069281237429682 0.34525116339505252 0 0.40881868850316022 0.34319093436892228 0 0.40255325820206211 0.35440744329028528 0 0.39069281237429682 0.34525116339505252 0 0.39504207585827378 0.36682256429412252 0 0.39069281237429682 0.34525116339505252 0 0.3993913393422508 0.38839396519319253 0 0.39020643165102042 0.40750290438779102 0 0.40342788129008578 0.41136751416027151 0 0.3993913393422508 0.38839396519319253 0 0.40342788129008578 0.41136751416027151 0 0.41247484703898341 0.39668929567888889 0 0.3993913393422508 0.38839396519319253 0 0.38594138320053972 0.39504117240748449 0 0.39020643165102042 0.40750290438779102 0 0.39504207585827378 0.36682256429412252 0 0.3993913393422508 0.38839396519319253 0 0.40683499004542412 0.37566900985645529 0 0.39504207585827378 0.36682256429412252 0 0.3993913393422508 0.38839396519319253 0 0.39504207585827378 0.36682256429412252 0 0.3993913393422508 0.38839396519319253 0 0.3861818138235471 0.37714139125663793 0 0.3993913393422508 0.38839396519319253 0 0.41247484703898341 0.39668929567888889 0 0.40683499004542412 0.37566900985645529 0 0.36927583114563117 0.37168826674887129 0 0.38594138320053972 0.39504117240748449 0 0.3993913393422508 0.38839396519319253 0 0.3861818138235471 0.37714139125663793 0 0.38594138320053972 0.39504117240748449 0 0.36927583114563117 0.37168826674887129 0 0.3861818138235471 0.37714139125663793 0 0.38594138320053972 0.39504117240748449 0 0.36672310374365391 0.3972274770167053 0 0.38594138320053972 0.39504117240748449 0 0.37714557779446961 0.40580011292323048 0 0.38594138320053972 0.39504117240748449 0 0.37714557779446961 0.40580011292323048 0 0.39020643165102042 0.40750290438779102 0 0.37714557779446961 0.40580011292323048 0 0.39020643165102042 0.40750290438779102 0 0.37786999239799629 0.42201923841731348 0 0.39020643165102042 0.40750290438779102 0 0.37786999239799629 0.42201923841731348 0 0.39620875860206523 0.42610388639599522 0 0.3672128213662551 0.44140310366938379 0 0.37786999239799629 0.42201923841731348 0 0.38861509636247821 0.44175005125570632 0 0.37786999239799629 0.42201923841731348 0 0.39620875860206523 0.42610388639599522 0 0.38861509636247821 0.44175005125570632 0 0.39620875860206523 0.42610388639599522 0 0.40342788129008578 0.41136751416027151 0 0.4165515890159211 0.43106581875832262 0 0.39020643165102042 0.40750290438779102 0 0.39620875860206523 0.42610388639599522 0 0.40342788129008578 0.41136751416027151 0 0.40342788129008578 0.41136751416027151 0 0.4194649070479346 0.41075775866906961 0 0.4165515890159211 0.43106581875832262 0 0.40342788129008578 0.41136751416027151 0 0.4194649070479346 0.41075775866906961 0 0.41247484703898341 0.39668929567888889 0 0.39620875860206523 0.42610388639599522 0 0.4165515890159211 0.43106581875832262 0 0.40679533173472487 0.44514780784289609 0 0.4165515890159211 0.43106581875832262 0 0.44107028692003247 0.43153611533185032 0 0.4165515890159211 0.43106581875832262 0 0.43527838440837918 0.41507327228856877 0 0.44107028692003247 0.43153611533185032 0 0.4194649070479346 0.41075775866906961 0 0.4165515890159211 0.43106581875832262 0 0.43527838440837918 0.41507327228856877 0 0.4194649070479346 0.41075775866906961 0 0.43527838440837918 0.41507327228856877 0 0.42844040697821201 0.39890611008127758 0 0.43527838440837918 0.41507327228856877 0 0.42844040697821201 0.39890611008127758 0 0.44356544647064411 0.40084295107477419 0 0.42844040697821201 0.39890611008127758 0 0.43978627658039499 0.38550810048347522 0 0.44356544647064411 0.40084295107477419 0 0.4194649070479346 0.41075775866906961 0 0.42844040697821201 0.39890611008127758 0 0.41247484703898341 0.39668929567888889 0 0.42844040697821201 0.39890611008127758 0 0.41247484703898341 0.39668929567888889 0 0.42235721568131929 0.38220686924127689 0 0.41247484703898341 0.39668929567888889 0 0.40683499004542412 0.37566900985645529 0 0.42235721568131929 0.38220686924127689 0 0.4343808670510142 0.37207818795490849 0 0.42235721568131929 0.38220686924127689 0 0.43978627658039499 0.38550810048347522 0 0.42844040697821201 0.39890611008127758 0 0.42235721568131929 0.38220686924127689 0 0.43978627658039499 0.38550810048347522 0 0.45151374504626951 0.36758660991241321 0 0.4343808670510142 0.37207818795490849 0 0.43978627658039499 0.38550810048347522 0 0.45151374504626951 0.36758660991241321 0 0.43978627658039499 0.38550810048347522 0 0.45722528454721961 0.3906654768237981 0 0.43978627658039499 0.38550810048347522 0 0.44356544647064411 0.40084295107477419 0 0.45722528454721961 0.3906654768237981 0 0.44356544647064411 0.40084295107477419 0 0.45722528454721961 0.3906654768237981 0 0.45594545333092312 0.41337501331873322 0 0.45722528454721961 0.3906654768237981 0 0.47568108772685191 0.39367102650606373 0 0.46881626912638691 0.40427363304328218 0 0.45722528454721961 0.3906654768237981 0 0.46881626912638691 0.40427363304328218 0 0.45594545333092312 0.41337501331873322 0 0.45151374504626951 0.36758660991241321 0 0.45722528454721961 0.3906654768237981 0 0.46980882541715813 0.38208294099771128 0 0.45722528454721961 0.3906654768237981 0 0.46980882541715813 0.38208294099771128 0 0.47568108772685191 0.39367102650606373 0 0.4736556537454587 0.3678330253399309 0 0.46980882541715813 0.38208294099771128 0 0.48477613844387402 0.38021688004838439 0 0.47568108772685191 0.39367102650606373 0 0.48702766555901961 0.39491075051184021 0 0.48477613844387402 0.38021688004838439 0 0.46980882541715813 0.38208294099771128 0 0.47568108772685191 0.39367102650606373 0 0.48477613844387402 0.38021688004838439 0 0.47568108772685191 0.39367102650606373 0 0.46881626912638691 0.40427363304328218 0 0.48151606592710777 0.40452093291302588 0 0.47568108772685191 0.39367102650606373 0 0.48151606592710777 0.40452093291302588 0 0.48702766555901961 0.39491075051184021 0 0.48702766555901961 0.39491075051184021 0 0.49874079622209128 0.38660437256818281 0 0.49442423947517328 0.40954054052354433 0 0.5 0.40278607211007789 0 0.49874079622209128 0.38660437256818281 0 0.49442423947517328 0.40954054052354433 0 0.49874079622209128 0.38660437256818281 0 0.49442423947517328 0.40954054052354433 0 0.48151606592710777 0.40452093291302588 0 0.48702766555901961 0.39491075051184021 0 0.49442423947517328 0.40954054052354433 0 0.5 0.37290568982018429 0 0.5 0.40278607211007789 0 0.49874079622209128 0.38660437256818281 0 0.5 0.37290568982018429 0 0.49874079622209128 0.38660437256818281 0 0.48477613844387402 0.38021688004838439 0 0.48702766555901961 0.39491075051184021 0 0.49874079622209128 0.38660437256818281 0 0.48477613844387402 0.38021688004838439 0 0.49010768272825528 0.43247670847890568 0 0.49999999999999839 0.43266645439997159 0 0.49442423947517328 0.40954054052354433 0 0.49010768272825528 0.43247670847890568 0 0.49999999999999839 0.43266645439997159 0 0.5 0.40278607211007789 0 0.49999999999999839 0.43266645439997159 0 0.49442423947517328 0.40954054052354433 0 0.49010768272825528 0.43247670847890568 0 0.49442423947517328 0.40954054052354433 0 0.47768739680387268 0.41777805257305989 0 0.48151606592710777 0.40452093291302588 0 0.49442423947517328 0.40954054052354433 0 0.47768739680387268 0.41777805257305989 0 0.49010768272825528 0.43247670847890568 0 0.49442423947517328 0.40954054052354433 0 0.46881626912638691 0.40427363304328218 0 0.48151606592710777 0.40452093291302588 0 0.47768739680387268 0.41777805257305989 0 0.49010768272825528 0.43247670847890568 0 0.47768739680387268 0.41777805257305989 0 0.4655889848241439 0.43200641190537797 0 0.49010768272825528 0.43247670847890568 0 0.4655889848241439 0.43200641190537797 0 0.47536631759922843 0.44556886167195853 0 0.49010768272825528 0.43247670847890568 0 0.4655889848241439 0.43200641190537797 0 0.4655889848241439 0.43200641190537797 0 0.44107028692003247 0.43153611533185032 0 0.4655889848241439 0.43200641190537797 0 0.45594545333092312 0.41337501331873322 0 0.44107028692003247 0.43153611533185032 0 0.4655889848241439 0.43200641190537797 0 0.44107028692003247 0.43153611533185032 0 0.4606865760628292 0.44801704672434101 0 0.47768739680387268 0.41777805257305989 0 0.4655889848241439 0.43200641190537797 0 0.45594545333092312 0.41337501331873322 0 0.46881626912638691 0.40427363304328218 0 0.47768739680387268 0.41777805257305989 0 0.45594545333092312 0.41337501331873322 0 0.43527838440837918 0.41507327228856877 0 0.45594545333092312 0.41337501331873322 0 0.44107028692003247 0.43153611533185032 0 0.43527838440837918 0.41507327228856877 0 0.44356544647064411 0.40084295107477419 0 0.45594545333092312 0.41337501331873322 0 0.49999999999999839 0.43266645439997159 0 0.48505572566105232 0.45932045051458531 0 0.5 0.5 0 0.44107028692003247 0.43153611533185032 0 0.44376664188615123 0.45979150936037488 0 0.4606865760628292 0.44801704672434101 0 0.44376664188615123 0.45979150936037488 0 0.46112241578244989 0.46478661640483648 0 0.45121200239437631 0.4807671998253365 0 0.44376664188615123 0.45979150936037488 0 0.46112241578244989 0.46478661640483648 0 0.4606865760628292 0.44801704672434101 0 0.46112241578244989 0.46478661640483648 0 0.4606865760628292 0.44801704672434101 0 0.47539261871986088 0.45602369073658289 0 0.4655889848241439 0.43200641190537797 0 0.4606865760628292 0.44801704672434101 0 0.47536631759922843 0.44556886167195853 0 0.49010768272825528 0.43247670847890568 0 0.47536631759922843 0.44556886167195853 0 0.48505572566105232 0.45932045051458531 0 0.4606865760628292 0.44801704672434101 0 0.47536631759922843 0.44556886167195853 0 0.47539261871986088 0.45602369073658289 0 0.47539261871986088 0.45602369073658289 0 0.47110615765410929 0.47801184536829172 0 0.47539261871986088 0.45602369073658289 0 0.48505572566105232 0.45932045051458531 0 0.47110615765410929 0.47801184536829172 0 0.46112241578244989 0.46478661640483648 0 0.47539261871986088 0.45602369073658289 0 0.47110615765410929 0.47801184536829172 0 0.47536631759922843 0.44556886167195853 0 0.47539261871986088 0.45602369073658289 0 0.48505572566105232 0.45932045051458531 0 0.49010768272825528 0.43247670847890568 0 0.48505572566105232 0.45932045051458531 0 0.49010768272825528 0.43247670847890568 0 0.49999999999999839 0.43266645439997159 0 0.48505572566105232 0.45932045051458531 0 0.48505572566105232 0.45932045051458531 0 0.5 0.5 0 0.48000376859384941 0.48616419255026477 0 0.5 0.5 0 0.48000376859384941 0.48616419255026477 0 0.46681969658835759 0.50000000000000044 0 0.48505572566105232 0.45932045051458531 0 0.47110615765410929 0.47801184536829172 0 0.48000376859384941 0.48616419255026477 0 0.48505572566105232 0.45932045051458531 0 0.48000376859384941 0.48616419255026477 0 0.47110615765410929 0.47801184536829172 0 0.46681969658835759 0.50000000000000044 0 0.47110615765410929 0.47801184536829172 0 0.48000376859384941 0.48616419255026477 0 0.46681969658835759 0.50000000000000044 0 0.47110615765410929 0.47801184536829172 0 0.46681969658835759 0.50000000000000044 0 0.45121200239437631 0.4807671998253365 0 0.46112241578244989 0.46478661640483648 0 0.47110615765410929 0.47801184536829172 0 0.45121200239437631 0.4807671998253365 0 0.44376664188615123 0.45979150936037488 0 0.45121200239437631 0.4807671998253365 0 0.42408561830569141 0.47732830779616442 0 0.46681969658835759 0.50000000000000044 0 0.45121200239437631 0.4807671998253365 0 0.43971230006436901 0.5 0 0.45121200239437631 0.4807671998253365 0 0.43971230006436901 0.5 0 0.42408561830569141 0.47732830779616442 0 0.43971230006436901 0.5 0 0.41260490354038032 0.5 0 0.42408561830569141 0.47732830779616442 0 0.41260490354038032 0.5 0 0.42408561830569141 0.47732830779616442 0 0.40044085355502113 0.48368683573266119 0 0.42408561830569141 0.47732830779616442 0 0.40050545668784993 0.46242548604636152 0 0.40044085355502113 0.48368683573266119 0 0.44376664188615123 0.45979150936037488 0 0.42408561830569141 0.47732830779616442 0 0.42267709028742451 0.45339185591380432 0 0.44107028692003247 0.43153611533185032 0 0.44376664188615123 0.45979150936037488 0 0.42267709028742451 0.45339185591380432 0 0.4165515890159211 0.43106581875832262 0 0.44107028692003247 0.43153611533185032 0 0.42267709028742451 0.45339185591380432 0 0.4165515890159211 0.43106581875832262 0 0.42267709028742451 0.45339185591380432 0 0.40679533173472487 0.44514780784289609 0 0.42408561830569141 0.47732830779616442 0 0.42267709028742451 0.45339185591380432 0 0.40050545668784993 0.46242548604636152 0 0.42267709028742451 0.45339185591380432 0 0.40679533173472487 0.44514780784289609 0 0.40050545668784993 0.46242548604636152 0 0.40679533173472487 0.44514780784289609 0 0.40050545668784993 0.46242548604636152 0 0.38861509636247821 0.44175005125570632 0 0.39620875860206523 0.42610388639599522 0 0.40679533173472487 0.44514780784289609 0 0.38861509636247821 0.44175005125570632 0 0.3672128213662551 0.44140310366938379 0 0.38861509636247821 0.44175005125570632 0 0.37565915938479377 0.45849116020829678 0 0.40050545668784993 0.46242548604636152 0 0.37565915938479377 0.45849116020829678 0 0.37951078222479251 0.47868038482078018 0 0.40050545668784993 0.46242548604636152 0 0.38861509636247821 0.44175005125570632 0 0.37565915938479377 0.45849116020829678 0 0.37951078222479251 0.47868038482078018 0 0.38549750701639152 0.5 0 0.40044085355502113 0.48368683573266119 0 0.41260490354038032 0.5 0 0.38549750701639152 0.5 0 0.40044085355502113 0.48368683573266119 0 0.40050545668784993 0.46242548604636152 0 0.37951078222479251 0.47868038482078018 0 0.40044085355502113 0.48368683573266119 0 0.3285700774521132 0.069227507684709172 0 0.34376262838779448 0.090160381808613591 0 0.3285700774521132 0.069227507684709172 0 0.34376262838779448 0.090160381808613591 0 0.3570119940846016 0.07655140493877155 0 0.3285700774521132 0.069227507684709172 0 0.31851483003181857 0.089032350953859848 0 0.34376262838779448 0.090160381808613591 0 0.3285700774521132 0.069227507684709172 0 0.31851483003181857 0.089032350953859848 0 0.30262144479489489 0.063472250579192202 0 0.31851483003181857 0.089032350953859848 0 0.32257158209111758 0.11034462767622299 0 0.33741607394213652 0.1036774965936159 0 0.31851483003181857 0.089032350953859848 0 0.32257158209111758 0.11034462767622299 0 0.29867863108980142 0.1045573716884185 0 0.32257158209111758 0.11034462767622299 0 0.32933038512457441 0.1245201253257071 0 0.3207185438207466 0.1263919595033525 0 0.32257158209111758 0.11034462767622299 0 0.31156748461804079 0.12537242366950921 0 0.3207185438207466 0.1263919595033525 0 0.32933038512457441 0.1245201253257071 0 0.34646453309243358 0.11613188366402739 0 0.34441400131097022 0.1288917011053414 0 0.32257158209111758 0.11034462767622299 0 0.33741607394213652 0.1036774965936159 0 0.34646453309243358 0.11613188366402739 0 0.32257158209111758 0.11034462767622299 0 0.34646453309243358 0.11613188366402739 0 0.32257158209111758 0.11034462767622299 0 0.32933038512457441 0.1245201253257071 0 0.34646453309243358 0.11613188366402739 0 0.31851483003181857 0.089032350953859848 0 0.33741607394213652 0.1036774965936159 0 0.34376262838779448 0.090160381808613591 0 0.35895517932347593 0.111093255932518 0 0.36286728541875429 0.096218484345557367 0 0.34376262838779448 0.090160381808613591 0 0.33741607394213652 0.1036774965936159 0 0.35895517932347593 0.111093255932518 0 0.34376262838779448 0.090160381808613591 0 0.35895517932347593 0.111093255932518 0 0.34376262838779448 0.090160381808613591 0 0.34646453309243358 0.11613188366402739 0 0.35895517932347593 0.111093255932518 0 0.37035748409374952 0.12191913965183331 0 0.34646453309243358 0.11613188366402739 0 0.37035748409374952 0.12191913965183331 0 0.33741607394213652 0.1036774965936159 0 0.34646453309243358 0.11613188366402739 0 0.35895517932347593 0.111093255932518 0 0.34646453309243358 0.11613188366402739 0 0.37035748409374952 0.12191913965183331 0 0.34441400131097022 0.1288917011053414 0 0.35895517932347593 0.111093255932518 0 0.36901916600157941 0.1100142775002767 0 0.37035748409374952 0.12191913965183331 0 0.36901916600157941 0.1100142775002767 0 0.37035748409374952 0.12191913965183331 0 0.37815432920295677 0.1109533992790251 0 0.37035748409374952 0.12191913965183331 0 0.37511757494472903 0.123072110010257 0 0.37035748409374952 0.12191913965183331 0 0.37169283910029199 0.12815165521797289 0 0.37511757494472903 0.123072110010257 0 0.36286728541875429 0.096218484345557367 0 0.37455144446510141 0.10193275935197101 0 0.37400882161871279 0.083619613235024759 0 0.35895517932347593 0.111093255932518 0 0.36901916600157941 0.1100142775002767 0 0.36286728541875429 0.096218484345557367 0 0.36901916600157941 0.1100142775002767 0 0.36286728541875429 0.096218484345557367 0 0.37455144446510141 0.10193275935197101 0 0.36901916600157941 0.1100142775002767 0 0.37455144446510141 0.10193275935197101 0 0.37815432920295677 0.1109533992790251 0 0.36286728541875429 0.096218484345557367 0 0.37400882161871279 0.083619613235024759 0 0.3570119940846016 0.07655140493877155 0 0.36286728541875429 0.096218484345557367 0 0.34376262838779448 0.090160381808613591 0 0.3570119940846016 0.07655140493877155 0 0.3285700774521132 0.069227507684709172 0 0.3570119940846016 0.07655140493877155 0 0.3540274811898364 0.057481719132925622 0 0.37400882161871279 0.083619613235024759 0 0.3570119940846016 0.07655140493877155 0 0.37883567044039879 0.062600723425798879 0 0.3570119940846016 0.07655140493877155 0 0.3540274811898364 0.057481719132925622 0 0.37883567044039879 0.062600723425798879 0 0.36884998715724038 0.048654936693666287 0 0.3540274811898364 0.057481719132925622 0 0.37883567044039879 0.062600723425798879 0 0.36884998715724038 0.048654936693666287 0 0.36096242836060388 0.032492650360987897 0 0.3540274811898364 0.057481719132925622 0 0.36884998715724038 0.048654936693666287 0 0.36096242836060388 0.032492650360987897 0 0.38366251926208489 0.041581833616573027 0 0.36096242836060388 0.032492650360987897 0 0.3540274811898364 0.057481719132925622 0 0.33343548863743699 0.044422356914628619 0 0.36096242836060388 0.032492650360987897 0 0.34150772405548108 0.025325389551572871 0 0.33343548863743699 0.044422356914628619 0 0.36096242836060388 0.032492650360987897 0 0.33343548863743699 0.044422356914628619 0 0.36934971840039982 0.01412264887454192 0 0.38120377069012762 0.010554394007073271 0 0.36845156083710567 -0.0060515153414843056 0 0.36934971840039982 0.01412264887454192 0 0.35188933009005469 0.012921367503740049 0 0.36845156083710567 -0.0060515153414843056 0 0.36096242836060388 0.032492650360987897 0 0.38848936808377088 0.020562943807347231 0 0.36096242836060388 0.032492650360987897 0 0.36934971840039982 0.01412264887454192 0 0.35188933009005469 0.012921367503740049 0 0.36096242836060388 0.032492650360987897 0 0.36934971840039982 0.01412264887454192 0 0.38848936808377088 0.020562943807347231 0 0.36096242836060388 0.032492650360987897 0 0.35188933009005469 0.012921367503740049 0 0.34150772405548108 0.025325389551572871 0 0.35188933009005469 0.012921367503740049 0 0.36845156083710567 -0.0060515153414843056 0 0.34114057903213352 -0.00099436838624600288 0 0.32992396985460443 0.01263339996306794 0 0.31382959722716158 0.0040627785689932028 0 0.34114057903213352 -0.00099436838624600288 0 0.35188933009005469 0.012921367503740049 0 0.32992396985460443 0.01263339996306794 0 0.34114057903213352 -0.00099436838624600288 0 0.32992396985460443 0.01263339996306794 0 0.34150772405548108 0.025325389551572871 0 0.32077834005703848 0.02927741351548363 0 0.35188933009005469 0.012921367503740049 0 0.32992396985460443 0.01263339996306794 0 0.34150772405548108 0.025325389551572871 0 0.32992396985460443 0.01263339996306794 0 0.32077834005703848 0.02927741351548363 0 0.31391214704691389 0.015516024244919061 0 0.32992396985460443 0.01263339996306794 0 0.31391214704691389 0.015516024244919061 0 0.31382959722716158 0.0040627785689932028 0 0.31382959722716158 0.0040627785689932028 0 0.34183048761771712 -0.0039986291523161147 0 0.31382959722716158 0.0040627785689932028 0 0.34114057903213352 -0.00099436838624600288 0 0.31382959722716158 0.0040627785689932028 0 0.30752965714041391 0.0058765203804442539 0 0.32194573769061952 -0.0077676308935595512 0 0.3285700774521132 0.069227507684709172 0 0.3540274811898364 0.057481719132925622 0 0.33343548863743699 0.044422356914628619 0 0.34150772405548108 0.025325389551572871 0 0.32077834005703848 0.02927741351548363 0 0.33343548863743699 0.044422356914628619 0 0.32077834005703848 0.02927741351548363 0 0.33343548863743699 0.044422356914628619 0 0.31337752651643169 0.04829463356080467 0 0.3285700774521132 0.069227507684709172 0 0.31337752651643169 0.04829463356080467 0 0.3285700774521132 0.069227507684709172 0 0.33343548863743699 0.044422356914628619 0 0.31337752651643169 0.04829463356080467 0 0.3285700774521132 0.069227507684709172 0 0.31337752651643169 0.04829463356080467 0 0.30262144479489489 0.063472250579192202 0 0.31337752651643169 0.04829463356080467 0 0.29190445549758398 0.041801895735158197 0 0.30262144479489489 0.063472250579192202 0 0.31337752651643169 0.04829463356080467 0 0.29818497558074802 0.027361759436901809 0 0.31337752651643169 0.04829463356080467 0 0.29190445549758398 0.041801895735158197 0 0.29818497558074802 0.027361759436901809 0 0.32077834005703848 0.02927741351548363 0 0.31337752651643169 0.04829463356080467 0 0.29818497558074802 0.027361759436901809 0 0.29190445549758398 0.041801895735158197 0 0.29818497558074802 0.027361759436901809 0 0.28149235485467722 0.028426230672526639 0 0.29190445549758398 0.041801895735158197 0 0.28562393541442521 0.056242032033416753 0 0.26921605588191849 0.040519794607793452 0 0.29190445549758398 0.041801895735158197 0 0.29818497558074802 0.027361759436901809 0 0.29190445549758398 0.041801895735158197 0 0.28562393541442521 0.056242032033416753 0 0.29190445549758398 0.041801895735158197 0 0.28562393541442521 0.056242032033416753 0 0.30262144479489489 0.063472250579192202 0 0.2978295874258669 0.0070254842464454832 0 0.30752965714041391 0.0058765203804442539 0 0.2978295874258669 0.0070254842464454832 0 0.30752965714041391 0.0058765203804442539 0 0.29396858594285019 -0.001032612778502764 0 0.31382959722716158 0.0040627785689932028 0 0.30752965714041391 0.0058765203804442539 0 0.31391214704691389 0.015516024244919061 0 0.30752965714041391 0.0058765203804442539 0 0.30398999522707459 0.014014891057021139 0 0.30752965714041391 0.0058765203804442539 0 0.30398999522707459 0.014014891057021139 0 0.31391214704691389 0.015516024244919061 0 0.31382959722716158 0.0040627785689932028 0 0.30752965714041391 0.0058765203804442539 0 0.2978295874258669 0.0070254842464454832 0 0.30752965714041391 0.0058765203804442539 0 0.30398999522707459 0.014014891057021139 0 0.2978295874258669 0.0070254842464454832 0 0.30398999522707459 0.014014891057021139 0 0.31391214704691389 0.015516024244919061 0 0.30398999522707459 0.014014891057021139 0 0.29818497558074802 0.027361759436901809 0 0.32077834005703848 0.02927741351548363 0 0.31391214704691389 0.015516024244919061 0 0.29818497558074802 0.027361759436901809 0 0.30398999522707459 0.014014891057021139 0 0.29818497558074802 0.027361759436901809 0 0.30398999522707459 0.014014891057021139 0 0.29818497558074802 0.027361759436901809 0 0.28690172397702512 0.011815266518820099 0 0.29818497558074802 0.027361759436901809 0 0.28149235485467722 0.028426230672526639 0 0.28690172397702512 0.011815266518820099 0 0.29818497558074802 0.027361759436901809 0 0.28690172397702512 0.011815266518820099 0 0.28690172397702512 0.011815266518820099 0 0.28687677889875068 0.001725005618485562 0 0.27267603034966698 -0.0077854348569651906 0 0.2978295874258669 0.0070254842464454832 0 0.30398999522707459 0.014014891057021139 0 0.28690172397702512 0.011815266518820099 0 0.2978295874258669 0.0070254842464454832 0 0.28690172397702512 0.011815266518820099 0 0.29376575238797509 0.0077779804816672602 0 0.2978295874258669 0.0070254842464454832 0 0.28690172397702512 0.011815266518820099 0 0.2978295874258669 0.0070254842464454832 0 0.28687677889875068 0.001725005618485562 0 0.29376575238797509 0.0077779804816672602 0 0.28690172397702512 0.011815266518820099 0 0.28687677889875068 0.001725005618485562 0 0.29376575238797509 0.0077779804816672602 0 0.2978295874258669 0.0070254842464454832 0 0.29376575238797509 0.0077779804816672602 0 0.28690172397702512 0.011815266518820099 0 0.26939274767164711 0.0040745279013861191 0 0.27267603034966698 -0.0077854348569651906 0 0.28690172397702512 0.011815266518820099 0 0.26440570944936082 0.018291830038140541 0 0.28690172397702512 0.011815266518820099 0 0.26939274767164711 0.0040745279013861191 0 0.26440570944936082 0.018291830038140541 0 0.28690172397702512 0.011815266518820099 0 0.27267603034966698 -0.0077854348569651906 0 0.28149235485467722 0.028426230672526639 0 0.26440570944936082 0.018291830038140541 0 0.26921605588191849 0.040519794607793452 0 0.28149235485467722 0.028426230672526639 0 0.28690172397702512 0.011815266518820099 0 0.26440570944936082 0.018291830038140541 0 0.24190969492169709 0.024768393557462999 0 0.26440570944936082 0.018291830038140541 0 0.2485551203034157 0.0102848256948572 0 0.24190969492169709 0.024768393557462999 0 0.26440570944936082 0.018291830038140541 0 0.24190969492169709 0.024768393557462999 0 0.26440570944936082 0.018291830038140541 0 0.25291178968964928 0.037547667281027097 0 0.2485551203034157 0.0102848256948572 0 0.26440570944936082 0.018291830038140541 0 0.25894279220913391 0.003459445712386486 0 0.26939274767164711 0.0040745279013861191 0 0.26440570944936082 0.018291830038140541 0 0.25894279220913391 0.003459445712386486 0 0.2485551203034157 0.0102848256948572 0 0.25894279220913391 0.003459445712386486 0 0.2479891295484222 -0.0022684572774312019 0 0.26939274767164711 0.0040745279013861191 0 0.25894279220913391 0.003459445712386486 0 0.26317147738524183 -0.0038637327990410169 0 0.28562393541442521 0.056242032033416753 0 0.27026274557325353 0.056119745337220257 0 0.26921605588191849 0.040519794607793452 0 0.28562393541442521 0.056242032033416753 0 0.27026274557325353 0.056119745337220257 0 0.27167623587568768 0.070814912161459326 0 0.29190445549758398 0.041801895735158197 0 0.28149235485467722 0.028426230672526639 0 0.26921605588191849 0.040519794607793452 0 0.26921605588191849 0.040519794607793452 0 0.25291178968964928 0.037547667281027097 0 0.25425538404847059 0.057624927133231481 0 0.26440570944936082 0.018291830038140541 0 0.26921605588191849 0.040519794607793452 0 0.25291178968964928 0.037547667281027097 0 0.27026274557325353 0.056119745337220257 0 0.26921605588191849 0.040519794607793452 0 0.25425538404847059 0.057624927133231481 0 0.27026274557325353 0.056119745337220257 0 0.25425538404847059 0.057624927133231481 0 0.27167623587568768 0.070814912161459326 0 0.25425538404847059 0.057624927133231481 0 0.27167623587568768 0.070814912161459326 0 0.25282536794073712 0.073272794188635415 0 0.26618138576237349 0.084067315497028519 0 0.27167623587568768 0.070814912161459326 0 0.25425538404847059 0.057624927133231481 0 0.25282536794073712 0.073272794188635415 0 0.27167623587568768 0.070814912161459326 0 0.25089272908716931 0.092982859712809007 0 0.26618138576237349 0.084067315497028519 0 0.27478568008848531 0.098770115700614086 0 0.25282536794073712 0.073272794188635415 0 0.25089272908716931 0.092982859712809007 0 0.26618138576237349 0.084067315497028519 0 0.26618138576237349 0.084067315497028519 0 0.28181267844286689 0.084890460016538952 0 0.27478568008848531 0.098770115700614086 0 0.26618138576237349 0.084067315497028519 0 0.27167623587568768 0.070814912161459326 0 0.28181267844286689 0.084890460016538952 0 0.27167623587568768 0.070814912161459326 0 0.2870451550563029 0.071072764848292863 0 0.28181267844286689 0.084890460016538952 0 0.2870451550563029 0.071072764848292863 0 0.29673814540623761 0.08207029957157172 0 0.30262144479489489 0.063472250579192202 0 0.28562393541442521 0.056242032033416753 0 0.2870451550563029 0.071072764848292863 0 0.30262144479489489 0.063472250579192202 0 0.28562393541442521 0.056242032033416753 0 0.27167623587568768 0.070814912161459326 0 0.2870451550563029 0.071072764848292863 0 0.2870451550563029 0.071072764848292863 0 0.28181267844286689 0.084890460016538952 0 0.29673814540623761 0.08207029957157172 0 0.28181267844286689 0.084890460016538952 0 0.29673814540623761 0.08207029957157172 0 0.29867863108980142 0.1045573716884185 0 0.31851483003181857 0.089032350953859848 0 0.29673814540623761 0.08207029957157172 0 0.30262144479489489 0.063472250579192202 0 0.31851483003181857 0.089032350953859848 0 0.29673814540623761 0.08207029957157172 0 0.29867863108980142 0.1045573716884185 0 0.2991284260398443 0.1226428311133997 0 0.29867863108980142 0.1045573716884185 0 0.31156748461804079 0.12537242366950921 0 0.32257158209111758 0.11034462767622299 0 0.29867863108980142 0.1045573716884185 0 0.31156748461804079 0.12537242366950921 0 0.32257158209111758 0.11034462767622299 0 0.29867863108980142 0.1045573716884185 0 0.29867863108980142 0.1045573716884185 0 0.27478568008848531 0.098770115700614086 0 0.29867863108980142 0.1045573716884185 0 0.27783009132198788 0.1122622341296569 0 0.27478568008848531 0.098770115700614086 0 0.28181267844286689 0.084890460016538952 0 0.29867863108980142 0.1045573716884185 0 0.27478568008848531 0.098770115700614086 0 0.2991284260398443 0.1226428311133997 0 0.29867863108980142 0.1045573716884185 0 0.28707615928971691 0.1208096883177448 0 0.29867863108980142 0.1045573716884185 0 0.28707615928971691 0.1208096883177448 0 0.27783009132198788 0.1122622341296569 0 0.2991284260398443 0.1226428311133997 0 0.28707615928971691 0.1208096883177448 0 0.29671346303214241 0.12961196471325551 0 0.26302281242735981 0.111198171579071 0 0.27515289576754948 0.1294134834453334 0 0.28707615928971691 0.1208096883177448 0 0.27783009132198788 0.1122622341296569 0 0.27515289576754948 0.1294134834453334 0 0.27783009132198788 0.1122622341296569 0 0.26302281242735981 0.111198171579071 0 0.27515289576754948 0.1294134834453334 0 0.26302281242735981 0.111198171579071 0 0.26007351669183237 0.1253037732749688 0 0.27515289576754948 0.1294134834453334 0 0.27783009132198788 0.1122622341296569 0 0.27478568008848531 0.098770115700614086 0 0.26302281242735981 0.111198171579071 0 0.25089272908716931 0.092982859712809007 0 0.26302281242735981 0.111198171579071 0 0.2496952397761337 0.1160329650041991 0 0.25089272908716931 0.092982859712809007 0 0.26302281242735981 0.111198171579071 0 0.25089272908716931 0.092982859712809007 0 0.27478568008848531 0.098770115700614086 0 0.26302281242735981 0.111198171579071 0 0.25089272908716931 0.092982859712809007 0 0.27478568008848531 0.098770115700614086 0 0.2471064899150823 0.133463067737116 0 0.2496952397761337 0.1160329650041991 0 0.26007351669183237 0.1253037732749688 0 0.2496952397761337 0.1160329650041991 0 0.26302281242735981 0.111198171579071 0 0.26007351669183237 0.1253037732749688 0 0.2471064899150823 0.133463067737116 0 0.26212056590251792 0.13860634342131159 0 0.25227113898158787 0.14916335431643429 0 0.2471064899150823 0.133463067737116 0 0.26212056590251792 0.13860634342131159 0 0.26007351669183237 0.1253037732749688 0 0.27515289576754948 0.1294134834453334 0 0.28728297910773942 0.14762879531159581 0 0.27515289576754948 0.1294134834453334 0 0.27408945104382287 0.14431330872834849 0 0.28728297910773942 0.14762879531159581 0 0.26212056590251792 0.13860634342131159 0 0.26007351669183237 0.1253037732749688 0 0.27515289576754948 0.1294134834453334 0 0.26212056590251792 0.13860634342131159 0 0.27515289576754948 0.1294134834453334 0 0.27408945104382287 0.14431330872834849 0 0.27408945104382287 0.14431330872834849 0 0.27716137478162928 0.15889869399298601 0 0.28728297910773942 0.14762879531159581 0 0.26212056590251792 0.13860634342131159 0 0.27408945104382287 0.14431330872834849 0 0.26493391480523859 0.14953421755469451 0 0.27408945104382287 0.14431330872834849 0 0.26493391480523859 0.14953421755469451 0 0.27716137478162928 0.15889869399298601 0 0.26493391480523859 0.14953421755469451 0 0.25227113898158787 0.14916335431643429 0 0.25784869618064837 0.16117632967822779 0 0.26212056590251792 0.13860634342131159 0 0.26493391480523859 0.14953421755469451 0 0.25227113898158787 0.14916335431643429 0 0.24342118736862761 0.16410875332904781 0 0.25227113898158787 0.14916335431643429 0 0.25784869618064837 0.16117632967822779 0 0.24342118736862761 0.16410875332904781 0 0.25784869618064837 0.16117632967822779 0 0.25421457754785548 0.17528354573505059 0 0.25784869618064837 0.16117632967822779 0 0.25421457754785548 0.17528354573505059 0 0.26798999978846311 0.16999528723303189 0 0.25421457754785548 0.17528354573505059 0 0.26688833639653942 0.18474270353269559 0 0.25113643024109478 0.19094495075723769 0 0.25421457754785548 0.17528354573505059 0 0.26688833639653942 0.18474270353269559 0 0.26798999978846311 0.16999528723303189 0 0.26688833639653942 0.18474270353269559 0 0.27899922157627788 0.1740987885831469 0 0.26798999978846311 0.16999528723303189 0 0.26688833639653942 0.18474270353269559 0 0.27899922157627788 0.1740987885831469 0 0.28165513110548479 0.1855437801635878 0 0.25784869618064837 0.16117632967822779 0 0.26798999978846311 0.16999528723303189 0 0.27716137478162928 0.15889869399298601 0 0.26493391480523859 0.14953421755469451 0 0.25784869618064837 0.16117632967822779 0 0.27716137478162928 0.15889869399298601 0 0.27899922157627788 0.1740987885831469 0 0.26798999978846311 0.16999528723303189 0 0.27716137478162928 0.15889869399298601 0 0.27716137478162928 0.15889869399298601 0 0.28838527260411961 0.16768800255462621 0 0.29642958482603432 0.1586868689393966 0 0.27899922157627788 0.1740987885831469 0 0.27716137478162928 0.15889869399298601 0 0.28838527260411961 0.16768800255462621 0 0.28838527260411961 0.16768800255462621 0 0.29642958482603432 0.1586868689393966 0 0.2990812202460017 0.16972771789266669 0 0.28165513110548479 0.1855437801635878 0 0.29057456817046978 0.17841330338653549 0 0.29442149412013968 0.19018242885082931 0 0.27899922157627788 0.1740987885831469 0 0.28165513110548479 0.1855437801635878 0 0.29057456817046978 0.17841330338653549 0 0.27899922157627788 0.1740987885831469 0 0.28838527260411961 0.16768800255462621 0 0.29057456817046978 0.17841330338653549 0 0.28838527260411961 0.16768800255462621 0 0.29057456817046978 0.17841330338653549 0 0.2990812202460017 0.16972771789266669 0 0.29057456817046978 0.17841330338653549 0 0.30085032626191438 0.18018504882584371 0 0.2990812202460017 0.16972771789266669 0 0.29057456817046978 0.17841330338653549 0 0.30085032626191438 0.18018504882584371 0 0.29442149412013968 0.19018242885082931 0 0.30085032626191438 0.18018504882584371 0 0.29442149412013968 0.19018242885082931 0 0.3080553032197017 0.1887293017033026 0 0.30085032626191438 0.18018504882584371 0 0.31056514142368619 0.1744383831500049 0 0.2990812202460017 0.16972771789266669 0 0.30085032626191438 0.18018504882584371 0 0.31056514142368619 0.1744383831500049 0 0.3080553032197017 0.1887293017033026 0 0.29642958482603432 0.1586868689393966 0 0.30747502192119819 0.16230778928688711 0 0.30151933753066762 0.14970454816787401 0 0.29642958482603432 0.1586868689393966 0 0.2990812202460017 0.16972771789266669 0 0.30747502192119819 0.16230778928688711 0 0.31056514142368619 0.1744383831500049 0 0.2990812202460017 0.16972771789266669 0 0.30747502192119819 0.16230778928688711 0 0.30747502192119819 0.16230778928688711 0 0.30151933753066762 0.14970454816787401 0 0.3129765302581462 0.1494710021231663 0 0.30151933753066762 0.14970454816787401 0 0.29882590938581222 0.14264553562683399 0 0.30718649112507979 0.14443915855455869 0 0.30151933753066762 0.14970454816787401 0 0.30718649112507979 0.14443915855455869 0 0.3129765302581462 0.1494710021231663 0 0.29882590938581222 0.14264553562683399 0 0.30718649112507979 0.14443915855455869 0 0.31229822968882548 0.13781435906697939 0 0.30718649112507979 0.14443915855455869 0 0.31229822968882548 0.13781435906697939 0 0.3129765302581462 0.1494710021231663 0 0.31229822968882548 0.13781435906697939 0 0.28502845800881449 0.13413009067030229 0 0.31229822968882548 0.13781435906697939 0 0.29671346303214241 0.12961196471325551 0 0.28502845800881449 0.13413009067030229 0 0.29882590938581222 0.14264553562683399 0 0.31229822968882548 0.13781435906697939 0 0.28502845800881449 0.13413009067030229 0 0.2991284260398443 0.1226428311133997 0 0.31156748461804079 0.12537242366950921 0 0.30438347209902411 0.12928289016934871 0 0.31229822968882548 0.13781435906697939 0 0.31156748461804079 0.12537242366950921 0 0.30438347209902411 0.12928289016934871 0 0.31229822968882548 0.13781435906697939 0 0.30438347209902411 0.12928289016934871 0 0.29671346303214241 0.12961196471325551 0 0.2991284260398443 0.1226428311133997 0 0.30438347209902411 0.12928289016934871 0 0.29671346303214241 0.12961196471325551 0 0.27515289576754948 0.1294134834453334 0 0.28502845800881449 0.13413009067030229 0 0.28728297910773942 0.14762879531159581 0 0.28707615928971691 0.1208096883177448 0 0.29671346303214241 0.12961196471325551 0 0.28502845800881449 0.13413009067030229 0 0.28707615928971691 0.1208096883177448 0 0.27515289576754948 0.1294134834453334 0 0.28502845800881449 0.13413009067030229 0 0.27716137478162928 0.15889869399298601 0 0.29642958482603432 0.1586868689393966 0 0.28728297910773942 0.14762879531159581 0 0.29642958482603432 0.1586868689393966 0 0.30151933753066762 0.14970454816787401 0 0.28728297910773942 0.14762879531159581 0 0.30151933753066762 0.14970454816787401 0 0.29882590938581222 0.14264553562683399 0 0.28728297910773942 0.14762879531159581 0 0.29882590938581222 0.14264553562683399 0 0.28502845800881449 0.13413009067030229 0 0.28728297910773942 0.14762879531159581 0 0.2459873280094696 0.23707215699401071 0 0.27381195783464701 0.24213208581531279 0 0.2459873280094696 0.23707215699401071 0 0.27381195783464701 0.24213208581531279 0 0.27283394916361492 0.24742619336605559 0 0.2459873280094696 0.23707215699401071 0 0.27283394916361492 0.24742619336605559 0 0.2459873280094696 0.23707215699401071 0 0.25877170878786238 0.25302463852503437 0 0.27283394916361492 0.24742619336605559 0 0.2459873280094696 0.23707215699401071 0 0.24763005152173001 0.25910176257370959 0 0.25877170878786238 0.25302463852503437 0 0.24332195560292991 0.2175119837032847 0 0.2459873280094696 0.23707215699401071 0 0.26947725056793032 0.22188821543332771 0 0.2459873280094696 0.23707215699401071 0 0.27381195783464701 0.24213208581531279 0 0.26947725056793032 0.22188821543332771 0 0.24332195560292991 0.2175119837032847 0 0.26947725056793032 0.22188821543332771 0 0.27381195783464701 0.24213208581531279 0 0.26947725056793032 0.22188821543332771 0 0.29563254553293061 0.22626444716337071 0 0.26947725056793032 0.22188821543332771 0 0.26383894902510108 0.20488334565775601 0 0.28252807440433819 0.20448568929014271 0 0.24828008483854189 0.20295934428596721 0 0.24332195560292991 0.2175119837032847 0 0.26383894902510108 0.20488334565775601 0 0.24332195560292991 0.2175119837032847 0 0.26947725056793032 0.22188821543332771 0 0.26383894902510108 0.20488334565775601 0 0.26688833639653942 0.18474270353269559 0 0.26383894902510108 0.20488334565775601 0 0.25113643024109478 0.19094495075723769 0 0.24828008483854189 0.20295934428596721 0 0.26383894902510108 0.20488334565775601 0 0.25113643024109478 0.19094495075723769 0 0.26688833639653942 0.18474270353269559 0 0.26383894902510108 0.20488334565775601 0 0.27369942293731819 0.19569303942008121 0 0.26383894902510108 0.20488334565775601 0 0.27369942293731819 0.19569303942008121 0 0.28252807440433819 0.20448568929014271 0 0.28165513110548479 0.1855437801635878 0 0.27369942293731819 0.19569303942008121 0 0.28252807440433819 0.20448568929014271 0 0.26688833639653942 0.18474270353269559 0 0.28165513110548479 0.1855437801635878 0 0.27369942293731819 0.19569303942008121 0 0.28165513110548479 0.1855437801635878 0 0.29442149412013968 0.19018242885082931 0 0.28252807440433819 0.20448568929014271 0 0.29442149412013968 0.19018242885082931 0 0.30168066081365352 0.2029210297493958 0 0.28252807440433819 0.20448568929014271 0 0.29442149412013968 0.19018242885082931 0 0.3080553032197017 0.1887293017033026 0 0.30168066081365352 0.2029210297493958 0 0.3080553032197017 0.1887293017033026 0 0.30168066081365352 0.2029210297493958 0 0.31674655555173881 0.19902842766084339 0 0.30168066081365352 0.2029210297493958 0 0.29563254553293061 0.22626444716337071 0 0.31377845179643721 0.21458276756770189 0 0.30168066081365352 0.2029210297493958 0 0.31377845179643721 0.21458276756770189 0 0.31674655555173881 0.19902842766084339 0 0.30168066081365352 0.2029210297493958 0 0.28252807440433819 0.20448568929014271 0 0.29563254553293061 0.22626444716337071 0 0.26947725056793032 0.22188821543332771 0 0.28252807440433819 0.20448568929014271 0 0.29563254553293061 0.22626444716337071 0 0.26947725056793032 0.22188821543332771 0 0.29563254553293061 0.22626444716337071 0 0.29563254553293061 0.22626444716337071 0 0.3217878404979308 0.23064067889341369 0 0.31377845179643721 0.21458276756770189 0 0.29563254553293061 0.22626444716337071 0 0.3217878404979308 0.23064067889341369 0 0.29563254553293061 0.22626444716337071 0 0.3016365876598241 0.24719201463661561 0 0.3217878404979308 0.23064067889341369 0 0.27381195783464701 0.24213208581531279 0 0.29563254553293061 0.22626444716337071 0 0.3016365876598241 0.24719201463661561 0 0.27381195783464701 0.24213208581531279 0 0.3016365876598241 0.24719201463661561 0 0.27381195783464701 0.24213208581531279 0 0.27283394916361492 0.24742619336605559 0 0.3016365876598241 0.24719201463661561 0 0.32946121748500129 0.25225194345791829 0 0.3217878404979308 0.23064067889341369 0 0.34556910970536658 0.23921390462248199 0 0.32946121748500129 0.25225194345791829 0 0.3016365876598241 0.24719201463661561 0 0.3217878404979308 0.23064067889341369 0 0.32946121748500129 0.25225194345791829 0 0.3016365876598241 0.24719201463661561 0 0.3217878404979308 0.23064067889341369 0 0.33460182177363001 0.21999966289075409 0 0.31377845179643721 0.21458276756770189 0 0.3217878404979308 0.23064067889341369 0 0.33460182177363001 0.21999966289075409 0 0.34556910970536658 0.23921390462248199 0 0.33460182177363001 0.21999966289075409 0 0.3278776259658665 0.2076214509036243 0 0.34419695055865512 0.20542025302645439 0 0.33460182177363001 0.21999966289075409 0 0.31377845179643721 0.21458276756770189 0 0.3278776259658665 0.2076214509036243 0 0.31377845179643721 0.21458276756770189 0 0.3278776259658665 0.2076214509036243 0 0.31674655555173881 0.19902842766084339 0 0.3278776259658665 0.2076214509036243 0 0.31674655555173881 0.19902842766084339 0 0.32893527636844411 0.194937601908272 0 0.3080553032197017 0.1887293017033026 0 0.31674655555173881 0.19902842766084339 0 0.32122387935841612 0.1836610840160959 0 0.31674655555173881 0.19902842766084339 0 0.32893527636844411 0.194937601908272 0 0.32122387935841612 0.1836610840160959 0 0.32893527636844411 0.194937601908272 0 0.34419695055865512 0.20542025302645439 0 0.33967484433078321 0.18584068278097349 0 0.32893527636844411 0.194937601908272 0 0.32122387935841612 0.1836610840160959 0 0.33967484433078321 0.18584068278097349 0 0.3278776259658665 0.2076214509036243 0 0.32893527636844411 0.194937601908272 0 0.34419695055865512 0.20542025302645439 0 0.35368837148756882 0.19334260062126429 0 0.34419695055865512 0.20542025302645439 0 0.33967484433078321 0.18584068278097349 0 0.35368837148756882 0.19334260062126429 0 0.36735815001373812 0.20351917688449569 0 0.34419695055865512 0.20542025302645439 0 0.36735815001373812 0.20351917688449569 0 0.36699199379966768 0.18628457072029089 0 0.38367398474104891 0.18179268717308689 0 0.35368837148756882 0.19334260062126429 0 0.36735815001373812 0.20351917688449569 0 0.36699199379966768 0.18628457072029089 0 0.36735815001373812 0.20351917688449569 0 0.35440095211752448 0.2225189223308488 0 0.37280151553833601 0.22024831863616021 0 0.36735815001373812 0.20351917688449569 0 0.37280151553833601 0.22024831863616021 0 0.38406378734192298 0.20777210545990279 0 0.36735815001373812 0.20351917688449569 0 0.34419695055865512 0.20542025302645439 0 0.35440095211752448 0.2225189223308488 0 0.33460182177363001 0.21999966289075409 0 0.34419695055865512 0.20542025302645439 0 0.35440095211752448 0.2225189223308488 0 0.35440095211752448 0.2225189223308488 0 0.37293454716760283 0.2396311516560117 0 0.34556910970536658 0.23921390462248199 0 0.33460182177363001 0.21999966289075409 0 0.35440095211752448 0.2225189223308488 0 0.34556910970536658 0.23921390462248199 0 0.35440095211752448 0.2225189223308488 0 0.37280151553833601 0.22024831863616021 0 0.37293454716760283 0.2396311516560117 0 0.32946121748500129 0.25225194345791829 0 0.35728584731017871 0.25731187227922109 0 0.34556910970536658 0.23921390462248199 0 0.35728584731017871 0.25731187227922109 0 0.37293454716760283 0.2396311516560117 0 0.34556910970536658 0.23921390462248199 0 0.33789665254535572 0.15537308983460499 0 0.33956800136883641 0.14149862746365649 0 0.32484504322689201 0.150618498474763 0 0.33789665254535572 0.15537308983460499 0 0.32484504322689201 0.150618498474763 0 0.32925575641373173 0.1625602653078303 0 0.33789665254535572 0.15537308983460499 0 0.33956800136883641 0.14149862746365649 0 0.35085012880757988 0.15547460686614431 0 0.31847051852819058 0.13586426255884801 0 0.34441400131097022 0.1288917011053414 0 0.32933038512457441 0.1245201253257071 0 0.31847051852819058 0.13586426255884801 0 0.34441400131097022 0.1288917011053414 0 0.33956800136883641 0.14149862746365649 0 0.31847051852819058 0.13586426255884801 0 0.34441400131097022 0.1288917011053414 0 0.31229822968882548 0.13781435906697939 0 0.33956800136883641 0.14149862746365649 0 0.31229822968882548 0.13781435906697939 0 0.33956800136883641 0.14149862746365649 0 0.31847051852819058 0.13586426255884801 0 0.32933038512457441 0.1245201253257071 0 0.3207185438207466 0.1263919595033525 0 0.31847051852819058 0.13586426255884801 0 0.31156748461804079 0.12537242366950921 0 0.3207185438207466 0.1263919595033525 0 0.31847051852819058 0.13586426255884801 0 0.31229822968882548 0.13781435906697939 0 0.31156748461804079 0.12537242366950921 0 0.31847051852819058 0.13586426255884801 0 0.31229822968882548 0.13781435906697939 0 0.33956800136883641 0.14149862746365649 0 0.32484504322689201 0.150618498474763 0 0.31229822968882548 0.13781435906697939 0 0.32484504322689201 0.150618498474763 0 0.3129765302581462 0.1494710021231663 0 0.32484504322689201 0.150618498474763 0 0.3129765302581462 0.1494710021231663 0 0.31772009751989111 0.15842714336302041 0 0.30747502192119819 0.16230778928688711 0 0.3129765302581462 0.1494710021231663 0 0.31772009751989111 0.15842714336302041 0 0.30747502192119819 0.16230778928688711 0 0.31772009751989111 0.15842714336302041 0 0.32080742045079952 0.16866520015094741 0 0.31056514142368619 0.1744383831500049 0 0.30747502192119819 0.16230778928688711 0 0.32080742045079952 0.16866520015094741 0 0.32080742045079952 0.16866520015094741 0 0.33131907253280629 0.1738795647946571 0 0.32925575641373173 0.1625602653078303 0 0.32484504322689201 0.150618498474763 0 0.31772009751989111 0.15842714336302041 0 0.32925575641373173 0.1625602653078303 0 0.31772009751989111 0.15842714336302041 0 0.32080742045079952 0.16866520015094741 0 0.32925575641373173 0.1625602653078303 0 0.31056514142368619 0.1744383831500049 0 0.3080553032197017 0.1887293017033026 0 0.32122387935841612 0.1836610840160959 0 0.31056514142368619 0.1744383831500049 0 0.32080742045079952 0.16866520015094741 0 0.32122387935841612 0.1836610840160959 0 0.32080742045079952 0.16866520015094741 0 0.32122387935841612 0.1836610840160959 0 0.33131907253280629 0.1738795647946571 0 0.33131907253280629 0.1738795647946571 0 0.33967484433078321 0.18584068278097349 0 0.34294625220664587 0.1683980952289891 0 0.32122387935841612 0.1836610840160959 0 0.33131907253280629 0.1738795647946571 0 0.33967484433078321 0.18584068278097349 0 0.33131907253280629 0.1738795647946571 0 0.32925575641373173 0.1625602653078303 0 0.34294625220664587 0.1683980952289891 0 0.33789665254535572 0.15537308983460499 0 0.32925575641373173 0.1625602653078303 0 0.34294625220664587 0.1683980952289891 0 0.34294625220664587 0.1683980952289891 0 0.35531914635495271 0.16562513299740311 0 0.35085012880757988 0.15547460686614431 0 0.33789665254535572 0.15537308983460499 0 0.34294625220664587 0.1683980952289891 0 0.35085012880757988 0.15547460686614431 0 0.34294625220664587 0.1683980952289891 0 0.35531914635495271 0.16562513299740311 0 0.35387202203434698 0.17803066266241011 0 0.35531914635495271 0.16562513299740311 0 0.35387202203434698 0.17803066266241011 0 0.36550295271590683 0.1690726970215666 0 0.35531914635495271 0.16562513299740311 0 0.36342437601028388 0.15714960320790561 0 0.35085012880757988 0.15547460686614431 0 0.33967484433078321 0.18584068278097349 0 0.34294625220664587 0.1683980952289891 0 0.35387202203434698 0.17803066266241011 0 0.35368837148756882 0.19334260062126429 0 0.33967484433078321 0.18584068278097349 0 0.35387202203434698 0.17803066266241011 0 0.35368837148756882 0.19334260062126429 0 0.35387202203434698 0.17803066266241011 0 0.36699199379966768 0.18628457072029089 0 0.37486327834919952 0.17324080595030389 0 0.36699199379966768 0.18628457072029089 0 0.36550295271590683 0.1690726970215666 0 0.35387202203434698 0.17803066266241011 0 0.36699199379966768 0.18628457072029089 0 0.36550295271590683 0.1690726970215666 0 0.36342437601028388 0.15714960320790561 0 0.36550295271590683 0.1690726970215666 0 0.38328418214017468 0.15581326888627101 0 0.37486327834919952 0.17324080595030389 0 0.36550295271590683 0.1690726970215666 0 0.38328418214017468 0.15581326888627101 0 0.35531914635495271 0.16562513299740311 0 0.36342437601028388 0.15714960320790561 0 0.36550295271590683 0.1690726970215666 0 0.36342437601028388 0.15714960320790561 0 0.36683777304884752 0.14518289586033359 0 0.38328418214017468 0.15581326888627101 0 0.36342437601028388 0.15714960320790561 0 0.36683777304884752 0.14518289586033359 0 0.35085012880757988 0.15547460686614431 0 0.33956800136883641 0.14149862746365649 0 0.36683777304884752 0.14518289586033359 0 0.33956800136883641 0.14149862746365649 0 0.36683777304884752 0.14518289586033359 0 0.35085012880757988 0.15547460686614431 0 0.37035748409374952 0.12191913965183331 0 0.34441400131097022 0.1288917011053414 0 0.33956800136883641 0.14149862746365649 0 0.34441400131097022 0.1288917011053414 0 0.35985245571789548 0.13256521397634091 0 0.37035748409374952 0.12191913965183331 0 0.34441400131097022 0.1288917011053414 0 0.35985245571789548 0.13256521397634091 0 0.33956800136883641 0.14149862746365649 0 0.36683777304884752 0.14518289586033359 0 0.35985245571789548 0.13256521397634091 0 0.36683777304884752 0.14518289586033359 0 0.37024230120578611 0.13336796185197819 0 0.3828943795393005 0.1298338505994551 0 0.36683777304884752 0.14518289586033359 0 0.35985245571789548 0.13256521397634091 0 0.37024230120578611 0.13336796185197819 0 0.35985245571789548 0.13256521397634091 0 0.37024230120578611 0.13336796185197819 0 0.37169283910029199 0.12815165521797289 0 0.37024230120578611 0.13336796185197819 0 0.37169283910029199 0.12815165521797289 0 0.3828943795393005 0.1298338505994551 0 0.37035748409374952 0.12191913965183331 0 0.35985245571789548 0.13256521397634091 0 0.37169283910029199 0.12815165521797289 0 0.37169283910029199 0.12815165521797289 0 0.3828943795393005 0.1298338505994551 0 0.37511757494472903 0.123072110010257 0 0.3828943795393005 0.1298338505994551 0 0.39816792615439378 0.12760480203569169 0 0.39443703245191569 0.14316330482662179 0 0.39816792615439378 0.12760480203569169 0 0.39443703245191569 0.14316330482662179 0 0.40813897635800228 0.13879757292358971 0 0.40355831469332321 0.14905262061052801 0 0.39443703245191569 0.14316330482662179 0 0.39831584160420508 0.1589856433255693 0 0.39443703245191569 0.14316330482662179 0 0.38328418214017468 0.15581326888627101 0 0.39831584160420508 0.1589856433255693 0 0.40355831469332321 0.14905262061052801 0 0.39831584160420508 0.1589856433255693 0 0.41313230378900101 0.1549252007201132 0 0.40355831469332321 0.14905262061052801 0 0.39443703245191569 0.14316330482662179 0 0.40813897635800228 0.13879757292358971 0 0.3828943795393005 0.1298338505994551 0 0.39443703245191569 0.14316330482662179 0 0.38328418214017468 0.15581326888627101 0 0.36683777304884752 0.14518289586033359 0 0.3828943795393005 0.1298338505994551 0 0.38328418214017468 0.15581326888627101 0 0.3828943795393005 0.1298338505994551 0 0.38328418214017468 0.15581326888627101 0 0.38328418214017468 0.15581326888627101 0 0.38367398474104891 0.18179268717308689 0 0.37486327834919952 0.17324080595030389 0 0.38328418214017468 0.15581326888627101 0 0.38367398474104891 0.18179268717308689 0 0.38328418214017468 0.15581326888627101 0 0.38367398474104891 0.18179268717308689 0 0.39626047774709761 0.17356948839180519 0 0.37486327834919952 0.17324080595030389 0 0.36699199379966768 0.18628457072029089 0 0.38367398474104891 0.18179268717308689 0 0.38367398474104891 0.18179268717308689 0 0.39626047774709761 0.17356948839180519 0 0.39402839101454218 0.18926537882500041 0 0.41201559310989622 0.1717711692121752 0 0.39402839101454218 0.18926537882500041 0 0.40911253846621609 0.1927355572029634 0 0.41201559310989622 0.1717711692121752 0 0.39402839101454218 0.18926537882500041 0 0.39626047774709761 0.17356948839180519 0 0.41201559310989622 0.1717711692121752 0 0.39402839101454218 0.18926537882500041 0 0.38328418214017468 0.15581326888627101 0 0.39626047774709761 0.17356948839180519 0 0.39831584160420508 0.1589856433255693 0 0.39626047774709761 0.17356948839180519 0 0.39831584160420508 0.1589856433255693 0 0.41201559310989622 0.1717711692121752 0 0.39831584160420508 0.1589856433255693 0 0.41201559310989622 0.1717711692121752 0 0.41313230378900101 0.1549252007201132 0 0.41201559310989622 0.1717711692121752 0 0.43000279520525009 0.1542769595993502 0 0.41201559310989622 0.1717711692121752 0 0.43000279520525009 0.1542769595993502 0 0.41313230378900101 0.1549252007201132 0 0.41201559310989622 0.1717711692121752 0 0.42496471626184562 0.18478050847474101 0 0.40911253846621609 0.1927355572029634 0 0.42496471626184562 0.18478050847474101 0 0.42886790669691233 0.1683305758749721 0 0.44390934378202151 0.1869955505783234 0 0.41201559310989622 0.1717711692121752 0 0.42496471626184562 0.18478050847474101 0 0.42886790669691233 0.1683305758749721 0 0.42886790669691233 0.1683305758749721 0 0.44390934378202151 0.1869955505783234 0 0.41201559310989622 0.1717711692121752 0 0.42886790669691233 0.1683305758749721 0 0.43000279520525009 0.1542769595993502 0 0.42886790669691233 0.1683305758749721 0 0.43000279520525009 0.1542769595993502 0 0.44221599041969212 0.16183818438693329 0 0.43000279520525009 0.1542769595993502 0 0.42332430940078591 0.1392784445062823 0 0.4479899973006039 0.1367827499865252 0 0.43000279520525009 0.1542769595993502 0 0.42332430940078591 0.1392784445062823 0 0.41313230378900101 0.1549252007201132 0 0.429848517254516 0.1255917524949702 0 0.42332430940078591 0.1392784445062823 0 0.41384889774502859 0.12525543762671809 0 0.429848517254516 0.1255917524949702 0 0.42332430940078591 0.1392784445062823 0 0.4479899973006039 0.1367827499865252 0 0.39816792615439378 0.12760480203569169 0 0.41384889774502859 0.12525543762671809 0 0.40813897635800228 0.13879757292358971 0 0.42332430940078591 0.1392784445062823 0 0.41384889774502859 0.12525543762671809 0 0.40813897635800228 0.13879757292358971 0 0.40355831469332321 0.14905262061052801 0 0.40813897635800228 0.13879757292358971 0 0.41313230378900101 0.1549252007201132 0 0.42332430940078591 0.1392784445062823 0 0.40813897635800228 0.13879757292358971 0 0.41313230378900101 0.1549252007201132 0 0.38511047713535562 0.2623718011005241 0 0.37293454716760283 0.2396311516560117 0 0.39933451681408499 0.24222051247515669 0 0.37293454716760283 0.2396311516560117 0 0.39933451681408499 0.24222051247515669 0 0.39045396999845727 0.2225958518425987 0 0.37280151553833601 0.22024831863616021 0 0.37293454716760283 0.2396311516560117 0 0.39045396999845727 0.2225958518425987 0 0.39933451681408499 0.24222051247515669 0 0.39045396999845727 0.2225958518425987 0 0.41502085935247712 0.2184770015477572 0 0.39045396999845727 0.2225958518425987 0 0.39965272480706299 0.2061417744041574 0 0.38406378734192298 0.20777210545990279 0 0.39045396999845727 0.2225958518425987 0 0.39965272480706299 0.2061417744041574 0 0.41502085935247712 0.2184770015477572 0 0.37280151553833601 0.22024831863616021 0 0.39045396999845727 0.2225958518425987 0 0.38406378734192298 0.20777210545990279 0 0.36735815001373812 0.20351917688449569 0 0.38367398474104891 0.18179268717308689 0 0.38406378734192298 0.20777210545990279 0 0.38367398474104891 0.18179268717308689 0 0.38406378734192298 0.20777210545990279 0 0.38367398474104891 0.18179268717308689 0 0.38406378734192298 0.20777210545990279 0 0.39402839101454218 0.18926537882500041 0 0.39965272480706299 0.2061417744041574 0 0.38406378734192298 0.20777210545990279 0 0.39402839101454218 0.18926537882500041 0 0.39965272480706299 0.2061417744041574 0 0.39402839101454218 0.18926537882500041 0 0.40911253846621609 0.1927355572029634 0 0.42496471626184562 0.18478050847474101 0 0.40911253846621609 0.1927355572029634 0 0.43133039545531981 0.20312972213906441 0 0.42496471626184562 0.18478050847474101 0 0.43133039545531981 0.20312972213906441 0 0.44390934378202151 0.1869955505783234 0 0.43133039545531981 0.20312972213906441 0 0.41502085935247712 0.2184770015477572 0 0.43839838412078092 0.2247149777195776 0 0.40911253846621609 0.1927355572029634 0 0.41502085935247712 0.2184770015477572 0 0.40911253846621609 0.1927355572029634 0 0.43133039545531981 0.20312972213906441 0 0.41502085935247712 0.2184770015477572 0 0.39965272480706299 0.2061417744041574 0 0.40911253846621609 0.1927355572029634 0 0.41502085935247712 0.2184770015477572 0 0.41502085935247712 0.2184770015477572 0 0.42092918023873821 0.24421844589255121 0 0.41502085935247712 0.2184770015477572 0 0.42092918023873821 0.24421844589255121 0 0.43839838412078092 0.2247149777195776 0 0.42092918023873821 0.24421844589255121 0 0.44272868649399699 0.2414724783298311 0 0.43839838412078092 0.2247149777195776 0 0.44089414042045799 0.25771217685885472 0 0.42092918023873821 0.24421844589255121 0 0.44272868649399699 0.2414724783298311 0 0.39933451681408499 0.24222051247515669 0 0.41502085935247712 0.2184770015477572 0 0.42092918023873821 0.24421844589255121 0 0.46750550623703407 0.25349570762290419 0 0.4569230610569987 0.24819013429900669 0 0.47278153852907701 0.24486280325581439 0 0.4569230610569987 0.24819013429900669 0 0.45723446189795819 0.23161380727854039 0 0.47278153852907701 0.24486280325581439 0 0.4569230610569987 0.24819013429900669 0 0.44272868649399699 0.2414724783298311 0 0.45723446189795819 0.23161380727854039 0 0.44089414042045799 0.25771217685885472 0 0.4569230610569987 0.24819013429900669 0 0.44272868649399699 0.2414724783298311 0 0.43839838412078092 0.2247149777195776 0 0.45723446189795819 0.23161380727854039 0 0.45895078086713059 0.20566052528167461 0 0.44272868649399699 0.2414724783298311 0 0.43839838412078092 0.2247149777195776 0 0.45723446189795819 0.23161380727854039 0 0.45723446189795819 0.23161380727854039 0 0.47399221795223978 0.22432549998502579 0 0.47278153852907701 0.24486280325581439 0 0.45723446189795819 0.23161380727854039 0 0.45895078086713059 0.20566052528167461 0 0.47399221795223978 0.22432549998502579 0 0.45895078086713059 0.20566052528167461 0 0.47399221795223978 0.22432549998502579 0 0.43133039545531981 0.20312972213906441 0 0.43839838412078092 0.2247149777195776 0 0.45895078086713059 0.20566052528167461 0 0.43133039545531981 0.20312972213906441 0 0.45895078086713059 0.20566052528167461 0 0.44390934378202151 0.1869955505783234 0 0.45895078086713059 0.20566052528167461 0 0.44390934378202151 0.1869955505783234 0 0.45895078086713059 0.20566052528167461 0 0.44390934378202151 0.1869955505783234 0 0.47471792995388828 0.18435875067661631 0 0.45895078086713059 0.20566052528167461 0 0.47967819324703809 0.2043502093285503 0 0.47471792995388828 0.18435875067661631 0 0.5 0.20006456793442701 0 0.47967819324703809 0.2043502093285503 0 0.47471792995388828 0.18435875067661631 0 0.5 0.20006456793442701 0 0.48813206750880261 0.21755351138133391 0 0.47967819324703809 0.2043502093285503 0 0.5 0.20006456793442701 0 0.48813206750880261 0.21755351138133391 0 0.5 0.22779789293978581 0 0.45895078086713059 0.20566052528167461 0 0.47967819324703809 0.2043502093285503 0 0.47399221795223978 0.22432549998502579 0 0.48813206750880261 0.21755351138133391 0 0.47967819324703809 0.2043502093285503 0 0.47399221795223978 0.22432549998502579 0 0.48813206750880261 0.21755351138133391 0 0.47399221795223978 0.22432549998502579 0 0.48903365503734891 0.24299047468837701 0 0.47399221795223978 0.22432549998502579 0 0.48903365503734891 0.24299047468837701 0 0.48813206750880261 0.21755351138133391 0 0.5 0.22779789293978581 0 0.48903365503734891 0.24299047468837701 0 0.5 0.25553121794514477 0 0.5 0.22779789293978581 0 0.48903365503734891 0.24299047468837701 0 0.48489893488970792 0.25686202981026901 0 0.48903365503734891 0.24299047468837701 0 0.47278153852907701 0.24486280325581439 0 0.47399221795223978 0.22432549998502579 0 0.48903365503734891 0.24299047468837701 0 0.47278153852907701 0.24486280325581439 0 0.4479899973006039 0.1367827499865252 0 0.46030990911367259 0.16280508589549539 0 0.47332178232586258 0.14483424446409521 0 0.4479899973006039 0.1367827499865252 0 0.47332178232586258 0.14483424446409521 0 0.46597719939595772 0.11928854037370019 0 0.4479899973006039 0.1367827499865252 0 0.46597719939595772 0.11928854037370019 0 0.429848517254516 0.1255917524949702 0 0.4479899973006039 0.1367827499865252 0 0.44441253831551758 0.1138689947079024 0 0.43000279520525009 0.1542769595993502 0 0.4479899973006039 0.1367827499865252 0 0.44221599041969212 0.16183818438693329 0 0.43000279520525009 0.1542769595993502 0 0.4479899973006039 0.1367827499865252 0 0.4479899973006039 0.1367827499865252 0 0.44221599041969212 0.16183818438693329 0 0.46030990911367259 0.16280508589549539 0 0.44221599041969212 0.16183818438693329 0 0.44390934378202151 0.1869955505783234 0 0.46030990911367259 0.16280508589549539 0 0.42886790669691233 0.1683305758749721 0 0.44221599041969212 0.16183818438693329 0 0.44390934378202151 0.1869955505783234 0 0.44390934378202151 0.1869955505783234 0 0.46030990911367259 0.16280508589549539 0 0.47471792995388828 0.18435875067661631 0 0.46030990911367259 0.16280508589549539 0 0.48162298028441808 0.16304382698580119 0 0.47332178232586258 0.14483424446409521 0 0.46030990911367259 0.16280508589549539 0 0.48162298028441808 0.16304382698580119 0 0.47471792995388828 0.18435875067661631 0 0.5 0.20006456793442701 0 0.47471792995388828 0.18435875067661631 0 0.5 0.17233124292906801 0 0.48162298028441808 0.16304382698580119 0 0.47471792995388828 0.18435875067661631 0 0.5 0.17233124292906801 0 0.48162298028441808 0.16304382698580119 0 0.5 0.17233124292906801 0 0.5 0.14459791792370899 0 0.48162298028441808 0.16304382698580119 0 0.5 0.14459791792370899 0 0.47332178232586258 0.14483424446409521 0 0.47332178232586258 0.14483424446409521 0 0.48369720064842647 0.1280225697211729 0 0.46597719939595772 0.11928854037370019 0 0.5 0.14459791792370899 0 0.48369720064842647 0.1280225697211729 0 0.5 0.1168645929183502 0 0.5 0.14459791792370899 0 0.47332178232586258 0.14483424446409521 0 0.48369720064842647 0.1280225697211729 0 0.48369720064842647 0.1280225697211729 0 0.5 0.1168645929183502 0 0.47911227232856668 0.09907818001940101 0 0.5 0.1168645929183502 0 0.47911227232856668 0.09907818001940101 0 0.5 0.089131267912991197 0 0.48369720064842647 0.1280225697211729 0 0.47911227232856668 0.09907818001940101 0 0.46597719939595772 0.11928854037370019 0 0.48592231416185638 0.0752646054103117 0 0.5 0.089131267912991197 0 0.5 0.06139794290763223 0 0.47911227232856668 0.09907818001940101 0 0.48592231416185638 0.0752646054103117 0 0.5 0.089131267912991197 0 0.47911227232856668 0.09907818001940101 0 0.48592231416185638 0.0752646054103117 0 0.46599422920766509 0.071585542922595516 0 0.48592231416185638 0.0752646054103117 0 0.46599422920766509 0.071585542922595516 0 0.47969083044660421 0.050503904472553283 0 0.47911227232856668 0.09907818001940101 0 0.46599422920766509 0.071585542922595516 0 0.45660210543223351 0.096238293732025512 0 0.46599422920766509 0.071585542922595516 0 0.44319262383460789 0.070531660330671375 0 0.45660210543223351 0.096238293732025512 0 0.44319262383460789 0.070531660330671375 0 0.45660210543223351 0.096238293732025512 0 0.43559540491542181 0.095634413362833848 0 0.46597719939595772 0.11928854037370019 0 0.45660210543223351 0.096238293732025512 0 0.44441253831551758 0.1138689947079024 0 0.47911227232856668 0.09907818001940101 0 0.46597719939595772 0.11928854037370019 0 0.45660210543223351 0.096238293732025512 0 0.45660210543223351 0.096238293732025512 0 0.44441253831551758 0.1138689947079024 0 0.43559540491542181 0.095634413362833848 0 0.4479899973006039 0.1367827499865252 0 0.46597719939595772 0.11928854037370019 0 0.44441253831551758 0.1138689947079024 0 0.429848517254516 0.1255917524949702 0 0.44441253831551758 0.1138689947079024 0 0.42416274095453271 0.1101558860989641 0 0.429848517254516 0.1255917524949702 0 0.41384889774502859 0.12525543762671809 0 0.42416274095453271 0.1101558860989641 0 0.41384889774502859 0.12525543762671809 0 0.42416274095453271 0.1101558860989641 0 0.40716605829359193 0.1120264799895512 0 0.39816792615439378 0.12760480203569169 0 0.41384889774502859 0.12525543762671809 0 0.40716605829359193 0.1120264799895512 0 0.40716605829359193 0.1120264799895512 0 0.41525133388600899 0.093407911538609431 0 0.39656535672550852 0.092974877928873267 0 0.42416274095453271 0.1101558860989641 0 0.40716605829359193 0.1120264799895512 0 0.41525133388600899 0.093407911538609431 0 0.42416274095453271 0.1101558860989641 0 0.43559540491542181 0.095634413362833848 0 0.41525133388600899 0.093407911538609431 0 0.44441253831551758 0.1138689947079024 0 0.42416274095453271 0.1101558860989641 0 0.43559540491542181 0.095634413362833848 0 0.43559540491542181 0.095634413362833848 0 0.4195547633014628 0.073570994746074828 0 0.41525133388600899 0.093407911538609431 0 0.43559540491542181 0.095634413362833848 0 0.4195547633014628 0.073570994746074828 0 0.44319262383460789 0.070531660330671375 0 0.43559540491542181 0.095634413362833848 0 0.4195547633014628 0.073570994746074828 0 0.44319262383460789 0.070531660330671375 0 0.4195547633014628 0.073570994746074828 0 0.42728191937221521 0.050914286525162993 0 0.4195547633014628 0.073570994746074828 0 0.39780951386322527 0.071813900777571313 0 0.40351412168750378 0.051507576129315842 0 0.4195547633014628 0.073570994746074828 0 0.40351412168750378 0.051507576129315842 0 0.4195547633014628 0.073570994746074828 0 0.41525133388600899 0.093407911538609431 0 0.39780951386322527 0.071813900777571313 0 0.41525133388600899 0.093407911538609431 0 0.39656535672550852 0.092974877928873267 0 0.39780951386322527 0.071813900777571313 0 0.37400882161871279 0.083619613235024759 0 0.37883567044039879 0.062600723425798879 0 0.39780951386322527 0.071813900777571313 0 0.37883567044039879 0.062600723425798879 0 0.3909554563133032 0.056876008487314757 0 0.37400882161871279 0.083619613235024759 0 0.39780951386322527 0.071813900777571313 0 0.37883567044039879 0.062600723425798879 0 0.37400882161871279 0.083619613235024759 0 0.39656535672550852 0.092974877928873267 0 0.38808178026068268 0.10392801007035141 0 0.37400882161871279 0.083619613235024759 0 0.39656535672550852 0.092974877928873267 0 0.39780951386322527 0.071813900777571313 0 0.37455144446510141 0.10193275935197101 0 0.37400882161871279 0.083619613235024759 0 0.38808178026068268 0.10392801007035141 0 0.37455144446510141 0.10193275935197101 0 0.38808178026068268 0.10392801007035141 0 0.37815432920295677 0.1109533992790251 0 0.37035748409374952 0.12191913965183331 0 0.38876177119367089 0.116972809820693 0 0.37035748409374952 0.12191913965183331 0 0.37511757494472903 0.123072110010257 0 0.38876177119367089 0.116972809820693 0 0.37035748409374952 0.12191913965183331 0 0.37815432920295677 0.1109533992790251 0 0.38876177119367089 0.116972809820693 0 0.3828943795393005 0.1298338505994551 0 0.37511757494472903 0.123072110010257 0 0.38876177119367089 0.116972809820693 0 0.3828943795393005 0.1298338505994551 0 0.39816792615439378 0.12760480203569169 0 0.38876177119367089 0.116972809820693 0 0.38808178026068268 0.10392801007035141 0 0.37815432920295677 0.1109533992790251 0 0.38876177119367089 0.116972809820693 0 0.40716605829359193 0.1120264799895512 0 0.38876177119367089 0.116972809820693 0 0.39816792615439378 0.12760480203569169 0 0.40716605829359193 0.1120264799895512 0 0.38876177119367089 0.116972809820693 0 0.40716605829359193 0.1120264799895512 0 0.38808178026068268 0.10392801007035141 0 0.38876177119367089 0.116972809820693 0 0.40716605829359193 0.1120264799895512 0 0.39656535672550852 0.092974877928873267 0 0.38808178026068268 0.10392801007035141 0 0.39895333728429933 0.027539300906755181 0 0.38848936808377088 0.020562943807347231 0 0.4122691541308795 0.010257189796790951 0 0.39895333728429933 0.027539300906755181 0 0.38848936808377088 0.020562943807347231 0 0.38747348007354487 0.029444157512556919 0 0.39212595536292472 0.0047271407553128551 0 0.4122691541308795 0.010257189796790951 0 0.40542454288086849 -0.004070234290400764 0 0.38848936808377088 0.020562943807347231 0 0.4122691541308795 0.010257189796790951 0 0.39212595536292472 0.0047271407553128551 0 0.38848936808377088 0.020562943807347231 0 0.4122691541308795 0.010257189796790951 0 0.39212595536292472 0.0047271407553128551 0 0.38120377069012762 0.010554394007073271 0 0.36845156083710567 -0.0060515153414843056 0 0.36934971840039982 0.01412264887454192 0 0.38120377069012762 0.010554394007073271 0 0.38848936808377088 0.020562943807347231 0 0.39212595536292472 0.0047271407553128551 0 0.38120377069012762 0.010554394007073271 0 0.38848936808377088 0.020562943807347231 0 0.39212595536292472 0.0047271407553128551 0 0.38848936808377088 0.020562943807347231 0 0.38848936808377088 0.020562943807347231 0 0.38747348007354487 0.029444157512556919 0 0.38366251926208489 0.041581833616573027 0 0.38848936808377088 0.020562943807347231 0 0.38366251926208489 0.041581833616573027 0 0.36096242836060388 0.032492650360987897 0 0.38848936808377088 0.020562943807347231 0 0.38366251926208489 0.041581833616573027 0 0.37883567044039879 0.062600723425798879 0 0.38366251926208489 0.041581833616573027 0 0.3909554563133032 0.056876008487314757 0 0.37883567044039879 0.062600723425798879 0 0.38366251926208489 0.041581833616573027 0 0.36884998715724038 0.048654936693666287 0 0.37883567044039879 0.062600723425798879 0 0.38366251926208489 0.041581833616573027 0 0.38366251926208489 0.041581833616573027 0 0.40351412168750378 0.051507576129315842 0 0.3909554563133032 0.056876008487314757 0 0.39780951386322527 0.071813900777571313 0 0.40351412168750378 0.051507576129315842 0 0.3909554563133032 0.056876008487314757 0 0.38747348007354487 0.029444157512556919 0 0.40351412168750378 0.051507576129315842 0 0.39895333728429933 0.027539300906755181 0 0.40351412168750378 0.051507576129315842 0 0.40867742594100492 0.02913313449165824 0 0.39895333728429933 0.027539300906755181 0 0.38747348007354487 0.029444157512556919 0 0.40351412168750378 0.051507576129315842 0 0.38747348007354487 0.029444157512556919 0 0.38366251926208489 0.041581833616573027 0 0.40351412168750378 0.051507576129315842 0 0.40351412168750378 0.051507576129315842 0 0.41712069737947322 0.039684074088297272 0 0.40867742594100492 0.02913313449165824 0 0.41712069737947322 0.039684074088297272 0 0.42900932251716922 0.027181299207052031 0 0.40867742594100492 0.02913313449165824 0 0.40351412168750378 0.051507576129315842 0 0.41712069737947322 0.039684074088297272 0 0.42728191937221521 0.050914286525162993 0 0.4195547633014628 0.073570994746074828 0 0.40351412168750378 0.051507576129315842 0 0.42728191937221521 0.050914286525162993 0 0.41712069737947322 0.039684074088297272 0 0.42728191937221521 0.050914286525162993 0 0.42900932251716922 0.027181299207052031 0 0.42728191937221521 0.050914286525162993 0 0.42900932251716922 0.027181299207052031 0 0.45357816737839107 0.043281393992262968 0 0.42900932251716922 0.027181299207052031 0 0.40867742594100492 0.02913313449165824 0 0.4122691541308795 0.010257189796790951 0 0.39895333728429933 0.027539300906755181 0 0.40867742594100492 0.02913313449165824 0 0.4122691541308795 0.010257189796790951 0 0.4122691541308795 0.010257189796790951 0 0.42733427856619571 -0.0085863840744332814 0 0.43604894017798812 -4.8564213765240817e-05 0 0.42900932251716922 0.027181299207052031 0 0.4122691541308795 0.010257189796790951 0 0.43604894017798812 -4.8564213765240817e-05 0 0.4122691541308795 0.010257189796790951 0 0.43604894017798812 -4.8564213765240817e-05 0 0.45021491583924189 0.016350560368503721 0 0.45982872622509668 -0.01035431822432146 0 0.43604894017798812 -4.8564213765240817e-05 0 0.42900932251716922 0.027181299207052031 0 0.45021491583924189 0.016350560368503721 0 0.43604894017798812 -4.8564213765240817e-05 0 0.42900932251716922 0.027181299207052031 0 0.45021491583924189 0.016350560368503721 0 0.45357816737839107 0.043281393992262968 0 0.45021491583924189 0.016350560368503721 0 0.45357816737839107 0.043281393992262968 0 0.47265027193171238 0.017829323700243871 0 0.45021491583924189 0.016350560368503721 0 0.47265027193171238 0.017829323700243871 0 0.45982872622509668 -0.01035431822432146 0 0.45357816737839107 0.043281393992262968 0 0.47969083044660421 0.050503904472553283 0 0.47265027193171238 0.017829323700243871 0 0.44319262383460789 0.070531660330671375 0 0.42728191937221521 0.050914286525162993 0 0.45357816737839107 0.043281393992262968 0 0.46599422920766509 0.071585542922595516 0 0.44319262383460789 0.070531660330671375 0 0.45357816737839107 0.043281393992262968 0 0.46599422920766509 0.071585542922595516 0 0.45357816737839107 0.043281393992262968 0 0.47969083044660421 0.050503904472553283 0 0.47969083044660421 0.050503904472553283 0 0.5 0.033664617902273368 0 0.47265027193171238 0.017829323700243871 0 0.48592231416185638 0.0752646054103117 0 0.47969083044660421 0.050503904472553283 0 0.5 0.06139794290763223 0 0.47969083044660421 0.050503904472553283 0 0.5 0.033664617902273368 0 0.5 0.06139794290763223 0 0.5 0.033664617902273368 0 0.47265027193171238 0.017829323700243871 0 0.5 0.0059312928969145204 0 0.47265027193171238 0.017829323700243871 0 0.5 0.0059312928969145204 0 0.48261795830076532 -0.0084137270416950408 0 0.5 0.0059312928969145204 0 0.48261795830076532 -0.0084137270416950408 0 0.5 -0.021802032108444391 0 0.47265027193171238 0.017829323700243871 0 0.48261795830076532 -0.0084137270416950408 0 0.45982872622509668 -0.01035431822432146 0 0.48261795830076532 -0.0084137270416950408 0 0.48385521188952352 -0.03103713942335571 0 0.45982872622509668 -0.01035431822432146 0 0.48385521188952352 -0.03103713942335571 0 0.46768790053651399 -0.040232759786602873 0 0.45982872622509668 -0.01035431822432146 0 0.48261795830076532 -0.0084137270416950408 0 0.48385521188952352 -0.03103713942335571 0 0.5 -0.021802032108444391 0 0.48385521188952352 -0.03103713942335571 0 0.49518245524492172 -0.045789595090724652 0 0.49482530481253351 -0.04804557135493729 0 0.5 -0.021802032108444391 0 0.49518245524492172 -0.045789595090724652 0 0.49999999999998263 -0.049535357113803247 0 0.48385521188952352 -0.03103713942335571 0 0.5 -0.021802032108444391 0 0.49518245524492172 -0.045789595090724652 0 0.49482530481253351 -0.04804557135493729 0 0.47636674367150789 -0.060588545727567042 0 0.49016972248203172 -0.07745302065780417 0 0.49999999999998263 -0.049535357113803247 0 0.49482530481253351 -0.04804557135493729 0 0.49016972248203172 -0.07745302065780417 0 0.49999999999998263 -0.049535357113803247 0 0.49482530481253351 -0.04804557135493729 0 0.49518245524492172 -0.045789595090724652 0 0.49999999999998263 -0.049535357113803247 0 0.49482530481253351 -0.04804557135493729 0 0.49518245524492172 -0.045789595090724652 0 0.49482530481253351 -0.04804557135493729 0 0.49482530481253351 -0.04804557135493729 0 0.47636674367150789 -0.060588545727567042 0 0.46768790053651399 -0.040232759786602873 0 0.49482530481253351 -0.04804557135493729 0 0.46768790053651399 -0.040232759786602873 0 0.48385521188952352 -0.03103713942335571 0 0.49482530481253351 -0.04804557135493729 0 0.46768790053651399 -0.040232759786602873 0 0.46768790053651399 -0.040232759786602873 0 0.44055049626049481 -0.03241994821826754 0 0.47636674367150789 -0.060588545727567042 0 0.46768790053651399 -0.040232759786602873 0 0.44971823816913109 -0.058611894661768998 0 0.46768790053651399 -0.040232759786602873 0 0.44971823816913109 -0.058611894661768998 0 0.44055049626049481 -0.03241994821826754 0 0.44971823816913109 -0.058611894661768998 0 0.44055049626049481 -0.03241994821826754 0 0.42776585910878662 -0.047462582859365887 0 0.44055049626049481 -0.03241994821826754 0 0.43862233638968018 -0.01433991032473066 0 0.45982872622509668 -0.01035431822432146 0 0.45982872622509668 -0.01035431822432146 0 0.43604894017798812 -4.8564213765240817e-05 0 0.43862233638968018 -0.01433991032473066 0 0.45982872622509668 -0.01035431822432146 0 0.43604894017798812 -4.8564213765240817e-05 0 0.46768790053651399 -0.040232759786602873 0 0.44055049626049481 -0.03241994821826754 0 0.45982872622509668 -0.01035431822432146 0 0.47499259514944292 -0.1202547269832886 0 0.48551414015152222 -0.10686046996066979 0 0.48085855782101261 -0.13626791926353529 0 0.47418157221881441 -0.11112465676427991 0 0.47528951870947961 -0.09927779745641295 0 0.46093003486481321 -0.11810563265674839 0 0.48551414015152222 -0.10686046996066979 0 0.48085855782101261 -0.13626791926353529 0 0.47499259514944292 -0.1202547269832886 0 0.46093003486481321 -0.11810563265674839 0 0.47239045088042492 -0.13005034139104371 0 0.47499259514944292 -0.1202547269832886 0 0.47418157221881441 -0.11112465676427991 0 0.46093003486481321 -0.11810563265674839 0 0.47499259514944292 -0.1202547269832886 0 0.47418157221881441 -0.11112465676427991 0 0.48551414015152222 -0.10686046996066979 0 0.48986304781109291 -0.1242692167884092 0 0.49384429699065369 -0.1173080088948287 0 0.48551414015152222 -0.10686046996066979 0 0.48986304781109291 -0.1242692167884092 0 0.48551414015152222 -0.10686046996066979 0 0.48085855782101261 -0.13626791926353529 0 0.49384429699065369 -0.1173080088948287 0 0.5 -0.1051480109548549 0 0.5 -0.13295433787538069 0 0.48986304781109291 -0.1242692167884092 0 0.49384429699065369 -0.1173080088948287 0 0.5 -0.13295433787538069 0 0.49384429699065369 -0.1173080088948287 0 0.48551414015152222 -0.10686046996066979 0 0.5 -0.1051480109548549 0 0.48551414015152222 -0.10686046996066979 0 0.5 -0.1051480109548549 0 0.49016972248203172 -0.07745302065780417 0 0.48551414015152222 -0.10686046996066979 0 0.47528951870947961 -0.09927779745641295 0 0.4786949329242487 -0.090297096352784045 0 0.47418157221881441 -0.11112465676427991 0 0.48551414015152222 -0.10686046996066979 0 0.47528951870947961 -0.09927779745641295 0 0.47494193394216588 -0.078729965701305249 0 0.4786949329242487 -0.090297096352784045 0 0.46755934933604398 -0.089164227987728051 0 0.47528951870947961 -0.09927779745641295 0 0.4786949329242487 -0.090297096352784045 0 0.46755934933604398 -0.089164227987728051 0 0.47494193394216588 -0.078729965701305249 0 0.4786949329242487 -0.090297096352784045 0 0.49016972248203172 -0.07745302065780417 0 0.48551414015152222 -0.10686046996066979 0 0.49016972248203172 -0.07745302065780417 0 0.5 -0.1051480109548549 0 0.49016972248203172 -0.07745302065780417 0 0.5 -0.077341684034329061 0 0.48551414015152222 -0.10686046996066979 0 0.4786949329242487 -0.090297096352784045 0 0.49016972248203172 -0.07745302065780417 0 0.49999999999998263 -0.049535357113803247 0 0.49016972248203172 -0.07745302065780417 0 0.5 -0.077341684034329061 0 0.49482530481253351 -0.04804557135493729 0 0.49016972248203172 -0.07745302065780417 0 0.47636674367150789 -0.060588545727567042 0 0.47494193394216588 -0.078729965701305249 0 0.49016972248203172 -0.07745302065780417 0 0.47636674367150789 -0.060588545727567042 0 0.47494193394216588 -0.078729965701305249 0 0.4592808493329405 -0.078369632624057675 0 0.47636674367150789 -0.060588545727567042 0 0.44971823816913109 -0.058611894661768998 0 0.4592808493329405 -0.078369632624057675 0 0.47636674367150789 -0.060588545727567042 0 0.4592808493329405 -0.078369632624057675 0 0.44971823816913109 -0.058611894661768998 0 0.44126951216661869 -0.079236189142810429 0 0.42731029070553322 -0.068277018127587574 0 0.44971823816913109 -0.058611894661768998 0 0.44126951216661869 -0.079236189142810429 0 0.4592808493329405 -0.078369632624057675 0 0.4592808493329405 -0.078369632624057675 0 0.44219495499437311 -0.096150719520548239 0 0.44126951216661869 -0.079236189142810429 0 0.4592808493329405 -0.078369632624057675 0 0.44219495499437311 -0.096150719520548239 0 0.47494193394216588 -0.078729965701305249 0 0.4592808493329405 -0.078369632624057675 0 0.46755934933604398 -0.089164227987728051 0 0.4592808493329405 -0.078369632624057675 0 0.46755934933604398 -0.089164227987728051 0 0.44219495499437311 -0.096150719520548239 0 0.46755934933604398 -0.089164227987728051 0 0.46093003486481321 -0.11810563265674839 0 0.46755934933604398 -0.089164227987728051 0 0.44219495499437311 -0.096150719520548239 0 0.46093003486481321 -0.11810563265674839 0 0.47528951870947961 -0.09927779745641295 0 0.46755934933604398 -0.089164227987728051 0 0.46093003486481321 -0.11810563265674839 0 0.441730170532879 -0.1159420230490274 0 0.46093003486481321 -0.11810563265674839 0 0.44582693855797939 -0.1311402400572215 0 0.44219495499437311 -0.096150719520548239 0 0.441730170532879 -0.1159420230490274 0 0.46093003486481321 -0.11810563265674839 0 0.42510906065580589 -0.11393180641703871 0 0.40802316631723889 -0.13171289331352951 0 0.40725115801851319 -0.1169919833964142 0 0.42510906065580589 -0.11393180641703871 0 0.40802316631723889 -0.13171289331352951 0 0.40725115801851319 -0.1169919833964142 0 0.42510906065580589 -0.11393180641703871 0 0.4147200547274239 -0.1079547067436207 0 0.40725115801851319 -0.1169919833964142 0 0.4147200547274239 -0.1079547067436207 0 0.40692444267373179 -0.1088204768843429 0 0.441730170532879 -0.1159420230490274 0 0.42510906065580589 -0.11393180641703871 0 0.43087782981676859 -0.131879285754128 0 0.44219495499437311 -0.096150719520548239 0 0.42510906065580589 -0.11393180641703871 0 0.44219495499437311 -0.096150719520548239 0 0.441730170532879 -0.1159420230490274 0 0.42510906065580589 -0.11393180641703871 0 0.44219495499437311 -0.096150719520548239 0 0.42510906065580589 -0.11393180641703871 0 0.4234909377050316 -0.092737982748798881 0 0.42510906065580589 -0.11393180641703871 0 0.4147200547274239 -0.1079547067436207 0 0.4234909377050316 -0.092737982748798881 0 0.4147200547274239 -0.1079547067436207 0 0.40904120664506322 -0.09935874077938342 0 0.4234909377050316 -0.092737982748798881 0 0.4147200547274239 -0.1079547067436207 0 0.40692444267373179 -0.1088204768843429 0 0.40904120664506322 -0.09935874077938342 0 0.40904120664506322 -0.09935874077938342 0 0.4234909377050316 -0.092737982748798881 0 0.40226126486411301 -0.082186696628613137 0 0.4234909377050316 -0.092737982748798881 0 0.42731029070553322 -0.068277018127587574 0 0.40226126486411301 -0.082186696628613137 0 0.44126951216661869 -0.079236189142810429 0 0.4234909377050316 -0.092737982748798881 0 0.42731029070553322 -0.068277018127587574 0 0.44126951216661869 -0.079236189142810429 0 0.44219495499437311 -0.096150719520548239 0 0.4234909377050316 -0.092737982748798881 0 0.42731029070553322 -0.068277018127587574 0 0.40226126486411301 -0.082186696628613137 0 0.40783717842429862 -0.053396916639273179 0 0.40226126486411301 -0.082186696628613137 0 0.40783717842429862 -0.053396916639273179 0 0.38429333219820472 -0.067131704106828338 0 0.40226126486411301 -0.082186696628613137 0 0.40783717842429862 -0.053396916639273179 0 0.38429333219820472 -0.067131704106828338 0 0.38199460798391838 -0.085246791459625215 0 0.40226126486411301 -0.082186696628613137 0 0.38199460798391838 -0.085246791459625215 0 0.40226126486411301 -0.082186696628613137 0 0.39106825526090561 -0.1007030293946076 0 0.40226126486411301 -0.082186696628613137 0 0.39106825526090561 -0.1007030293946076 0 0.39668535130392929 -0.1109764766179535 0 0.40904120664506322 -0.09935874077938342 0 0.40226126486411301 -0.082186696628613137 0 0.39668535130392929 -0.1109764766179535 0 0.40226126486411301 -0.082186696628613137 0 0.39668535130392929 -0.1109764766179535 0 0.40692444267373179 -0.1088204768843429 0 0.40904120664506322 -0.09935874077938342 0 0.39668535130392929 -0.1109764766179535 0 0.39106825526090561 -0.1007030293946076 0 0.39668535130392929 -0.1109764766179535 0 0.39106825526090561 -0.1007030293946076 0 0.3799934613124491 -0.1141351934829782 0 0.39668535130392929 -0.1109764766179535 0 0.38199460798391838 -0.085246791459625215 0 0.39106825526090561 -0.1007030293946076 0 0.37706007999693841 -0.1011775095245466 0 0.39106825526090561 -0.1007030293946076 0 0.37706007999693841 -0.1011775095245466 0 0.3799934613124491 -0.1141351934829782 0 0.3799934613124491 -0.1141351934829782 0 0.39668535130392929 -0.1109764766179535 0 0.3932705088567644 -0.1286081277708763 0 0.3799934613124491 -0.1141351934829782 0 0.37104303648388809 -0.1272612894930944 0 0.3932705088567644 -0.1286081277708763 0 0.40224748518751269 -0.1211494002184121 0 0.3932705088567644 -0.1286081277708763 0 0.39668535130392929 -0.1109764766179535 0 0.3932705088567644 -0.1286081277708763 0 0.39668535130392929 -0.1109764766179535 0 0.40224748518751269 -0.1211494002184121 0 0.3932705088567644 -0.1286081277708763 0 0.40725115801851319 -0.1169919833964142 0 0.39668535130392929 -0.1109764766179535 0 0.40224748518751269 -0.1211494002184121 0 0.39668535130392929 -0.1109764766179535 0 0.40224748518751269 -0.1211494002184121 0 0.40725115801851319 -0.1169919833964142 0 0.40692444267373179 -0.1088204768843429 0 0.39668535130392929 -0.1109764766179535 0 0.40725115801851319 -0.1169919833964142 0 0.40224748518751269 -0.1211494002184121 0 0.40725115801851319 -0.1169919833964142 0 0.40224748518751269 -0.1211494002184121 0 0.40802316631723889 -0.13171289331352951 0 0.42156842614681772 -0.015954947998216139 0 0.41341309198447568 -0.024607136649931451 0 0.42934924071862562 -0.02029033689286578 0 0.41341309198447568 -0.024607136649931451 0 0.41617709331797431 -0.010335934375633319 0 0.42156842614681772 -0.015954947998216139 0 0.41341309198447568 -0.024607136649931451 0 0.41617709331797431 -0.010335934375633319 0 0.41341309198447568 -0.024607136649931451 0 0.40231254689356027 -0.037392070823486202 0 0.40309603266908228 -0.02802239201193971 0 0.41341309198447568 -0.024607136649931451 0 0.41078796895048542 -0.01389090533175278 0 0.39783226839882679 -0.020121444594939791 0 0.41341309198447568 -0.024607136649931451 0 0.41078796895048542 -0.01389090533175278 0 0.41617709331797431 -0.010335934375633319 0 0.41078796895048542 -0.01389090533175278 0 0.41617709331797431 -0.010335934375633319 0 0.40542454288086849 -0.004070234290400764 0 0.4122691541308795 0.010257189796790951 0 0.41617709331797431 -0.010335934375633319 0 0.40542454288086849 -0.004070234290400764 0 0.4122691541308795 0.010257189796790951 0 0.41617709331797431 -0.010335934375633319 0 0.42733427856619571 -0.0085863840744332814 0 0.42156842614681772 -0.015954947998216139 0 0.41617709331797431 -0.010335934375633319 0 0.42733427856619571 -0.0085863840744332814 0 0.42156842614681772 -0.015954947998216139 0 0.42733427856619571 -0.0085863840744332814 0 0.42934924071862562 -0.02029033689286578 0 0.43862233638968018 -0.01433991032473066 0 0.42733427856619571 -0.0085863840744332814 0 0.43604894017798812 -4.8564213765240817e-05 0 0.43862233638968018 -0.01433991032473066 0 0.42733427856619571 -0.0085863840744332814 0 0.42934924071862562 -0.02029033689286578 0 0.44055049626049481 -0.03241994821826754 0 0.43862233638968018 -0.01433991032473066 0 0.42934924071862562 -0.02029033689286578 0 0.44055049626049481 -0.03241994821826754 0 0.41341309198447568 -0.024607136649931451 0 0.42934924071862562 -0.02029033689286578 0 0.44055049626049481 -0.03241994821826754 0 0.41341309198447568 -0.024607136649931451 0 0.44055049626049481 -0.03241994821826754 0 0.41341309198447568 -0.024607136649931451 0 0.42776585910878662 -0.047462582859365887 0 0.44971823816913109 -0.058611894661768998 0 0.42731029070553322 -0.068277018127587574 0 0.42776585910878662 -0.047462582859365887 0 0.42731029070553322 -0.068277018127587574 0 0.42776585910878662 -0.047462582859365887 0 0.40783717842429862 -0.053396916639273179 0 0.41341309198447568 -0.024607136649931451 0 0.42776585910878662 -0.047462582859365887 0 0.40783717842429862 -0.053396916639273179 0 0.41341309198447568 -0.024607136649931451 0 0.40783717842429862 -0.053396916639273179 0 0.40231254689356027 -0.037392070823486202 0 0.41341309198447568 -0.024607136649931451 0 0.40783717842429862 -0.053396916639273179 0 0.40231254689356027 -0.037392070823486202 0 0.3981973431289102 -0.028872790202489229 0 0.40309603266908228 -0.02802239201193971 0 0.40231254689356027 -0.037392070823486202 0 0.38732801778773829 -0.04651698367670077 0 0.38934459454031273 -0.029067224222560958 0 0.40783717842429862 -0.053396916639273179 0 0.40231254689356027 -0.037392070823486202 0 0.38732801778773829 -0.04651698367670077 0 0.40231254689356027 -0.037392070823486202 0 0.38934459454031273 -0.029067224222560958 0 0.3981973431289102 -0.028872790202489229 0 0.38429333219820472 -0.067131704106828338 0 0.40783717842429862 -0.053396916639273179 0 0.38732801778773829 -0.04651698367670077 0 0.38429333219820472 -0.067131704106828338 0 0.38732801778773829 -0.04651698367670077 0 0.37042415964797237 -0.053058901563766692 0 0.38732801778773829 -0.04651698367670077 0 0.37068698927403948 -0.035605583580554698 0 0.37042415964797237 -0.053058901563766692 0 0.38732801778773829 -0.04651698367670077 0 0.38934459454031273 -0.029067224222560958 0 0.37068698927403948 -0.035605583580554698 0 0.38934459454031273 -0.029067224222560958 0 0.36983137800827248 -0.01206003687362641 0 0.37068698927403948 -0.035605583580554698 0 0.38934459454031273 -0.029067224222560958 0 0.39783226839882679 -0.020121444594939791 0 0.36983137800827248 -0.01206003687362641 0 0.39783226839882679 -0.020121444594939791 0 0.36983137800827248 -0.01206003687362641 0 0.38934459454031273 -0.029067224222560958 0 0.3981973431289102 -0.028872790202489229 0 0.39783226839882679 -0.020121444594939791 0 0.41341309198447568 -0.024607136649931451 0 0.39783226839882679 -0.020121444594939791 0 0.41341309198447568 -0.024607136649931451 0 0.39783226839882679 -0.020121444594939791 0 0.40309603266908228 -0.02802239201193971 0 0.3981973431289102 -0.028872790202489229 0 0.39783226839882679 -0.020121444594939791 0 0.40309603266908228 -0.02802239201193971 0 0.39212595536292472 0.0047271407553128551 0 0.39576254264207811 -0.011108662296721609 0 0.39212595536292472 0.0047271407553128551 0 0.40542454288086849 -0.004070234290400764 0 0.39576254264207811 -0.011108662296721609 0 0.41078796895048542 -0.01389090533175278 0 0.39783226839882679 -0.020121444594939791 0 0.39576254264207811 -0.011108662296721609 0 0.41078796895048542 -0.01389090533175278 0 0.39576254264207811 -0.011108662296721609 0 0.41078796895048542 -0.01389090533175278 0 0.40542454288086849 -0.004070234290400764 0 0.39576254264207811 -0.011108662296721609 0 0.39783226839882679 -0.020121444594939791 0 0.39576254264207811 -0.011108662296721609 0 0.39576254264207811 -0.011108662296721609 0 0.36983137800827248 -0.01206003687362641 0 0.36845156083710567 -0.0060515153414843056 0 0.39576254264207811 -0.011108662296721609 0 0.36845156083710567 -0.0060515153414843056 0 0.39212595536292472 0.0047271407553128551 0 0.39576254264207811 -0.011108662296721609 0 0.36845156083710567 -0.0060515153414843056 0 0.39783226839882679 -0.020121444594939791 0 0.39576254264207811 -0.011108662296721609 0 0.36983137800827248 -0.01206003687362641 0 0.36983137800827248 -0.01206003687362641 0 0.36845156083710567 -0.0060515153414843056 0 0.34183048761771712 -0.0039986291523161147 0 0.36983137800827248 -0.01206003687362641 0 0.35223914962217417 -0.02278106829858554 0 0.37068698927403948 -0.035605583580554698 0 0.36983137800827248 -0.01206003687362641 0 0.35223914962217417 -0.02278106829858554 0 0.34183048761771712 -0.0039986291523161147 0 0.36983137800827248 -0.01206003687362641 0 0.34183048761771712 -0.0039986291523161147 0 0.36845156083710567 -0.0060515153414843056 0 0.34114057903213352 -0.00099436838624600288 0 0.36845156083710567 -0.0060515153414843056 0 0.34183048761771712 -0.0039986291523161147 0 0.34114057903213352 -0.00099436838624600288 0 0.35223914962217417 -0.02278106829858554 0 0.34183048761771712 -0.0039986291523161147 0 0.33977780877024261 -0.017668132193127541 0 0.31382959722716158 0.0040627785689932028 0 0.34183048761771712 -0.0039986291523161147 0 0.34114057903213352 -0.00099436838624600288 0 0.34183048761771712 -0.0039986291523161147 0 0.33574973546384762 -0.01167659105592548 0 0.32194573769061952 -0.0077676308935595512 0 0.34183048761771712 -0.0039986291523161147 0 0.33574973546384762 -0.01167659105592548 0 0.33977780877024261 -0.017668132193127541 0 0.35223914962217417 -0.02278106829858554 0 0.33977780877024261 -0.017668132193127541 0 0.33879793226643329 -0.029417681387060649 0 0.33574973546384762 -0.01167659105592548 0 0.3302717388810405 -0.020466691071749941 0 0.3196214637881436 -0.021924893160697439 0 0.33977780877024261 -0.017668132193127541 0 0.33879793226643329 -0.029417681387060649 0 0.3302717388810405 -0.020466691071749941 0 0.33879793226643329 -0.029417681387060649 0 0.32862271298124018 -0.028919582591936679 0 0.3302717388810405 -0.020466691071749941 0 0.33574973546384762 -0.01167659105592548 0 0.33977780877024261 -0.017668132193127541 0 0.3302717388810405 -0.020466691071749941 0 0.3302717388810405 -0.020466691071749941 0 0.32526768976560849 -0.02407540610795475 0 0.3196214637881436 -0.021924893160697439 0 0.33574973546384762 -0.01167659105592548 0 0.3196214637881436 -0.021924893160697439 0 0.32862271298124018 -0.028919582591936679 0 0.3302717388810405 -0.020466691071749941 0 0.32526768976560849 -0.02407540610795475 0 0.32862271298124018 -0.028919582591936679 0 0.32095671603858011 -0.024994897592425049 0 0.3231679364015333 -0.033306441836977792 0 0.32862271298124018 -0.028919582591936679 0 0.32526768976560849 -0.02407540610795475 0 0.32095671603858011 -0.024994897592425049 0 0.32526768976560849 -0.02407540610795475 0 0.32095671603858011 -0.024994897592425049 0 0.3196214637881436 -0.021924893160697439 0 0.32095671603858011 -0.024994897592425049 0 0.3196214637881436 -0.021924893160697439 0 0.31660160940309118 -0.035871797032442469 0 0.32095671603858011 -0.024994897592425049 0 0.3196214637881436 -0.021924893160697439 0 0.33574973546384762 -0.01167659105592548 0 0.3196214637881436 -0.021924893160697439 0 0.32194573769061952 -0.0077676308935595512 0 0.30752965714041391 0.0058765203804442539 0 0.3196214637881436 -0.021924893160697439 0 0.32194573769061952 -0.0077676308935595512 0 0.31382959722716158 0.0040627785689932028 0 0.34183048761771712 -0.0039986291523161147 0 0.32194573769061952 -0.0077676308935595512 0 0.30752965714041391 0.0058765203804442539 0 0.3196214637881436 -0.021924893160697439 0 0.31292981148517318 -0.054457989835630861 0 0.33951515654934239 -0.057829064589421393 0 0.331762206516936 -0.074199649102278678 0 0.31292981148517318 -0.054457989835630861 0 0.32943454752299528 -0.042779626289088678 0 0.31292981148517318 -0.054457989835630861 0 0.32943454752299528 -0.042779626289088678 0 0.33951515654934239 -0.057829064589421393 0 0.31292981148517318 -0.054457989835630861 0 0.31660160940309118 -0.035871797032442469 0 0.32943454752299528 -0.042779626289088678 0 0.32095671603858011 -0.024994897592425049 0 0.31660160940309118 -0.035871797032442469 0 0.3231679364015333 -0.033306441836977792 0 0.32862271298124018 -0.028919582591936679 0 0.3231679364015333 -0.033306441836977792 0 0.32943454752299528 -0.042779626289088678 0 0.31660160940309118 -0.035871797032442469 0 0.3231679364015333 -0.033306441836977792 0 0.32943454752299528 -0.042779626289088678 0 0.33879793226643329 -0.029417681387060649 0 0.32943454752299528 -0.042779626289088678 0 0.35178468962230941 -0.045374559850196158 0 0.33879793226643329 -0.029417681387060649 0 0.32862271298124018 -0.028919582591936679 0 0.32943454752299528 -0.042779626289088678 0 0.32943454752299528 -0.042779626289088678 0 0.33951515654934239 -0.057829064589421393 0 0.35178468962230941 -0.045374559850196158 0 0.33951515654934239 -0.057829064589421393 0 0.35178468962230941 -0.045374559850196158 0 0.35802776935757019 -0.070665676604553529 0 0.35223914962217417 -0.02278106829858554 0 0.35178468962230941 -0.045374559850196158 0 0.37068698927403948 -0.035605583580554698 0 0.35223914962217417 -0.02278106829858554 0 0.33879793226643329 -0.029417681387060649 0 0.35178468962230941 -0.045374559850196158 0 0.35178468962230941 -0.045374559850196158 0 0.37068698927403948 -0.035605583580554698 0 0.37042415964797237 -0.053058901563766692 0 0.35178468962230941 -0.045374559850196158 0 0.37042415964797237 -0.053058901563766692 0 0.35802776935757019 -0.070665676604553529 0 0.38429333219820472 -0.067131704106828338 0 0.38199460798391838 -0.085246791459625215 0 0.35802776935757019 -0.070665676604553529 0 0.38429333219820472 -0.067131704106828338 0 0.37042415964797237 -0.053058901563766692 0 0.35802776935757019 -0.070665676604553529 0 0.38429333219820472 -0.067131704106828338 0 0.35802776935757019 -0.070665676604553529 0 0.38199460798391838 -0.085246791459625215 0 0.36577500316168848 -0.093055365242956031 0 0.35802776935757019 -0.070665676604553529 0 0.38199460798391838 -0.085246791459625215 0 0.37706007999693841 -0.1011775095245466 0 0.36577500316168848 -0.093055365242956031 0 0.35802776935757019 -0.070665676604553529 0 0.34487393367809682 -0.095216741312257352 0 0.331762206516936 -0.074199649102278678 0 0.36577500316168848 -0.093055365242956031 0 0.35802776935757019 -0.070665676604553529 0 0.34487393367809682 -0.095216741312257352 0 0.35802776935757019 -0.070665676604553529 0 0.331762206516936 -0.074199649102278678 0 0.3799934613124491 -0.1141351934829782 0 0.36192545204167298 -0.11208328153174781 0 0.37104303648388809 -0.1272612894930944 0 0.36192545204167298 -0.11208328153174781 0 0.35551888896884759 -0.1297027680154724 0 0.37104303648388809 -0.1272612894930944 0 0.37706007999693841 -0.1011775095245466 0 0.3799934613124491 -0.1141351934829782 0 0.36192545204167298 -0.11208328153174781 0 0.37706007999693841 -0.1011775095245466 0 0.36577500316168848 -0.093055365242956031 0 0.36192545204167298 -0.11208328153174781 0 0.36192545204167298 -0.11208328153174781 0 0.34487393367809682 -0.095216741312257352 0 0.34014121552940491 -0.1203166258242544 0 0.36577500316168848 -0.093055365242956031 0 0.36192545204167298 -0.11208328153174781 0 0.34487393367809682 -0.095216741312257352 0 0.36192545204167298 -0.11208328153174781 0 0.34014121552940491 -0.1203166258242544 0 0.35551888896884759 -0.1297027680154724 0 0.34014121552940491 -0.1203166258242544 0 0.32517348349888747 -0.118580130041643 0 0.32373683991627678 -0.1342707635111336 0 0.34014121552940491 -0.1203166258242544 0 0.32895182275083351 -0.1060869523066566 0 0.32517348349888747 -0.118580130041643 0 0.34487393367809682 -0.095216741312257352 0 0.34014121552940491 -0.1203166258242544 0 0.32895182275083351 -0.1060869523066566 0 0.34487393367809682 -0.095216741312257352 0 0.32895182275083351 -0.1060869523066566 0 0.32681031061177879 -0.089772122834636051 0 0.32895182275083351 -0.1060869523066566 0 0.31743464692623941 -0.099981704590172707 0 0.32681031061177879 -0.089772122834636051 0 0.31743464692623941 -0.099981704590172707 0 0.31638799147784608 -0.1118713826410174 0 0.30885616350321549 -0.1072846913931271 0 0.32895182275083351 -0.1060869523066566 0 0.31743464692623941 -0.099981704590172707 0 0.31638799147784608 -0.1118713826410174 0 0.32895182275083351 -0.1060869523066566 0 0.31638799147784608 -0.1118713826410174 0 0.32517348349888747 -0.118580130041643 0 0.31638799147784608 -0.1118713826410174 0 0.31399575267335023 -0.12250180558336519 0 0.30853123694459123 -0.1170064061326217 0 0.31638799147784608 -0.1118713826410174 0 0.31399575267335023 -0.12250180558336519 0 0.32517348349888747 -0.118580130041643 0 0.33951515654934239 -0.057829064589421393 0 0.35802776935757019 -0.070665676604553529 0 0.331762206516936 -0.074199649102278678 0 0.34487393367809682 -0.095216741312257352 0 0.331762206516936 -0.074199649102278678 0 0.32681031061177879 -0.089772122834636051 0 0.32681031061177879 -0.089772122834636051 0 0.30549664367630158 -0.077733621600003855 0 0.31220284993755582 -0.090742102146006851 0 0.331762206516936 -0.074199649102278678 0 0.32681031061177879 -0.089772122834636051 0 0.30549664367630158 -0.077733621600003855 0 0.31743464692623941 -0.099981704590172707 0 0.32681031061177879 -0.089772122834636051 0 0.31220284993755582 -0.090742102146006851 0 0.31292981148517318 -0.054457989835630861 0 0.331762206516936 -0.074199649102278678 0 0.30549664367630158 -0.077733621600003855 0 0.331762206516936 -0.074199649102278678 0 0.30549664367630158 -0.077733621600003855 0 0.31292981148517318 -0.054457989835630861 0 0.30549664367630158 -0.077733621600003855 0 0.29642507544735103 -0.06613635338217283 0 0.30549664367630158 -0.077733621600003855 0 0.29743178973804058 -0.092817056036521225 0 0.29642507544735103 -0.06613635338217283 0 0.29743178973804058 -0.092817056036521225 0 0.29642507544735103 -0.06613635338217283 0 0.31220284993755582 -0.090742102146006851 0 0.30524841693787119 -0.089877123387424693 0 0.30586238439958702 -0.098215713767166868 0 0.30549664367630158 -0.077733621600003855 0 0.31220284993755582 -0.090742102146006851 0 0.30524841693787119 -0.089877123387424693 0 0.30524841693787119 -0.089877123387424693 0 0.29743178973804058 -0.092817056036521225 0 0.30586238439958702 -0.098215713767166868 0 0.30549664367630158 -0.077733621600003855 0 0.30524841693787119 -0.089877123387424693 0 0.29743178973804058 -0.092817056036521225 0 0.29430385704143641 -0.093334685648855456 0 0.28333646668855839 -0.1038254721913715 0 0.27844545300264117 -0.078858311907156253 0 0.29743178973804058 -0.092817056036521225 0 0.29430385704143641 -0.093334685648855456 0 0.29347904805936648 -0.068220893163732282 0 0.29430385704143641 -0.093334685648855456 0 0.29347904805936648 -0.068220893163732282 0 0.27844545300264117 -0.078858311907156253 0 0.29430385704143641 -0.093334685648855456 0 0.29347904805936648 -0.068220893163732282 0 0.29743178973804058 -0.092817056036521225 0 0.29642507544735103 -0.06613635338217283 0 0.29347904805936648 -0.068220893163732282 0 0.28521560802072671 -0.062721316040594208 0 0.29347904805936648 -0.068220893163732282 0 0.27844545300264117 -0.078858311907156253 0 0.29347904805936648 -0.068220893163732282 0 0.27844545300264117 -0.078858311907156253 0 0.29642507544735103 -0.06613635338217283 0 0.29347904805936648 -0.068220893163732282 0 0.29301224914481439 -0.054007794946804598 0 0.29642507544735103 -0.06613635338217283 0 0.29347904805936648 -0.068220893163732282 0 0.29743178973804058 -0.092817056036521225 0 0.29843850402873079 -0.11949775869086959 0 0.29512866602350563 -0.1184484781339787 0 0.29843850402873079 -0.11949775869086959 0 0.29512866602350563 -0.1184484781339787 0 0.30010147488007238 -0.1276093355582181 0 0.29843850402873079 -0.11949775869086959 0 0.30554459793957989 -0.1238630007756472 0 0.30853123694459123 -0.1170064061326217 0 0.29843850402873079 -0.11949775869086959 0 0.30554459793957989 -0.1238630007756472 0 0.30010147488007238 -0.1276093355582181 0 0.31399575267335023 -0.12250180558336519 0 0.30554459793957989 -0.1238630007756472 0 0.30853123694459123 -0.1170064061326217 0 0.29843850402873079 -0.11949775869086959 0 0.30853123694459123 -0.1170064061326217 0 0.30885616350321549 -0.1072846913931271 0 0.31638799147784608 -0.1118713826410174 0 0.30853123694459123 -0.1170064061326217 0 0.30885616350321549 -0.1072846913931271 0 0.29843850402873079 -0.11949775869086959 0 0.30885616350321549 -0.1072846913931271 0 0.30586238439958702 -0.098215713767166868 0 0.29743178973804058 -0.092817056036521225 0 0.29843850402873079 -0.11949775869086959 0 0.30586238439958702 -0.098215713767166868 0 0.29743178973804058 -0.092817056036521225 0 0.29843850402873079 -0.11949775869086959 0 0.31743464692623941 -0.099981704590172707 0 0.30885616350321549 -0.1072846913931271 0 0.30586238439958702 -0.098215713767166868 0 0.31743464692623941 -0.099981704590172707 0 0.31220284993755582 -0.090742102146006851 0 0.30586238439958702 -0.098215713767166868 0 0.29430385704143641 -0.093334685648855456 0 0.29512866602350563 -0.1184484781339787 0 0.29430385704143641 -0.093334685648855456 0 0.28333646668855839 -0.1038254721913715 0 0.29512866602350563 -0.1184484781339787 0 0.29743178973804058 -0.092817056036521225 0 0.29430385704143641 -0.093334685648855456 0 0.29512866602350563 -0.1184484781339787 0 0.28333646668855839 -0.1038254721913715 0 0.29512866602350563 -0.1184484781339787 0 0.28822748037447399 -0.12879263247558709 0 0.28333646668855839 -0.1038254721913715 0 0.28822748037447399 -0.12879263247558709 0 0.26621118532108262 -0.1119181791838486 0 0.25741251913389712 -0.1305951081492244 0 0.28822748037447399 -0.12879263247558709 0 0.28333646668855839 -0.1038254721913715 0 0.26621118532108262 -0.1119181791838486 0 0.28822748037447399 -0.12879263247558709 0 0.28333646668855839 -0.1038254721913715 0 0.26621118532108262 -0.1119181791838486 0 0.26565518081306061 -0.08790840808238623 0 0.26621118532108262 -0.1119181791838486 0 0.25154255280112903 -0.1006059983499779 0 0.24954668948061209 -0.11284283178631641 0 0.26621118532108262 -0.1119181791838486 0 0.25154255280112903 -0.1006059983499779 0 0.26565518081306061 -0.08790840808238623 0 0.26621118532108262 -0.1119181791838486 0 0.25741251913389712 -0.1305951081492244 0 0.24954668948061209 -0.11284283178631641 0 0.27844545300264117 -0.078858311907156253 0 0.2741393958395883 -0.056877179510702792 0 0.28007443442101287 -0.061799103716356343 0 0.27844545300264117 -0.078858311907156253 0 0.2741393958395883 -0.056877179510702792 0 0.26628957168076178 -0.070692469674316694 0 0.27844545300264117 -0.078858311907156253 0 0.2741393958395883 -0.056877179510702792 0 0.28521560802072671 -0.062721316040594208 0 0.27844545300264117 -0.078858311907156253 0 0.28007443442101287 -0.061799103716356343 0 0.26628957168076178 -0.070692469674316694 0 0.27844545300264117 -0.078858311907156253 0 0.26565518081306061 -0.08790840808238623 0 0.28333646668855839 -0.1038254721913715 0 0.27844545300264117 -0.078858311907156253 0 0.26565518081306061 -0.08790840808238623 0 0.28333646668855839 -0.1038254721913715 0 0.27844545300264117 -0.078858311907156253 0 0.27844545300264117 -0.078858311907156253 0 0.26565518081306061 -0.08790840808238623 0 0.25154255280112903 -0.1006059983499779 0 0.25664035233608162 -0.078361863555500011 0 0.24390890644978661 -0.075150332687283522 0 0.25154255280112903 -0.1006059983499779 0 0.26565518081306061 -0.08790840808238623 0 0.25664035233608162 -0.078361863555500011 0 0.26628957168076178 -0.070692469674316694 0 0.26565518081306061 -0.08790840808238623 0 0.25664035233608162 -0.078361863555500011 0 0.25664035233608162 -0.078361863555500011 0 0.25256726729664603 -0.064532785491330763 0 0.24390890644978661 -0.075150332687283522 0 0.26628957168076178 -0.070692469674316694 0 0.25256726729664603 -0.064532785491330763 0 0.2741393958395883 -0.056877179510702792 0 0.26628957168076178 -0.070692469674316694 0 0.25664035233608162 -0.078361863555500011 0 0.25256726729664603 -0.064532785491330763 0 0.25256726729664603 -0.064532785491330763 0 0.25164978009717781 -0.053061021673298493 0 0.24617004458672351 -0.058202332164817121 0 0.25256726729664603 -0.064532785491330763 0 0.26131371929964131 -0.050907379716302707 0 0.27395317434556299 -0.0509436520349522 0 0.25256726729664603 -0.064532785491330763 0 0.25164978009717781 -0.053061021673298493 0 0.26131371929964131 -0.050907379716302707 0 0.25256726729664603 -0.064532785491330763 0 0.27395317434556299 -0.0509436520349522 0 0.25164978009717781 -0.053061021673298493 0 0.26131371929964131 -0.050907379716302707 0 0.2539732262079259 -0.044675773385505282 0 0.26131371929964131 -0.050907379716302707 0 0.26227784506780882 -0.045421506107560787 0 0.2539732262079259 -0.044675773385505282 0 0.26131371929964131 -0.050907379716302707 0 0.26742863268251632 -0.045985676557136583 0 0.26227784506780882 -0.045421506107560787 0 0.25256726729664603 -0.064532785491330763 0 0.27395317434556299 -0.0509436520349522 0 0.2741393958395883 -0.056877179510702792 0 0.26131371929964131 -0.050907379716302707 0 0.27395317434556299 -0.0509436520349522 0 0.26742863268251632 -0.045985676557136583 0 0.27395317434556299 -0.0509436520349522 0 0.2741393958395883 -0.056877179510702792 0 0.28351618772518777 -0.053458991616202503 0 0.2741393958395883 -0.056877179510702792 0 0.28007443442101287 -0.061799103716356343 0 0.28351618772518777 -0.053458991616202503 0 0.2807394014679111 -0.038000872253349499 0 0.27361436003936901 -0.034999677146069851 0 0.27240238673917438 -0.042113497984529957 0 0.2807394014679111 -0.038000872253349499 0 0.27361436003936901 -0.034999677146069851 0 0.28248009054126683 -0.027824818882371601 0 0.27395317434556299 -0.0509436520349522 0 0.2807394014679111 -0.038000872253349499 0 0.27240238673917438 -0.042113497984529957 0 0.27395317434556299 -0.0509436520349522 0 0.27240238673917438 -0.042113497984529957 0 0.26742863268251632 -0.045985676557136583 0 0.27361436003936901 -0.034999677146069851 0 0.27240238673917438 -0.042113497984529957 0 0.26639580208115188 -0.040117194771298603 0 0.27240238673917438 -0.042113497984529957 0 0.26742863268251632 -0.045985676557136583 0 0.26639580208115188 -0.040117194771298603 0 0.27361436003936901 -0.034999677146069851 0 0.26639580208115188 -0.040117194771298603 0 0.26859201328057281 -0.027442020841521631 0 0.2539732262079259 -0.044675773385505282 0 0.25845033672230949 -0.02738613623275089 0 0.26859201328057281 -0.027442020841521631 0 0.2539732262079259 -0.044675773385505282 0 0.25845033672230949 -0.02738613623275089 0 0.24422464309495209 -0.046986837608536558 0 0.25845033672230949 -0.02738613623275089 0 0.24422464309495209 -0.046986837608536558 0 0.26639580208115188 -0.040117194771298603 0 0.2539732262079259 -0.044675773385505282 0 0.26859201328057281 -0.027442020841521631 0 0.2539732262079259 -0.044675773385505282 0 0.26859201328057281 -0.027442020841521631 0 0.26639580208115188 -0.040117194771298603 0 0.26227784506780882 -0.045421506107560787 0 0.2539732262079259 -0.044675773385505282 0 0.26742863268251632 -0.045985676557136583 0 0.26639580208115188 -0.040117194771298603 0 0.26227784506780882 -0.045421506107560787 0 0.25013504981522988 -0.025019616072594848 0 0.25845033672230949 -0.02738613623275089 0 0.24524507923365879 -0.0330622213940093 0 0.25845033672230949 -0.02738613623275089 0 0.27267603034966698 -0.0077854348569651906 0 0.25845033672230949 -0.02738613623275089 0 0.25886508985187012 -0.013172853544477199 0 0.27267603034966698 -0.0077854348569651906 0 0.25013504981522988 -0.025019616072594848 0 0.25247407830029878 -0.019873092178793648 0 0.25845033672230949 -0.02738613623275089 0 0.25247407830029878 -0.019873092178793648 0 0.25845033672230949 -0.02738613623275089 0 0.25886508985187012 -0.013172853544477199 0 0.25598072684389089 -0.0058943492075353007 0 0.25006914023697918 -0.01208141302270524 0 0.2479891295484222 -0.0022684572774312019 0 0.25894279220913391 0.003459445712386486 0 0.25598072684389089 -0.0058943492075353007 0 0.2479891295484222 -0.0022684572774312019 0 0.25598072684389089 -0.0058943492075353007 0 0.25006914023697918 -0.01208141302270524 0 0.25886508985187012 -0.013172853544477199 0 0.25247407830029878 -0.019873092178793648 0 0.25006914023697918 -0.01208141302270524 0 0.25886508985187012 -0.013172853544477199 0 0.25886508985187012 -0.013172853544477199 0 0.26317147738524183 -0.0038637327990410169 0 0.27267603034966698 -0.0077854348569651906 0 0.25598072684389089 -0.0058943492075353007 0 0.25886508985187012 -0.013172853544477199 0 0.26317147738524183 -0.0038637327990410169 0 0.25894279220913391 0.003459445712386486 0 0.25598072684389089 -0.0058943492075353007 0 0.26317147738524183 -0.0038637327990410169 0 0.27267603034966698 -0.0077854348569651906 0 0.26859201328057281 -0.027442020841521631 0 0.28321080035321983 -0.010208268297538009 0 0.26939274767164711 0.0040745279013861191 0 0.26317147738524183 -0.0038637327990410169 0 0.27267603034966698 -0.0077854348569651906 0 0.28687677889875068 0.001725005618485562 0 0.27267603034966698 -0.0077854348569651906 0 0.28321080035321983 -0.010208268297538009 0 0.26859201328057281 -0.027442020841521631 0 0.28321080035321983 -0.010208268297538009 0 0.25845033672230949 -0.02738613623275089 0 0.27267603034966698 -0.0077854348569651906 0 0.26859201328057281 -0.027442020841521631 0 0.26859201328057281 -0.027442020841521631 0 0.28248009054126683 -0.027824818882371601 0 0.28321080035321983 -0.010208268297538009 0 0.27361436003936901 -0.034999677146069851 0 0.26859201328057281 -0.027442020841521631 0 0.28248009054126683 -0.027824818882371601 0 0.29465383366866438 -0.01919356567853802 0 0.28248009054126683 -0.027824818882371601 0 0.29533908139447967 -0.037354518578573179 0 0.29465383366866438 -0.01919356567853802 0 0.28248009054126683 -0.027824818882371601 0 0.28321080035321983 -0.010208268297538009 0 0.29465383366866438 -0.01919356567853802 0 0.29533908139447967 -0.037354518578573179 0 0.2978295874258669 0.0070254842464454832 0 0.28321080035321983 -0.010208268297538009 0 0.29396858594285019 -0.001032612778502764 0 0.2978295874258669 0.0070254842464454832 0 0.28687677889875068 0.001725005618485562 0 0.28321080035321983 -0.010208268297538009 0 0.29465383366866438 -0.01919356567853802 0 0.28321080035321983 -0.010208268297538009 0 0.29396858594285019 -0.001032612778502764 0 0.2978295874258669 0.0070254842464454832 0 0.28321080035321983 -0.010208268297538009 0 0.29465383366866438 -0.01919356567853802 0 0.29396858594285019 -0.001032612778502764 0 0.30752965714041391 0.0058765203804442539 0 0.29465383366866438 -0.01919356567853802 0 0.29396858594285019 -0.001032612778502764 0 0.30752965714041391 0.0058765203804442539 0 0.3196214637881436 -0.021924893160697439 0 0.29465383366866438 -0.01919356567853802 0 0.3196214637881436 -0.021924893160697439 0 0.29465383366866438 -0.01919356567853802 0 0.29533908139447967 -0.037354518578573179 0 0.3196214637881436 -0.021924893160697439 0 0.29533908139447967 -0.037354518578573179 0 0.3196214637881436 -0.021924893160697439 0 0.31660160940309118 -0.035871797032442469 0 0.29533908139447967 -0.037354518578573179 0 0.31292981148517318 -0.054457989835630861 0 0.31660160940309118 -0.035871797032442469 0 0.29533908139447967 -0.037354518578573179 0 0.31292981148517318 -0.054457989835630861 0 0.29642507544735103 -0.06613635338217283 0 0.31292981148517318 -0.054457989835630861 0 0.29642507544735103 -0.06613635338217283 0 0.29533908139447967 -0.037354518578573179 0 0.29642507544735103 -0.06613635338217283 0 0.29301224914481439 -0.054007794946804598 0 0.29533908139447967 -0.037354518578573179 0 0.27395317434556299 -0.0509436520349522 0 0.28351618772518777 -0.053458991616202503 0 0.29533908139447967 -0.037354518578573179 0 0.29301224914481439 -0.054007794946804598 0 0.28351618772518777 -0.053458991616202503 0 0.29533908139447967 -0.037354518578573179 0 0.29642507544735103 -0.06613635338217283 0 0.29533908139447967 -0.037354518578573179 0 0.29347904805936648 -0.068220893163732282 0 0.29301224914481439 -0.054007794946804598 0 0.28521560802072671 -0.062721316040594208 0 0.29347904805936648 -0.068220893163732282 0 0.29301224914481439 -0.054007794946804598 0 0.28521560802072671 -0.062721316040594208 0 0.29301224914481439 -0.054007794946804598 0 0.28351618772518777 -0.053458991616202503 0 0.28521560802072671 -0.062721316040594208 0 0.28007443442101287 -0.061799103716356343 0 0.28351618772518777 -0.053458991616202503 0 0.27395317434556299 -0.0509436520349522 0 0.29533908139447967 -0.037354518578573179 0 0.27395317434556299 -0.0509436520349522 0 0.2807394014679111 -0.038000872253349499 0 0.29533908139447967 -0.037354518578573179 0 0.2807394014679111 -0.038000872253349499 0 0.28248009054126683 -0.027824818882371601 0 0.29533908139447967 -0.037354518578573179 0 0.30290052143222262 -0.20369411332823331 0 0.28158405213751547 -0.22140539282722879 0 0.30290052143222262 -0.20369411332823331 0 0.28158405213751547 -0.22140539282722879 0 0.27747759048209231 -0.20168759245952969 0 0.28632476970011178 -0.18938030831719929 0 0.30290052143222262 -0.20369411332823331 0 0.2980095077463053 -0.17872695304401809 0 0.28632476970011178 -0.18938030831719929 0 0.30290052143222262 -0.20369411332823331 0 0.27747759048209231 -0.20168759245952969 0 0.30290052143222262 -0.20369411332823331 0 0.2980095077463053 -0.17872695304401809 0 0.32549301828835953 -0.18492261693889581 0 0.30290052143222262 -0.20369411332823331 0 0.2980095077463053 -0.17872695304401809 0 0.30290052143222262 -0.20369411332823331 0 0.30715254712033069 -0.22539943122446929 0 0.28158405213751547 -0.22140539282722879 0 0.30290052143222262 -0.20369411332823331 0 0.30715254712033069 -0.22539943122446929 0 0.30290052143222262 -0.20369411332823331 0 0.30715254712033069 -0.22539943122446929 0 0.32148368101975677 -0.2112815477794289 0 0.31140457280844042 -0.24710474912070499 0 0.29234931722919649 -0.23956849287787771 0 0.29718577407036301 -0.25519814195989071 0 0.30715254712033069 -0.22539943122446929 0 0.31140457280844042 -0.24710474912070499 0 0.29234931722919649 -0.23956849287787771 0 0.30715254712033069 -0.22539943122446929 0 0.31140457280844042 -0.24710474912070499 0 0.29234931722919649 -0.23956849287787771 0 0.27362138757170362 -0.2426007269765893 0 0.28009493911397709 -0.25531812806766069 0 0.29234931722919649 -0.23956849287787771 0 0.28158405213751547 -0.22140539282722879 0 0.27362138757170362 -0.2426007269765893 0 0.30715254712033069 -0.22539943122446929 0 0.29234931722919649 -0.23956849287787771 0 0.28158405213751547 -0.22140539282722879 0 0.28158405213751547 -0.22140539282722879 0 0.26621460642996558 -0.23052855599088379 0 0.27362138757170362 -0.2426007269765893 0 0.28158405213751547 -0.22140539282722879 0 0.26621460642996558 -0.23052855599088379 0 0.26307381511529532 -0.2143756044194241 0 0.26621460642996558 -0.23052855599088379 0 0.27362138757170362 -0.2426007269765893 0 0.26034160768121078 -0.2422716922893062 0 0.27362138757170362 -0.2426007269765893 0 0.26034160768121078 -0.2422716922893062 0 0.26515279713901752 -0.25474276698909742 0 0.26034160768121078 -0.2422716922893062 0 0.26515279713901752 -0.25474276698909742 0 0.25575058308532189 -0.25269357128633052 0 0.26034160768121078 -0.2422716922893062 0 0.25134951441318748 -0.22920843539767929 0 0.2499607574480687 -0.24385609709525671 0 0.25575058308532189 -0.25269357128633052 0 0.2462907050713771 -0.25204034373521428 0 0.2499607574480687 -0.24385609709525671 0 0.26034160768121078 -0.2422716922893062 0 0.25575058308532189 -0.25269357128633052 0 0.2499607574480687 -0.24385609709525671 0 0.26621460642996558 -0.23052855599088379 0 0.25134951441318748 -0.22920843539767929 0 0.26307381511529532 -0.2143756044194241 0 0.26621460642996558 -0.23052855599088379 0 0.26034160768121078 -0.2422716922893062 0 0.25134951441318748 -0.22920843539767929 0 0.25134951441318748 -0.22920843539767929 0 0.26307381511529532 -0.2143756044194241 0 0.24314545538918961 -0.20571013864437751 0 0.26307381511529532 -0.2143756044194241 0 0.2593871514889205 -0.19799184377322379 0 0.24314545538918961 -0.20571013864437751 0 0.26307381511529532 -0.2143756044194241 0 0.27747759048209231 -0.20168759245952969 0 0.2593871514889205 -0.19799184377322379 0 0.28158405213751547 -0.22140539282722879 0 0.26307381511529532 -0.2143756044194241 0 0.27747759048209231 -0.20168759245952969 0 0.27747759048209231 -0.20168759245952969 0 0.2593871514889205 -0.19799184377322379 0 0.269221803856454 -0.185599514949991 0 0.28632476970011178 -0.18938030831719929 0 0.27747759048209231 -0.20168759245952969 0 0.269221803856454 -0.185599514949991 0 0.2593871514889205 -0.19799184377322379 0 0.269221803856454 -0.185599514949991 0 0.2437278363918948 -0.18195096812212239 0 0.260919387449559 -0.16579352929295721 0 0.269221803856454 -0.185599514949991 0 0.2437278363918948 -0.18195096812212239 0 0.260919387449559 -0.16579352929295721 0 0.28401442498348639 -0.17719336780422379 0 0.260919387449559 -0.16579352929295721 0 0.27757308642867828 -0.16101723958663619 0 0.28401442498348639 -0.17719336780422379 0 0.260919387449559 -0.16579352929295721 0 0.27757308642867828 -0.16101723958663619 0 0.27224003922127837 -0.1473222684895614 0 0.260919387449559 -0.16579352929295721 0 0.269221803856454 -0.185599514949991 0 0.28401442498348639 -0.17719336780422379 0 0.28632476970011178 -0.18938030831719929 0 0.269221803856454 -0.185599514949991 0 0.28401442498348639 -0.17719336780422379 0 0.260919387449559 -0.16579352929295721 0 0.25452239946831973 -0.14829655140993131 0 0.27224003922127837 -0.1473222684895614 0 0.260919387449559 -0.16579352929295721 0 0.25452239946831973 -0.14829655140993131 0 0.23782434991563151 -0.15439369078169049 0 0.25741251913389712 -0.1305951081492244 0 0.25452239946831973 -0.14829655140993131 0 0.27224003922127837 -0.1473222684895614 0 0.27757308642867828 -0.16101723958663619 0 0.27224003922127837 -0.1473222684895614 0 0.2931184940603897 -0.15375979275980259 0 0.25741251913389712 -0.1305951081492244 0 0.27224003922127837 -0.1473222684895614 0 0.28822748037447399 -0.12879263247558709 0 0.29512866602350563 -0.1184484781339787 0 0.2959534750055749 -0.1435622706191019 0 0.29512866602350563 -0.1184484781339787 0 0.28822748037447399 -0.12879263247558709 0 0.2959534750055749 -0.1435622706191019 0 0.2959534750055749 -0.1435622706191019 0 0.2931184940603897 -0.15375979275980259 0 0.29606782433269818 -0.16881524064208181 0 0.28822748037447399 -0.12879263247558709 0 0.2959534750055749 -0.1435622706191019 0 0.2931184940603897 -0.15375979275980259 0 0.28822748037447399 -0.12879263247558709 0 0.2931184940603897 -0.15375979275980259 0 0.27224003922127837 -0.1473222684895614 0 0.28822748037447399 -0.12879263247558709 0 0.2931184940603897 -0.15375979275980259 0 0.2959534750055749 -0.1435622706191019 0 0.29606782433269818 -0.16881524064208181 0 0.2959534750055749 -0.1435622706191019 0 0.30786991093933941 -0.1327242262548293 0 0.31334084787329858 -0.14560100496875439 0 0.2959534750055749 -0.1435622706191019 0 0.30589655906226038 -0.156608858018214 0 0.31334084787329858 -0.14560100496875439 0 0.30589655906226038 -0.156608858018214 0 0.31666093946419188 -0.15748088094218049 0 0.31334084787329858 -0.14560100496875439 0 0.29512866602350563 -0.1184484781339787 0 0.2959534750055749 -0.1435622706191019 0 0.30010147488007238 -0.1276093355582181 0 0.2959534750055749 -0.1435622706191019 0 0.30786991093933941 -0.1327242262548293 0 0.30010147488007238 -0.1276093355582181 0 0.31399575267335023 -0.12250180558336519 0 0.30554459793957989 -0.1238630007756472 0 0.30786991093933941 -0.1327242262548293 0 0.30554459793957989 -0.1238630007756472 0 0.30786991093933941 -0.1327242262548293 0 0.30010147488007238 -0.1276093355582181 0 0.28401442498348639 -0.17719336780422379 0 0.29606782433269818 -0.16881524064208181 0 0.2980095077463053 -0.17872695304401809 0 0.28632476970011178 -0.18938030831719929 0 0.28401442498348639 -0.17719336780422379 0 0.2980095077463053 -0.17872695304401809 0 0.27757308642867828 -0.16101723958663619 0 0.2931184940603897 -0.15375979275980259 0 0.28401442498348639 -0.17719336780422379 0 0.2931184940603897 -0.15375979275980259 0 0.28401442498348639 -0.17719336780422379 0 0.29606782433269818 -0.16881524064208181 0 0.2931184940603897 -0.15375979275980259 0 0.29606782433269818 -0.16881524064208181 0 0.29606782433269818 -0.16881524064208181 0 0.30589655906226038 -0.156608858018214 0 0.31145366373618227 -0.1686264437044486 0 0.2959534750055749 -0.1435622706191019 0 0.29606782433269818 -0.16881524064208181 0 0.30589655906226038 -0.156608858018214 0 0.30589655906226038 -0.156608858018214 0 0.31145366373618227 -0.1686264437044486 0 0.31666093946419188 -0.15748088094218049 0 0.31145366373618227 -0.1686264437044486 0 0.2980095077463053 -0.17872695304401809 0 0.32549301828835953 -0.18492261693889581 0 0.29606782433269818 -0.16881524064208181 0 0.31145366373618227 -0.1686264437044486 0 0.2980095077463053 -0.17872695304401809 0 0.29606782433269818 -0.16881524064208181 0 0.2980095077463053 -0.17872695304401809 0 0.31145366373618227 -0.1686264437044486 0 0.32549301828835953 -0.18492261693889581 0 0.32738776678709508 -0.16545123116759969 0 0.31145366373618227 -0.1686264437044486 0 0.32738776678709508 -0.16545123116759969 0 0.31666093946419188 -0.15748088094218049 0 0.32738776678709508 -0.16545123116759969 0 0.31666093946419188 -0.15748088094218049 0 0.32968898845727718 -0.1497650634196834 0 0.32738776678709508 -0.16545123116759969 0 0.32968898845727718 -0.1497650634196834 0 0.34808551514449421 -0.1661511205495555 0 0.32549301828835953 -0.18492261693889581 0 0.32738776678709508 -0.16545123116759969 0 0.34808551514449421 -0.1661511205495555 0 0.32549301828835953 -0.18492261693889581 0 0.34808551514449421 -0.1661511205495555 0 0.32549301828835953 -0.18492261693889581 0 0.34808551514449421 -0.1661511205495555 0 0.34521429895780248 -0.1968392362703156 0 0.30786991093933941 -0.1327242262548293 0 0.32373683991627678 -0.1342707635111336 0 0.31334084787329858 -0.14560100496875439 0 0.31399575267335023 -0.12250180558336519 0 0.32517348349888747 -0.118580130041643 0 0.32373683991627678 -0.1342707635111336 0 0.31399575267335023 -0.12250180558336519 0 0.30786991093933941 -0.1327242262548293 0 0.32373683991627678 -0.1342707635111336 0 0.32373683991627678 -0.1342707635111336 0 0.31334084787329858 -0.14560100496875439 0 0.32968898845727718 -0.1497650634196834 0 0.31666093946419188 -0.15748088094218049 0 0.31334084787329858 -0.14560100496875439 0 0.32968898845727718 -0.1497650634196834 0 0.32373683991627678 -0.1342707635111336 0 0.32968898845727718 -0.1497650634196834 0 0.34485783347551252 -0.1433779188078016 0 0.32968898845727718 -0.1497650634196834 0 0.34485783347551252 -0.1433779188078016 0 0.34808551514449421 -0.1661511205495555 0 0.34014121552940491 -0.1203166258242544 0 0.32373683991627678 -0.1342707635111336 0 0.34485783347551252 -0.1433779188078016 0 0.34014121552940491 -0.1203166258242544 0 0.35551888896884759 -0.1297027680154724 0 0.34485783347551252 -0.1433779188078016 0 0.35551888896884759 -0.1297027680154724 0 0.34485783347551252 -0.1433779188078016 0 0.37067801200062889 -0.1473796241602153 0 0.34485783347551252 -0.1433779188078016 0 0.37067801200062889 -0.1473796241602153 0 0.34808551514449421 -0.1661511205495555 0 0.35551888896884759 -0.1297027680154724 0 0.37067801200062889 -0.1473796241602153 0 0.37104303648388809 -0.1272612894930944 0 0.34808551514449421 -0.1661511205495555 0 0.36752808638216261 -0.17990459429682831 0 0.34521429895780248 -0.1968392362703156 0 0.34808551514449421 -0.1661511205495555 0 0.37072349948513561 -0.1630779710757761 0 0.36752808638216261 -0.17990459429682831 0 0.37067801200062889 -0.1473796241602153 0 0.34808551514449421 -0.1661511205495555 0 0.37072349948513561 -0.1630779710757761 0 0.37067801200062889 -0.1473796241602153 0 0.34808551514449421 -0.1661511205495555 0 0.37072349948513561 -0.1630779710757761 0 0.36752808638216261 -0.17990459429682831 0 0.38565700028273392 -0.16791849986101029 0 0.36752808638216261 -0.17990459429682831 0 0.36890805570422369 -0.19954003101511669 0 0.34521429895780248 -0.1968392362703156 0 0.36752808638216261 -0.17990459429682831 0 0.36890805570422369 -0.19954003101511669 0 0.38551481473406651 -0.18910273675150999 0 0.36890805570422369 -0.19954003101511669 0 0.35851964138810982 -0.2171827375251118 0 0.37645297458065691 -0.21353851220024839 0 0.35851964138810982 -0.2171827375251118 0 0.34521429895780248 -0.1968392362703156 0 0.33865146772119931 -0.2184974665014994 0 0.36890805570422369 -0.19954003101511669 0 0.35851964138810982 -0.2171827375251118 0 0.34521429895780248 -0.1968392362703156 0 0.32549301828835953 -0.18492261693889581 0 0.34521429895780248 -0.1968392362703156 0 0.32148368101975677 -0.2112815477794289 0 0.34521429895780248 -0.1968392362703156 0 0.33865146772119931 -0.2184974665014994 0 0.32148368101975677 -0.2112815477794289 0 0.30290052143222262 -0.20369411332823331 0 0.32549301828835953 -0.18492261693889581 0 0.32148368101975677 -0.2112815477794289 0 0.30290052143222262 -0.20369411332823331 0 0.32549301828835953 -0.18492261693889581 0 0.31140457280844042 -0.24710474912070499 0 0.32841487832378857 -0.23419691532036521 0 0.32909477526671738 -0.25319804842994992 0 0.30715254712033069 -0.22539943122446929 0 0.31140457280844042 -0.24710474912070499 0 0.32841487832378857 -0.23419691532036521 0 0.30715254712033069 -0.22539943122446929 0 0.32148368101975677 -0.2112815477794289 0 0.32841487832378857 -0.23419691532036521 0 0.33865146772119931 -0.2184974665014994 0 0.32841487832378857 -0.23419691532036521 0 0.34678876975393269 -0.23153157971564481 0 0.33865146772119931 -0.2184974665014994 0 0.32148368101975677 -0.2112815477794289 0 0.32841487832378857 -0.23419691532036521 0 0.32841487832378857 -0.23419691532036521 0 0.34542116247921317 -0.24786541093840589 0 0.32909477526671738 -0.25319804842994992 0 0.32841487832378857 -0.23419691532036521 0 0.34542116247921317 -0.24786541093840589 0 0.34678876975393269 -0.23153157971564481 0 0.34542116247921317 -0.24786541093840589 0 0.36282952759798831 -0.23490181410806829 0 0.36211004630048071 -0.25874315800932568 0 0.34542116247921317 -0.24786541093840589 0 0.34678876975393269 -0.23153157971564481 0 0.36282952759798831 -0.23490181410806829 0 0.35851964138810982 -0.2171827375251118 0 0.33865146772119931 -0.2184974665014994 0 0.34678876975393269 -0.23153157971564481 0 0.35851964138810982 -0.2171827375251118 0 0.34678876975393269 -0.23153157971564481 0 0.36282952759798831 -0.23490181410806829 0 0.35851964138810982 -0.2171827375251118 0 0.37179579398026102 -0.22561915142401329 0 0.36282952759798831 -0.23490181410806829 0 0.35851964138810982 -0.2171827375251118 0 0.37179579398026102 -0.22561915142401329 0 0.37645297458065691 -0.21353851220024839 0 0.37179579398026102 -0.22561915142401329 0 0.36282952759798831 -0.23490181410806829 0 0.37754581309809132 -0.23651361028518689 0 0.36282952759798831 -0.23490181410806829 0 0.36876625398544938 -0.24898888889403961 0 0.36211004630048071 -0.25874315800932568 0 0.36282952759798831 -0.23490181410806829 0 0.36211004630048071 -0.25874315800932568 0 0.36282952759798831 -0.23490181410806829 0 0.36876625398544938 -0.24898888889403961 0 0.37754581309809132 -0.23651361028518689 0 0.37754581309809132 -0.23651361028518689 0 0.39300219267510322 -0.23842714914515989 0 0.3871149211879113 -0.25548270742864421 0 0.39300219267510322 -0.23842714914515989 0 0.3871149211879113 -0.25548270742864421 0 0.40207495352916539 -0.25113417058953519 0 0.39300219267510322 -0.23842714914515989 0 0.40723458142941671 -0.23497076085713389 0 0.40207495352916539 -0.25113417058953519 0 0.39851670543712209 -0.2244771902628257 0 0.41039622944065363 -0.2185270516157129 0 0.40723458142941671 -0.23497076085713389 0 0.39300219267510322 -0.23842714914515989 0 0.39851670543712209 -0.2244771902628257 0 0.40723458142941671 -0.23497076085713389 0 0.39300219267510322 -0.23842714914515989 0 0.39851670543712209 -0.2244771902628257 0 0.38505811203634721 -0.22522643630241351 0 0.39851670543712209 -0.2244771902628257 0 0.38505811203634721 -0.22522643630241351 0 0.39303519244684892 -0.21278300449704671 0 0.37754581309809132 -0.23651361028518689 0 0.39300219267510322 -0.23842714914515989 0 0.38505811203634721 -0.22522643630241351 0 0.37179579398026102 -0.22561915142401329 0 0.37754581309809132 -0.23651361028518689 0 0.38505811203634721 -0.22522643630241351 0 0.37179579398026102 -0.22561915142401329 0 0.38505811203634721 -0.22522643630241351 0 0.37645297458065691 -0.21353851220024839 0 0.38505811203634721 -0.22522643630241351 0 0.37645297458065691 -0.21353851220024839 0 0.39303519244684892 -0.21278300449704671 0 0.36890805570422369 -0.19954003101511669 0 0.37645297458065691 -0.21353851220024839 0 0.38544293285627962 -0.20314808770867229 0 0.37645297458065691 -0.21353851220024839 0 0.38544293285627962 -0.20314808770867229 0 0.39303519244684892 -0.21278300449704671 0 0.36890805570422369 -0.19954003101511669 0 0.38544293285627962 -0.20314808770867229 0 0.38551481473406651 -0.18910273675150999 0 0.38544293285627962 -0.20314808770867229 0 0.38551481473406651 -0.18910273675150999 0 0.40330362681560211 -0.20077615407943949 0 0.38551481473406651 -0.18910273675150999 0 0.40330362681560211 -0.20077615407943949 0 0.39995041381356911 -0.1868338584648204 0 0.40330362681560211 -0.20077615407943949 0 0.4125958117473455 -0.19170302267586259 0 0.39995041381356911 -0.1868338584648204 0 0.40330362681560211 -0.20077615407943949 0 0.39303519244684892 -0.21278300449704671 0 0.41039622944065363 -0.2185270516157129 0 0.38544293285627962 -0.20314808770867229 0 0.40330362681560211 -0.20077615407943949 0 0.39303519244684892 -0.21278300449704671 0 0.39851670543712209 -0.2244771902628257 0 0.39303519244684892 -0.21278300449704671 0 0.41039622944065363 -0.2185270516157129 0 0.40330362681560211 -0.20077615407943949 0 0.41039622944065363 -0.2185270516157129 0 0.42189732607146729 -0.20211324892629831 0 0.41039622944065363 -0.2185270516157129 0 0.42189732607146729 -0.20211324892629831 0 0.42790605200351661 -0.22140108800821251 0 0.40330362681560211 -0.20077615407943949 0 0.4125958117473455 -0.19170302267586259 0 0.42189732607146729 -0.20211324892629831 0 0.4125958117473455 -0.19170302267586259 0 0.42189732607146729 -0.20211324892629831 0 0.42233780496578233 -0.18319904235883591 0 0.42189732607146729 -0.20211324892629831 0 0.43389642119060762 -0.191962199940241 0 0.42233780496578233 -0.18319904235883591 0 0.42189732607146729 -0.20211324892629831 0 0.43389642119060762 -0.191962199940241 0 0.43723926749718739 -0.20471492206911249 0 0.43723926749718739 -0.20471492206911249 0 0.42790605200351661 -0.22140108800821251 0 0.44233814121790038 -0.22173902575952509 0 0.42189732607146729 -0.20211324892629831 0 0.43723926749718739 -0.20471492206911249 0 0.42790605200351661 -0.22140108800821251 0 0.43048550082884018 -0.24614270293406881 0 0.44233814121790038 -0.22173902575952509 0 0.42790605200351661 -0.22140108800821251 0 0.43048550082884018 -0.24614270293406881 0 0.44233814121790038 -0.22173902575952509 0 0.42790605200351661 -0.22140108800821251 0 0.43048550082884018 -0.24614270293406881 0 0.42088007225406548 -0.23367140350055049 0 0.43048550082884018 -0.24614270293406881 0 0.44582088554477811 -0.24525862245079941 0 0.43357426810421817 -0.25015303326672972 0 0.43048550082884018 -0.24614270293406881 0 0.42846035594967069 -0.25031232086228522 0 0.43357426810421817 -0.25015303326672972 0 0.43048550082884018 -0.24614270293406881 0 0.43357426810421817 -0.25015303326672972 0 0.43048550082884018 -0.24614270293406881 0 0.418537335240391 -0.2435876000290193 0 0.42846035594967069 -0.25031232086228522 0 0.43048550082884018 -0.24614270293406881 0 0.42846035594967069 -0.25031232086228522 0 0.43048550082884018 -0.24614270293406881 0 0.42088007225406548 -0.23367140350055049 0 0.43048550082884018 -0.24614270293406881 0 0.418537335240391 -0.2435876000290193 0 0.42088007225406548 -0.23367140350055049 0 0.418537335240391 -0.2435876000290193 0 0.40723458142941671 -0.23497076085713389 0 0.42088007225406548 -0.23367140350055049 0 0.418537335240391 -0.2435876000290193 0 0.40723458142941671 -0.23497076085713389 0 0.40207495352916539 -0.25113417058953519 0 0.418537335240391 -0.2435876000290193 0 0.40207495352916539 -0.25113417058953519 0 0.42846035594967069 -0.25031232086228522 0 0.41039622944065363 -0.2185270516157129 0 0.40723458142941671 -0.23497076085713389 0 0.42088007225406548 -0.23367140350055049 0 0.41039622944065363 -0.2185270516157129 0 0.42790605200351661 -0.22140108800821251 0 0.42088007225406548 -0.23367140350055049 0 0.3932705088567644 -0.1286081277708763 0 0.38946375456974969 -0.1482633138159434 0 0.40032650034539519 -0.13972272199131119 0 0.3932705088567644 -0.1286081277708763 0 0.38946375456974969 -0.1482633138159434 0 0.40224748518751269 -0.1211494002184121 0 0.40802316631723889 -0.13171289331352951 0 0.40224748518751269 -0.1211494002184121 0 0.40096691517672778 -0.13029828582353201 0 0.3932705088567644 -0.1286081277708763 0 0.40224748518751269 -0.1211494002184121 0 0.40096691517672778 -0.13029828582353201 0 0.40802316631723889 -0.13171289331352951 0 0.40096691517672778 -0.13029828582353201 0 0.40032650034539519 -0.13972272199131119 0 0.40802316631723889 -0.13171289331352951 0 0.40032650034539519 -0.13972272199131119 0 0.40802316631723889 -0.13171289331352951 0 0.40096691517672778 -0.13029828582353201 0 0.40032650034539519 -0.13972272199131119 0 0.3932705088567644 -0.1286081277708763 0 0.37067801200062889 -0.1473796241602153 0 0.37104303648388809 -0.1272612894930944 0 0.3932705088567644 -0.1286081277708763 0 0.37067801200062889 -0.1473796241602153 0 0.3932705088567644 -0.1286081277708763 0 0.37067801200062889 -0.1473796241602153 0 0.37072349948513561 -0.1630779710757761 0 0.38946375456974969 -0.1482633138159434 0 0.37067801200062889 -0.1473796241602153 0 0.3932705088567644 -0.1286081277708763 0 0.38946375456974969 -0.1482633138159434 0 0.40032650034539519 -0.13972272199131119 0 0.38946375456974969 -0.1482633138159434 0 0.40103769468862932 -0.15735650722112959 0 0.38946375456974969 -0.1482633138159434 0 0.40103769468862932 -0.15735650722112959 0 0.38565700028273392 -0.16791849986101029 0 0.40103769468862932 -0.15735650722112959 0 0.38565700028273392 -0.16791849986101029 0 0.40804365254297231 -0.17415516972609171 0 0.37072349948513561 -0.1630779710757761 0 0.38946375456974969 -0.1482633138159434 0 0.38565700028273392 -0.16791849986101029 0 0.38946375456974969 -0.1482633138159434 0 0.38565700028273392 -0.16791849986101029 0 0.38551481473406651 -0.18910273675150999 0 0.38565700028273392 -0.16791849986101029 0 0.39995041381356911 -0.1868338584648204 0 0.36752808638216261 -0.17990459429682831 0 0.38551481473406651 -0.18910273675150999 0 0.38565700028273392 -0.16791849986101029 0 0.38565700028273392 -0.16791849986101029 0 0.39995041381356911 -0.1868338584648204 0 0.40804365254297231 -0.17415516972609171 0 0.4125958117473455 -0.19170302267586259 0 0.40804365254297231 -0.17415516972609171 0 0.42233780496578233 -0.18319904235883591 0 0.4125958117473455 -0.19170302267586259 0 0.39995041381356911 -0.1868338584648204 0 0.40804365254297231 -0.17415516972609171 0 0.42233780496578233 -0.18319904235883591 0 0.43537196508735049 -0.18173276810905351 0 0.42169756570229522 -0.15672283071129131 0 0.43389642119060762 -0.191962199940241 0 0.42233780496578233 -0.18319904235883591 0 0.43537196508735049 -0.18173276810905351 0 0.43537196508735049 -0.18173276810905351 0 0.42169756570229522 -0.15672283071129131 0 0.43537196508735049 -0.18173276810905351 0 0.42169756570229522 -0.15672283071129131 0 0.44011919579772352 -0.15902857640534751 0 0.40804365254297231 -0.17415516972609171 0 0.42233780496578233 -0.18319904235883591 0 0.42169756570229522 -0.15672283071129131 0 0.40103769468862932 -0.15735650722112959 0 0.40804365254297231 -0.17415516972609171 0 0.42169756570229522 -0.15672283071129131 0 0.40032650034539519 -0.13972272199131119 0 0.40103769468862932 -0.15735650722112959 0 0.42169756570229522 -0.15672283071129131 0 0.42169756570229522 -0.15672283071129131 0 0.40802316631723889 -0.13171289331352951 0 0.40032650034539519 -0.13972272199131119 0 0.42169756570229522 -0.15672283071129131 0 0.40802316631723889 -0.13171289331352951 0 0.42169756570229522 -0.15672283071129131 0 0.43087782981676859 -0.131879285754128 0 0.44052259681213413 -0.14512254840888281 0 0.42169756570229522 -0.15672283071129131 0 0.44052259681213413 -0.14512254840888281 0 0.44011919579772352 -0.15902857640534751 0 0.42510906065580589 -0.11393180641703871 0 0.43087782981676859 -0.131879285754128 0 0.40802316631723889 -0.13171289331352951 0 0.42169756570229522 -0.15672283071129131 0 0.43087782981676859 -0.131879285754128 0 0.40802316631723889 -0.13171289331352951 0 0.46093003486481321 -0.11810563265674839 0 0.46623847963083442 -0.1374076686568538 0 0.47239045088042492 -0.13005034139104371 0 0.46093003486481321 -0.11810563265674839 0 0.45430072039358249 -0.1470470373257684 0 0.46093003486481321 -0.11810563265674839 0 0.46623847963083442 -0.1374076686568538 0 0.45430072039358249 -0.1470470373257684 0 0.46093003486481321 -0.11810563265674839 0 0.44582693855797939 -0.1311402400572215 0 0.45430072039358249 -0.1470470373257684 0 0.441730170532879 -0.1159420230490274 0 0.43087782981676859 -0.131879285754128 0 0.44582693855797939 -0.1311402400572215 0 0.43087782981676859 -0.131879285754128 0 0.44582693855797939 -0.1311402400572215 0 0.44052259681213413 -0.14512254840888281 0 0.44582693855797939 -0.1311402400572215 0 0.44052259681213413 -0.14512254840888281 0 0.45430072039358249 -0.1470470373257684 0 0.44052259681213413 -0.14512254840888281 0 0.45430072039358249 -0.1470470373257684 0 0.44011919579772352 -0.15902857640534751 0 0.46623847963083442 -0.1374076686568538 0 0.45430072039358249 -0.1470470373257684 0 0.46795215833203208 -0.14958538313512479 0 0.45430072039358249 -0.1470470373257684 0 0.46795215833203208 -0.14958538313512479 0 0.46249654728105127 -0.15875526896169859 0 0.46249654728105127 -0.15875526896169859 0 0.44767140592235177 -0.17598844199478861 0 0.4590637049386419 -0.17656280063954849 0 0.46795215833203208 -0.14958538313512479 0 0.46765797362325351 -0.16960743348544691 0 0.46249654728105127 -0.15875526896169859 0 0.46765797362325351 -0.16960743348544691 0 0.46249654728105127 -0.15875526896169859 0 0.4590637049386419 -0.17656280063954849 0 0.45430072039358249 -0.1470470373257684 0 0.46249654728105127 -0.15875526896169859 0 0.44767140592235177 -0.17598844199478861 0 0.46249654728105127 -0.15875526896169859 0 0.4590637049386419 -0.17656280063954849 0 0.45430072039358249 -0.1470470373257684 0 0.44011919579772352 -0.15902857640534751 0 0.44767140592235177 -0.17598844199478861 0 0.45430072039358249 -0.1470470373257684 0 0.44767140592235177 -0.17598844199478861 0 0.44767140592235177 -0.17598844199478861 0 0.45131049953134228 -0.18433764364674099 0 0.4590637049386419 -0.17656280063954849 0 0.43537196508735049 -0.18173276810905351 0 0.44011919579772352 -0.15902857640534751 0 0.44767140592235177 -0.17598844199478861 0 0.43389642119060762 -0.191962199940241 0 0.43537196508735049 -0.18173276810905351 0 0.44405046135624082 -0.18412940313962539 0 0.43537196508735049 -0.18173276810905351 0 0.44767140592235177 -0.17598844199478861 0 0.44405046135624082 -0.18412940313962539 0 0.44405046135624082 -0.18412940313962539 0 0.45131049953134228 -0.18433764364674099 0 0.4501360628432447 -0.19063724014234421 0 0.44767140592235177 -0.17598844199478861 0 0.44405046135624082 -0.18412940313962539 0 0.45131049953134228 -0.18433764364674099 0 0.46765797362325351 -0.16960743348544691 0 0.4590637049386419 -0.17656280063954849 0 0.45563086259623248 -0.19437033231739831 0 0.4590637049386419 -0.17656280063954849 0 0.45563086259623248 -0.19437033231739831 0 0.46765797362325351 -0.16960743348544691 0 0.45563086259623248 -0.19437033231739831 0 0.46765797362325351 -0.16960743348544691 0 0.46817453342310178 -0.17984984725849121 0 0.45563086259623248 -0.19437033231739831 0 0.45131049953134228 -0.18433764364674099 0 0.4590637049386419 -0.17656280063954849 0 0.45563086259623248 -0.19437033231739831 0 0.46817453342310178 -0.17984984725849121 0 0.47868008644015098 -0.18364062408913809 0 0.4864423059537345 -0.17561039486471769 0 0.46817453342310178 -0.17984984725849121 0 0.47868008644015098 -0.18364062408913809 0 0.47427671796452459 -0.19390449174425081 0 0.4864423059537345 -0.17561039486471769 0 0.5 -0.16076066479590659 0 0.5 -0.1885669917164324 0 0.47868008644015098 -0.18364062408913809 0 0.4864423059537345 -0.17561039486471769 0 0.5 -0.1885669917164324 0 0.4864423059537345 -0.17561039486471769 0 0.5 -0.16076066479590659 0 0.4874204893839118 -0.1629257968797283 0 0.5 -0.16076066479590659 0 0.4874204893839118 -0.1629257968797283 0 0.48836632050416018 -0.15319142364385391 0 0.46765797362325351 -0.16960743348544691 0 0.47968508465027437 -0.14484453465349531 0 0.46817453342310178 -0.17984984725849121 0 0.4864423059537345 -0.17561039486471769 0 0.47621222687475862 -0.15989320835224299 0 0.46765797362325351 -0.16960743348544691 0 0.46817453342310178 -0.17984984725849121 0 0.47621222687475862 -0.15989320835224299 0 0.4864423059537345 -0.17561039486471769 0 0.4874204893839118 -0.1629257968797283 0 0.47621222687475862 -0.15989320835224299 0 0.46817453342310178 -0.17984984725849121 0 0.47621222687475862 -0.15989320835224299 0 0.4874204893839118 -0.1629257968797283 0 0.47621222687475862 -0.15989320835224299 0 0.48836632050416018 -0.15319142364385391 0 0.46765797362325351 -0.16960743348544691 0 0.47621222687475862 -0.15989320835224299 0 0.47968508465027437 -0.14484453465349531 0 0.47621222687475862 -0.15989320835224299 0 0.48424992032641551 -0.13993656944599481 0 0.47621222687475862 -0.15989320835224299 0 0.48836632050416018 -0.15319142364385391 0 0.48424992032641551 -0.13993656944599481 0 0.46795215833203208 -0.14958538313512479 0 0.46765797362325351 -0.16960743348544691 0 0.47968508465027437 -0.14484453465349531 0 0.47621222687475862 -0.15989320835224299 0 0.47968508465027437 -0.14484453465349531 0 0.48424992032641551 -0.13993656944599481 0 0.46623847963083442 -0.1374076686568538 0 0.46795215833203208 -0.14958538313512479 0 0.47424994269801352 -0.1397372940967013 0 0.46795215833203208 -0.14958538313512479 0 0.47968508465027437 -0.14484453465349531 0 0.47424994269801352 -0.1397372940967013 0 0.47968508465027437 -0.14484453465349531 0 0.47994759956173211 -0.14051186616834291 0 0.47424994269801352 -0.1397372940967013 0 0.47968508465027437 -0.14484453465349531 0 0.48424992032641551 -0.13993656944599481 0 0.47994759956173211 -0.14051186616834291 0 0.5 -0.16076066479590659 0 0.48836632050416018 -0.15319142364385391 0 0.5 -0.13295433787538069 0 0.48836632050416018 -0.15319142364385391 0 0.5 -0.13295433787538069 0 0.48424992032641551 -0.13993656944599481 0 0.48916266477234061 -0.13224727383335569 0 0.48085855782101261 -0.13626791926353529 0 0.48424992032641551 -0.13993656944599481 0 0.5 -0.13295433787538069 0 0.48916266477234061 -0.13224727383335569 0 0.48424992032641551 -0.13993656944599481 0 0.48986304781109291 -0.1242692167884092 0 0.5 -0.13295433787538069 0 0.48916266477234061 -0.13224727383335569 0 0.48986304781109291 -0.1242692167884092 0 0.48916266477234061 -0.13224727383335569 0 0.48085855782101261 -0.13626791926353529 0 0.47499259514944292 -0.1202547269832886 0 0.48085855782101261 -0.13626791926353529 0 0.47239045088042492 -0.13005034139104371 0 0.48085855782101261 -0.13626791926353529 0 0.48424992032641551 -0.13993656944599481 0 0.47994759956173211 -0.14051186616834291 0 0.48085855782101261 -0.13626791926353529 0 0.47994759956173211 -0.14051186616834291 0 0.47424994269801352 -0.1397372940967013 0 0.48085855782101261 -0.13626791926353529 0 0.47424994269801352 -0.1397372940967013 0 0.47239045088042492 -0.13005034139104371 0 0.46623847963083442 -0.1374076686568538 0 0.47424994269801352 -0.1397372940967013 0 0.47239045088042492 -0.13005034139104371 0 0.45735248248792831 -0.2263504469462593 0 0.45606595353113982 -0.2348942090935259 0 0.45040787416373163 -0.22146407059246401 0 0.4593659812364308 -0.22004368230368379 0 0.45735248248792831 -0.2263504469462593 0 0.45040787416373163 -0.22146407059246401 0 0.4593659812364308 -0.22004368230368379 0 0.45735248248792831 -0.2263504469462593 0 0.47005683011064803 -0.22590290220369119 0 0.4593659812364308 -0.22004368230368379 0 0.46586242272604061 -0.21273545752659301 0 0.47005683011064803 -0.22590290220369119 0 0.45735248248792831 -0.2263504469462593 0 0.45606595353113982 -0.2348942090935259 0 0.47005683011064803 -0.22590290220369119 0 0.46661169077989217 -0.2415165845456661 0 0.45606595353113982 -0.2348942090935259 0 0.47005683011064803 -0.22590290220369119 0 0.46661169077989217 -0.2415165845456661 0 0.45571617873614662 -0.24946335937342859 0 0.47785808936807489 -0.24877368548012899 0 0.45571617873614662 -0.24946335937342859 0 0.47785808936807489 -0.24877368548012899 0 0.46661169077989217 -0.2415165845456661 0 0.45518121600666411 -0.24259067484840299 0 0.45571617873614662 -0.24946335937342859 0 0.46661169077989217 -0.2415165845456661 0 0.45518121600666411 -0.24259067484840299 0 0.45606595353113982 -0.2348942090935259 0 0.45571617873614662 -0.24946335937342859 0 0.43357426810421817 -0.25015303326672972 0 0.43048550082884018 -0.24614270293406881 0 0.44582088554477811 -0.24525862245079941 0 0.44233814121790038 -0.22173902575952509 0 0.45571617873614662 -0.24946335937342859 0 0.44582088554477811 -0.24525862245079941 0 0.43357426810421817 -0.25015303326672972 0 0.45518121600666411 -0.24259067484840299 0 0.45606595353113982 -0.2348942090935259 0 0.44582088554477811 -0.24525862245079941 0 0.45518121600666411 -0.24259067484840299 0 0.45571617873614662 -0.24946335937342859 0 0.44582088554477811 -0.24525862245079941 0 0.44582088554477811 -0.24525862245079941 0 0.44233814121790038 -0.22173902575952509 0 0.45040787416373163 -0.22146407059246401 0 0.44582088554477811 -0.24525862245079941 0 0.45040787416373163 -0.22146407059246401 0 0.45606595353113982 -0.2348942090935259 0 0.44582088554477811 -0.24525862245079941 0 0.45040787416373163 -0.22146407059246401 0 0.43723926749718739 -0.20471492206911249 0 0.44233814121790038 -0.22173902575952509 0 0.45499486278268447 -0.1976695187341285 0 0.45040787416373163 -0.22146407059246401 0 0.45499486278268447 -0.1976695187341285 0 0.44233814121790038 -0.22173902575952509 0 0.45040787416373163 -0.22146407059246401 0 0.45499486278268447 -0.1976695187341285 0 0.44233814121790038 -0.22173902575952509 0 0.45499486278268447 -0.1976695187341285 0 0.43723926749718739 -0.20471492206911249 0 0.44395992212319679 -0.19308347956624619 0 0.45499486278268447 -0.1976695187341285 0 0.43389642119060762 -0.191962199940241 0 0.44405046135624082 -0.18412940313962539 0 0.44395992212319679 -0.19308347956624619 0 0.43389642119060762 -0.191962199940241 0 0.43723926749718739 -0.20471492206911249 0 0.44395992212319679 -0.19308347956624619 0 0.44395992212319679 -0.19308347956624619 0 0.45499486278268447 -0.1976695187341285 0 0.45131049953134228 -0.18433764364674099 0 0.4501360628432447 -0.19063724014234421 0 0.45563086259623248 -0.19437033231739831 0 0.44395992212319679 -0.19308347956624619 0 0.4501360628432447 -0.19063724014234421 0 0.45499486278268447 -0.1976695187341285 0 0.44405046135624082 -0.18412940313962539 0 0.44395992212319679 -0.19308347956624619 0 0.4501360628432447 -0.19063724014234421 0 0.46817453342310178 -0.17984984725849121 0 0.46013683997144489 -0.19980648616473931 0 0.47427671796452459 -0.19390449174425081 0 0.46817453342310178 -0.17984984725849121 0 0.46013683997144489 -0.19980648616473931 0 0.46817453342310178 -0.17984984725849121 0 0.45563086259623248 -0.19437033231739831 0 0.46013683997144489 -0.19980648616473931 0 0.4501360628432447 -0.19063724014234421 0 0.45563086259623248 -0.19437033231739831 0 0.45499486278268447 -0.1976695187341285 0 0.45499486278268447 -0.1976695187341285 0 0.46013683997144489 -0.19980648616473931 0 0.45563086259623248 -0.19437033231739831 0 0.45499486278268447 -0.1976695187341285 0 0.45563086259623248 -0.19437033231739831 0 0.45499486278268447 -0.1976695187341285 0 0.46013683997144489 -0.19980648616473931 0 0.46013683997144489 -0.19980648616473931 0 0.46586242272604061 -0.21273545752659301 0 0.48006841998572208 -0.20808990240084899 0 0.45040787416373163 -0.22146407059246401 0 0.45499486278268447 -0.1976695187341285 0 0.4548395438527213 -0.21295904373074681 0 0.4593659812364308 -0.22004368230368379 0 0.45040787416373163 -0.22146407059246401 0 0.4548395438527213 -0.21295904373074681 0 0.4593659812364308 -0.22004368230368379 0 0.4548395438527213 -0.21295904373074681 0 0.46586242272604061 -0.21273545752659301 0 0.46013683997144489 -0.19980648616473931 0 0.4548395438527213 -0.21295904373074681 0 0.45499486278268447 -0.1976695187341285 0 0.46013683997144489 -0.19980648616473931 0 0.4548395438527213 -0.21295904373074681 0 0.46013683997144489 -0.19980648616473931 0 0.4548395438527213 -0.21295904373074681 0 0.46586242272604061 -0.21273545752659301 0 0.46013683997144489 -0.19980648616473931 0 0.48006841998572208 -0.20808990240084899 0 0.46586242272604061 -0.21273545752659301 0 0.48006841998572208 -0.20808990240084899 0 0.47005683011064803 -0.22590290220369119 0 0.46013683997144489 -0.19980648616473931 0 0.48006841998572208 -0.20808990240084899 0 0.47427671796452459 -0.19390449174425081 0 0.47868008644015098 -0.18364062408913809 0 0.47427671796452459 -0.19390449174425081 0 0.5 -0.1885669917164324 0 0.48006841998572208 -0.20808990240084899 0 0.47427671796452459 -0.19390449174425081 0 0.5 -0.1885669917164324 0 0.48006841998572208 -0.20808990240084899 0 0.5 -0.1885669917164324 0 0.49999999999999961 -0.21637331863695819 0 0.48006841998572208 -0.20808990240084899 0 0.49999999999999961 -0.21637331863695819 0 0.48006841998572208 -0.20808990240084899 0 0.49999999999999961 -0.21637331863695819 0 0.4862545149737133 -0.22430099187442659 0 0.49999999999999961 -0.21637331863695819 0 0.5 -0.2322286651118938 0 0.4862545149737133 -0.22430099187442659 0 0.5 -0.2322286651118938 0 0.4862545149737133 -0.22430099187442659 0 0.48731543898686108 -0.23834171508702701 0 0.4862545149737133 -0.22430099187442659 0 0.47005683011064803 -0.22590290220369119 0 0.48731543898686108 -0.23834171508702701 0 0.48006841998572208 -0.20808990240084899 0 0.4862545149737133 -0.22430099187442659 0 0.47005683011064803 -0.22590290220369119 0 0.46661169077989217 -0.2415165845456661 0 0.47005683011064803 -0.22590290220369119 0 0.48731543898686108 -0.23834171508702701 0 0.46661169077989217 -0.2415165845456661 0 0.47785808936807489 -0.24877368548012899 0 0.48731543898686108 -0.23834171508702701 0 0.47785808936807489 -0.24877368548012899 0 0.50000000000000333 -0.24808401158682941 0 0.48731543898686108 -0.23834171508702701 0 0.5 -0.2322286651118938 0 0.50000000000000333 -0.24808401158682941 0 0.48731543898686108 -0.23834171508702701 0 0.47785808936807489 -0.24877368548012899 0 0.50000000000000333 -0.24808401158682941 0 0.50000000000000333 -0.24808401158682941 0 0.48656724266228879 -0.26126228076250718 0 0.5 -0.26842994380811291 0 0.47785808936807489 -0.24877368548012899 0 0.50000000000000333 -0.24808401158682941 0 0.48656724266228879 -0.26126228076250718 0 0.5 -0.26842994380811291 0 0.48208681399926079 -0.27581357356502773 0 0.50000000000000111 -0.28877587602939642 0 0.48656724266228879 -0.26126228076250718 0 0.5 -0.26842994380811291 0 0.48208681399926079 -0.27581357356502773 0 0.48208681399926079 -0.27581357356502773 0 0.46068671901070851 -0.28535474144655731 0 0.48208681399926079 -0.27581357356502773 0 0.46768981413575761 -0.2649492641288182 0 0.46068671901070851 -0.28535474144655731 0 0.48656724266228879 -0.26126228076250718 0 0.48208681399926079 -0.27581357356502773 0 0.46768981413575761 -0.2649492641288182 0 0.47785808936807489 -0.24877368548012899 0 0.48656724266228879 -0.26126228076250718 0 0.46768981413575761 -0.2649492641288182 0 0.45571617873614662 -0.24946335937342859 0 0.47785808936807489 -0.24877368548012899 0 0.46768981413575761 -0.2649492641288182 0 0.45571617873614662 -0.24946335937342859 0 0.46768981413575761 -0.2649492641288182 0 0.44713049355746243 -0.26775388735664418 0 0.46768981413575761 -0.2649492641288182 0 0.44713049355746243 -0.26775388735664418 0 0.46068671901070851 -0.28535474144655731 0 0.44713049355746243 -0.26775388735664418 0 0.46068671901070851 -0.28535474144655731 0 0.45571617873614662 -0.24946335937342859 0 0.44713049355746243 -0.26775388735664418 0 0.43357426810421817 -0.25015303326672972 0 0.44713049355746243 -0.26775388735664418 0 0.43357426810421817 -0.25015303326672972 0 0.43808872290812301 -0.29542998993102848 0 0.44582747314286902 -0.31276753443956201 0 0.43031487288344161 -0.31703067604683871 0 0.43808872290812301 -0.29542998993102848 0 0.45932525709009708 -0.30194153040829069 0 0.44582747314286902 -0.31276753443956201 0 0.43808872290812301 -0.29542998993102848 0 0.46068671901070851 -0.28535474144655731 0 0.45932525709009708 -0.30194153040829069 0 0.43808872290812301 -0.29542998993102848 0 0.46068671901070851 -0.28535474144655731 0 0.44713049355746243 -0.26775388735664418 0 0.43808872290812301 -0.29542998993102848 0 0.46068671901070851 -0.28535474144655731 0 0.46068671901070851 -0.28535474144655731 0 0.47654280981399377 -0.30594164756046982 0 0.46068671901070851 -0.28535474144655731 0 0.45932525709009708 -0.30194153040829069 0 0.47654280981399377 -0.30594164756046982 0 0.45932525709009708 -0.30194153040829069 0 0.46020140703816609 -0.31790014661013011 0 0.44582747314286902 -0.31276753443956201 0 0.47654280981399377 -0.30594164756046982 0 0.46020140703816609 -0.31790014661013011 0 0.45932525709009708 -0.30194153040829069 0 0.47654280981399377 -0.30594164756046982 0 0.46020140703816609 -0.31790014661013011 0 0.47654280981399377 -0.30594164756046982 0 0.48452590656705868 -0.31630657706248883 0 0.48208681399926079 -0.27581357356502773 0 0.46068671901070851 -0.28535474144655731 0 0.47654280981399377 -0.30594164756046982 0 0.48208681399926079 -0.27581357356502773 0 0.47654280981399377 -0.30594164756046982 0 0.50000000000000111 -0.28877587602939642 0 0.50000000000000111 -0.28877587602939642 0 0.5 -0.31627016595707702 0 0.48452590656705868 -0.31630657706248883 0 0.47654280981399377 -0.30594164756046982 0 0.50000000000000111 -0.28877587602939642 0 0.47654280981399377 -0.30594164756046982 0 0.50000000000000111 -0.28877587602939642 0 0.48452590656705868 -0.31630657706248883 0 0.5 -0.31627016595707702 0 0.48452590656705868 -0.31630657706248883 0 0.4798244965011923 -0.33203805400226027 0 0.5 -0.31627016595707702 0 0.4798244965011923 -0.33203805400226027 0 0.5 -0.34376445588475768 0 0.4798244965011923 -0.33203805400226027 0 0.46847105179670839 -0.34389899480205388 0 0.46020140703816609 -0.31790014661013011 0 0.47654280981399377 -0.30594164756046982 0 0.47527365498010271 -0.31804660630883719 0 0.46020140703816609 -0.31790014661013011 0 0.48452590656705868 -0.31630657706248883 0 0.4798244965011923 -0.33203805400226027 0 0.47527365498010271 -0.31804660630883719 0 0.4798244965011923 -0.33203805400226027 0 0.47527365498010271 -0.31804660630883719 0 0.46020140703816609 -0.31790014661013011 0 0.47654280981399377 -0.30594164756046982 0 0.48452590656705868 -0.31630657706248883 0 0.47527365498010271 -0.31804660630883719 0 0.49999999999999711 -0.37125874581243851 0 0.48806042456369142 -0.35612155968098341 0 0.47674069655525092 -0.3698978429939776 0 0.4798244965011923 -0.33203805400226027 0 0.48806042456369142 -0.35612155968098341 0 0.5 -0.34376445588475768 0 0.49999999999999711 -0.37125874581243851 0 0.48806042456369142 -0.35612155968098341 0 0.5 -0.34376445588475768 0 0.4798244965011923 -0.33203805400226027 0 0.48806042456369142 -0.35612155968098341 0 0.46847105179670839 -0.34389899480205388 0 0.48806042456369142 -0.35612155968098341 0 0.47674069655525092 -0.3698978429939776 0 0.46847105179670839 -0.34389899480205388 0 0.47674069655525092 -0.3698978429939776 0 0.46847105179670839 -0.34389899480205388 0 0.47674069655525092 -0.3698978429939776 0 0.45392603783110008 -0.37108838658624999 0 0.46847105179670839 -0.34389899480205388 0 0.45392603783110008 -0.37108838658624999 0 0.46847105179670839 -0.34389899480205388 0 0.44672977628043381 -0.35017364189741718 0 0.45392603783110008 -0.37108838658624999 0 0.44672977628043381 -0.35017364189741718 0 0.42785183481717409 -0.36595316276467199 0 0.45392603783110008 -0.37108838658624999 0 0.42785183481717409 -0.36595316276467199 0 0.43242581624588322 -0.38730115333965082 0 0.46847105179670839 -0.34389899480205388 0 0.46020140703816609 -0.31790014661013011 0 0.46847105179670839 -0.34389899480205388 0 0.46020140703816609 -0.31790014661013011 0 0.45431986664039198 -0.33607192194780172 0 0.46847105179670839 -0.34389899480205388 0 0.44672977628043381 -0.35017364189741718 0 0.45431986664039198 -0.33607192194780172 0 0.44672977628043381 -0.35017364189741718 0 0.44127539957872802 -0.33175003730325792 0 0.42823689835664952 -0.34636857782623809 0 0.44672977628043381 -0.35017364189741718 0 0.45431986664039198 -0.33607192194780172 0 0.44127539957872802 -0.33175003730325792 0 0.46020140703816609 -0.31790014661013011 0 0.45431986664039198 -0.33607192194780172 0 0.44127539957872802 -0.33175003730325792 0 0.44127539957872802 -0.33175003730325792 0 0.44582747314286902 -0.31276753443956201 0 0.43031487288344161 -0.31703067604683871 0 0.46020140703816609 -0.31790014661013011 0 0.44127539957872802 -0.33175003730325792 0 0.46020140703816609 -0.31790014661013011 0 0.44127539957872802 -0.33175003730325792 0 0.44582747314286902 -0.31276753443956201 0 0.44127539957872802 -0.33175003730325792 0 0.43031487288344161 -0.31703067604683871 0 0.41707429101309201 -0.3297381436533145 0 0.44127539957872802 -0.33175003730325792 0 0.41707429101309201 -0.3297381436533145 0 0.42823689835664952 -0.34636857782623809 0 0.41707429101309201 -0.3297381436533145 0 0.42823689835664952 -0.34636857782623809 0 0.40866613474490449 -0.35252068697126149 0 0.41707429101309201 -0.3297381436533145 0 0.39289273070295128 -0.31558048689996993 0 0.41549072680553711 -0.30550523841549909 0 0.43031487288344161 -0.31703067604683871 0 0.41707429101309201 -0.3297381436533145 0 0.41549072680553711 -0.30550523841549909 0 0.44672977628043381 -0.35017364189741718 0 0.42785183481717409 -0.36595316276467199 0 0.42823689835664952 -0.34636857782623809 0 0.42785183481717409 -0.36595316276467199 0 0.40866613474490449 -0.35252068697126149 0 0.42785183481717409 -0.36595316276467199 0 0.42823689835664952 -0.34636857782623809 0 0.40866613474490449 -0.35252068697126149 0 0.42785183481717409 -0.36595316276467199 0 0.4111933065081313 -0.36805982019164402 0 0.41287057948892703 -0.38518927514730122 0 0.42785183481717409 -0.36595316276467199 0 0.40866613474490449 -0.35252068697126149 0 0.4111933065081313 -0.36805982019164402 0 0.39290052262193498 -0.35565000096393579 0 0.38249634533461108 -0.36797477098799591 0 0.39650622041158878 -0.3765742856902482 0 0.4111933065081313 -0.36805982019164402 0 0.39290052262193498 -0.35565000096393579 0 0.39650622041158878 -0.3765742856902482 0 0.40866613474490449 -0.35252068697126149 0 0.39290052262193498 -0.35565000096393579 0 0.38948043467263488 -0.33908821117785082 0 0.40866613474490449 -0.35252068697126149 0 0.38948043467263488 -0.33908821117785082 0 0.40866613474490449 -0.35252068697126149 0 0.4111933065081313 -0.36805982019164402 0 0.39290052262193498 -0.35565000096393579 0 0.39290052262193498 -0.35565000096393579 0 0.37818146540529818 -0.34934783795600571 0 0.38249634533461108 -0.36797477098799591 0 0.39290052262193498 -0.35565000096393579 0 0.37818146540529818 -0.34934783795600571 0 0.38948043467263488 -0.33908821117785082 0 0.37818146540529818 -0.34934783795600571 0 0.38249634533461108 -0.36797477098799591 0 0.37305712147220338 -0.36102055586376819 0 0.41707429101309201 -0.3297381436533145 0 0.40866613474490449 -0.35252068697126149 0 0.38948043467263488 -0.33908821117785082 0 0.41707429101309201 -0.3297381436533145 0 0.39289273070295128 -0.31558048689996993 0 0.38948043467263488 -0.33908821117785082 0 0.37818146540529818 -0.34934783795600571 0 0.38948043467263488 -0.33908821117785082 0 0.37212478857772979 -0.33864880005647208 0 0.38948043467263488 -0.33908821117785082 0 0.37029473460036533 -0.32565573538444043 0 0.38948043467263488 -0.33908821117785082 0 0.37029473460036533 -0.32565573538444043 0 0.37212478857772979 -0.33864880005647208 0 0.39289273070295128 -0.31558048689996993 0 0.38064079273778262 -0.31288188218018531 0 0.37029473460036533 -0.32565573538444043 0 0.39289273070295128 -0.31558048689996993 0 0.37029473460036533 -0.32565573538444043 0 0.39289273070295128 -0.31558048689996993 0 0.38948043467263488 -0.33908821117785082 0 0.37029473460036533 -0.32565573538444043 0 0.38064079273778262 -0.31288188218018531 0 0.37804720550635529 -0.30651687721429538 0 0.38870969627640167 -0.30439929484627132 0 0.38064079273778262 -0.31288188218018531 0 0.37804720550635529 -0.30651687721429538 0 0.37325959660283969 -0.31225701655594912 0 0.37804720550635529 -0.30651687721429538 0 0.38032829646105881 -0.29636137241382532 0 0.36761344479238373 -0.29508033606196837 0 0.37804720550635529 -0.30651687721429538 0 0.38870969627640167 -0.30439929484627132 0 0.38032829646105881 -0.29636137241382532 0 0.38870969627640167 -0.30439929484627132 0 0.3879772147484597 -0.29176707856862888 0 0.38032829646105881 -0.29636137241382532 0 0.39289273070295128 -0.31558048689996993 0 0.38064079273778262 -0.31288188218018531 0 0.38870969627640167 -0.30439929484627132 0 0.39289273070295128 -0.31558048689996993 0 0.39985527598894161 -0.30920798579428682 0 0.41549072680553711 -0.30550523841549909 0 0.39985527598894161 -0.30920798579428682 0 0.39681295496079538 -0.29611275996065012 0 0.40939030264251791 -0.28957609748361951 0 0.39985527598894161 -0.30920798579428682 0 0.40939030264251791 -0.28957609748361951 0 0.39289273070295128 -0.31558048689996993 0 0.41549072680553711 -0.30550523841549909 0 0.39289273070295128 -0.31558048689996993 0 0.38870969627640167 -0.30439929484627132 0 0.39985527598894161 -0.30920798579428682 0 0.38870969627640167 -0.30439929484627132 0 0.39681295496079538 -0.29611275996065012 0 0.3879772147484597 -0.29176707856862888 0 0.38870969627640167 -0.30439929484627132 0 0.39985527598894161 -0.30920798579428682 0 0.39681295496079538 -0.29611275996065012 0 0.39922652050867191 -0.28295197323892363 0 0.39681295496079538 -0.29611275996065012 0 0.40939030264251791 -0.28957609748361951 0 0.39922652050867191 -0.28295197323892363 0 0.39681295496079538 -0.29611275996065012 0 0.3879772147484597 -0.29176707856862888 0 0.39922652050867191 -0.28295197323892363 0 0.3879772147484597 -0.29176707856862888 0 0.38840358504398731 -0.28029486931936831 0 0.3879772147484597 -0.29176707856862888 0 0.37929392098169401 -0.28404327537796259 0 0.38840358504398731 -0.28029486931936831 0 0.38032829646105881 -0.29636137241382532 0 0.37929392098169401 -0.28404327537796259 0 0.36761344479238373 -0.29508033606196837 0 0.3879772147484597 -0.29176707856862888 0 0.38032829646105881 -0.29636137241382532 0 0.37929392098169401 -0.28404327537796259 0 0.37929392098169401 -0.28404327537796259 0 0.38326599173650672 -0.27147868498013239 0 0.3725796289452375 -0.26579697317357759 0 0.37929392098169401 -0.28404327537796259 0 0.38326599173650672 -0.27147868498013239 0 0.38840358504398731 -0.28029486931936831 0 0.38326599173650672 -0.27147868498013239 0 0.38840358504398731 -0.28029486931936831 0 0.39544519547575041 -0.26880031542545191 0 0.37754581309809132 -0.23651361028518689 0 0.3725796289452375 -0.26579697317357759 0 0.37754581309809132 -0.23651361028518689 0 0.3871149211879113 -0.25548270742864421 0 0.3725796289452375 -0.26579697317357759 0 0.38326599173650672 -0.27147868498013239 0 0.3871149211879113 -0.25548270742864421 0 0.39544519547575041 -0.26880031542545191 0 0.38326599173650672 -0.27147868498013239 0 0.3871149211879113 -0.25548270742864421 0 0.3725796289452375 -0.26579697317357759 0 0.3871149211879113 -0.25548270742864421 0 0.40207495352916539 -0.25113417058953519 0 0.39544519547575041 -0.26880031542545191 0 0.40207495352916539 -0.25113417058953519 0 0.39544519547575041 -0.26880031542545191 0 0.41892532929609411 -0.26994420917295231 0 0.39922652050867191 -0.28295197323892363 0 0.39544519547575041 -0.26880031542545191 0 0.41892532929609411 -0.26994420917295231 0 0.39922652050867191 -0.28295197323892363 0 0.38840358504398731 -0.28029486931936831 0 0.39544519547575041 -0.26880031542545191 0 0.41892532929609411 -0.26994420917295231 0 0.40939030264251791 -0.28957609748361951 0 0.41892532929609411 -0.26994420917295231 0 0.42674472615619141 -0.28201696019190231 0 0.40939030264251791 -0.28957609748361951 0 0.39922652050867191 -0.28295197323892363 0 0.41892532929609411 -0.26994420917295231 0 0.40939030264251791 -0.28957609748361951 0 0.40207495352916539 -0.25113417058953519 0 0.41892532929609411 -0.26994420917295231 0 0.42846035594967069 -0.25031232086228522 0 0.40207495352916539 -0.25113417058953519 0 0.42846035594967069 -0.25031232086228522 0 0.44713049355746243 -0.26775388735664418 0 0.4314427817274139 -0.26389233879167029 0 0.43357426810421817 -0.25015303326672972 0 0.41892532929609411 -0.26994420917295231 0 0.42846035594967069 -0.25031232086228522 0 0.41892532929609411 -0.26994420917295231 0 0.42846035594967069 -0.25031232086228522 0 0.4314427817274139 -0.26389233879167029 0 0.42846035594967069 -0.25031232086228522 0 0.4314427817274139 -0.26389233879167029 0 0.43357426810421817 -0.25015303326672972 0 0.42846035594967069 -0.25031232086228522 0 0.43357426810421817 -0.25015303326672972 0 0.41892532929609411 -0.26994420917295231 0 0.4314427817274139 -0.26389233879167029 0 0.42674472615619141 -0.28201696019190231 0 0.44713049355746243 -0.26775388735664418 0 0.4314427817274139 -0.26389233879167029 0 0.42674472615619141 -0.28201696019190231 0 0.43808872290812301 -0.29542998993102848 0 0.42674472615619141 -0.28201696019190231 0 0.41549072680553711 -0.30550523841549909 0 0.44713049355746243 -0.26775388735664418 0 0.43808872290812301 -0.29542998993102848 0 0.42674472615619141 -0.28201696019190231 0 0.43808872290812301 -0.29542998993102848 0 0.43031487288344161 -0.31703067604683871 0 0.41549072680553711 -0.30550523841549909 0 0.43808872290812301 -0.29542998993102848 0 0.41549072680553711 -0.30550523841549909 0 0.39985527598894161 -0.30920798579428682 0 0.41549072680553711 -0.30550523841549909 0 0.40939030264251791 -0.28957609748361951 0 0.42674472615619141 -0.28201696019190231 0 0.41549072680553711 -0.30550523841549909 0 0.40939030264251791 -0.28957609748361951 0 0.43773802119989941 -0.49999999999999978 0 0.45890943729545802 -0.4823892052391901 0 0.4796611806106722 -0.48718440019654963 0 0.43773802119989941 -0.49999999999999978 0 0.44535189907423273 -0.48425652050154361 0 0.43773802119989941 -0.49999999999999978 0 0.44535189907423273 -0.48425652050154361 0 0.45890943729545802 -0.4823892052391901 0 0.43920548674920379 -0.47249175324936749 0 0.44535189907423273 -0.48425652050154361 0 0.45296577694856682 -0.46851304100308783 0 0.43920548674920379 -0.47249175324936749 0 0.44535189907423273 -0.48425652050154361 0 0.42866409193048188 -0.47676758270227471 0 0.44535189907423273 -0.48425652050154361 0 0.45589009982111051 -0.4775459799915327 0 0.45296577694856682 -0.46851304100308783 0 0.44535189907423273 -0.48425652050154361 0 0.45296577694856682 -0.46851304100308783 0 0.45589009982111051 -0.4775459799915327 0 0.45890943729545802 -0.4823892052391901 0 0.46145872075250199 -0.4714816097570898 0 0.44535189907423273 -0.48425652050154361 0 0.45589009982111051 -0.4775459799915327 0 0.45890943729545802 -0.4823892052391901 0 0.45890943729545802 -0.4823892052391901 0 0.46145872075250199 -0.4714816097570898 0 0.47563876839417468 -0.4748936591889994 0 0.46145872075250199 -0.4714816097570898 0 0.45296577694856682 -0.46851304100308783 0 0.45589009982111051 -0.4775459799915327 0 0.46145872075250199 -0.4714816097570898 0 0.45296577694856682 -0.46851304100308783 0 0.43773802119989941 -0.49999999999999978 0 0.4796611806106722 -0.48718440019654963 0 0.5 -0.5 0 0.4796611806106722 -0.48718440019654963 0 0.5 -0.5 0 0.5 -0.47026069904804169 0 0.5 -0.47026069904804169 0 0.47563876839417468 -0.4748936591889994 0 0.47905351322328699 -0.46315238170412548 0 0.4796611806106722 -0.48718440019654963 0 0.5 -0.47026069904804169 0 0.47563876839417468 -0.4748936591889994 0 0.46145872075250199 -0.4714816097570898 0 0.47563876839417468 -0.4748936591889994 0 0.47905351322328699 -0.46315238170412548 0 0.45890943729545802 -0.4823892052391901 0 0.4796611806106722 -0.48718440019654963 0 0.47563876839417468 -0.4748936591889994 0 0.47905351322328699 -0.46315238170412548 0 0.45899603635761982 -0.45604406436020939 0 0.47905351322328699 -0.46315238170412548 0 0.4788951805990147 -0.44564391983896778 0 0.45899603635761982 -0.45604406436020939 0 0.5 -0.47026069904804169 0 0.47905351322328699 -0.46315238170412548 0 0.5 -0.44373220895607401 0 0.5 -0.47026069904804169 0 0.47905351322328699 -0.46315238170412548 0 0.5 -0.44373220895607401 0 0.4788951805990147 -0.44564391983896778 0 0.48552804520920678 -0.42799216931292611 0 0.47905351322328699 -0.46315238170412548 0 0.5 -0.44373220895607401 0 0.4788951805990147 -0.44564391983896778 0 0.4788951805990147 -0.44564391983896778 0 0.45899603635761982 -0.45604406436020939 0 0.46924702726821282 -0.43484773472326599 0 0.45899603635761982 -0.45604406436020939 0 0.46924702726821282 -0.43484773472326599 0 0.45899603635761982 -0.45604406436020939 0 0.44838303037477362 -0.43447900987216292 0 0.46924702726821282 -0.43484773472326599 0 0.46145872075250199 -0.4714816097570898 0 0.47905351322328699 -0.46315238170412548 0 0.45899603635761982 -0.45604406436020939 0 0.46145872075250199 -0.4714816097570898 0 0.45899603635761982 -0.45604406436020939 0 0.45296577694856682 -0.46851304100308783 0 0.45899603635761982 -0.45604406436020939 0 0.45296577694856682 -0.46851304100308783 0 0.44562172027540892 -0.45801600689332289 0 0.45296577694856682 -0.46851304100308783 0 0.42984017904353489 -0.46042986879056458 0 0.43920548674920379 -0.47249175324936749 0 0.45296577694856682 -0.46851304100308783 0 0.42984017904353489 -0.46042986879056458 0 0.44562172027540892 -0.45801600689332289 0 0.43764883001816302 -0.44847867026387339 0 0.42984017904353489 -0.46042986879056458 0 0.45899603635761982 -0.45604406436020939 0 0.44562172027540892 -0.45801600689332289 0 0.45296577694856682 -0.46851304100308783 0 0.45296577694856682 -0.46851304100308783 0 0.42984017904353489 -0.46042986879056458 0 0.45899603635761982 -0.45604406436020939 0 0.44562172027540892 -0.45801600689332289 0 0.43764883001816302 -0.44847867026387339 0 0.45899603635761982 -0.45604406436020939 0 0.43764883001816302 -0.44847867026387339 0 0.44838303037477362 -0.43447900987216292 0 0.43764883001816302 -0.44847867026387339 0 0.44838303037477362 -0.43447900987216292 0 0.43199803478474752 -0.43480066315574151 0 0.45899603635761982 -0.45604406436020939 0 0.43764883001816302 -0.44847867026387339 0 0.44838303037477362 -0.43447900987216292 0 0.43524810038533429 -0.42324892749070769 0 0.43199803478474752 -0.43480066315574151 0 0.44838303037477362 -0.43447900987216292 0 0.45481320319103757 -0.41743251132042969 0 0.43524810038533429 -0.42324892749070769 0 0.45481320319103757 -0.41743251132042969 0 0.43477646914432833 -0.40550992295969079 0 0.43524810038533429 -0.42324892749070769 0 0.45481320319103757 -0.41743251132042969 0 0.46680969583490778 -0.41274858841526157 0 0.46924702726821282 -0.43484773472326599 0 0.45481320319103757 -0.41743251132042969 0 0.46680969583490778 -0.41274858841526157 0 0.46697148891275431 -0.40002921638500172 0 0.44838303037477362 -0.43447900987216292 0 0.45481320319103757 -0.41743251132042969 0 0.46924702726821282 -0.43484773472326599 0 0.5 -0.44373220895607401 0 0.48552804520920678 -0.42799216931292611 0 0.5 -0.40208557795999961 0 0.46924702726821282 -0.43484773472326599 0 0.48552804520920678 -0.42799216931292611 0 0.47949801817880677 -0.41365140508632309 0 0.4788951805990147 -0.44564391983896778 0 0.46924702726821282 -0.43484773472326599 0 0.48552804520920678 -0.42799216931292611 0 0.46924702726821282 -0.43484773472326599 0 0.47949801817880677 -0.41365140508632309 0 0.48552804520920678 -0.42799216931292611 0 0.47949801817880677 -0.41365140508632309 0 0.5 -0.40208557795999961 0 0.46680969583490778 -0.41274858841526157 0 0.46924702726821282 -0.43484773472326599 0 0.47949801817880677 -0.41365140508632309 0 0.46680969583490778 -0.41274858841526157 0 0.47949801817880677 -0.41365140508632309 0 0.47485796399023311 -0.40328323013715978 0 0.47949801817880677 -0.41365140508632309 0 0.47485796399023311 -0.40328323013715978 0 0.48501034131379339 -0.39589669118590137 0 0.46680969583490778 -0.41274858841526157 0 0.47485796399023311 -0.40328323013715978 0 0.46697148891275431 -0.40002921638500172 0 0.47485796399023311 -0.40328323013715978 0 0.47548297721973709 -0.39513831255209197 0 0.46697148891275431 -0.40002921638500172 0 0.47548297721973709 -0.39513831255209197 0 0.47310568845609052 -0.38536867418522291 0 0.46697148891275431 -0.40002921638500172 0 0.47548297721973709 -0.39513831255209197 0 0.48501034131379339 -0.39589669118590137 0 0.47310568845609052 -0.38536867418522291 0 0.47485796399023311 -0.40328323013715978 0 0.47548297721973709 -0.39513831255209197 0 0.48501034131379339 -0.39589669118590137 0 0.47949801817880677 -0.41365140508632309 0 0.48974900908940078 -0.39245507544938019 0 0.47949801817880677 -0.41365140508632309 0 0.5 -0.40208557795999961 0 0.48974900908940078 -0.39245507544938019 0 0.47949801817880677 -0.41365140508632309 0 0.48974900908940078 -0.39245507544938019 0 0.48501034131379339 -0.39589669118590137 0 0.49999999999999711 -0.37125874581243851 0 0.5 -0.40208557795999961 0 0.48974900908940078 -0.39245507544938019 0 0.49999999999999711 -0.37125874581243851 0 0.47674069655525092 -0.3698978429939776 0 0.48974900908940078 -0.39245507544938019 0 0.49999999999999711 -0.37125874581243851 0 0.48974900908940078 -0.39245507544938019 0 0.47674069655525092 -0.3698978429939776 0 0.48501034131379339 -0.39589669118590137 0 0.47310568845609052 -0.38536867418522291 0 0.47674069655525092 -0.3698978429939776 0 0.48974900908940078 -0.39245507544938019 0 0.48501034131379339 -0.39589669118590137 0 0.47674069655525092 -0.3698978429939776 0 0.48501034131379339 -0.39589669118590137 0 0.45392603783110008 -0.37108838658624999 0 0.47310568845609052 -0.38536867418522291 0 0.45155556879862868 -0.3944603689424081 0 0.47674069655525092 -0.3698978429939776 0 0.45392603783110008 -0.37108838658624999 0 0.47310568845609052 -0.38536867418522291 0 0.45481320319103757 -0.41743251132042969 0 0.46697148891275431 -0.40002921638500172 0 0.45155556879862868 -0.3944603689424081 0 0.47310568845609052 -0.38536867418522291 0 0.46697148891275431 -0.40002921638500172 0 0.45155556879862868 -0.3944603689424081 0 0.45481320319103757 -0.41743251132042969 0 0.45155556879862868 -0.3944603689424081 0 0.43477646914432833 -0.40550992295969079 0 0.45155556879862868 -0.3944603689424081 0 0.43242581624588322 -0.38730115333965082 0 0.43477646914432833 -0.40550992295969079 0 0.45392603783110008 -0.37108838658624999 0 0.45155556879862868 -0.3944603689424081 0 0.43242581624588322 -0.38730115333965082 0 0.42785183481717409 -0.36595316276467199 0 0.43242581624588322 -0.38730115333965082 0 0.41287057948892703 -0.38518927514730122 0 0.43242581624588322 -0.38730115333965082 0 0.43477646914432833 -0.40550992295969079 0 0.41749483707519452 -0.40538692165420498 0 0.43242581624588322 -0.38730115333965082 0 0.41749483707519452 -0.40538692165420498 0 0.41287057948892703 -0.38518927514730122 0 0.41749483707519452 -0.40538692165420498 0 0.41287057948892703 -0.38518927514730122 0 0.40336078828097621 -0.40362515372992341 0 0.4111933065081313 -0.36805982019164402 0 0.41287057948892703 -0.38518927514730122 0 0.39650622041158878 -0.3765742856902482 0 0.41287057948892703 -0.38518927514730122 0 0.39650622041158878 -0.3765742856902482 0 0.39372170841196569 -0.3925803949292499 0 0.38249634533461108 -0.36797477098799591 0 0.39650622041158878 -0.3765742856902482 0 0.37900977316023637 -0.39091548517495972 0 0.39650622041158878 -0.3765742856902482 0 0.37900977316023637 -0.39091548517495972 0 0.39372170841196569 -0.3925803949292499 0 0.38249634533461108 -0.36797477098799591 0 0.37900977316023637 -0.39091548517495972 0 0.36724772315424481 -0.38247146420994571 0 0.37900977316023637 -0.39091548517495972 0 0.39372170841196569 -0.3925803949292499 0 0.37842665921942997 -0.40887405987875969 0 0.37900977316023637 -0.39091548517495972 0 0.37842665921942997 -0.40887405987875969 0 0.36824105802713031 -0.4000969440192842 0 0.39372170841196569 -0.3925803949292499 0 0.39194747191700757 -0.41402513481906722 0 0.37842665921942997 -0.40887405987875969 0 0.41287057948892703 -0.38518927514730122 0 0.39372170841196569 -0.3925803949292499 0 0.40336078828097621 -0.40362515372992341 0 0.39372170841196569 -0.3925803949292499 0 0.40336078828097621 -0.40362515372992341 0 0.39194747191700757 -0.41402513481906722 0 0.40336078828097621 -0.40362515372992341 0 0.39194747191700757 -0.41402513481906722 0 0.41036500379586138 -0.42217021861448573 0 0.39194747191700757 -0.41402513481906722 0 0.37842665921942997 -0.40887405987875969 0 0.3754845505291648 -0.42231636227288599 0 0.39194747191700757 -0.41402513481906722 0 0.38276612650569841 -0.43173139982273478 0 0.39495441733924969 -0.43334788207120151 0 0.39194747191700757 -0.41402513481906722 0 0.3754845505291648 -0.42231636227288599 0 0.38276612650569841 -0.43173139982273478 0 0.38276612650569841 -0.43173139982273478 0 0.39495441733924969 -0.43334788207120151 0 0.38358898323347101 -0.44426352436551808 0 0.39495441733924969 -0.43334788207120151 0 0.41630162367870638 -0.44091327616753739 0 0.39194747191700757 -0.41402513481906722 0 0.39495441733924969 -0.43334788207120151 0 0.41036500379586138 -0.42217021861448573 0 0.41036500379586138 -0.42217021861448573 0 0.42295569064062533 -0.42699492369753778 0 0.41630162367870638 -0.44091327616753739 0 0.39495441733924969 -0.43334788207120151 0 0.41036500379586138 -0.42217021861448573 0 0.41630162367870638 -0.44091327616753739 0 0.41749483707519452 -0.40538692165420498 0 0.40336078828097621 -0.40362515372992341 0 0.41036500379586138 -0.42217021861448573 0 0.41749483707519452 -0.40538692165420498 0 0.41036500379586138 -0.42217021861448573 0 0.42458756094721539 -0.41613405657310448 0 0.41036500379586138 -0.42217021861448573 0 0.42458756094721539 -0.41613405657310448 0 0.42295569064062533 -0.42699492369753778 0 0.43477646914432833 -0.40550992295969079 0 0.41749483707519452 -0.40538692165420498 0 0.42458756094721539 -0.41613405657310448 0 0.43477646914432833 -0.40550992295969079 0 0.42458756094721539 -0.41613405657310448 0 0.43524810038533429 -0.42324892749070769 0 0.43199803478474752 -0.43480066315574151 0 0.42295569064062533 -0.42699492369753778 0 0.41630162367870638 -0.44091327616753739 0 0.43524810038533429 -0.42324892749070769 0 0.43199803478474752 -0.43480066315574151 0 0.42295569064062533 -0.42699492369753778 0 0.42458756094721539 -0.41613405657310448 0 0.43524810038533429 -0.42324892749070769 0 0.42295569064062533 -0.42699492369753778 0 0.43764883001816302 -0.44847867026387339 0 0.41630162367870638 -0.44091327616753739 0 0.43764883001816302 -0.44847867026387339 0 0.42984017904353489 -0.46042986879056458 0 0.41630162367870638 -0.44091327616753739 0 0.43764883001816302 -0.44847867026387339 0 0.43199803478474752 -0.43480066315574151 0 0.41630162367870638 -0.44091327616753739 0 0.42984017904353489 -0.46042986879056458 0 0.41583716859034447 -0.46620520778226737 0 0.42866409193048188 -0.47676758270227471 0 0.42984017904353489 -0.46042986879056458 0 0.4067145811385029 -0.45234669657804139 0 0.42984017904353489 -0.46042986879056458 0 0.41583716859034447 -0.46620520778226737 0 0.4067145811385029 -0.45234669657804139 0 0.41583716859034447 -0.46620520778226737 0 0.4067145811385029 -0.45234669657804139 0 0.40148396946935899 -0.46677367853588281 0 0.42984017904353489 -0.46042986879056458 0 0.4067145811385029 -0.45234669657804139 0 0.41630162367870638 -0.44091327616753739 0 0.4067145811385029 -0.45234669657804139 0 0.38358898323347101 -0.44426352436551808 0 0.39182712026942329 -0.45690385307896481 0 0.39495441733924969 -0.43334788207120151 0 0.4067145811385029 -0.45234669657804139 0 0.41630162367870638 -0.44091327616753739 0 0.39495441733924969 -0.43334788207120151 0 0.4067145811385029 -0.45234669657804139 0 0.38358898323347101 -0.44426352436551808 0 0.4067145811385029 -0.45234669657804139 0 0.38358898323347101 -0.44426352436551808 0 0.38358898323347101 -0.44426352436551808 0 0.37514595674159079 -0.45476526552439389 0 0.39182712026942329 -0.45690385307896481 0 0.38276612650569841 -0.43173139982273478 0 0.38358898323347101 -0.44426352436551808 0 0.36596817218281208 -0.43846752572535042 0 0.37514595674159079 -0.45476526552439389 0 0.38538716437757631 -0.46842775420537441 0 0.39182712026942329 -0.45690385307896481 0 0.37514595674159079 -0.45476526552439389 0 0.38538716437757631 -0.46842775420537441 0 0.37212180294075042 -0.46808428500039262 0 0.38538716437757631 -0.46842775420537441 0 0.39182712026942329 -0.45690385307896481 0 0.40148396946935899 -0.46677367853588281 0 0.4067145811385029 -0.45234669657804139 0 0.39182712026942329 -0.45690385307896481 0 0.40148396946935899 -0.46677367853588281 0 0.39434508200087892 -0.48168095957978257 0 0.4057717135424021 -0.48929931529832937 0 0.41138522724611992 -0.47610642689805982 0 0.38538716437757631 -0.46842775420537441 0 0.40148396946935899 -0.46677367853588281 0 0.39434508200087892 -0.48168095957978257 0 0.40148396946935899 -0.46677367853588281 0 0.39434508200087892 -0.48168095957978257 0 0.41138522724611992 -0.47610642689805982 0 0.38538716437757631 -0.46842775420537441 0 0.39434508200087892 -0.48168095957978257 0 0.37586822855092661 -0.48439202442808083 0 0.38538716437757631 -0.46842775420537441 0 0.37586822855092661 -0.48439202442808083 0 0.37212180294075042 -0.46808428500039262 0 0.39434508200087892 -0.48168095957978257 0 0.37586822855092661 -0.48439202442808083 0 0.39289039342582149 -0.5 0 0.37586822855092661 -0.48439202442808083 0 0.39289039342582149 -0.5 0 0.3704665795387827 -0.49999999999999961 0 0.39434508200087892 -0.48168095957978257 0 0.39289039342582149 -0.5 0 0.4057717135424021 -0.48929931529832937 0 0.39289039342582149 -0.5 0 0.4057717135424021 -0.48929931529832937 0 0.41531420731286051 -0.5 0 0.4057717135424021 -0.48929931529832937 0 0.41138522724611992 -0.47610642689805982 0 0.425256426736628 -0.48969697811313823 0 0.4057717135424021 -0.48929931529832937 0 0.41531420731286051 -0.5 0 0.425256426736628 -0.48969697811313823 0 0.41583716859034447 -0.46620520778226737 0 0.41138522724611992 -0.47610642689805982 0 0.42866409193048188 -0.47676758270227471 0 0.41138522724611992 -0.47610642689805982 0 0.42866409193048188 -0.47676758270227471 0 0.425256426736628 -0.48969697811313823 0 0.41583716859034447 -0.46620520778226737 0 0.40148396946935899 -0.46677367853588281 0 0.41138522724611992 -0.47610642689805982 0 0.44535189907423273 -0.48425652050154361 0 0.42866409193048188 -0.47676758270227471 0 0.425256426736628 -0.48969697811313823 0 0.43920548674920379 -0.47249175324936749 0 0.42984017904353489 -0.46042986879056458 0 0.42866409193048188 -0.47676758270227471 0 0.43773802119989941 -0.49999999999999978 0 0.44535189907423273 -0.48425652050154361 0 0.425256426736628 -0.48969697811313823 0 0.43773802119989941 -0.49999999999999978 0 0.41531420731286051 -0.5 0 0.425256426736628 -0.48969697811313823 0 0.32577547594680167 -0.48549728563522948 0 0.313100747974287 -0.5 0 0.34178366375653479 -0.5 0 0.32577547594680167 -0.48549728563522948 0 0.33309118936964399 -0.46704031311580291 0 0.30810638268294871 -0.47012115952174682 0 0.353331436476917 -0.48488928282810861 0 0.33309118936964399 -0.46704031311580291 0 0.32577547594680167 -0.48549728563522948 0 0.353331436476917 -0.48488928282810861 0 0.33309118936964399 -0.46704031311580291 0 0.32577547594680167 -0.48549728563522948 0 0.353331436476917 -0.48488928282810861 0 0.32577547594680167 -0.48549728563522948 0 0.34178366375653479 -0.5 0 0.353331436476917 -0.48488928282810861 0 0.34178366375653479 -0.5 0 0.353331436476917 -0.48488928282810861 0 0.3704665795387827 -0.49999999999999961 0 0.353331436476917 -0.48488928282810861 0 0.3704665795387827 -0.49999999999999961 0 0.37586822855092661 -0.48439202442808083 0 0.353331436476917 -0.48488928282810861 0 0.37586822855092661 -0.48439202442808083 0 0.353331436476917 -0.48488928282810861 0 0.3704665795387827 -0.49999999999999961 0 0.37586822855092661 -0.48439202442808083 0 0.353331436476917 -0.48488928282810861 0 0.36174609683149922 -0.47333229839911978 0 0.37586822855092661 -0.48439202442808083 0 0.36174609683149922 -0.47333229839911978 0 0.37212180294075042 -0.46808428500039262 0 0.353331436476917 -0.48488928282810861 0 0.3511187368843669 -0.46644655109408317 0 0.33309118936964399 -0.46704031311580291 0 0.353331436476917 -0.48488928282810861 0 0.36174609683149922 -0.47333229839911978 0 0.3511187368843669 -0.46644655109408317 0 0.3511187368843669 -0.46644655109408317 0 0.34821094164401439 -0.44963138573543099 0 0.33309118936964399 -0.46704031311580291 0 0.3511187368843669 -0.46644655109408317 0 0.36000734278227892 -0.4581682973830864 0 0.34821094164401439 -0.44963138573543099 0 0.36174609683149922 -0.47333229839911978 0 0.3511187368843669 -0.46644655109408317 0 0.36000734278227892 -0.4581682973830864 0 0.36174609683149922 -0.47333229839911978 0 0.36000734278227892 -0.4581682973830864 0 0.37212180294075042 -0.46808428500039262 0 0.37514595674159079 -0.45476526552439389 0 0.36000734278227892 -0.4581682973830864 0 0.37212180294075042 -0.46808428500039262 0 0.38358898323347101 -0.44426352436551808 0 0.37514595674159079 -0.45476526552439389 0 0.36596817218281208 -0.43846752572535042 0 0.37514595674159079 -0.45476526552439389 0 0.36000734278227892 -0.4581682973830864 0 0.36596817218281208 -0.43846752572535042 0 0.36596817218281208 -0.43846752572535042 0 0.34821094164401439 -0.44963138573543099 0 0.34622956703096991 -0.43300533851794337 0 0.36000734278227892 -0.4581682973830864 0 0.36596817218281208 -0.43846752572535042 0 0.34821094164401439 -0.44963138573543099 0 0.34821094164401439 -0.44963138573543099 0 0.33295970409203041 -0.44505156475946112 0 0.34622956703096991 -0.43300533851794337 0 0.34821094164401439 -0.44963138573543099 0 0.33295970409203041 -0.44505156475946112 0 0.33309118936964399 -0.46704031311580291 0 0.33295970409203041 -0.44505156475946112 0 0.33309118936964399 -0.46704031311580291 0 0.31285094226236981 -0.44919134340349842 0 0.33309118936964399 -0.46704031311580291 0 0.31285094226236981 -0.44919134340349842 0 0.33309118936964399 -0.46704031311580291 0 0.31285094226236981 -0.44919134340349842 0 0.30810638268294871 -0.47012115952174682 0 0.33295970409203041 -0.44505156475946112 0 0.31285094226236981 -0.44919134340349842 0 0.32443481461114221 -0.42819348402864749 0 0.31285094226236981 -0.44919134340349842 0 0.32443481461114221 -0.42819348402864749 0 0.30716585811758268 -0.42152601893676211 0 0.32443481461114221 -0.42819348402864749 0 0.3377381929345476 -0.41993594981441068 0 0.31826237910007699 -0.40611857650776678 0 0.32443481461114221 -0.42819348402864749 0 0.31826237910007699 -0.40611857650776678 0 0.30716585811758268 -0.42152601893676211 0 0.3377381929345476 -0.41993594981441068 0 0.33955155732169001 -0.40481801647484189 0 0.31826237910007699 -0.40611857650776678 0 0.32443481461114221 -0.42819348402864749 0 0.3377381929345476 -0.41993594981441068 0 0.34622956703096991 -0.43300533851794337 0 0.33295970409203041 -0.44505156475946112 0 0.32443481461114221 -0.42819348402864749 0 0.34622956703096991 -0.43300533851794337 0 0.3377381929345476 -0.41993594981441068 0 0.34622956703096991 -0.43300533851794337 0 0.35818280584871282 -0.41603879828427831 0 0.36596817218281208 -0.43846752572535042 0 0.34622956703096991 -0.43300533851794337 0 0.35818280584871282 -0.41603879828427831 0 0.3754845505291648 -0.42231636227288599 0 0.36596817218281208 -0.43846752572535042 0 0.35818280584871282 -0.41603879828427831 0 0.3754845505291648 -0.42231636227288599 0 0.38276612650569841 -0.43173139982273478 0 0.36596817218281208 -0.43846752572535042 0 0.37842665921942997 -0.40887405987875969 0 0.3754845505291648 -0.42231636227288599 0 0.35818280584871282 -0.41603879828427831 0 0.37842665921942997 -0.40887405987875969 0 0.35818280584871282 -0.41603879828427831 0 0.36824105802713031 -0.4000969440192842 0 0.3377381929345476 -0.41993594981441068 0 0.35818280584871282 -0.41603879828427831 0 0.33955155732169001 -0.40481801647484189 0 0.35818280584871282 -0.41603879828427831 0 0.35120943534252291 -0.3914849644630724 0 0.33955155732169001 -0.40481801647484189 0 0.35818280584871282 -0.41603879828427831 0 0.35120943534252291 -0.3914849644630724 0 0.36824105802713031 -0.4000969440192842 0 0.37900977316023637 -0.39091548517495972 0 0.36824105802713031 -0.4000969440192842 0 0.36724772315424481 -0.38247146420994571 0 0.35120943534252291 -0.3914849644630724 0 0.36824105802713031 -0.4000969440192842 0 0.36724772315424481 -0.38247146420994571 0 0.36724772315424481 -0.38247146420994571 0 0.3553956415560332 -0.375446985373177 0 0.36664078794155069 -0.36853845970684512 0 0.35120943534252291 -0.3914849644630724 0 0.3553956415560332 -0.375446985373177 0 0.34024068493209042 -0.37145909403295352 0 0.35120943534252291 -0.3914849644630724 0 0.36724772315424481 -0.38247146420994571 0 0.3553956415560332 -0.375446985373177 0 0.35120943534252291 -0.3914849644630724 0 0.33045907805143321 -0.38798152631774108 0 0.34024068493209042 -0.37145909403295352 0 0.33045907805143321 -0.38798152631774108 0 0.34024068493209042 -0.37145909403295352 0 0.32473595581008968 -0.36877041147622941 0 0.33045907805143321 -0.38798152631774108 0 0.33955155732169001 -0.40481801647484189 0 0.31826237910007699 -0.40611857650776678 0 0.35120943534252291 -0.3914849644630724 0 0.33045907805143321 -0.38798152631774108 0 0.33955155732169001 -0.40481801647484189 0 0.33045907805143321 -0.38798152631774108 0 0.31826237910007699 -0.40611857650776678 0 0.30852465471842783 -0.38296478278532459 0 0.33045907805143321 -0.38798152631774108 0 0.30852465471842783 -0.38296478278532459 0 0.32473595581008968 -0.36877041147622941 0 0.30852465471842783 -0.38296478278532459 0 0.30157177088572762 -0.39984768184154418 0 0.28524522637625171 -0.38748256695808048 0 0.31826237910007699 -0.40611857650776678 0 0.30852465471842783 -0.38296478278532459 0 0.30157177088572762 -0.39984768184154418 0 0.30157177088572762 -0.39984768184154418 0 0.28524522637625171 -0.38748256695808048 0 0.28909827497095891 -0.41314244090476959 0 0.30852465471842783 -0.38296478278532459 0 0.28524522637625171 -0.38748256695808048 0 0.29576167506738288 -0.36584798696867898 0 0.28524522637625171 -0.38748256695808048 0 0.26194523537769671 -0.38343407302417171 0 0.27628411724202862 -0.36524783617958329 0 0.26194523537769671 -0.38343407302417171 0 0.2677956642119742 -0.40840362680373948 0 0.24730388124056729 -0.40448370284608931 0 0.28524522637625171 -0.38748256695808048 0 0.26194523537769671 -0.38343407302417171 0 0.2677956642119742 -0.40840362680373948 0 0.28524522637625171 -0.38748256695808048 0 0.2677956642119742 -0.40840362680373948 0 0.28909827497095891 -0.41314244090476959 0 0.2677956642119742 -0.40840362680373948 0 0.27472650047210662 -0.43131219108599711 0 0.28909827497095891 -0.41314244090476959 0 0.2677956642119742 -0.40840362680373948 0 0.24845486683426421 -0.43056678600332871 0 0.24730388124056729 -0.40448370284608931 0 0.2677956642119742 -0.40840362680373948 0 0.27472650047210662 -0.43131219108599711 0 0.24845486683426421 -0.43056678600332871 0 0.27472650047210662 -0.43131219108599711 0 0.26710508502781599 -0.44926171113960661 0 0.24845486683426421 -0.43056678600332871 0 0.27472650047210662 -0.43131219108599711 0 0.29418269027227539 -0.43431919247607059 0 0.28909827497095891 -0.41314244090476959 0 0.29418269027227539 -0.43431919247607059 0 0.28909827497095891 -0.41314244090476959 0 0.30716585811758268 -0.42152601893676211 0 0.31826237910007699 -0.40611857650776678 0 0.30157177088572762 -0.39984768184154418 0 0.30716585811758268 -0.42152601893676211 0 0.30157177088572762 -0.39984768184154418 0 0.28909827497095891 -0.41314244090476959 0 0.30716585811758268 -0.42152601893676211 0 0.31285094226236981 -0.44919134340349842 0 0.29418269027227539 -0.43431919247607059 0 0.30716585811758268 -0.42152601893676211 0 0.31285094226236981 -0.44919134340349842 0 0.29418269027227539 -0.43431919247607059 0 0.28597809560131299 -0.4567624239266439 0 0.31285094226236981 -0.44919134340349842 0 0.28597809560131299 -0.4567624239266439 0 0.30810638268294871 -0.47012115952174682 0 0.28597809560131299 -0.4567624239266439 0 0.27356505094757272 -0.46654042127887851 0 0.28658471780149791 -0.47429793876749549 0 0.28597809560131299 -0.4567624239266439 0 0.28658471780149791 -0.47429793876749549 0 0.30810638268294871 -0.47012115952174682 0 0.27472650047210662 -0.43131219108599711 0 0.29418269027227539 -0.43431919247607059 0 0.28597809560131299 -0.4567624239266439 0 0.27472650047210662 -0.43131219108599711 0 0.28597809560131299 -0.4567624239266439 0 0.26710508502781599 -0.44926171113960661 0 0.26710508502781599 -0.44926171113960661 0 0.25055382002994903 -0.45112655962101422 0 0.24845486683426421 -0.43056678600332871 0 0.25055382002994903 -0.45112655962101422 0 0.25749380142066591 -0.46566674131117769 0 0.24452211955108941 -0.47321082899062988 0 0.26710508502781599 -0.44926171113960661 0 0.25055382002994903 -0.45112655962101422 0 0.25749380142066591 -0.46566674131117769 0 0.26710508502781599 -0.44926171113960661 0 0.25749380142066591 -0.46566674131117769 0 0.27356505094757272 -0.46654042127887851 0 0.28597809560131299 -0.4567624239266439 0 0.26710508502781599 -0.44926171113960661 0 0.27356505094757272 -0.46654042127887851 0 0.25749380142066591 -0.46566674131117769 0 0.27356505094757272 -0.46654042127887851 0 0.27066355488657068 -0.48671329124946883 0 0.27356505094757272 -0.46654042127887851 0 0.27066355488657068 -0.48671329124946883 0 0.28658471780149791 -0.47429793876749549 0 0.27066355488657068 -0.48671329124946883 0 0.24310759435645521 -0.48732129405658853 0 0.24452211955108941 -0.47321082899062988 0 0.25749380142066591 -0.46566674131117769 0 0.27066355488657068 -0.48671329124946883 0 0.24452211955108941 -0.47321082899062988 0 0.25573491640979129 -0.5 0 0.27066355488657068 -0.48671329124946883 0 0.24310759435645521 -0.48732129405658853 0 0.27066355488657068 -0.48671329124946883 0 0.24310759435645521 -0.48732129405658853 0 0.25573491640979129 -0.5 0 0.27066355488657068 -0.48671329124946883 0 0.2844178321920392 -0.5 0 0.27066355488657068 -0.48671329124946883 0 0.2844178321920392 -0.5 0 0.29821951541668618 -0.48610528844234918 0 0.27066355488657068 -0.48671329124946883 0 0.29821951541668618 -0.48610528844234918 0 0.27066355488657068 -0.48671329124946883 0 0.28658471780149791 -0.47429793876749549 0 0.29821951541668618 -0.48610528844234918 0 0.28658471780149791 -0.47429793876749549 0 0.30810638268294871 -0.47012115952174682 0 0.29821951541668618 -0.48610528844234918 0 0.32577547594680167 -0.48549728563522948 0 0.30810638268294871 -0.47012115952174682 0 0.29821951541668618 -0.48610528844234918 0 0.313100747974287 -0.5 0 0.2844178321920392 -0.5 0 0.29821951541668618 -0.48610528844234918 0 0.32577547594680167 -0.48549728563522948 0 0.29821951541668618 -0.48610528844234918 0 0.32577547594680167 -0.48549728563522948 0 0.313100747974287 -0.5 0 0.29821951541668618 -0.48610528844234918 0 0.330274064289036 -0.28402767586280209 0 0.34332234684577362 -0.29793808318023329 0 0.34457666422559302 -0.26801309975333321 0 0.330274064289036 -0.28402767586280209 0 0.34332234684577362 -0.29793808318023329 0 0.32977293544345387 -0.30596193421111573 0 0.34332234684577362 -0.29793808318023329 0 0.32977293544345387 -0.30596193421111573 0 0.34206802946595682 -0.32786306660713371 0 0.31744302567780058 -0.29875438106107682 0 0.32081511337912821 -0.31891284763754968 0 0.29956219729229971 -0.30996262866796498 0 0.32977293544345387 -0.30596193421111573 0 0.31744302567780058 -0.29875438106107682 0 0.32081511337912821 -0.31891284763754968 0 0.31744302567780058 -0.29875438106107682 0 0.315203972569992 -0.28599406388836862 0 0.30893165249025939 -0.29458973757352408 0 0.330274064289036 -0.28402767586280209 0 0.32977293544345387 -0.30596193421111573 0 0.31744302567780058 -0.29875438106107682 0 0.330274064289036 -0.28402767586280209 0 0.31744302567780058 -0.29875438106107682 0 0.315203972569992 -0.28599406388836862 0 0.31616400359283131 -0.27140021809428472 0 0.31565659849655159 -0.26881006701694032 0 0.34457666422559302 -0.26801309975333321 0 0.31616400359283131 -0.27140021809428472 0 0.31565659849655159 -0.26881006701694032 0 0.330274064289036 -0.28402767586280209 0 0.315203972569992 -0.28599406388836862 0 0.31616400359283131 -0.27140021809428472 0 0.31140457280844042 -0.24710474912070499 0 0.31565659849655159 -0.26881006701694032 0 0.31140457280844042 -0.24710474912070499 0 0.31565659849655159 -0.26881006701694032 0 0.32909477526671738 -0.25319804842994992 0 0.34542116247921317 -0.24786541093840589 0 0.32909477526671738 -0.25319804842994992 0 0.34457666422559302 -0.26801309975333321 0 0.31565659849655159 -0.26881006701694032 0 0.32909477526671738 -0.25319804842994992 0 0.34457666422559302 -0.26801309975333321 0 0.31565659849655159 -0.26881006701694032 0 0.34457666422559302 -0.26801309975333321 0 0.330274064289036 -0.28402767586280209 0 0.31616400359283131 -0.27140021809428472 0 0.34457666422559302 -0.26801309975333321 0 0.35327842571551671 -0.2677733001931194 0 0.36211004630048071 -0.25874315800932568 0 0.36139056500297317 -0.28258450191058321 0 0.34457666422559302 -0.26801309975333321 0 0.35327842571551671 -0.2677733001931194 0 0.36139056500297317 -0.28258450191058321 0 0.34457666422559302 -0.26801309975333321 0 0.35327842571551671 -0.2677733001931194 0 0.34542116247921317 -0.24786541093840589 0 0.35327842571551671 -0.2677733001931194 0 0.36211004630048071 -0.25874315800932568 0 0.34542116247921317 -0.24786541093840589 0 0.34457666422559302 -0.26801309975333321 0 0.34542116247921317 -0.24786541093840589 0 0.34457666422559302 -0.26801309975333321 0 0.35327842571551671 -0.2677733001931194 0 0.36876625398544938 -0.24898888889403961 0 0.37754581309809132 -0.23651361028518689 0 0.3725796289452375 -0.26579697317357759 0 0.36876625398544938 -0.24898888889403961 0 0.36211004630048071 -0.25874315800932568 0 0.3725796289452375 -0.26579697317357759 0 0.36211004630048071 -0.25874315800932568 0 0.36139056500297317 -0.28258450191058321 0 0.36211004630048071 -0.25874315800932568 0 0.3725796289452375 -0.26579697317357759 0 0.36139056500297317 -0.28258450191058321 0 0.3725796289452375 -0.26579697317357759 0 0.36761344479238373 -0.29508033606196837 0 0.3725796289452375 -0.26579697317357759 0 0.36139056500297317 -0.28258450191058321 0 0.36761344479238373 -0.29508033606196837 0 0.36139056500297317 -0.28258450191058321 0 0.36067108370546558 -0.30642584581184062 0 0.36139056500297317 -0.28258450191058321 0 0.36761344479238373 -0.29508033606196837 0 0.36067108370546558 -0.30642584581184062 0 0.37929392098169401 -0.28404327537796259 0 0.3725796289452375 -0.26579697317357759 0 0.36761344479238373 -0.29508033606196837 0 0.34332234684577362 -0.29793808318023329 0 0.36139056500297317 -0.28258450191058321 0 0.36067108370546558 -0.30642584581184062 0 0.34332234684577362 -0.29793808318023329 0 0.34457666422559302 -0.26801309975333321 0 0.34332234684577362 -0.29793808318023329 0 0.34457666422559302 -0.26801309975333321 0 0.36139056500297317 -0.28258450191058321 0 0.34332234684577362 -0.29793808318023329 0 0.36067108370546558 -0.30642584581184062 0 0.35385294866325562 -0.31815161708919842 0 0.37804720550635529 -0.30651687721429538 0 0.36761344479238373 -0.29508033606196837 0 0.37325959660283969 -0.31225701655594912 0 0.36761344479238373 -0.29508033606196837 0 0.37325959660283969 -0.31225701655594912 0 0.36522996683296982 -0.32210974174446261 0 0.36761344479238373 -0.29508033606196837 0 0.3626472606395299 -0.32436369895035932 0 0.36761344479238373 -0.29508033606196837 0 0.36067108370546558 -0.30642584581184062 0 0.3626472606395299 -0.32436369895035932 0 0.36067108370546558 -0.30642584581184062 0 0.35995160240795782 -0.33026718971309799 0 0.37325959660283969 -0.31225701655594912 0 0.36522996683296982 -0.32210974174446261 0 0.37029473460036533 -0.32565573538444043 0 0.36761344479238373 -0.29508033606196837 0 0.3626472606395299 -0.32436369895035932 0 0.36522996683296982 -0.32210974174446261 0 0.36067108370546558 -0.30642584581184062 0 0.3626472606395299 -0.32436369895035932 0 0.35995160240795782 -0.33026718971309799 0 0.38064079273778262 -0.31288188218018531 0 0.37325959660283969 -0.31225701655594912 0 0.37029473460036533 -0.32565573538444043 0 0.3626472606395299 -0.32436369895035932 0 0.37029473460036533 -0.32565573538444043 0 0.35995160240795782 -0.33026718971309799 0 0.37029473460036533 -0.32565573538444043 0 0.35995160240795782 -0.33026718971309799 0 0.3626472606395299 -0.32436369895035932 0 0.36522996683296982 -0.32210974174446261 0 0.37029473460036533 -0.32565573538444043 0 0.36522996683296982 -0.32210974174446261 0 0.37029473460036533 -0.32565573538444043 0 0.35995160240795782 -0.33026718971309799 0 0.35941557651728179 -0.34802939929915899 0 0.37029473460036533 -0.32565573538444043 0 0.37212478857772979 -0.33864880005647208 0 0.35995160240795782 -0.33026718971309799 0 0.3654326502107581 -0.34245967622864359 0 0.35995160240795782 -0.33026718971309799 0 0.35941557651728179 -0.34802939929915899 0 0.37212478857772979 -0.33864880005647208 0 0.3654326502107581 -0.34245967622864359 0 0.37040156667629781 -0.34671437794913718 0 0.37212478857772979 -0.33864880005647208 0 0.3654326502107581 -0.34245967622864359 0 0.35995160240795782 -0.33026718971309799 0 0.35995160240795782 -0.33026718971309799 0 0.35941557651728179 -0.34802939929915899 0 0.34162477060798069 -0.33843815246039383 0 0.35941557651728179 -0.34802939929915899 0 0.34146637893605181 -0.3422169952266676 0 0.34162477060798069 -0.33843815246039383 0 0.35995160240795782 -0.33026718971309799 0 0.34162477060798069 -0.33843815246039383 0 0.35995160240795782 -0.33026718971309799 0 0.34764647170350632 -0.33021231032179682 0 0.34162477060798069 -0.33843815246039383 0 0.35995160240795782 -0.33026718971309799 0 0.34764647170350632 -0.33021231032179682 0 0.35274785573456591 -0.3260756163463463 0 0.34764647170350632 -0.33021231032179682 0 0.34206802946595682 -0.32786306660713371 0 0.34162477060798069 -0.33843815246039383 0 0.34764647170350632 -0.33021231032179682 0 0.34206802946595682 -0.32786306660713371 0 0.35385294866325562 -0.31815161708919842 0 0.35274785573456591 -0.3260756163463463 0 0.34206802946595682 -0.32786306660713371 0 0.34764647170350632 -0.33021231032179682 0 0.35274785573456591 -0.3260756163463463 0 0.34206802946595682 -0.32786306660713371 0 0.34332234684577362 -0.29793808318023329 0 0.35385294866325562 -0.31815161708919842 0 0.34206802946595682 -0.32786306660713371 0 0.36067108370546558 -0.30642584581184062 0 0.35995160240795782 -0.33026718971309799 0 0.35385294866325562 -0.31815161708919842 0 0.35995160240795782 -0.33026718971309799 0 0.35385294866325562 -0.31815161708919842 0 0.35274785573456591 -0.3260756163463463 0 0.38249634533461108 -0.36797477098799591 0 0.36724772315424481 -0.38247146420994571 0 0.36664078794155069 -0.36853845970684512 0 0.38249634533461108 -0.36797477098799591 0 0.36664078794155069 -0.36853845970684512 0 0.37305712147220338 -0.36102055586376819 0 0.3553956415560332 -0.375446985373177 0 0.36664078794155069 -0.36853845970684512 0 0.35901533294662008 -0.36129221050145399 0 0.36664078794155069 -0.36853845970684512 0 0.37305712147220338 -0.36102055586376819 0 0.36517854466496658 -0.35714892472411869 0 0.36664078794155069 -0.36853845970684512 0 0.36517854466496658 -0.35714892472411869 0 0.35901533294662008 -0.36129221050145399 0 0.36517854466496658 -0.35714892472411869 0 0.35941557651728179 -0.34802939929915899 0 0.35901533294662008 -0.36129221050145399 0 0.36517854466496658 -0.35714892472411869 0 0.36469303305047901 -0.34973837317986511 0 0.35941557651728179 -0.34802939929915899 0 0.36517854466496658 -0.35714892472411869 0 0.37030234625384911 -0.35279401393457888 0 0.36469303305047901 -0.34973837317986511 0 0.37818146540529818 -0.34934783795600571 0 0.37305712147220338 -0.36102055586376819 0 0.37030234625384911 -0.35279401393457888 0 0.37305712147220338 -0.36102055586376819 0 0.36517854466496658 -0.35714892472411869 0 0.37030234625384911 -0.35279401393457888 0 0.37818146540529818 -0.34934783795600571 0 0.37212478857772979 -0.33864880005647208 0 0.37040156667629781 -0.34671437794913718 0 0.37818146540529818 -0.34934783795600571 0 0.37030234625384911 -0.35279401393457888 0 0.37040156667629781 -0.34671437794913718 0 0.37030234625384911 -0.35279401393457888 0 0.37040156667629781 -0.34671437794913718 0 0.36469303305047901 -0.34973837317986511 0 0.3654326502107581 -0.34245967622864359 0 0.37040156667629781 -0.34671437794913718 0 0.36469303305047901 -0.34973837317986511 0 0.36469303305047901 -0.34973837317986511 0 0.35941557651728179 -0.34802939929915899 0 0.3654326502107581 -0.34245967622864359 0 0.36469303305047901 -0.34973837317986511 0 0.35941557651728179 -0.34802939929915899 0 0.35003449333301101 -0.35574942476505861 0 0.34024068493209042 -0.37145909403295352 0 0.34146637893605181 -0.3422169952266676 0 0.35941557651728179 -0.34802939929915899 0 0.35003449333301101 -0.35574942476505861 0 0.34146637893605181 -0.3422169952266676 0 0.35941557651728179 -0.34802939929915899 0 0.34146637893605181 -0.3422169952266676 0 0.35941557651728179 -0.34802939929915899 0 0.35901533294662008 -0.36129221050145399 0 0.35941557651728179 -0.34802939929915899 0 0.35003449333301101 -0.35574942476505861 0 0.35901533294662008 -0.36129221050145399 0 0.35003449333301101 -0.35574942476505861 0 0.35901533294662008 -0.36129221050145399 0 0.34024068493209042 -0.37145909403295352 0 0.3553956415560332 -0.375446985373177 0 0.35901533294662008 -0.36129221050145399 0 0.34024068493209042 -0.37145909403295352 0 0.34024068493209042 -0.37145909403295352 0 0.33264239376833749 -0.35548373211026962 0 0.32473595581008968 -0.36877041147622941 0 0.34024068493209042 -0.37145909403295352 0 0.33264239376833749 -0.35548373211026962 0 0.34146637893605181 -0.3422169952266676 0 0.34024068493209042 -0.37145909403295352 0 0.34146637893605181 -0.3422169952266676 0 0.33264239376833749 -0.35548373211026962 0 0.32969677432389999 -0.34883746930945858 0 0.32350037713642671 -0.3535383953733186 0 0.33264239376833749 -0.35548373211026962 0 0.33484083241944268 -0.34588391539316982 0 0.34146637893605181 -0.3422169952266676 0 0.33264239376833749 -0.35548373211026962 0 0.33484083241944268 -0.34588391539316982 0 0.32969677432389999 -0.34883746930945858 0 0.33484083241944268 -0.34588391539316982 0 0.32969677432389999 -0.34883746930945858 0 0.33080291213000951 -0.34437854531234752 0 0.32969677432389999 -0.34883746930945858 0 0.33080291213000951 -0.34437854531234752 0 0.32576759743036687 -0.34544500479448842 0 0.32576759743036687 -0.34544500479448842 0 0.32008489300350967 -0.34478001059398899 0 0.32350037713642671 -0.3535383953733186 0 0.32969677432389999 -0.34883746930945858 0 0.32576759743036687 -0.34544500479448842 0 0.32350037713642671 -0.3535383953733186 0 0.32576759743036687 -0.34544500479448842 0 0.32008489300350967 -0.34478001059398899 0 0.3230261242077439 -0.3426129045732173 0 0.32008489300350967 -0.34478001059398899 0 0.31455300750316167 -0.34989325112993808 0 0.32350037713642671 -0.3535383953733186 0 0.32008489300350967 -0.34478001059398899 0 0.31455300750316167 -0.34989325112993808 0 0.31278358272303802 -0.34129775444127147 0 0.31455300750316167 -0.34989325112993808 0 0.32350037713642671 -0.3535383953733186 0 0.31266700858965563 -0.36105898834543543 0 0.33264239376833749 -0.35548373211026962 0 0.32350037713642671 -0.3535383953733186 0 0.32473595581008968 -0.36877041147622941 0 0.30852465471842783 -0.38296478278532459 0 0.31266700858965563 -0.36105898834543543 0 0.32473595581008968 -0.36877041147622941 0 0.32350037713642671 -0.3535383953733186 0 0.31266700858965563 -0.36105898834543543 0 0.32473595581008968 -0.36877041147622941 0 0.34332234684577362 -0.29793808318023329 0 0.34206802946595682 -0.32786306660713371 0 0.32977293544345387 -0.30596193421111573 0 0.34206802946595682 -0.32786306660713371 0 0.32081511337912821 -0.31891284763754968 0 0.34206802946595682 -0.32786306660713371 0 0.32602109842812482 -0.32927153728442071 0 0.32081511337912821 -0.31891284763754968 0 0.34206802946595682 -0.32786306660713371 0 0.32081511337912821 -0.31891284763754968 0 0.34206802946595682 -0.32786306660713371 0 0.34162477060798069 -0.33843815246039383 0 0.33801441914131958 -0.33597980122333287 0 0.34206802946595682 -0.32786306660713371 0 0.34162477060798069 -0.33843815246039383 0 0.34206802946595682 -0.32786306660713371 0 0.33503975802439162 -0.33352730776002742 0 0.32602109842812482 -0.32927153728442071 0 0.34206802946595682 -0.32786306660713371 0 0.33801441914131958 -0.33597980122333287 0 0.33503975802439162 -0.33352730776002742 0 0.34146637893605181 -0.3422169952266676 0 0.34162477060798069 -0.33843815246039383 0 0.33664845261102122 -0.34065682884787418 0 0.34146637893605181 -0.3422169952266676 0 0.34162477060798069 -0.33843815246039383 0 0.34162477060798069 -0.33843815246039383 0 0.33801441914131958 -0.33597980122333287 0 0.33664845261102122 -0.34065682884787418 0 0.34162477060798069 -0.33843815246039383 0 0.33664845261102122 -0.34065682884787418 0 0.33801441914131958 -0.33597980122333287 0 0.33664845261102122 -0.34065682884787418 0 0.334556636173299 -0.33621284741772872 0 0.33484083241944268 -0.34588391539316982 0 0.34146637893605181 -0.3422169952266676 0 0.33664845261102122 -0.34065682884787418 0 0.34146637893605181 -0.3422169952266676 0 0.33664845261102122 -0.34065682884787418 0 0.33080291213000951 -0.34437854531234752 0 0.33664845261102122 -0.34065682884787418 0 0.32753883147517121 -0.34023469067202677 0 0.33664845261102122 -0.34065682884787418 0 0.334556636173299 -0.33621284741772872 0 0.32852391491646382 -0.33468745183968091 0 0.33484083241944268 -0.34588391539316982 0 0.33080291213000951 -0.34437854531234752 0 0.33664845261102122 -0.34065682884787418 0 0.33503975802439162 -0.33352730776002742 0 0.32852391491646382 -0.33468745183968091 0 0.32602109842812482 -0.32927153728442071 0 0.334556636173299 -0.33621284741772872 0 0.33503975802439162 -0.33352730776002742 0 0.32852391491646382 -0.33468745183968091 0 0.33801441914131958 -0.33597980122333287 0 0.334556636173299 -0.33621284741772872 0 0.33503975802439162 -0.33352730776002742 0 0.32753883147517121 -0.34023469067202677 0 0.31871317492192791 -0.33999191223236508 0 0.30992165968220392 -0.33200201743577268 0 0.32852391491646382 -0.33468745183968091 0 0.32602109842812482 -0.32927153728442071 0 0.30992165968220392 -0.33200201743577268 0 0.33664845261102122 -0.34065682884787418 0 0.32852391491646382 -0.33468745183968091 0 0.30992165968220392 -0.33200201743577268 0 0.33664845261102122 -0.34065682884787418 0 0.32753883147517121 -0.34023469067202677 0 0.30992165968220392 -0.33200201743577268 0 0.32602109842812482 -0.32927153728442071 0 0.31516553794356478 -0.32688419612254632 0 0.30992165968220392 -0.33200201743577268 0 0.33664845261102122 -0.34065682884787418 0 0.30992165968220392 -0.33200201743577268 0 0.32753883147517121 -0.34023469067202677 0 0.3230261242077439 -0.3426129045732173 0 0.31871317492192791 -0.33999191223236508 0 0.33080291213000951 -0.34437854531234752 0 0.32576759743036687 -0.34544500479448842 0 0.32753883147517121 -0.34023469067202677 0 0.32576759743036687 -0.34544500479448842 0 0.32753883147517121 -0.34023469067202677 0 0.3230261242077439 -0.3426129045732173 0 0.32008489300350967 -0.34478001059398899 0 0.3230261242077439 -0.3426129045732173 0 0.31871317492192791 -0.33999191223236508 0 0.31871317492192791 -0.33999191223236508 0 0.31278358272303802 -0.34129775444127147 0 0.30992165968220392 -0.33200201743577268 0 0.32008489300350967 -0.34478001059398899 0 0.31871317492192791 -0.33999191223236508 0 0.31278358272303802 -0.34129775444127147 0 0.32602109842812482 -0.32927153728442071 0 0.31516553794356478 -0.32688419612254632 0 0.32081511337912821 -0.31891284763754968 0 0.31516553794356478 -0.32688419612254632 0 0.32081511337912821 -0.31891284763754968 0 0.29956219729229971 -0.30996262866796498 0 0.31516553794356478 -0.32688419612254632 0 0.30992165968220392 -0.33200201743577268 0 0.29956219729229971 -0.30996262866796498 0 0.30992165968220392 -0.33200201743577268 0 0.28319486675338662 -0.32334720602367162 0 0.29956219729229971 -0.30996262866796498 0 0.32081511337912821 -0.31891284763754968 0 0.29956219729229971 -0.30996262866796498 0 0.31516553794356478 -0.32688419612254632 0 0.29956219729229971 -0.30996262866796498 0 0.31278358272303802 -0.34129775444127147 0 0.30544777269898171 -0.33968681455295602 0 0.30372917606317851 -0.34879110689567611 0 0.31278358272303802 -0.34129775444127147 0 0.30992165968220392 -0.33200201743577268 0 0.30544777269898171 -0.33968681455295602 0 0.30992165968220392 -0.33200201743577268 0 0.30544777269898171 -0.33968681455295602 0 0.29535667232750618 -0.33665637943910393 0 0.30544777269898171 -0.33968681455295602 0 0.29535667232750618 -0.33665637943910393 0 0.30372917606317851 -0.34879110689567611 0 0.30992165968220392 -0.33200201743577268 0 0.29535667232750618 -0.33665637943910393 0 0.28319486675338662 -0.32334720602367162 0 0.29535667232750618 -0.33665637943910393 0 0.28811986741475609 -0.34954264064797458 0 0.28056009198101312 -0.33712721632873971 0 0.29535667232750618 -0.33665637943910393 0 0.28319486675338662 -0.32334720602367162 0 0.28056009198101312 -0.33712721632873971 0 0.30992165968220392 -0.33200201743577268 0 0.28319486675338662 -0.32334720602367162 0 0.30852465471842783 -0.38296478278532459 0 0.31266700858965563 -0.36105898834543543 0 0.29576167506738288 -0.36584798696867898 0 0.31266700858965563 -0.36105898834543543 0 0.30372917606317851 -0.34879110689567611 0 0.29576167506738288 -0.36584798696867898 0 0.31455300750316167 -0.34989325112993808 0 0.31266700858965563 -0.36105898834543543 0 0.30372917606317851 -0.34879110689567611 0 0.31455300750316167 -0.34989325112993808 0 0.31278358272303802 -0.34129775444127147 0 0.30372917606317851 -0.34879110689567611 0 0.30372917606317851 -0.34879110689567611 0 0.28811986741475609 -0.34954264064797458 0 0.29576167506738288 -0.36584798696867898 0 0.29535667232750618 -0.33665637943910393 0 0.30372917606317851 -0.34879110689567611 0 0.28811986741475609 -0.34954264064797458 0 0.28811986741475609 -0.34954264064797458 0 0.29576167506738288 -0.36584798696867898 0 0.27628411724202862 -0.36524783617958329 0 0.28524522637625171 -0.38748256695808048 0 0.29576167506738288 -0.36584798696867898 0 0.27628411724202862 -0.36524783617958329 0 0.27628411724202862 -0.36524783617958329 0 0.26970242523906313 -0.3463930650348116 0 0.25620327224306561 -0.36049072758523892 0 0.28811986741475609 -0.34954264064797458 0 0.27628411724202862 -0.36524783617958329 0 0.26970242523906313 -0.3463930650348116 0 0.28811986741475609 -0.34954264064797458 0 0.26970242523906313 -0.3463930650348116 0 0.28056009198101312 -0.33712721632873971 0 0.26970242523906313 -0.3463930650348116 0 0.25620327224306561 -0.36049072758523892 0 0.25110761996098008 -0.33756133299550262 0 0.26194523537769671 -0.38343407302417171 0 0.27628411724202862 -0.36524783617958329 0 0.25620327224306561 -0.36049072758523892 0 0.26194523537769671 -0.38343407302417171 0 0.25620327224306561 -0.36049072758523892 0 0.2380746425401753 -0.37739124482652259 0 0.28319486675338662 -0.32334720602367162 0 0.25646807382456938 -0.31469239461157061 0 0.28319486675338662 -0.32334720602367162 0 0.25646807382456938 -0.31469239461157061 0 0.26668910057358802 -0.30550764638795852 0 0.28319486675338662 -0.32334720602367162 0 0.26642662817035351 -0.32969679049813649 0 0.25646807382456938 -0.31469239461157061 0 0.26970242523906313 -0.3463930650348116 0 0.26642662817035351 -0.32969679049813649 0 0.28056009198101312 -0.33712721632873971 0 0.28319486675338662 -0.32334720602367162 0 0.26642662817035351 -0.32969679049813649 0 0.28056009198101312 -0.33712721632873971 0 0.26970242523906313 -0.3463930650348116 0 0.26642662817035351 -0.32969679049813649 0 0.25110761996098008 -0.33756133299550262 0 0.26642662817035351 -0.32969679049813649 0 0.25110761996098008 -0.33756133299550262 0 0.25646807382456938 -0.31469239461157061 0 0.26020915296869068 -0.2933899210744732 0 0.26668910057358802 -0.30550764638795852 0 0.24613976577650579 -0.30323365481969039 0 0.25646807382456938 -0.31469239461157061 0 0.26668910057358802 -0.30550764638795852 0 0.24613976577650579 -0.30323365481969039 0 0.26020915296869068 -0.2933899210744732 0 0.25058364390229548 -0.28023087545190861 0 0.26295470628353768 -0.27026240406269297 0 0.26020915296869068 -0.2933899210744732 0 0.25058364390229548 -0.28023087545190861 0 0.24053263080688631 -0.28510356727772701 0 0.26020915296869068 -0.2933899210744732 0 0.24053263080688631 -0.28510356727772701 0 0.26020915296869068 -0.2933899210744732 0 0.28125845178791892 -0.29011251636532881 0 0.26295470628353768 -0.27026240406269297 0 0.26020915296869068 -0.2933899210744732 0 0.27988567513049512 -0.30167627487121951 0 0.28125845178791892 -0.29011251636532881 0 0.26020915296869068 -0.2933899210744732 0 0.26668910057358802 -0.30550764638795852 0 0.27988567513049512 -0.30167627487121951 0 0.26020915296869068 -0.2933899210744732 0 0.27988567513049512 -0.30167627487121951 0 0.28319486675338662 -0.32334720602367162 0 0.26668910057358802 -0.30550764638795852 0 0.27988567513049512 -0.30167627487121951 0 0.27988567513049512 -0.30167627487121951 0 0.29956219729229971 -0.30996262866796498 0 0.28125845178791892 -0.29011251636532881 0 0.29956219729229971 -0.30996262866796498 0 0.27988567513049512 -0.30167627487121951 0 0.28125845178791892 -0.29011251636532881 0 0.29956219729229971 -0.30996262866796498 0 0.28319486675338662 -0.32334720602367162 0 0.27988567513049512 -0.30167627487121951 0 0.29956219729229971 -0.30996262866796498 0 0.28125845178791892 -0.29011251636532881 0 0.30351741442094582 -0.28364787667668517 0 0.29956219729229971 -0.30996262866796498 0 0.30351741442094582 -0.28364787667668517 0 0.30893165249025939 -0.29458973757352408 0 0.29956219729229971 -0.30996262866796498 0 0.315203972569992 -0.28599406388836862 0 0.30351741442094582 -0.28364787667668517 0 0.30893165249025939 -0.29458973757352408 0 0.31744302567780058 -0.29875438106107682 0 0.30893165249025939 -0.29458973757352408 0 0.29956219729229971 -0.30996262866796498 0 0.31140457280844042 -0.24710474912070499 0 0.31565659849655159 -0.26881006701694032 0 0.29718577407036301 -0.25519814195989071 0 0.31565659849655159 -0.26881006701694032 0 0.29718577407036301 -0.25519814195989071 0 0.28930565239004458 -0.26953623553981648 0 0.31565659849655159 -0.26881006701694032 0 0.28930565239004458 -0.26953623553981648 0 0.31565659849655159 -0.26881006701694032 0 0.30351741442094582 -0.28364787667668517 0 0.28930565239004458 -0.26953623553981648 0 0.315203972569992 -0.28599406388836862 0 0.31616400359283131 -0.27140021809428472 0 0.30351741442094582 -0.28364787667668517 0 0.31616400359283131 -0.27140021809428472 0 0.31565659849655159 -0.26881006701694032 0 0.30351741442094582 -0.28364787667668517 0 0.28125845178791892 -0.29011251636532881 0 0.30351741442094582 -0.28364787667668517 0 0.28930565239004458 -0.26953623553981648 0 0.29234931722919649 -0.23956849287787771 0 0.29718577407036301 -0.25519814195989071 0 0.28009493911397709 -0.25531812806766069 0 0.29718577407036301 -0.25519814195989071 0 0.28930565239004458 -0.26953623553981648 0 0.28009493911397709 -0.25531812806766069 0 0.28009493911397709 -0.25531812806766069 0 0.26295470628353768 -0.27026240406269297 0 0.26515279713901752 -0.25474276698909742 0 0.28930565239004458 -0.26953623553981648 0 0.28009493911397709 -0.25531812806766069 0 0.26295470628353768 -0.27026240406269297 0 0.27362138757170362 -0.2426007269765893 0 0.28009493911397709 -0.25531812806766069 0 0.26515279713901752 -0.25474276698909742 0 0.28930565239004458 -0.26953623553981648 0 0.26295470628353768 -0.27026240406269297 0 0.28125845178791892 -0.29011251636532881 0 0.28930565239004458 -0.26953623553981648 0 0.26295470628353768 -0.27026240406269297 0 0.28125845178791892 -0.29011251636532881 0 0.26295470628353768 -0.27026240406269297 0 0.26295470628353768 -0.27026240406269297 0 0.25920525151110962 -0.26619618175379239 0 0.2333624491378041 -0.27107789530058801 0 0.26295470628353768 -0.27026240406269297 0 0.25920525151110962 -0.26619618175379239 0 0.26515279713901752 -0.25474276698909742 0 0.25909559454287789 -0.26033526294480458 0 0.25575058308532189 -0.25269357128633052 0 0.26295470628353768 -0.27026240406269297 0 0.25920525151110962 -0.26619618175379239 0 0.25909559454287789 -0.26033526294480458 0 0.26295470628353768 -0.27026240406269297 0 0.26515279713901752 -0.25474276698909742 0 0.25909559454287789 -0.26033526294480458 0 0.25920525151110962 -0.26619618175379239 0 0.25909559454287789 -0.26033526294480458 0 0.2525593813984649 -0.26013433662011259 0 0.2525593813984649 -0.26013433662011259 0 0.25575058308532189 -0.25269357128633052 0 0.2462907050713771 -0.25204034373521428 0 0.25909559454287789 -0.26033526294480458 0 0.2525593813984649 -0.26013433662011259 0 0.25575058308532189 -0.25269357128633052 0 0.2525593813984649 -0.26013433662011259 0 0.2372713891187809 -0.25677075628574592 0 0.2333624491378041 -0.27107789530058801 0 0.2525593813984649 -0.26013433662011259 0 0.2462907050713771 -0.25204034373521428 0 0.2372713891187809 -0.25677075628574592 0 0.2525593813984649 -0.26013433662011259 0 0.2372713891187809 -0.25677075628574592 0 0.2462907050713771 -0.25204034373521428 0 0.2372713891187809 -0.25677075628574592 0 0.2374752251495614 -0.24157268794541539 0 0.26295470628353768 -0.27026240406269297 0 0.2333624491378041 -0.27107789530058801 0 0.25058364390229548 -0.28023087545190861 0 0.2333624491378041 -0.27107789530058801 0 0.24053263080688631 -0.28510356727772701 0 0.25920525151110962 -0.26619618175379239 0 0.2525593813984649 -0.26013433662011259 0 0.2333624491378041 -0.27107789530058801 0 0.25058364390229548 -0.28023087545190861 0 0.26295470628353768 -0.27026240406269297 0 0.2333624491378041 -0.27107789530058801 0 0.2333624491378041 -0.27107789530058801 0 0.22391874229476511 -0.2824004848955064 0 0.24053263080688631 -0.28510356727772701 0 0.2333624491378041 -0.27107789530058801 0 0.22198339683909701 -0.25340717595137879 0 0.22391874229476511 -0.2824004848955064 0 0.22198339683909701 -0.25340717595137879 0 0.21277476220729311 -0.27908963951381288 0 0.22391874229476511 -0.2824004848955064 0 0.22198339683909701 -0.25340717595137879 0 0.22391874229476511 -0.2824004848955064 0 0.2372713891187809 -0.25677075628574592 0 0.2333624491378041 -0.27107789530058801 0 0.22198339683909701 -0.25340717595137879 0 0.2372713891187809 -0.25677075628574592 0 0.22198339683909701 -0.25340717595137879 0 0.2374752251495614 -0.24157268794541539 0 0.2372713891187809 -0.25677075628574592 0 0.22198339683909701 -0.25340717595137879 0 0.22198339683909701 -0.25340717595137879 0 0.19767743283581299 -0.26201501502554969 0 0.19815896102696709 -0.24816545406213189 0 0.22198339683909701 -0.25340717595137879 0 0.19815896102696709 -0.24816545406213189 0 0.22198339683909701 -0.25340717595137879 0 0.2070014623020448 -0.26844420161526761 0 0.19767743283581299 -0.26201501502554969 0 0.22198339683909701 -0.25340717595137879 0 0.21277476220729311 -0.27908963951381288 0 0.2070014623020448 -0.26844420161526761 0 0.21277476220729311 -0.27908963951381288 0 0.19627752834655959 -0.27465633278028612 0 0.20552852767052071 -0.28818040814850709 0 0.21277476220729311 -0.27908963951381288 0 0.2070014623020448 -0.26844420161526761 0 0.19627752834655959 -0.27465633278028612 0 0.2070014623020448 -0.26844420161526761 0 0.19627752834655959 -0.27465633278028612 0 0.19767743283581299 -0.26201501502554969 0 0.19627752834655959 -0.27465633278028612 0 0.19767743283581299 -0.26201501502554969 0 0.1861358052291735 -0.26379397041404468 0 0.19767743283581299 -0.26201501502554969 0 0.1861358052291735 -0.26379397041404468 0 0.19815896102696709 -0.24816545406213189 0 0.1861358052291735 -0.26379397041404468 0 0.18066177981631051 -0.25348299893649828 0 0.19815896102696709 -0.24816545406213189 0 0.20129939135720101 -0.31175464383988888 0 0.20552852767052071 -0.28818040814850709 0 0.1861316223780578 -0.30340045511113362 0 0.20552852767052071 -0.28818040814850709 0 0.18615950714984131 -0.28714944863913389 0 0.1861316223780578 -0.30340045511113362 0 0.19627752834655959 -0.27465633278028612 0 0.20552852767052071 -0.28818040814850709 0 0.18615950714984131 -0.28714944863913389 0 0.21277476220729311 -0.27908963951381288 0 0.20552852767052071 -0.28818040814850709 0 0.22391874229476511 -0.2824004848955064 0 0.20552852767052071 -0.28818040814850709 0 0.21283890344555609 -0.30228465628523993 0 0.22391874229476511 -0.2824004848955064 0 0.20129939135720101 -0.31175464383988888 0 0.20552852767052071 -0.28818040814850709 0 0.21283890344555609 -0.30228465628523993 0 0.225854087750432 -0.31139379383963389 0 0.22391874229476511 -0.2824004848955064 0 0.21283890344555609 -0.30228465628523993 0 0.225854087750432 -0.31139379383963389 0 0.22391874229476511 -0.2824004848955064 0 0.225854087750432 -0.31139379383963389 0 0.22391874229476511 -0.2824004848955064 0 0.24053263080688631 -0.28510356727772701 0 0.26020915296869068 -0.2933899210744732 0 0.24053263080688631 -0.28510356727772701 0 0.24613976577650579 -0.30323365481969039 0 0.225854087750432 -0.31139379383963389 0 0.24053263080688631 -0.28510356727772701 0 0.24613976577650579 -0.30323365481969039 0 0.225854087750432 -0.31139379383963389 0 0.24613976577650579 -0.30323365481969039 0 0.24147179610371719 -0.32145365581003182 0 0.25110761996098008 -0.33756133299550262 0 0.25646807382456938 -0.31469239461157061 0 0.24147179610371719 -0.32145365581003182 0 0.25646807382456938 -0.31469239461157061 0 0.24613976577650579 -0.30323365481969039 0 0.24147179610371719 -0.32145365581003182 0 0.25110761996098008 -0.33756133299550262 0 0.24147179610371719 -0.32145365581003182 0 0.2277894332060989 -0.3403871027837615 0 0.225854087750432 -0.31139379383963389 0 0.24147179610371719 -0.32145365581003182 0 0.2277894332060989 -0.3403871027837615 0 0.225854087750432 -0.31139379383963389 0 0.2277894332060989 -0.3403871027837615 0 0.2131017443993804 -0.32550716011161479 0 0.225854087750432 -0.31139379383963389 0 0.2277894332060989 -0.3403871027837615 0 0.25620327224306561 -0.36049072758523892 0 0.23939100935974761 -0.35412122659527612 0 0.2380746425401753 -0.37739124482652259 0 0.25110761996098008 -0.33756133299550262 0 0.2277894332060989 -0.3403871027837615 0 0.23939100935974761 -0.35412122659527612 0 0.25620327224306561 -0.36049072758523892 0 0.25110761996098008 -0.33756133299550262 0 0.23939100935974761 -0.35412122659527612 0 0.2277894332060989 -0.3403871027837615 0 0.23939100935974761 -0.35412122659527612 0 0.22160146260088931 -0.35672021721344238 0 0.2277894332060989 -0.3403871027837615 0 0.22160146260088931 -0.35672021721344238 0 0.21393580002607371 -0.34141846605291087 0 0.23939100935974761 -0.35412122659527612 0 0.22160146260088931 -0.35672021721344238 0 0.2380746425401753 -0.37739124482652259 0 0.22160146260088931 -0.35672021721344238 0 0.21646245367279571 -0.38358476595235552 0 0.22160146260088931 -0.35672021721344238 0 0.2380746425401753 -0.37739124482652259 0 0.21646245367279571 -0.38358476595235552 0 0.22160146260088931 -0.35672021721344238 0 0.19836301469614079 -0.36402790855933592 0 0.2025217842010896 -0.37807387373583923 0 0.22160146260088931 -0.35672021721344238 0 0.21646245367279571 -0.38358476595235552 0 0.2025217842010896 -0.37807387373583923 0 0.22160146260088931 -0.35672021721344238 0 0.20535211274276649 -0.35018034328080122 0 0.21393580002607371 -0.34141846605291087 0 0.22160146260088931 -0.35672021721344238 0 0.20535211274276649 -0.35018034328080122 0 0.19836301469614079 -0.36402790855933592 0 0.20535211274276649 -0.35018034328080122 0 0.19180082998577391 -0.35029167033112268 0 0.20100079568597551 -0.33875735092892167 0 0.19180082998577391 -0.35029167033112268 0 0.19836301469614079 -0.36402790855933592 0 0.18636698824462991 -0.36225910140511608 0 0.19180082998577391 -0.35029167033112268 0 0.18636698824462991 -0.36225910140511608 0 0.18448777755487131 -0.35210036546502188 0 0.20535211274276649 -0.35018034328080122 0 0.19180082998577391 -0.35029167033112268 0 0.19836301469614079 -0.36402790855933592 0 0.19836301469614079 -0.36402790855933592 0 0.19083927531350181 -0.37426462870353422 0 0.18636698824462991 -0.36225910140511608 0 0.19836301469614079 -0.36402790855933592 0 0.19083927531350181 -0.37426462870353422 0 0.2025217842010896 -0.37807387373583923 0 0.20129939135720101 -0.31175464383988888 0 0.21283890344555609 -0.30228465628523993 0 0.2131017443993804 -0.32550716011161479 0 0.21283890344555609 -0.30228465628523993 0 0.225854087750432 -0.31139379383963389 0 0.2131017443993804 -0.32550716011161479 0 0.2277894332060989 -0.3403871027837615 0 0.2131017443993804 -0.32550716011161479 0 0.21393580002607371 -0.34141846605291087 0 0.2131017443993804 -0.32550716011161479 0 0.21393580002607371 -0.34141846605291087 0 0.20100079568597551 -0.33875735092892167 0 0.20535211274276649 -0.35018034328080122 0 0.21393580002607371 -0.34141846605291087 0 0.20100079568597551 -0.33875735092892167 0 0.19180082998577391 -0.35029167033112268 0 0.20100079568597551 -0.33875735092892167 0 0.1840044286915227 -0.33601373309634508 0 0.20100079568597551 -0.33875735092892167 0 0.19352690233448341 -0.32516644492614982 0 0.1840044286915227 -0.33601373309634508 0 0.2131017443993804 -0.32550716011161479 0 0.20100079568597551 -0.33875735092892167 0 0.19352690233448341 -0.32516644492614982 0 0.20129939135720101 -0.31175464383988888 0 0.2131017443993804 -0.32550716011161479 0 0.19352690233448341 -0.32516644492614982 0 0.20129939135720101 -0.31175464383988888 0 0.19352690233448341 -0.32516644492614982 0 0.1861316223780578 -0.30340045511113362 0 0.19352690233448341 -0.32516644492614982 0 0.17526094699071121 -0.32121364916979261 0 0.1840044286915227 -0.33601373309634508 0 0.19352690233448341 -0.32516644492614982 0 0.17526094699071121 -0.32121364916979261 0 0.1861316223780578 -0.30340045511113362 0 0.17526094699071121 -0.32121364916979261 0 0.1840044286915227 -0.33601373309634508 0 0.17670370261134591 -0.35101137430815987 0 0.17526094699071121 -0.32121364916979261 0 0.16632300769682529 -0.33914532989683449 0 0.17670370261134591 -0.35101137430815987 0 0.17526094699071121 -0.32121364916979261 0 0.17670370261134591 -0.35101137430815987 0 0.16632300769682529 -0.33914532989683449 0 0.15635532043033851 -0.32762317205032648 0 0.15384528835215919 -0.34888323103730828 0 0.17526094699071121 -0.32121364916979261 0 0.16632300769682529 -0.33914532989683449 0 0.15635532043033851 -0.32762317205032648 0 0.17526094699071121 -0.32121364916979261 0 0.15635532043033851 -0.32762317205032648 0 0.16613015085753399 -0.29794196337136208 0 0.19083927531350181 -0.37426462870353422 0 0.18636698824462991 -0.36225910140511608 0 0.17814645823198061 -0.38080909944652741 0 0.17670370261134591 -0.35101137430815987 0 0.1695008882053643 -0.3539014675276998 0 0.17814645823198061 -0.38080909944652741 0 0.17670370261134591 -0.35101137430815987 0 0.17814645823198061 -0.38080909944652741 0 0.18636698824462991 -0.36225910140511608 0 0.17670370261134591 -0.35101137430815987 0 0.17814645823198061 -0.38080909944652741 0 0.18636698824462991 -0.36225910140511608 0 0.18448777755487131 -0.35210036546502188 0 0.17670370261134591 -0.35101137430815987 0 0.18448777755487131 -0.35210036546502188 0 0.18424918471087839 -0.34735428580016242 0 0.17670370261134591 -0.35101137430815987 0 0.19180082998577391 -0.35029167033112268 0 0.1840044286915227 -0.33601373309634508 0 0.18424918471087839 -0.34735428580016242 0 0.1840044286915227 -0.33601373309634508 0 0.18424918471087839 -0.34735428580016242 0 0.17670370261134591 -0.35101137430815987 0 0.19180082998577391 -0.35029167033112268 0 0.18448777755487131 -0.35210036546502188 0 0.18424918471087839 -0.34735428580016242 0 0.16632300769682529 -0.33914532989683449 0 0.1695008882053643 -0.3539014675276998 0 0.15384528835215919 -0.34888323103730828 0 0.1695008882053643 -0.3539014675276998 0 0.15622266046030589 -0.36560529067035252 0 0.15384528835215919 -0.34888323103730828 0 0.16632300769682529 -0.33914532989683449 0 0.17670370261134591 -0.35101137430815987 0 0.1695008882053643 -0.3539014675276998 0 0.1695008882053643 -0.3539014675276998 0 0.15622266046030589 -0.36560529067035252 0 0.1662516937484437 -0.37945746017663878 0 0.1695008882053643 -0.3539014675276998 0 0.17814645823198061 -0.38080909944652741 0 0.1662516937484437 -0.37945746017663878 0 0.1695008882053643 -0.3539014675276998 0 0.1662516937484437 -0.37945746017663878 0 0.15622266046030589 -0.36560529067035252 0 0.15384528835215919 -0.34888323103730828 0 0.13913284643621729 -0.36987147755796063 0 0.15622266046030589 -0.36560529067035252 0 0.13913284643621729 -0.36987147755796063 0 0.15122325216971341 -0.38057118911269922 0 0.15384528835215919 -0.34888323103730828 0 0.13913284643621729 -0.36987147755796063 0 0.1385684583736729 -0.34280877879487409 0 0.1385684583736729 -0.34280877879487409 0 0.1245186505824013 -0.36113750934922573 0 0.1203073559828662 -0.34481831064573482 0 0.13913284643621729 -0.36987147755796063 0 0.1385684583736729 -0.34280877879487409 0 0.13913284643621729 -0.36987147755796063 0 0.1385684583736729 -0.34280877879487409 0 0.1245186505824013 -0.36113750934922573 0 0.13913284643621729 -0.36987147755796063 0 0.12672469353237761 -0.38193719477194499 0 0.1245186505824013 -0.36113750934922573 0 0.15635532043033851 -0.32762317205032648 0 0.13800407031112841 -0.31574608003178772 0 0.16613015085753399 -0.29794196337136208 0 0.15635532043033851 -0.32762317205032648 0 0.15384528835215919 -0.34888323103730828 0 0.1385684583736729 -0.34280877879487409 0 0.15635532043033851 -0.32762317205032648 0 0.1385684583736729 -0.34280877879487409 0 0.13800407031112841 -0.31574608003178772 0 0.1385684583736729 -0.34280877879487409 0 0.13800407031112841 -0.31574608003178772 0 0.1385684583736729 -0.34280877879487409 0 0.1252730154641265 -0.33501756179834041 0 0.127277047630593 -0.32368123984794023 0 0.1385684583736729 -0.34280877879487409 0 0.1252730154641265 -0.33501756179834041 0 0.1203073559828662 -0.34481831064573482 0 0.13800407031112841 -0.31574608003178772 0 0.127277047630593 -0.32368123984794023 0 0.1207194796176513 -0.31206082339016011 0 0.1385684583736729 -0.34280877879487409 0 0.13800407031112841 -0.31574608003178772 0 0.127277047630593 -0.32368123984794023 0 0.13800407031112841 -0.31574608003178772 0 0.13743968224858391 -0.28868338126870119 0 0.1207194796176513 -0.31206082339016011 0 0.13800407031112841 -0.31574608003178772 0 0.13743968224858391 -0.28868338126870119 0 0.13800407031112841 -0.31574608003178772 0 0.13743968224858391 -0.28868338126870119 0 0.16613015085753399 -0.29794196337136208 0 0.13743968224858391 -0.28868338126870119 0 0.16013622185265231 -0.27370264407204231 0 0.16613015085753399 -0.29794196337136208 0 0.13743968224858391 -0.28868338126870119 0 0.13687529418603939 -0.26162068250561471 0 0.13743968224858391 -0.28868338126870119 0 0.13687529418603939 -0.26162068250561471 0 0.12122917553908071 -0.27280048239714111 0 0.13687529418603939 -0.26162068250561471 0 0.15867772839633809 -0.25707915377424612 0 0.15532271566916761 -0.23874085795770611 0 0.13687529418603939 -0.26162068250561471 0 0.16013622185265231 -0.27370264407204231 0 0.15867772839633809 -0.25707915377424612 0 0.13743968224858391 -0.28868338126870119 0 0.13687529418603939 -0.26162068250561471 0 0.16013622185265231 -0.27370264407204231 0 0.16013622185265231 -0.27370264407204231 0 0.17163424862532001 -0.26348395238230132 0 0.17866520103123101 -0.27392164610568698 0 0.16013622185265231 -0.27370264407204231 0 0.15867772839633809 -0.25707915377424612 0 0.17163424862532001 -0.26348395238230132 0 0.15867772839633809 -0.25707915377424612 0 0.17163424862532001 -0.26348395238230132 0 0.17304535898525439 -0.24904788565112909 0 0.17163424862532001 -0.26348395238230132 0 0.18066177981631051 -0.25348299893649828 0 0.17304535898525439 -0.24904788565112909 0 0.17163424862532001 -0.26348395238230132 0 0.1861358052291735 -0.26379397041404468 0 0.18066177981631051 -0.25348299893649828 0 0.19627752834655959 -0.27465633278028612 0 0.17866520103123101 -0.27392164610568698 0 0.18615950714984131 -0.28714944863913389 0 0.19627752834655959 -0.27465633278028612 0 0.1861358052291735 -0.26379397041404468 0 0.17866520103123101 -0.27392164610568698 0 0.17163424862532001 -0.26348395238230132 0 0.1861358052291735 -0.26379397041404468 0 0.17866520103123101 -0.27392164610568698 0 0.17866520103123101 -0.27392164610568698 0 0.18615950714984131 -0.28714944863913389 0 0.16613015085753399 -0.29794196337136208 0 0.18615950714984131 -0.28714944863913389 0 0.1861316223780578 -0.30340045511113362 0 0.16613015085753399 -0.29794196337136208 0 0.17526094699071121 -0.32121364916979261 0 0.1861316223780578 -0.30340045511113362 0 0.16613015085753399 -0.29794196337136208 0 0.16013622185265231 -0.27370264407204231 0 0.17866520103123101 -0.27392164610568698 0 0.16613015085753399 -0.29794196337136208 0 0.19650118937966099 -0.48458767462136337 0 0.18247472509388471 -0.47020227486163019 0 0.1839174807145193 -0.49999999999999789 0 0.19650118937966099 -0.48458767462136337 0 0.2054847406710314 -0.5 0 0.1839174807145193 -0.49999999999999789 0 0.19650118937966099 -0.48458767462136337 0 0.1995265252191368 -0.47051219141525807 0 0.18247472509388471 -0.47020227486163019 0 0.19650118937966099 -0.48458767462136337 0 0.1995265252191368 -0.47051219141525807 0 0.21142085222808771 -0.48158275099342862 0 0.1995265252191368 -0.47051219141525807 0 0.21142085222808771 -0.48158275099342862 0 0.21140626781342409 -0.46122374827882839 0 0.21142085222808771 -0.48158275099342862 0 0.23068219321441441 -0.47630316546961982 0 0.21140626781342409 -0.46122374827882839 0 0.19650118937966099 -0.48458767462136337 0 0.21142085222808771 -0.48158275099342862 0 0.2054847406710314 -0.5 0 0.21142085222808771 -0.48158275099342862 0 0.2054847406710314 -0.5 0 0.22705200062754341 -0.49999999999999972 0 0.21142085222808771 -0.48158275099342862 0 0.22705200062754341 -0.49999999999999972 0 0.23068219321441441 -0.47630316546961982 0 0.22705200062754341 -0.49999999999999972 0 0.24310759435645521 -0.48732129405658853 0 0.23068219321441441 -0.47630316546961982 0 0.22705200062754341 -0.49999999999999972 0 0.23068219321441441 -0.47630316546961982 0 0.25573491640979129 -0.5 0 0.22705200062754341 -0.49999999999999972 0 0.24310759435645521 -0.48732129405658853 0 0.24310759435645521 -0.48732129405658853 0 0.24452211955108941 -0.47321082899062988 0 0.23068219321441441 -0.47630316546961982 0 0.23068219321441441 -0.47630316546961982 0 0.23431238580128549 -0.45260633093924002 0 0.23068219321441441 -0.47630316546961982 0 0.23431238580128549 -0.45260633093924002 0 0.21140626781342409 -0.46122374827882839 0 0.24452211955108941 -0.47321082899062988 0 0.23068219321441441 -0.47630316546961982 0 0.23431238580128549 -0.45260633093924002 0 0.25055382002994903 -0.45112655962101422 0 0.24452211955108941 -0.47321082899062988 0 0.23431238580128549 -0.45260633093924002 0 0.25055382002994903 -0.45112655962101422 0 0.23431238580128549 -0.45260633093924002 0 0.24845486683426421 -0.43056678600332871 0 0.23431238580128549 -0.45260633093924002 0 0.2061844358166085 -0.43731386343018219 0 0.22816721351006641 -0.42382217308135922 0 0.23431238580128549 -0.45260633093924002 0 0.21140626781342409 -0.46122374827882839 0 0.2061844358166085 -0.43731386343018219 0 0.21140626781342409 -0.46122374827882839 0 0.1958295915806266 -0.45496450832104018 0 0.2061844358166085 -0.43731386343018219 0 0.1995265252191368 -0.47051219141525807 0 0.1958295915806266 -0.45496450832104018 0 0.18247472509388471 -0.47020227486163019 0 0.1995265252191368 -0.47051219141525807 0 0.21140626781342409 -0.46122374827882839 0 0.1958295915806266 -0.45496450832104018 0 0.1958295915806266 -0.45496450832104018 0 0.2061844358166085 -0.43731386343018219 0 0.18103196947325001 -0.44040454972326271 0 0.19189840580791451 -0.42494462472696731 0 0.2061844358166085 -0.43731386343018219 0 0.18103196947325001 -0.44040454972326271 0 0.19189840580791451 -0.42494462472696731 0 0.1954291475964339 -0.41062193775622902 0 0.2113234447447021 -0.41044931469126889 0 0.19189840580791451 -0.42494462472696731 0 0.1954291475964339 -0.41062193775622902 0 0.17958921385261531 -0.41060682458489489 0 0.19189840580791451 -0.42494462472696731 0 0.2113234447447021 -0.41044931469126889 0 0.2061844358166085 -0.43731386343018219 0 0.2113234447447021 -0.41044931469126889 0 0.2061844358166085 -0.43731386343018219 0 0.22816721351006641 -0.42382217308135922 0 0.2113234447447021 -0.41044931469126889 0 0.2061844358166085 -0.43731386343018219 0 0.23431238580128549 -0.45260633093924002 0 0.22816721351006641 -0.42382217308135922 0 0.24845486683426421 -0.43056678600332871 0 0.22816721351006641 -0.42382217308135922 0 0.24845486683426421 -0.43056678600332871 0 0.24730388124056729 -0.40448370284608931 0 0.22816721351006641 -0.42382217308135922 0 0.22802948983690591 -0.39972126622214238 0 0.24730388124056729 -0.40448370284608931 0 0.2113234447447021 -0.41044931469126889 0 0.22816721351006641 -0.42382217308135922 0 0.22802948983690591 -0.39972126622214238 0 0.22802948983690591 -0.39972126622214238 0 0.24730388124056729 -0.40448370284608931 0 0.2380746425401753 -0.37739124482652259 0 0.26194523537769671 -0.38343407302417171 0 0.24730388124056729 -0.40448370284608931 0 0.2380746425401753 -0.37739124482652259 0 0.22802948983690591 -0.39972126622214238 0 0.2380746425401753 -0.37739124482652259 0 0.21646245367279571 -0.38358476595235552 0 0.21646245367279571 -0.38358476595235552 0 0.19890552598050351 -0.3964869870217847 0 0.2025217842010896 -0.37807387373583923 0 0.2113234447447021 -0.41044931469126889 0 0.22802948983690591 -0.39972126622214238 0 0.21646245367279571 -0.38358476595235552 0 0.2113234447447021 -0.41044931469126889 0 0.21646245367279571 -0.38358476595235552 0 0.2113234447447021 -0.41044931469126889 0 0.21646245367279571 -0.38358476595235552 0 0.19890552598050351 -0.3964869870217847 0 0.1954291475964339 -0.41062193775622902 0 0.2113234447447021 -0.41044931469126889 0 0.19890552598050351 -0.3964869870217847 0 0.1954291475964339 -0.41062193775622902 0 0.19890552598050351 -0.3964869870217847 0 0.17958921385261531 -0.41060682458489489 0 0.19890552598050351 -0.3964869870217847 0 0.19000045151593811 -0.3880482826985161 0 0.17958921385261531 -0.41060682458489489 0 0.19890552598050351 -0.3964869870217847 0 0.19000045151593811 -0.3880482826985161 0 0.2025217842010896 -0.37807387373583923 0 0.19083927531350181 -0.37426462870353422 0 0.19000045151593811 -0.3880482826985161 0 0.2025217842010896 -0.37807387373583923 0 0.19083927531350181 -0.37426462870353422 0 0.19000045151593811 -0.3880482826985161 0 0.17814645823198061 -0.38080909944652741 0 0.17814645823198061 -0.38080909944652741 0 0.17958921385261531 -0.41060682458489489 0 0.19000045151593811 -0.3880482826985161 0 0.17814645823198061 -0.38080909944652741 0 0.17958921385261531 -0.41060682458489489 0 0.17814645823198061 -0.38080909944652741 0 0.17073561596382039 -0.39301209499015272 0 0.17958921385261531 -0.41060682458489489 0 0.16300249929152311 -0.40501345282557782 0 0.1662516937484437 -0.37945746017663878 0 0.1548118257048379 -0.39098754083749682 0 0.17073561596382039 -0.39301209499015272 0 0.16300249929152311 -0.40501345282557782 0 0.1662516937484437 -0.37945746017663878 0 0.17073561596382039 -0.39301209499015272 0 0.16300249929152311 -0.40501345282557782 0 0.17958921385261531 -0.41060682458489489 0 0.16300249929152311 -0.40501345282557782 0 0.1662516937484437 -0.37945746017663878 0 0.1662516937484437 -0.37945746017663878 0 0.15122325216971341 -0.38057118911269922 0 0.1548118257048379 -0.39098754083749682 0 0.17814645823198061 -0.38080909944652741 0 0.17073561596382039 -0.39301209499015272 0 0.1662516937484437 -0.37945746017663878 0 0.15622266046030589 -0.36560529067035252 0 0.1662516937484437 -0.37945746017663878 0 0.15122325216971341 -0.38057118911269922 0 0.15122325216971341 -0.38057118911269922 0 0.13969723449876181 -0.39693417632104711 0 0.1548118257048379 -0.39098754083749682 0 0.13913284643621729 -0.36987147755796063 0 0.15122325216971341 -0.38057118911269922 0 0.13969723449876181 -0.39693417632104711 0 0.13913284643621729 -0.36987147755796063 0 0.12672469353237761 -0.38193719477194499 0 0.13969723449876181 -0.39693417632104711 0 0.13913284643621729 -0.36987147755796063 0 0.13969723449876181 -0.39693417632104711 0 0.12672469353237761 -0.38193719477194499 0 0.13969723449876181 -0.39693417632104711 0 0.1219351525082772 -0.40864131998943182 0 0.16300249929152311 -0.40501345282557782 0 0.13969723449876181 -0.39693417632104711 0 0.1524997256598466 -0.41582351463554701 0 0.16300249929152311 -0.40501345282557782 0 0.13969723449876181 -0.39693417632104711 0 0.1548118257048379 -0.39098754083749682 0 0.13969723449876181 -0.39693417632104711 0 0.1524997256598466 -0.41582351463554701 0 0.14026162256130631 -0.42399687508413381 0 0.13969723449876181 -0.39693417632104711 0 0.14026162256130631 -0.42399687508413381 0 0.13969723449876181 -0.39693417632104711 0 0.14026162256130631 -0.42399687508413381 0 0.1219351525082772 -0.40864131998943182 0 0.1272554141007321 -0.42571201066291808 0 0.14026162256130631 -0.42399687508413381 0 0.1219351525082772 -0.40864131998943182 0 0.13018508541287829 -0.43658956786597553 0 0.14026162256130631 -0.42399687508413381 0 0.14082601062385081 -0.45105957384722029 0 0.13018508541287829 -0.43658956786597553 0 0.1272554141007321 -0.42571201066291808 0 0.14026162256130631 -0.42399687508413381 0 0.1524997256598466 -0.41582351463554701 0 0.14026162256130631 -0.42399687508413381 0 0.15975330483460251 -0.43056944547451692 0 0.14026162256130631 -0.42399687508413381 0 0.15975330483460251 -0.43056944547451692 0 0.14082601062385081 -0.45105957384722029 0 0.16300249929152311 -0.40501345282557782 0 0.15975330483460251 -0.43056944547451692 0 0.17958921385261531 -0.41060682458489489 0 0.16300249929152311 -0.40501345282557782 0 0.15975330483460251 -0.43056944547451692 0 0.16300249929152311 -0.40501345282557782 0 0.1524997256598466 -0.41582351463554701 0 0.15975330483460251 -0.43056944547451692 0 0.15975330483460251 -0.43056944547451692 0 0.17958921385261531 -0.41060682458489489 0 0.18103196947325001 -0.44040454972326271 0 0.17958921385261531 -0.41060682458489489 0 0.18103196947325001 -0.44040454972326271 0 0.19189840580791451 -0.42494462472696731 0 0.17958921385261531 -0.41060682458489489 0 0.18103196947325001 -0.44040454972326271 0 0.18103196947325001 -0.44040454972326271 0 0.16491961284223791 -0.45249038001545161 0 0.18247472509388471 -0.47020227486163019 0 0.18103196947325001 -0.44040454972326271 0 0.18247472509388471 -0.47020227486163019 0 0.1958295915806266 -0.45496450832104018 0 0.18103196947325001 -0.44040454972326271 0 0.18247472509388471 -0.47020227486163019 0 0.16491961284223791 -0.45249038001545161 0 0.1605120541856016 -0.47021605617062739 0 0.18247472509388471 -0.47020227486163019 0 0.15975330483460251 -0.43056944547451692 0 0.18103196947325001 -0.44040454972326271 0 0.16491961284223791 -0.45249038001545161 0 0.15975330483460251 -0.43056944547451692 0 0.16491961284223791 -0.45249038001545161 0 0.14082601062385081 -0.45105957384722029 0 0.14026162256130631 -0.42399687508413381 0 0.14082601062385081 -0.45105957384722029 0 0.14082601062385081 -0.45105957384722029 0 0.12543676829432579 -0.44683393452868708 0 0.12531186358948529 -0.45757018679138572 0 0.13018508541287829 -0.43658956786597553 0 0.14082601062385081 -0.45105957384722029 0 0.12543676829432579 -0.44683393452868708 0 0.14082601062385081 -0.45105957384722029 0 0.12842365125323091 -0.46593607888014599 0 0.13328939848609819 -0.47119455711627289 0 0.14082601062385081 -0.45105957384722029 0 0.14139039868639619 -0.47812227261030682 0 0.13328939848609819 -0.47119455711627289 0 0.12842365125323091 -0.46593607888014599 0 0.12531186358948529 -0.45757018679138572 0 0.1232316263288145 -0.46410889533344052 0 0.12842365125323091 -0.46593607888014599 0 0.1245497287119053 -0.47085317529077592 0 0.12311265484265969 -0.46777846846391841 0 0.14082601062385081 -0.45105957384722029 0 0.12842365125323091 -0.46593607888014599 0 0.12531186358948529 -0.45757018679138572 0 0.16491961284223791 -0.45249038001545161 0 0.14082601062385081 -0.45105957384722029 0 0.1605120541856016 -0.47021605617062739 0 0.14082601062385081 -0.45105957384722029 0 0.14139039868639619 -0.47812227261030682 0 0.14082601062385081 -0.45105957384722029 0 0.14139039868639619 -0.47812227261030682 0 0.1605120541856016 -0.47021605617062739 0 0.14139039868639619 -0.47812227261030682 0 0.15939735020609169 -0.48906113630515408 0 0.1605120541856016 -0.47021605617062739 0 0.14139039868639619 -0.47812227261030682 0 0.15939735020609169 -0.48906113630515408 0 0.14139039868639619 -0.47812227261030682 0 0.13328939848609819 -0.47119455711627289 0 0.13520794413867351 -0.47916570768291911 0 0.14139039868639619 -0.47812227261030682 0 0.13520794413867351 -0.47916570768291911 0 0.13309005864575499 -0.48654881223837643 0 0.13328939848609819 -0.47119455711627289 0 0.13520794413867351 -0.47916570768291911 0 0.1282166063692238 -0.47963436787526348 0 0.13520794413867351 -0.47916570768291911 0 0.1282166063692238 -0.47963436787526348 0 0.13309005864575499 -0.48654881223837643 0 0.12842365125323091 -0.46593607888014599 0 0.1275076222339897 -0.47406719287555171 0 0.1245497287119053 -0.47085317529077592 0 0.12842365125323091 -0.46593607888014599 0 0.13328939848609819 -0.47119455711627289 0 0.1275076222339897 -0.47406719287555171 0 0.13328939848609819 -0.47119455711627289 0 0.1282166063692238 -0.47963436787526348 0 0.1275076222339897 -0.47406719287555171 0 0.1282166063692238 -0.47963436787526348 0 0.1275076222339897 -0.47406719287555171 0 0.12271037357175291 -0.47562361121234281 0 0.14139039868639619 -0.47812227261030682 0 0.13309005864575499 -0.48654881223837643 0 0.1417493920694651 -0.49533619053082339 0 0.1325088383252874 -0.49999999999999689 0 0.11946717228548211 -0.4870343347309507 0 0.1325088383252874 -0.49999999999999689 0 0.13309005864575499 -0.48654881223837643 0 0.11946717228548211 -0.4870343347309507 0 0.1282166063692238 -0.47963436787526348 0 0.13309005864575499 -0.48654881223837643 0 0.11946717228548211 -0.4870343347309507 0 0.1325088383252874 -0.49999999999999689 0 0.13309005864575499 -0.48654881223837643 0 0.1417493920694651 -0.49533619053082339 0 0.1325088383252874 -0.49999999999999689 0 0.1417493920694651 -0.49533619053082339 0 0.15495657002553739 -0.5 0 0.14139039868639619 -0.47812227261030682 0 0.14937342774687271 -0.49062989986157102 0 0.15939735020609169 -0.48906113630515408 0 0.14139039868639619 -0.47812227261030682 0 0.1417493920694651 -0.49533619053082339 0 0.14139039868639619 -0.47812227261030682 0 0.1417493920694651 -0.49533619053082339 0 0.14937342774687271 -0.49062989986157102 0 0.1417493920694651 -0.49533619053082339 0 0.14937342774687271 -0.49062989986157102 0 0.15495657002553739 -0.5 0 0.14937342774687271 -0.49062989986157102 0 0.15495657002553739 -0.5 0 0.15939735020609169 -0.48906113630515408 0 0.15939735020609169 -0.48906113630515408 0 0.17467337585270831 -0.48420504396041608 0 0.1774043017257875 -0.50000000000000111 0 0.15939735020609169 -0.48906113630515408 0 0.1774043017257875 -0.50000000000000111 0 0.15495657002553739 -0.5 0 0.15939735020609169 -0.48906113630515408 0 0.1774043017257875 -0.50000000000000111 0 0.15939735020609169 -0.48906113630515408 0 0.1605120541856016 -0.47021605617062739 0 0.17467337585270831 -0.48420504396041608 0 0.1605120541856016 -0.47021605617062739 0 0.17467337585270831 -0.48420504396041608 0 0.18247472509388471 -0.47020227486163019 0 0.18247472509388471 -0.47020227486163019 0 0.1839174807145193 -0.49999999999999789 0 0.17467337585270831 -0.48420504396041608 0 0.18247472509388471 -0.47020227486163019 0 0.1839174807145193 -0.49999999999999789 0 0.17467337585270831 -0.48420504396041608 0 0.1839174807145193 -0.49999999999999789 0 0.1774043017257875 -0.50000000000000111 0 0.065949985054517032 -0.48884997455687013 0 0.080677891680827868 -0.48404188118506331 0 0.084758324792090334 -0.49999999999999989 0 0.065949985054517032 -0.48884997455687013 0 0.084758324792090334 -0.49999999999999989 0 0.055728539092515517 -0.5 0 0.065949985054517032 -0.48884997455687013 0 0.069113753880103546 -0.47032146630200872 0 0.080677891680827868 -0.48404188118506331 0 0.065949985054517032 -0.48884997455687013 0 0.069113753880103546 -0.47032146630200872 0 0.057596711449277201 -0.48334309492942701 0 0.069113753880103546 -0.47032146630200872 0 0.080677891680827868 -0.48404188118506331 0 0.088790870678748121 -0.47481427013272492 0 0.069113753880103546 -0.47032146630200872 0 0.088790870678748121 -0.47481427013272492 0 0.09506323621333454 -0.46277261346061632 0 0.080677891680827868 -0.48404188118506331 0 0.088790870678748121 -0.47481427013272492 0 0.094776523998680279 -0.48622369493371298 0 0.080677891680827868 -0.48404188118506331 0 0.084758324792090334 -0.49999999999999989 0 0.094776523998680279 -0.48622369493371298 0 0.084758324792090334 -0.49999999999999989 0 0.10099043700106421 -0.499999999999999 0 0.094776523998680279 -0.48622369493371298 0 0.084758324792090334 -0.49999999999999989 0 0.094776523998680279 -0.48622369493371298 0 0.10099043700106421 -0.499999999999999 0 0.1064255062456735 -0.47406866946190801 0 0.10099043700106421 -0.499999999999999 0 0.094776523998680279 -0.48622369493371298 0 0.1064255062456735 -0.47406866946190801 0 0.10099043700106421 -0.499999999999999 0 0.11946717228548211 -0.4870343347309507 0 0.1064255062456735 -0.47406866946190801 0 0.1325088383252874 -0.49999999999999689 0 0.1167496376631757 -0.5 0 0.11946717228548211 -0.4870343347309507 0 0.10099043700106421 -0.499999999999999 0 0.1167496376631757 -0.5 0 0.11946717228548211 -0.4870343347309507 0 0.12074084002908721 -0.47045370359981148 0 0.12271037357175291 -0.47562361121234281 0 0.11625567037499381 -0.47238364776222469 0 0.12074084002908721 -0.47045370359981148 0 0.11625567037499381 -0.47238364776222469 0 0.1192823524431306 -0.4663394170250621 0 0.12074084002908721 -0.47045370359981148 0 0.1245497287119053 -0.47085317529077592 0 0.12271037357175291 -0.47562361121234281 0 0.12074084002908721 -0.47045370359981148 0 0.1245497287119053 -0.47085317529077592 0 0.12311265484265969 -0.46777846846391841 0 0.1275076222339897 -0.47406719287555171 0 0.1245497287119053 -0.47085317529077592 0 0.12271037357175291 -0.47562361121234281 0 0.1282166063692238 -0.47963436787526348 0 0.11946717228548211 -0.4870343347309507 0 0.12271037357175291 -0.47562361121234281 0 0.11946717228548211 -0.4870343347309507 0 0.12271037357175291 -0.47562361121234281 0 0.11625567037499381 -0.47238364776222469 0 0.11946717228548211 -0.4870343347309507 0 0.1064255062456735 -0.47406866946190801 0 0.11946717228548211 -0.4870343347309507 0 0.11625567037499381 -0.47238364776222469 0 0.1064255062456735 -0.47406866946190801 0 0.11625567037499381 -0.47238364776222469 0 0.1064255062456735 -0.47406866946190801 0 0.11129693947086181 -0.46795476393154728 0 0.1064255062456735 -0.47406866946190801 0 0.10479472320527 -0.47244738986742602 0 0.1075632658294263 -0.46864028970971422 0 0.1064255062456735 -0.47406866946190801 0 0.1075632658294263 -0.46864028970971422 0 0.11129693947086181 -0.46795476393154728 0 0.088790870678748121 -0.47481427013272492 0 0.094776523998680279 -0.48622369493371298 0 0.10479472320527 -0.47244738986742602 0 0.1064255062456735 -0.47406866946190801 0 0.1075632658294263 -0.46864028970971422 0 0.088790870678748121 -0.47481427013272492 0 0.10479472320527 -0.47244738986742602 0 0.09506323621333454 -0.46277261346061632 0 0.10479472320527 -0.47244738986742602 0 0.1075632658294263 -0.46864028970971422 0 0.1064255062456735 -0.47406866946190801 0 0.10479472320527 -0.47244738986742602 0 0.094776523998680279 -0.48622369493371298 0 0.1064255062456735 -0.47406866946190801 0 0.10479472320527 -0.47244738986742602 0 0.094776523998680279 -0.48622369493371298 0 0.10479472320527 -0.47244738986742602 0 0.10479472320527 -0.47244738986742602 0 0.09506323621333454 -0.46277261346061632 0 0.1060131744550812 -0.45411466011360518 0 0.1075632658294263 -0.46864028970971422 0 0.11260152047704799 -0.44460220652757759 0 0.09506323621333454 -0.46277261346061632 0 0.10011436795704159 -0.45274002486564408 0 0.091519926973447546 -0.44626784630584138 0 0.09506323621333454 -0.46277261346061632 0 0.10386028492466159 -0.46021350167150438 0 0.09506323621333454 -0.46277261346061632 0 0.10386028492466159 -0.46021350167150438 0 0.10011436795704159 -0.45274002486564408 0 0.10386028492466159 -0.46021350167150438 0 0.1060131744550812 -0.45411466011360518 0 0.10011436795704159 -0.45274002486564408 0 0.10386028492466159 -0.46021350167150438 0 0.1060131744550812 -0.45411466011360518 0 0.1075632658294263 -0.46864028970971422 0 0.10479472320527 -0.47244738986742602 0 0.09506323621333454 -0.46277261346061632 0 0.1075632658294263 -0.46864028970971422 0 0.09506323621333454 -0.46277261346061632 0 0.10386028492466159 -0.46021350167150438 0 0.1075632658294263 -0.46864028970971422 0 0.1075632658294263 -0.46864028970971422 0 0.1123560704600764 -0.46204957042440498 0 0.11260152047704799 -0.44460220652757759 0 0.1075632658294263 -0.46864028970971422 0 0.1123560704600764 -0.46204957042440498 0 0.1075632658294263 -0.46864028970971422 0 0.11129693947086181 -0.46795476393154728 0 0.1123560704600764 -0.46204957042440498 0 0.1075632658294263 -0.46864028970971422 0 0.11260152047704799 -0.44460220652757759 0 0.11129693947086181 -0.46795476393154728 0 0.1123560704600764 -0.46204957042440498 0 0.11129693947086181 -0.46795476393154728 0 0.1149697984784732 -0.46556593525158491 0 0.1123560704600764 -0.46204957042440498 0 0.11625567037499381 -0.47238364776222469 0 0.1149697984784732 -0.46556593525158491 0 0.1192823524431306 -0.4663394170250621 0 0.11625567037499381 -0.47238364776222469 0 0.11129693947086181 -0.46795476393154728 0 0.1149697984784732 -0.46556593525158491 0 0.1149697984784732 -0.46556593525158491 0 0.1123560704600764 -0.46204957042440498 0 0.118705430672609 -0.46205297743075813 0 0.1123560704600764 -0.46204957042440498 0 0.11635977570981471 -0.45654396370023359 0 0.118705430672609 -0.46205297743075813 0 0.1123560704600764 -0.46204957042440498 0 0.11635977570981471 -0.45654396370023359 0 0.12531186358948529 -0.45757018679138572 0 0.11635977570981471 -0.45654396370023359 0 0.118705430672609 -0.46205297743075813 0 0.12543676829432579 -0.44683393452868708 0 0.12531186358948529 -0.45757018679138572 0 0.11635977570981471 -0.45654396370023359 0 0.12531186358948529 -0.45757018679138572 0 0.1232316263288145 -0.46410889533344052 0 0.118705430672609 -0.46205297743075813 0 0.1232316263288145 -0.46410889533344052 0 0.12311265484265969 -0.46777846846391841 0 0.1192823524431306 -0.4663394170250621 0 0.12842365125323091 -0.46593607888014599 0 0.1232316263288145 -0.46410889533344052 0 0.12311265484265969 -0.46777846846391841 0 0.12074084002908721 -0.47045370359981148 0 0.12311265484265969 -0.46777846846391841 0 0.1192823524431306 -0.4663394170250621 0 0.1149697984784732 -0.46556593525158491 0 0.1192823524431306 -0.4663394170250621 0 0.118705430672609 -0.46205297743075813 0 0.1232316263288145 -0.46410889533344052 0 0.1192823524431306 -0.4663394170250621 0 0.118705430672609 -0.46205297743075813 0 0.1123560704600764 -0.46204957042440498 0 0.11714561148417681 -0.43534544520691831 0 0.1123560704600764 -0.46204957042440498 0 0.11260152047704799 -0.44460220652757759 0 0.11714561148417681 -0.43534544520691831 0 0.1123560704600764 -0.46204957042440498 0 0.11635977570981471 -0.45654396370023359 0 0.11714561148417681 -0.43534544520691831 0 0.12543676829432579 -0.44683393452868708 0 0.11635977570981471 -0.45654396370023359 0 0.11714561148417681 -0.43534544520691831 0 0.13018508541287829 -0.43658956786597553 0 0.12543676829432579 -0.44683393452868708 0 0.11714561148417681 -0.43534544520691831 0 0.10592643308722841 -0.44437727779358549 0 0.083881602994700072 -0.43088647549478237 0 0.10592643308722841 -0.44437727779358549 0 0.091519926973447546 -0.44626784630584138 0 0.083881602994700072 -0.43088647549478237 0 0.11260152047704799 -0.44460220652757759 0 0.10592643308722841 -0.44437727779358549 0 0.1086116799951807 -0.43095684568344572 0 0.1060131744550812 -0.45411466011360518 0 0.10592643308722841 -0.44437727779358549 0 0.10011436795704159 -0.45274002486564408 0 0.1060131744550812 -0.45411466011360518 0 0.11260152047704799 -0.44460220652757759 0 0.10592643308722841 -0.44437727779358549 0 0.10592643308722841 -0.44437727779358549 0 0.10011436795704159 -0.45274002486564408 0 0.091519926973447546 -0.44626784630584138 0 0.09506323621333454 -0.46277261346061632 0 0.073976492589610171 -0.44180875358221461 0 0.09506323621333454 -0.46277261346061632 0 0.091519926973447546 -0.44626784630584138 0 0.073976492589610171 -0.44180875358221461 0 0.091519926973447546 -0.44626784630584138 0 0.073976492589610171 -0.44180875358221461 0 0.083881602994700072 -0.43088647549478237 0 0.069113753880103546 -0.47032146630200872 0 0.09506323621333454 -0.46277261346061632 0 0.09506323621333454 -0.46277261346061632 0 0.075948319170580939 -0.45709497223106438 0 0.073976492589610171 -0.44180875358221461 0 0.069113753880103546 -0.47032146630200872 0 0.09506323621333454 -0.46277261346061632 0 0.075948319170580939 -0.45709497223106438 0 0.069113753880103546 -0.47032146630200872 0 0.075948319170580939 -0.45709497223106438 0 0.064267892493667544 -0.45245405090636609 0 0.064267892493667544 -0.45245405090636609 0 0.073976492589610171 -0.44180875358221461 0 0.061221704008603092 -0.43412854505433712 0 0.075948319170580939 -0.45709497223106438 0 0.064267892493667544 -0.45245405090636609 0 0.073976492589610171 -0.44180875358221461 0 0.083881602994700072 -0.43088647549478237 0 0.061836772902171017 -0.41739567319598042 0 0.061221704008603092 -0.43412854505433712 0 0.073976492589610171 -0.44180875358221461 0 0.083881602994700072 -0.43088647549478237 0 0.061221704008603092 -0.43412854505433712 0 0.083881602994700072 -0.43088647549478237 0 0.061836772902171017 -0.41739567319598042 0 0.087852613914545186 -0.40334306140395609 0 0.070156507476487037 -0.39917662383738439 0 0.061836772902171017 -0.41739567319598042 0 0.087852613914545186 -0.40334306140395609 0 0.061836772902171017 -0.41739567319598042 0 0.090204007114443943 -0.4177400312392191 0 0.087852613914545186 -0.40334306140395609 0 0.061836772902171017 -0.41739567319598042 0 0.090204007114443943 -0.4177400312392191 0 0.083881602994700072 -0.43088647549478237 0 0.061836772902171017 -0.41739567319598042 0 0.090204007114443943 -0.4177400312392191 0 0.083881602994700072 -0.43088647549478237 0 0.10022705322515101 -0.42809075962971732 0 0.10592643308722841 -0.44437727779358549 0 0.083881602994700072 -0.43088647549478237 0 0.10022705322515101 -0.42809075962971732 0 0.10592643308722841 -0.44437727779358549 0 0.10022705322515101 -0.42809075962971732 0 0.1086116799951807 -0.43095684568344572 0 0.10022705322515101 -0.42809075962971732 0 0.1086116799951807 -0.43095684568344572 0 0.10561771621597441 -0.41891116251106192 0 0.11260152047704799 -0.44460220652757759 0 0.11714561148417681 -0.43534544520691831 0 0.11763977512467 -0.42056412334544119 0 0.11714561148417681 -0.43534544520691831 0 0.1219351525082772 -0.40864131998943182 0 0.11260152047704799 -0.44460220652757759 0 0.11763977512467 -0.42056412334544119 0 0.11260152047704799 -0.44460220652757759 0 0.1086116799951807 -0.43095684568344572 0 0.11763977512467 -0.42056412334544119 0 0.1272554141007321 -0.42571201066291808 0 0.11714561148417681 -0.43534544520691831 0 0.1219351525082772 -0.40864131998943182 0 0.1086116799951807 -0.43095684568344572 0 0.11763977512467 -0.42056412334544119 0 0.10561771621597441 -0.41891116251106192 0 0.13018508541287829 -0.43658956786597553 0 0.1272554141007321 -0.42571201066291808 0 0.11714561148417681 -0.43534544520691831 0 0.1219351525082772 -0.40864131998943182 0 0.11763977512467 -0.42056412334544119 0 0.1226780297722921 -0.39652604016330478 0 0.11763977512467 -0.42056412334544119 0 0.1063857367604352 -0.40565829933023112 0 0.1226780297722921 -0.39652604016330478 0 0.11714561148417681 -0.43534544520691831 0 0.1219351525082772 -0.40864131998943182 0 0.11763977512467 -0.42056412334544119 0 0.11763977512467 -0.42056412334544119 0 0.1226780297722921 -0.39652604016330478 0 0.11763977512467 -0.42056412334544119 0 0.10561771621597441 -0.41891116251106192 0 0.1063857367604352 -0.40565829933023112 0 0.090204007114443943 -0.4177400312392191 0 0.1063857367604352 -0.40565829933023112 0 0.087852613914545186 -0.40334306140395609 0 0.090204007114443943 -0.4177400312392191 0 0.10561771621597441 -0.41891116251106192 0 0.1063857367604352 -0.40565829933023112 0 0.090204007114443943 -0.4177400312392191 0 0.10022705322515101 -0.42809075962971732 0 0.10561771621597441 -0.41891116251106192 0 0.1063857367604352 -0.40565829933023112 0 0.11269819459067421 -0.38831450138448881 0 0.097085641119374302 -0.38571424072610178 0 0.1063857367604352 -0.40565829933023112 0 0.097085641119374302 -0.38571424072610178 0 0.087852613914545186 -0.40334306140395609 0 0.12672469353237761 -0.38193719477194499 0 0.1219351525082772 -0.40864131998943182 0 0.1063857367604352 -0.40565829933023112 0 0.1226780297722921 -0.39652604016330478 0 0.11269819459067421 -0.38831450138448881 0 0.12672469353237761 -0.38193719477194499 0 0.1219351525082772 -0.40864131998943182 0 0.1226780297722921 -0.39652604016330478 0 0.12672469353237761 -0.38193719477194499 0 0.11269819459067421 -0.38831450138448881 0 0.1080928822255358 -0.3703790814713866 0 0.12672469353237761 -0.38193719477194499 0 0.1226780297722921 -0.39652604016330478 0 0.11269819459067421 -0.38831450138448881 0 0.11269819459067421 -0.38831450138448881 0 0.097085641119374302 -0.38571424072610178 0 0.1080928822255358 -0.3703790814713866 0 0.097085641119374302 -0.38571424072610178 0 0.078524092076429908 -0.38558307009035819 0 0.085574671404253372 -0.36606529366265911 0 0.097085641119374302 -0.38571424072610178 0 0.078524092076429908 -0.38558307009035819 0 0.087852613914545186 -0.40334306140395609 0 0.078524092076429908 -0.38558307009035819 0 0.087852613914545186 -0.40334306140395609 0 0.070156507476487037 -0.39917662383738439 0 0.078524092076429908 -0.38558307009035819 0 0.070156507476487037 -0.39917662383738439 0 0.064141871653705745 -0.38905297891460661 0 0.070156507476487037 -0.39917662383738439 0 0.058427186835583247 -0.40050833558202109 0 0.061836772902171017 -0.41739567319598042 0 0.070156507476487037 -0.39917662383738439 0 0.064141871653705745 -0.38905297891460661 0 0.058427186835583247 -0.40050833558202109 0 0.078524092076429908 -0.38558307009035819 0 0.064141871653705745 -0.38905297891460661 0 0.064781398010314309 -0.37536455347105108 0 0.078524092076429908 -0.38558307009035819 0 0.064781398010314309 -0.37536455347105108 0 0.085574671404253372 -0.36606529366265911 0 0.064781398010314309 -0.37536455347105108 0 0.05115882120843647 -0.38571757356542352 0 0.043890455581289831 -0.3709268115488259 0 0.05115882120843647 -0.38571757356542352 0 0.043890455581289831 -0.3709268115488259 0 0.064141871653705745 -0.38905297891460661 0 0.064781398010314309 -0.37536455347105108 0 0.05115882120843647 -0.38571757356542352 0 0.064141871653705745 -0.38905297891460661 0 0.05115882120843647 -0.38571757356542352 0 0.058427186835583247 -0.40050833558202109 0 0.05115882120843647 -0.38571757356542352 0 0.058427186835583247 -0.40050833558202109 0 0.05115882120843647 -0.38571757356542352 0 0.058427186835583247 -0.40050833558202109 0 0.039291666751458072 -0.38953557003537942 0 0.058427186835583247 -0.40050833558202109 0 0.03861507037192409 -0.403184658796582 0 0.039291666751458072 -0.38953557003537942 0 0.039291666751458072 -0.38953557003537942 0 0.030780854092194759 -0.38031894893150719 0 0.043890455581289831 -0.3709268115488259 0 0.05115882120843647 -0.38571757356542352 0 0.039291666751458072 -0.38953557003537942 0 0.043890455581289831 -0.3709268115488259 0 0.030780854092194759 -0.38031894893150719 0 0.043890455581289831 -0.3709268115488259 0 0.030780854092194759 -0.38031894893150719 0 0.0132535835722172 -0.37610527220974688 0 0.01539336784167648 -0.38897364439718468 0 0.039291666751458072 -0.38953557003537942 0 0.030780854092194759 -0.38031894893150719 0 0.01539336784167648 -0.38897364439718468 0 0.030780854092194759 -0.38031894893150719 0 0.0132535835722172 -0.37610527220974688 0 0.022072978528308879 -0.36937310690127451 0 -0.0078283346885702904 -0.37476262999778609 0 -0.0023576536845698339 -0.39611583857600319 0 0.01539336784167648 -0.38897364439718468 0 -0.0078283346885702904 -0.37476262999778609 0 0.01539336784167648 -0.38897364439718468 0 -0.0078283346885702904 -0.37476262999778609 0 0.0132535835722172 -0.37610527220974688 0 0.01539336784167648 -0.38897364439718468 0 -0.0023576536845698339 -0.39611583857600319 0 -0.0081630895937607941 -0.41129335178386173 0 0.01158543002224671 -0.40754374071996963 0 -0.0023576536845698339 -0.39611583857600319 0 0.01539336784167648 -0.38897364439718468 0 0.01158543002224671 -0.40754374071996963 0 0.03861507037192409 -0.403184658796582 0 0.039291666751458072 -0.38953557003537942 0 0.01539336784167648 -0.38897364439718468 0 0.03861507037192409 -0.403184658796582 0 0.01539336784167648 -0.38897364439718468 0 0.026736383496206509 -0.41290648431754168 0 0.01539336784167648 -0.38897364439718468 0 0.026736383496206509 -0.41290648431754168 0 0.01158543002224671 -0.40754374071996963 0 0.03861507037192409 -0.403184658796582 0 0.01539336784167648 -0.38897364439718468 0 0.026736383496206509 -0.41290648431754168 0 0.01158543002224671 -0.40754374071996963 0 0.01747615232015888 -0.42514842909431222 0 0.026736383496206509 -0.41290648431754168 0 0.01747615232015888 -0.42514842909431222 0 0.02768083642208749 -0.42593076319487821 0 0.01158543002224671 -0.40754374071996963 0 0.0026957591361241309 -0.41958824334712869 0 0.01747615232015888 -0.42514842909431222 0 -0.0081630895937607941 -0.41129335178386173 0 0.01158543002224671 -0.40754374071996963 0 0.0026957591361241309 -0.41958824334712869 0 0.0026957591361241309 -0.41958824334712869 0 0.003851027954898749 -0.43172418954792041 0 0.01747615232015888 -0.42514842909431222 0 0.003851027954898749 -0.43172418954792041 0 0.01410030331848921 -0.43483725365991388 0 0.01747615232015888 -0.42514842909431222 0 0.003851027954898749 -0.43172418954792041 0 0.01410030331848921 -0.43483725365991388 0 0.011432193992105429 -0.44462200732167467 0 0.01747615232015888 -0.42514842909431222 0 0.023728282280598981 -0.43798020184644493 0 0.01410030331848921 -0.43483725365991388 0 0.01747615232015888 -0.42514842909431222 0 0.023728282280598981 -0.43798020184644493 0 0.01747615232015888 -0.42514842909431222 0 0.02768083642208749 -0.42593076319487821 0 0.023728282280598981 -0.43798020184644493 0 0.026736383496206509 -0.41290648431754168 0 0.02768083642208749 -0.42593076319487821 0 0.042782527591385587 -0.42768793752121392 0 0.042782527591385587 -0.42768793752121392 0 0.023728282280598981 -0.43798020184644493 0 0.02768083642208749 -0.42593076319487821 0 0.042782527591385587 -0.42768793752121392 0 0.023728282280598981 -0.43798020184644493 0 0.042782527591385587 -0.42768793752121392 0 0.038339333849137569 -0.44224603439757942 0 0.023728282280598981 -0.43798020184644493 0 0.03861507037192409 -0.403184658796582 0 0.026736383496206509 -0.41290648431754168 0 0.042782527591385587 -0.42768793752121392 0 0.03861507037192409 -0.403184658796582 0 0.042782527591385587 -0.42768793752121392 0 0.061836772902171017 -0.41739567319598042 0 0.03861507037192409 -0.403184658796582 0 0.061836772902171017 -0.41739567319598042 0 0.058427186835583247 -0.40050833558202109 0 0.03861507037192409 -0.403184658796582 0 0.061836772902171017 -0.41739567319598042 0 0.042782527591385587 -0.42768793752121392 0 0.061836772902171017 -0.41739567319598042 0 0.061221704008603092 -0.43412854505433712 0 0.042782527591385587 -0.42768793752121392 0 0.061836772902171017 -0.41739567319598042 0 0.042782527591385587 -0.42768793752121392 0 0.061221704008603092 -0.43412854505433712 0 0.052693917870023622 -0.44730825455084611 0 0.064267892493667544 -0.45245405090636609 0 0.061221704008603092 -0.43412854505433712 0 0.052693917870023622 -0.44730825455084611 0 0.069113753880103546 -0.47032146630200872 0 0.064267892493667544 -0.45245405090636609 0 0.052594011880735161 -0.46258963849414558 0 0.064267892493667544 -0.45245405090636609 0 0.052693917870023622 -0.44730825455084611 0 0.052594011880735161 -0.46258963849414558 0 0.033446276913734967 -0.45792526049492271 0 0.024747075647264399 -0.46972246297684461 0 0.043164271546872197 -0.4778703191434 0 0.052693917870023622 -0.44730825455084611 0 0.052594011880735161 -0.46258963849414558 0 0.033446276913734967 -0.45792526049492271 0 0.052594011880735161 -0.46258963849414558 0 0.033446276913734967 -0.45792526049492271 0 0.043164271546872197 -0.4778703191434 0 0.033446276913734967 -0.45792526049492271 0 0.043164271546872197 -0.4778703191434 0 0.042782527591385587 -0.42768793752121392 0 0.052693917870023622 -0.44730825455084611 0 0.038339333849137569 -0.44224603439757942 0 0.033446276913734967 -0.45792526049492271 0 0.038339333849137569 -0.44224603439757942 0 0.023728282280598981 -0.43798020184644493 0 0.052693917870023622 -0.44730825455084611 0 0.033446276913734967 -0.45792526049492271 0 0.038339333849137569 -0.44224603439757942 0 0.023728282280598981 -0.43798020184644493 0 0.011432193992105429 -0.44462200732167467 0 0.01779212199045099 -0.45571080357091009 0 0.033446276913734967 -0.45792526049492271 0 0.023728282280598981 -0.43798020184644493 0 0.033446276913734967 -0.45792526049492271 0 0.023728282280598981 -0.43798020184644493 0 0.01779212199045099 -0.45571080357091009 0 0.023728282280598981 -0.43798020184644493 0 0.011432193992105429 -0.44462200732167467 0 0.01410030331848921 -0.43483725365991388 0 0.023728282280598981 -0.43798020184644493 0 0.011432193992105429 -0.44462200732167467 0 -0.01027783979290609 -0.4450418277695869 0 0.011432193992105429 -0.44462200732167467 0 0.0031349746952128348 -0.45732154608844711 0 -0.01027783979290609 -0.4450418277695869 0 0.003851027954898749 -0.43172418954792041 0 0.011432193992105429 -0.44462200732167467 0 0.011432193992105429 -0.44462200732167467 0 0.0031349746952128348 -0.45732154608844711 0 0.01779212199045099 -0.45571080357091009 0 -0.00094907817261298132 -0.47112804672216879 0 0.0031349746952128348 -0.45732154608844711 0 0.01026392841378935 -0.46669334269712659 0 0.0031349746952128348 -0.45732154608844711 0 0.01026392841378935 -0.46669334269712659 0 0.01779212199045099 -0.45571080357091009 0 0.01026392841378935 -0.46669334269712659 0 0.01779212199045099 -0.45571080357091009 0 0.024747075647264399 -0.46972246297684461 0 0.033446276913734967 -0.45792526049492271 0 0.01779212199045099 -0.45571080357091009 0 0.024747075647264399 -0.46972246297684461 0 0.024747075647264399 -0.46972246297684461 0 0.019392481307258409 -0.48478566889839131 0 0.043164271546872197 -0.4778703191434 0 0.01026392841378935 -0.46669334269712659 0 0.024747075647264399 -0.46972246297684461 0 0.019392481307258409 -0.48478566889839131 0 0.01026392841378935 -0.46669334269712659 0 0.0053352152350804568 -0.4807791696356124 0 0.019392481307258409 -0.48478566889839131 0 -0.0043176495648967151 -0.48070428616945038 0 -0.00094907817261298132 -0.47112804672216879 0 0.0053352152350804568 -0.4807791696356124 0 -0.00094907817261298132 -0.47112804672216879 0 0.01026392841378935 -0.46669334269712659 0 0.0053352152350804568 -0.4807791696356124 0 -0.0023310323066341181 -0.5 0 -0.0043793089323552817 -0.49170101865338262 0 0.019392481307258409 -0.48478566889839131 0 -0.0043793089323552817 -0.49170101865338262 0 0.019392481307258409 -0.48478566889839131 0 -0.0043793089323552817 -0.49170101865338262 0 0.0053352152350804568 -0.4807791696356124 0 0.019392481307258409 -0.48478566889839131 0 -0.0023310323066341181 -0.5 0 0.019392481307258409 -0.48478566889839131 0 0.026698753392940699 -0.5 0 0.019392481307258409 -0.48478566889839131 0 0.026698753392940699 -0.5 0 0.035353585390671842 -0.48974665193930511 0 0.035353585390671842 -0.48974665193930511 0 0.043164271546872197 -0.4778703191434 0 0.052158835315616027 -0.49633061971542908 0 0.026698753392940699 -0.5 0 0.055728539092515517 -0.5 0 0.052158835315616027 -0.49633061971542908 0 0.026698753392940699 -0.5 0 0.035353585390671842 -0.48974665193930511 0 0.052158835315616027 -0.49633061971542908 0 0.019392481307258409 -0.48478566889839131 0 0.035353585390671842 -0.48974665193930511 0 0.043164271546872197 -0.4778703191434 0 0.019392481307258409 -0.48478566889839131 0 0.043164271546872197 -0.4778703191434 0 0.069113753880103546 -0.47032146630200872 0 0.052594011880735161 -0.46258963849414558 0 0.043164271546872197 -0.4778703191434 0 0.069113753880103546 -0.47032146630200872 0 0.043164271546872197 -0.4778703191434 0 0.057596711449277201 -0.48334309492942701 0 0.069113753880103546 -0.47032146630200872 0 0.043164271546872197 -0.4778703191434 0 0.043164271546872197 -0.4778703191434 0 0.057596711449277201 -0.48334309492942701 0 0.052158835315616027 -0.49633061971542908 0 0.065949985054517032 -0.48884997455687013 0 0.057596711449277201 -0.48334309492942701 0 0.052158835315616027 -0.49633061971542908 0 0.043164271546872197 -0.4778703191434 0 0.052158835315616027 -0.49633061971542908 0 0.065949985054517032 -0.48884997455687013 0 0.055728539092515517 -0.5 0 0.052158835315616027 -0.49633061971542908 0 0.091646396761647708 -0.28947790237370968 0 0.07071546022358817 -0.28620470259943642 0 0.079999995207784586 -0.26983589460815821 0 0.091646396761647708 -0.28947790237370968 0 0.072783535289555654 -0.30157633939854622 0 0.07071546022358817 -0.28620470259943642 0 0.091646396761647708 -0.28947790237370968 0 0.087363613427391865 -0.30807629250996549 0 0.072783535289555654 -0.30157633939854622 0 0.072783535289555654 -0.30157633939854622 0 0.073259594084162577 -0.32259772896999273 0 0.056038135353808333 -0.31320409925325249 0 0.087363613427391865 -0.30807629250996549 0 0.072783535289555654 -0.30157633939854622 0 0.073259594084162577 -0.32259772896999273 0 0.072783535289555654 -0.30157633939854622 0 0.07071546022358817 -0.28620470259943642 0 0.04944647540011983 -0.29680206833493911 0 0.07071546022358817 -0.28620470259943642 0 0.079999995207784586 -0.26983589460815821 0 0.059700898458833078 -0.27333130828182889 0 0.06835359365392131 -0.25019388684260668 0 0.079999995207784586 -0.26983589460815821 0 0.08421140423371333 -0.243891226620808 0 0.06835359365392131 -0.25019388684260668 0 0.079999995207784586 -0.26983589460815821 0 0.06835359365392131 -0.25019388684260668 0 0.079999995207784586 -0.26983589460815821 0 0.059700898458833078 -0.27333130828182889 0 0.079999995207784586 -0.26983589460815821 0 0.097662046653794854 -0.25561444261418242 0 0.08421140423371333 -0.243891226620808 0 0.079999995207784586 -0.26983589460815821 0 0.1034904733698796 -0.27103876000237981 0 0.097662046653794854 -0.25561444261418242 0 0.091646396761647708 -0.28947790237370968 0 0.079999995207784586 -0.26983589460815821 0 0.091646396761647708 -0.28947790237370968 0 0.079999995207784586 -0.26983589460815821 0 0.1034904733698796 -0.27103876000237981 0 0.1034904733698796 -0.27103876000237981 0 0.097662046653794854 -0.25561444261418242 0 0.1147239364606354 -0.25215539330366038 0 0.13687529418603939 -0.26162068250561471 0 0.1147239364606354 -0.25215539330366038 0 0.1223190960555403 -0.2394332616338683 0 0.1034904733698796 -0.27103876000237981 0 0.1147239364606354 -0.25215539330366038 0 0.12122917553908071 -0.27280048239714111 0 0.13687529418603939 -0.26162068250561471 0 0.1147239364606354 -0.25215539330366038 0 0.12122917553908071 -0.27280048239714111 0 0.1034904733698796 -0.27103876000237981 0 0.12122917553908071 -0.27280048239714111 0 0.11361649143026541 -0.29050419490534962 0 0.13743968224858391 -0.28868338126870119 0 0.12122917553908071 -0.27280048239714111 0 0.11361649143026541 -0.29050419490534962 0 0.091646396761647708 -0.28947790237370968 0 0.11361649143026541 -0.29050419490534962 0 0.10329279831551071 -0.3091199101392611 0 0.091646396761647708 -0.28947790237370968 0 0.1034904733698796 -0.27103876000237981 0 0.11361649143026541 -0.29050419490534962 0 0.091646396761647708 -0.28947790237370968 0 0.10329279831551071 -0.3091199101392611 0 0.091646396761647708 -0.28947790237370968 0 0.087363613427391865 -0.30807629250996549 0 0.10329279831551071 -0.3091199101392611 0 0.11361649143026541 -0.29050419490534962 0 0.10329279831551071 -0.3091199101392611 0 0.1207194796176513 -0.31206082339016011 0 0.13743968224858391 -0.28868338126870119 0 0.11361649143026541 -0.29050419490534962 0 0.1207194796176513 -0.31206082339016011 0 0.10329279831551071 -0.3091199101392611 0 0.11030782598785099 -0.32334328523235578 0 0.1149391998693738 -0.32876191790481257 0 0.10329279831551071 -0.3091199101392611 0 0.1207194796176513 -0.31206082339016011 0 0.1149391998693738 -0.32876191790481257 0 0.127277047630593 -0.32368123984794023 0 0.1207194796176513 -0.31206082339016011 0 0.1149391998693738 -0.32876191790481257 0 0.1252730154641265 -0.33501756179834041 0 0.127277047630593 -0.32368123984794023 0 0.1149391998693738 -0.32876191790481257 0 0.11030782598785099 -0.32334328523235578 0 0.1149391998693738 -0.32876191790481257 0 0.1071562875265276 -0.34088406714172798 0 0.1252730154641265 -0.33501756179834041 0 0.1149391998693738 -0.32876191790481257 0 0.1203073559828662 -0.34481831064573482 0 0.1149391998693738 -0.32876191790481257 0 0.1071562875265276 -0.34088406714172798 0 0.1203073559828662 -0.34481831064573482 0 0.11030782598785099 -0.32334328523235578 0 0.1071562875265276 -0.34088406714172798 0 0.088168702518997374 -0.33920446067117932 0 0.11030782598785099 -0.32334328523235578 0 0.088168702518997374 -0.33920446067117932 0 0.11030782598785099 -0.32334328523235578 0 0.092685396428672781 -0.32103820683708328 0 0.088168702518997374 -0.33920446067117932 0 0.10329279831551071 -0.3091199101392611 0 0.11030782598785099 -0.32334328523235578 0 0.092685396428672781 -0.32103820683708328 0 0.087363613427391865 -0.30807629250996549 0 0.10329279831551071 -0.3091199101392611 0 0.092685396428672781 -0.32103820683708328 0 0.10329279831551071 -0.3091199101392611 0 0.1149391998693738 -0.32876191790481257 0 0.1245186505824013 -0.36113750934922573 0 0.111761677400382 -0.35565256239397869 0 0.1080928822255358 -0.3703790814713866 0 0.12672469353237761 -0.38193719477194499 0 0.1245186505824013 -0.36113750934922573 0 0.1080928822255358 -0.3703790814713866 0 0.1245186505824013 -0.36113750934922573 0 0.111761677400382 -0.35565256239397869 0 0.1203073559828662 -0.34481831064573482 0 0.1071562875265276 -0.34088406714172798 0 0.111761677400382 -0.35565256239397869 0 0.1203073559828662 -0.34481831064573482 0 0.1071562875265276 -0.34088406714172798 0 0.09828664694928807 -0.35383226801130691 0 0.088168702518997374 -0.33920446067117932 0 0.1071562875265276 -0.34088406714172798 0 0.111761677400382 -0.35565256239397869 0 0.09828664694928807 -0.35383226801130691 0 0.097085641119374302 -0.38571424072610178 0 0.1080928822255358 -0.3703790814713866 0 0.085574671404253372 -0.36606529366265911 0 0.111761677400382 -0.35565256239397869 0 0.09828664694928807 -0.35383226801130691 0 0.1080928822255358 -0.3703790814713866 0 0.09828664694928807 -0.35383226801130691 0 0.1080928822255358 -0.3703790814713866 0 0.085574671404253372 -0.36606529366265911 0 0.085574671404253372 -0.36606529366265911 0 0.066029579050143783 -0.35506563611000291 0 0.088168702518997374 -0.33920446067117932 0 0.09828664694928807 -0.35383226801130691 0 0.085574671404253372 -0.36606529366265911 0 0.088168702518997374 -0.33920446067117932 0 0.066029579050143783 -0.35506563611000291 0 0.088168702518997374 -0.33920446067117932 0 0.064781398010314309 -0.37536455347105108 0 0.085574671404253372 -0.36606529366265911 0 0.066029579050143783 -0.35506563611000291 0 0.066029579050143783 -0.35506563611000291 0 0.088168702518997374 -0.33920446067117932 0 0.073259594084162577 -0.32259772896999273 0 0.066029579050143783 -0.35506563611000291 0 0.073259594084162577 -0.32259772896999273 0 0.048222299164917798 -0.333319266554439 0 0.092685396428672781 -0.32103820683708328 0 0.088168702518997374 -0.33920446067117932 0 0.073259594084162577 -0.32259772896999273 0 0.087363613427391865 -0.30807629250996549 0 0.092685396428672781 -0.32103820683708328 0 0.073259594084162577 -0.32259772896999273 0 0.073259594084162577 -0.32259772896999273 0 0.056038135353808333 -0.31320409925325249 0 0.048222299164917798 -0.333319266554439 0 0.056038135353808333 -0.31320409925325249 0 0.048222299164917798 -0.333319266554439 0 0.036478772830285791 -0.31172509300834528 0 0.048222299164917798 -0.333319266554439 0 0.033610930591278822 -0.35000849021355163 0 0.023331405601267931 -0.32909016887827719 0 0.048222299164917798 -0.333319266554439 0 0.023331405601267931 -0.32909016887827719 0 0.036478772830285791 -0.31172509300834528 0 0.066029579050143783 -0.35506563611000291 0 0.048355778033110031 -0.35315995845717169 0 0.043890455581289831 -0.3709268115488259 0 0.066029579050143783 -0.35506563611000291 0 0.043890455581289831 -0.3709268115488259 0 0.064781398010314309 -0.37536455347105108 0 0.066029579050143783 -0.35506563611000291 0 0.043890455581289831 -0.3709268115488259 0 0.066029579050143783 -0.35506563611000291 0 0.048222299164917798 -0.333319266554439 0 0.048355778033110031 -0.35315995845717169 0 0.048222299164917798 -0.333319266554439 0 0.048355778033110031 -0.35315995845717169 0 0.033610930591278822 -0.35000849021355163 0 0.048355778033110031 -0.35315995845717169 0 0.033610930591278822 -0.35000849021355163 0 0.043890455581289831 -0.3709268115488259 0 0.033610930591278822 -0.35000849021355163 0 0.03286340713970079 -0.36889202113574671 0 0.043890455581289831 -0.3709268115488259 0 0.033610930591278822 -0.35000849021355163 0 0.043890455581289831 -0.3709268115488259 0 0.030780854092194759 -0.38031894893150719 0 0.03286340713970079 -0.36889202113574671 0 0.043890455581289831 -0.3709268115488259 0 0.033610930591278822 -0.35000849021355163 0 0.03286340713970079 -0.36889202113574671 0 0.022072978528308879 -0.36937310690127451 0 0.030780854092194759 -0.38031894893150719 0 0.03286340713970079 -0.36889202113574671 0 0.022072978528308879 -0.36937310690127451 0 0.033610930591278822 -0.35000849021355163 0 0.022072978528308879 -0.36937310690127451 0 0.014393680356963701 -0.35536411395587292 0 0.033610930591278822 -0.35000849021355163 0 0.014393680356963701 -0.35536411395587292 0 0.0105762414372169 -0.3395135522035268 0 -0.00014080085946228561 -0.35082738964002957 0 0.014393680356963701 -0.35536411395587292 0 0.0105762414372169 -0.3395135522035268 0 -0.00014080085946228561 -0.35082738964002957 0 0.014393680356963701 -0.35536411395587292 0 0.0058490520874761691 -0.36709803082098191 0 0.022072978528308879 -0.36937310690127451 0 0.014393680356963701 -0.35536411395587292 0 0.0058490520874761691 -0.36709803082098191 0 0.022072978528308879 -0.36937310690127451 0 0.0058490520874761691 -0.36709803082098191 0 0.0132535835722172 -0.37610527220974688 0 0.022072978528308879 -0.36937310690127451 0 0.0058490520874761691 -0.36709803082098191 0 -0.0078283346885702904 -0.37476262999778609 0 0.0132535835722172 -0.37610527220974688 0 0.0058490520874761691 -0.36709803082098191 0 0.023331405601267931 -0.32909016887827719 0 0.013051880611257029 -0.30817184754300292 0 0.023331405601267931 -0.32909016887827719 0 0.013051880611257029 -0.30817184754300292 0 0.036478772830285791 -0.31172509300834528 0 0.033610930591278822 -0.35000849021355163 0 0.023331405601267931 -0.32909016887827719 0 0.0105762414372169 -0.3395135522035268 0 0.033610930591278822 -0.35000849021355163 0 0.023331405601267931 -0.32909016887827719 0 0.023331405601267931 -0.32909016887827719 0 0.0105762414372169 -0.3395135522035268 0 3.5896068887442723e-05 -0.32803491845883598 0 -0.00014080085946228561 -0.35082738964002957 0 0.0105762414372169 -0.3395135522035268 0 3.5896068887442723e-05 -0.32803491845883598 0 -0.0063780240591087903 -0.31078717533589839 0 3.5896068887442723e-05 -0.32803491845883598 0 0.013051880611257029 -0.30817184754300292 0 0.023331405601267931 -0.32909016887827719 0 3.5896068887442723e-05 -0.32803491845883598 0 0.013051880611257029 -0.30817184754300292 0 0.013051880611257029 -0.30817184754300292 0 0.0027723556212477219 -0.28725352620772771 0 0.0027723556212477219 -0.28725352620772771 0 0.026109415510684009 -0.29202779727133188 0 -0.0017476628817073611 -0.27805551369469472 0 0.0027723556212477219 -0.28725352620772771 0 0.01602201902671789 -0.28191194131808539 0 0.013051880611257029 -0.30817184754300292 0 0.0027723556212477219 -0.28725352620772771 0 0.026109415510684009 -0.29202779727133188 0 0.0027723556212477219 -0.28725352620772771 0 0.026109415510684009 -0.29202779727133188 0 0.01602201902671789 -0.28191194131808539 0 -0.0074917523477661804 -0.29461577546968681 0 0.013051880611257029 -0.30817184754300292 0 0.0027723556212477219 -0.28725352620772771 0 -0.0017476628817073611 -0.27805551369469472 0 0.0027723556212477219 -0.28725352620772771 0 0.026109415510684009 -0.29202779727133188 0 0.01602201902671789 -0.28191194131808539 0 0.036314123194761641 -0.27872041929058161 0 0.013051880611257029 -0.30817184754300292 0 0.026109415510684009 -0.29202779727133188 0 0.036478772830285791 -0.31172509300834528 0 0.026109415510684009 -0.29202779727133188 0 0.036478772830285791 -0.31172509300834528 0 0.04944647540011983 -0.29680206833493911 0 0.026109415510684009 -0.29202779727133188 0 0.04944647540011983 -0.29680206833493911 0 0.036314123194761641 -0.27872041929058161 0 0.026109415510684009 -0.29202779727133188 0 0.04944647540011983 -0.29680206833493911 0 0.04944647540011983 -0.29680206833493911 0 0.059700898458833078 -0.27333130828182889 0 0.036314123194761641 -0.27872041929058161 0 0.07071546022358817 -0.28620470259943642 0 0.04944647540011983 -0.29680206833493911 0 0.059700898458833078 -0.27333130828182889 0 0.072783535289555654 -0.30157633939854622 0 0.04944647540011983 -0.29680206833493911 0 0.056038135353808333 -0.31320409925325249 0 0.036478772830285791 -0.31172509300834528 0 0.04944647540011983 -0.29680206833493911 0 0.072783535289555654 -0.30157633939854622 0 0.056038135353808333 -0.31320409925325249 0 0.04944647540011983 -0.29680206833493911 0 0.06835359365392131 -0.25019388684260668 0 0.044986508142045613 -0.25948109579330381 0 0.047362788675733028 -0.24199119006041811 0 0.06835359365392131 -0.25019388684260668 0 0.059700898458833078 -0.27333130828182889 0 0.044986508142045613 -0.25948109579330381 0 0.06835359365392131 -0.25019388684260668 0 0.044986508142045613 -0.25948109579330381 0 0.059700898458833078 -0.27333130828182889 0 0.036314123194761641 -0.27872041929058161 0 0.044986508142045613 -0.25948109579330381 0 0.036314123194761641 -0.27872041929058161 0 0.044986508142045613 -0.25948109579330381 0 0.02161942263016943 -0.26876830474400021 0 0.044986508142045613 -0.25948109579330381 0 0.02161942263016943 -0.26876830474400021 0 0.044986508142045613 -0.25948109579330381 0 0.029973277209287209 -0.25054958921230208 0 0.02161942263016943 -0.26876830474400021 0 0.044986508142045613 -0.25948109579330381 0 0.029973277209287209 -0.25054958921230208 0 0.047362788675733028 -0.24199119006041811 0 0.029973277209287209 -0.25054958921230208 0 0.015960739131678031 -0.25406337006458851 0 0.02161942263016943 -0.26876830474400021 0 0.01602201902671789 -0.28191194131808539 0 0.036314123194761641 -0.27872041929058161 0 0.02161942263016943 -0.26876830474400021 0 -0.0017476628817073611 -0.27805551369469472 0 0.01602201902671789 -0.28191194131808539 0 0.02161942263016943 -0.26876830474400021 0 -0.0017476628817073611 -0.27805551369469472 0 0.02161942263016943 -0.26876830474400021 0 -0.0017476628817073611 -0.27805551369469472 0 0.02161942263016943 -0.26876830474400021 0 0.0057386521092319797 -0.26220041049146298 0 0.015960739131678031 -0.25406337006458851 0 0.02161942263016943 -0.26876830474400021 0 0.0057386521092319797 -0.26220041049146298 0 0.015960739131678031 -0.25406337006458851 0 0.0057386521092319797 -0.26220041049146298 0 0.0025328853753160741 -0.24958102673793139 0 0.0010854142569982001 -0.23807309260292489 0 0.010575476039053681 -0.22730954243123891 0 0.017210747296828609 -0.24036453645492739 0 0.0010854142569982001 -0.23807309260292489 0 0.0025328853753160741 -0.24958102673793139 0 0.017210747296828609 -0.24036453645492739 0 0.015960739131678031 -0.25406337006458851 0 0.0025328853753160741 -0.24958102673793139 0 0.017210747296828609 -0.24036453645492739 0 -0.0061584899570064598 -0.22962027277065361 0 0.0010854142569982001 -0.23807309260292489 0 0.010575476039053681 -0.22730954243123891 0 -0.0061584899570064598 -0.22962027277065361 0 0.010575476039053681 -0.22730954243123891 0 0.0064165675551885711 -0.21575046092143421 0 -0.0061584899570064598 -0.22962027277065361 0 0.0064165675551885711 -0.21575046092143421 0 0.010575476039053681 -0.22730954243123891 0 0.0064165675551885711 -0.21575046092143421 0 0.021509429760601551 -0.21557394742371069 0 0.010575476039053681 -0.22730954243123891 0 0.0064165675551885711 -0.21575046092143421 0 0.010575476039053681 -0.22730954243123891 0 0.02225812238200572 -0.22838936745028471 0 0.017210747296828609 -0.24036453645492739 0 0.010575476039053681 -0.22730954243123891 0 0.02225812238200572 -0.22838936745028471 0 0.021509429760601551 -0.21557394742371069 0 0.02225812238200572 -0.22838936745028471 0 0.029479073121619459 -0.22118232130399371 0 0.021509429760601551 -0.21557394742371069 0 0.02225812238200572 -0.22838936745028471 0 0.029479073121619459 -0.22118232130399371 0 0.031866256870133697 -0.23515517363185631 0 0.029973277209287209 -0.25054958921230208 0 0.017210747296828609 -0.24036453645492739 0 0.031866256870133697 -0.23515517363185631 0 0.02225812238200572 -0.22838936745028471 0 0.017210747296828609 -0.24036453645492739 0 0.031866256870133697 -0.23515517363185631 0 0.029973277209287209 -0.25054958921230208 0 0.015960739131678031 -0.25406337006458851 0 0.017210747296828609 -0.24036453645492739 0 -0.0015622250741301779 -0.1935745667631632 0 0.01896638504685547 -0.20190848785827681 0 0.0091962193441852118 -0.18107109871456811 0 -0.0015622250741301779 -0.1935745667631632 0 0.0064165675551885711 -0.21575046092143421 0 0.01896638504685547 -0.20190848785827681 0 -0.0015622250741301779 -0.1935745667631632 0 0.0064165675551885711 -0.21575046092143421 0 0.0064165675551885711 -0.21575046092143421 0 0.01896638504685547 -0.20190848785827681 0 0.0064165675551885711 -0.21575046092143421 0 0.021509429760601551 -0.21557394742371069 0 0.01896638504685547 -0.20190848785827681 0 0.029479073121619459 -0.22118232130399371 0 0.021509429760601551 -0.21557394742371069 0 0.033558692489570878 -0.21195100443687931 0 0.021509429760601551 -0.21557394742371069 0 0.029251690937081031 -0.20258635003767089 0 0.033558692489570878 -0.21195100443687931 0 0.021509429760601551 -0.21557394742371069 0 0.01896638504685547 -0.20190848785827681 0 0.029251690937081031 -0.20258635003767089 0 0.01896638504685547 -0.20190848785827681 0 0.031516202538524517 -0.1880665147951214 0 0.0091962193441852118 -0.18107109871456811 0 0.01896638504685547 -0.20190848785827681 0 0.029251690937081031 -0.20258635003767089 0 0.031516202538524517 -0.1880665147951214 0 0.01896638504685547 -0.20190848785827681 0 0.031516202538524517 -0.1880665147951214 0 0.043838458457815248 -0.18986676967386279 0 0.039506267971797952 -0.20154200132731501 0 0.055741541871671067 -0.19352675789948551 0 0.043838458457815248 -0.18986676967386279 0 0.031516202538524517 -0.1880665147951214 0 0.039506267971797952 -0.20154200132731501 0 0.031516202538524517 -0.1880665147951214 0 0.039506267971797952 -0.20154200132731501 0 0.029251690937081031 -0.20258635003767089 0 0.031516202538524517 -0.1880665147951214 0 0.039506267971797952 -0.20154200132731501 0 0.039506267971797952 -0.20154200132731501 0 0.033558692489570878 -0.21195100443687931 0 0.047496333405074677 -0.2150174878595065 0 0.039506267971797952 -0.20154200132731501 0 0.047496333405074677 -0.2150174878595065 0 0.029251690937081031 -0.20258635003767089 0 0.039506267971797952 -0.20154200132731501 0 0.033558692489570878 -0.21195100443687931 0 0.033558692489570878 -0.21195100443687931 0 0.047496333405074677 -0.2150174878595065 0 0.033558692489570878 -0.21195100443687931 0 0.047496333405074677 -0.2150174878595065 0 0.039554961726260877 -0.22474601638733641 0 0.039506267971797952 -0.20154200132731501 0 0.047496333405074677 -0.2150174878595065 0 0.05523956109653505 -0.20714630445374671 0 0.047496333405074677 -0.2150174878595065 0 0.05523956109653505 -0.20714630445374671 0 0.064206587222380762 -0.21869398638814641 0 0.047496333405074677 -0.2150174878595065 0 0.064206587222380762 -0.21869398638814641 0 0.039506267971797952 -0.20154200132731501 0 0.05523956109653505 -0.20714630445374671 0 0.055741541871671067 -0.19352675789948551 0 0.05523956109653505 -0.20714630445374671 0 0.055741541871671067 -0.19352675789948551 0 0.069247075011750078 -0.20695128879428309 0 0.055741541871671067 -0.19352675789948551 0 0.069247075011750078 -0.20695128879428309 0 0.029973277209287209 -0.25054958921230208 0 0.031866256870133697 -0.23515517363185631 0 0.047362788675733028 -0.24199119006041811 0 0.031866256870133697 -0.23515517363185631 0 0.039554961726260877 -0.22474601638733641 0 0.047362788675733028 -0.24199119006041811 0 0.029479073121619459 -0.22118232130399371 0 0.031866256870133697 -0.23515517363185631 0 0.039554961726260877 -0.22474601638733641 0 0.029479073121619459 -0.22118232130399371 0 0.033558692489570878 -0.21195100443687931 0 0.039554961726260877 -0.22474601638733641 0 0.047496333405074677 -0.2150174878595065 0 0.05536207860111314 -0.2282833045590259 0 0.064206587222380762 -0.21869398638814641 0 0.05536207860111314 -0.2282833045590259 0 0.063311866646695691 -0.24149928944984211 0 0.064206587222380762 -0.21869398638814641 0 0.039554961726260877 -0.22474601638733641 0 0.05536207860111314 -0.2282833045590259 0 0.047362788675733028 -0.24199119006041811 0 0.047496333405074677 -0.2150174878595065 0 0.039554961726260877 -0.22474601638733641 0 0.05536207860111314 -0.2282833045590259 0 0.047496333405074677 -0.2150174878595065 0 0.05536207860111314 -0.2282833045590259 0 0.05536207860111314 -0.2282833045590259 0 0.063311866646695691 -0.24149928944984211 0 0.06835359365392131 -0.25019388684260668 0 0.047362788675733028 -0.24199119006041811 0 0.063311866646695691 -0.24149928944984211 0 0.05536207860111314 -0.2282833045590259 0 0.047362788675733028 -0.24199119006041811 0 0.063311866646695691 -0.24149928944984211 0 0.06835359365392131 -0.25019388684260668 0 0.08421140423371333 -0.243891226620808 0 0.06835359365392131 -0.25019388684260668 0 0.063311866646695691 -0.24149928944984211 0 0.063311866646695691 -0.24149928944984211 0 0.074219814037010917 -0.24224782663387789 0 0.081086434463253185 -0.23335707181355411 0 0.06835359365392131 -0.25019388684260668 0 0.063311866646695691 -0.24149928944984211 0 0.074219814037010917 -0.24224782663387789 0 0.06835359365392131 -0.25019388684260668 0 0.074219814037010917 -0.24224782663387789 0 0.08421140423371333 -0.243891226620808 0 0.08421140423371333 -0.243891226620808 0 0.081086434463253185 -0.23335707181355411 0 0.10006921481350529 -0.2375885663990091 0 0.08421140423371333 -0.243891226620808 0 0.10006921481350529 -0.2375885663990091 0 0.074219814037010917 -0.24224782663387789 0 0.08421140423371333 -0.243891226620808 0 0.081086434463253185 -0.23335707181355411 0 0.081086434463253185 -0.23335707181355411 0 0.085851572697872774 -0.2234561975504171 0 0.10006921481350529 -0.2375885663990091 0 0.085851572697872774 -0.2234561975504171 0 0.08275260815182911 -0.2203758196890806 0 0.098293187803831117 -0.21887499219370271 0 0.085851572697872774 -0.2234561975504171 0 0.10006921481350529 -0.2375885663990091 0 0.081086434463253185 -0.23335707181355411 0 0.085851572697872774 -0.2234561975504171 0 0.080916841039686133 -0.2223704849167896 0 0.085851572697872774 -0.2234561975504171 0 0.080916841039686133 -0.2223704849167896 0 0.085851572697872774 -0.2234561975504171 0 0.08275260815182911 -0.2203758196890806 0 0.080916841039686133 -0.2223704849167896 0 0.085851572697872774 -0.2234561975504171 0 0.08275260815182911 -0.2203758196890806 0 0.08275260815182911 -0.2203758196890806 0 0.080916841039686133 -0.2223704849167896 0 0.063311866646695691 -0.24149928944984211 0 0.080916841039686133 -0.2223704849167896 0 0.063311866646695691 -0.24149928944984211 0 0.080916841039686133 -0.2223704849167896 0 0.064206587222380762 -0.21869398638814641 0 0.080916841039686133 -0.2223704849167896 0 0.064206587222380762 -0.21869398638814641 0 0.063311866646695691 -0.24149928944984211 0 0.081086434463253185 -0.23335707181355411 0 0.080916841039686133 -0.2223704849167896 0 0.080916841039686133 -0.2223704849167896 0 0.064206587222380762 -0.21869398638814641 0 0.069247075011750078 -0.20695128879428309 0 0.05523956109653505 -0.20714630445374671 0 0.064206587222380762 -0.21869398638814641 0 0.069247075011750078 -0.20695128879428309 0 0.08275260815182911 -0.2203758196890806 0 0.069247075011750078 -0.20695128879428309 0 0.08275260815182911 -0.2203758196890806 0 0.080916841039686133 -0.2223704849167896 0 0.069247075011750078 -0.20695128879428309 0 0.055741541871671067 -0.19352675789948551 0 0.069247075011750078 -0.20695128879428309 0 0.070887819862862286 -0.1914088031202833 0 0.069247075011750078 -0.20695128879428309 0 0.070887819862862286 -0.1914088031202833 0 0.082832551139222166 -0.19914513048671481 0 0.070887819862862286 -0.1914088031202833 0 0.082832551139222166 -0.19914513048671481 0 0.081821336385090343 -0.18186245165470949 0 0.082832551139222166 -0.19914513048671481 0 0.097084301305641635 -0.20480362112478781 0 0.095405874932467813 -0.18887779734800569 0 0.082832551139222166 -0.19914513048671481 0 0.095405874932467813 -0.18887779734800569 0 0.081821336385090343 -0.18186245165470949 0 0.08275260815182911 -0.2203758196890806 0 0.082832551139222166 -0.19914513048671481 0 0.097084301305641635 -0.20480362112478781 0 0.08275260815182911 -0.2203758196890806 0 0.069247075011750078 -0.20695128879428309 0 0.082832551139222166 -0.19914513048671481 0 0.08275260815182911 -0.2203758196890806 0 0.097084301305641635 -0.20480362112478781 0 0.098293187803831117 -0.21887499219370271 0 0.08275260815182911 -0.2203758196890806 0 0.097084301305641635 -0.20480362112478781 0 0.097084301305641635 -0.20480362112478781 0 0.1146962174531268 -0.21673223195775559 0 0.098293187803831117 -0.21887499219370271 0 0.097084301305641635 -0.20480362112478781 0 0.095405874932467813 -0.18887779734800569 0 0.11141599445945349 -0.1892314225604943 0 0.097084301305641635 -0.20480362112478781 0 0.11141599445945349 -0.1892314225604943 0 0.097084301305641635 -0.20480362112478781 0 0.1210323504124224 -0.2015702574875764 0 0.11141599445945349 -0.1892314225604943 0 0.1210323504124224 -0.2015702574875764 0 0.11141599445945349 -0.1892314225604943 0 0.13523084618428721 -0.18276855246186111 0 0.1210323504124224 -0.2015702574875764 0 0.1146962174531268 -0.21673223195775559 0 0.13583218450739579 -0.2116030352811932 0 0.097084301305641635 -0.20480362112478781 0 0.1210323504124224 -0.2015702574875764 0 0.1146962174531268 -0.21673223195775559 0 0.1110812394106853 -0.22900709064647229 0 0.12594488917549271 -0.2231145762792166 0 0.1363109061234978 -0.23455798374252809 0 0.1110812394106853 -0.22900709064647229 0 0.1223190960555403 -0.2394332616338683 0 0.1363109061234978 -0.23455798374252809 0 0.1110812394106853 -0.22900709064647229 0 0.1363109061234978 -0.23455798374252809 0 0.1146962174531268 -0.21673223195775559 0 0.1110812394106853 -0.22900709064647229 0 0.12594488917549271 -0.2231145762792166 0 0.1110812394106853 -0.22900709064647229 0 0.1223190960555403 -0.2394332616338683 0 0.1084330749156753 -0.23426436422737831 0 0.1147239364606354 -0.25215539330366038 0 0.1223190960555403 -0.2394332616338683 0 0.1084330749156753 -0.23426436422737831 0 0.097662046653794854 -0.25561444261418242 0 0.1147239364606354 -0.25215539330366038 0 0.10006921481350529 -0.2375885663990091 0 0.1147239364606354 -0.25215539330366038 0 0.10006921481350529 -0.2375885663990091 0 0.1084330749156753 -0.23426436422737831 0 0.097662046653794854 -0.25561444261418242 0 0.08421140423371333 -0.243891226620808 0 0.10006921481350529 -0.2375885663990091 0 0.10006921481350529 -0.2375885663990091 0 0.1084330749156753 -0.23426436422737831 0 0.1147239364606354 -0.25215539330366038 0 0.10006921481350529 -0.2375885663990091 0 0.085851572697872774 -0.2234561975504171 0 0.1110812394106853 -0.22900709064647229 0 0.1146962174531268 -0.21673223195775559 0 0.1110812394106853 -0.22900709064647229 0 0.098293187803831117 -0.21887499219370271 0 0.085851572697872774 -0.2234561975504171 0 0.1110812394106853 -0.22900709064647229 0 0.098293187803831117 -0.21887499219370271 0 0.085851572697872774 -0.2234561975504171 0 0.1110812394106853 -0.22900709064647229 0 0.10006921481350529 -0.2375885663990091 0 0.1110812394106853 -0.22900709064647229 0 0.10006921481350529 -0.2375885663990091 0 0.1084330749156753 -0.23426436422737831 0 0.1040552578412003 -0.15282191894301261 0 0.1005807427949069 -0.13366374688330029 0 0.11727103389215909 -0.1361484369810822 0 0.1005807427949069 -0.13366374688330029 0 0.11727103389215909 -0.1361484369810822 0 0.1051359327507693 -0.1227177542784853 0 0.1040552578412003 -0.15282191894301261 0 0.1005807427949069 -0.13366374688330029 0 0.082362828069140165 -0.1319846138898183 0 0.11727103389215909 -0.1361484369810822 0 0.1154331983948798 -0.1174886032934183 0 0.13404900744611239 -0.12609877526333699 0 0.11727103389215909 -0.1361484369810822 0 0.1051359327507693 -0.1227177542784853 0 0.1154331983948798 -0.1174886032934183 0 0.1040552578412003 -0.15282191894301261 0 0.11727103389215909 -0.1361484369810822 0 0.1232701832726428 -0.15427141090171109 0 0.11727103389215909 -0.1361484369810822 0 0.1232701832726428 -0.15427141090171109 0 0.13444198148756639 -0.1449420832838656 0 0.1040552578412003 -0.15282191894301261 0 0.12574768761326591 -0.17365922399620121 0 0.1040552578412003 -0.15282191894301261 0 0.1002282447692335 -0.17458527697826651 0 0.12574768761326591 -0.17365922399620121 0 0.1040552578412003 -0.15282191894301261 0 0.1232701832726428 -0.15427141090171109 0 0.12574768761326591 -0.17365922399620121 0 0.11141599445945349 -0.1892314225604943 0 0.1002282447692335 -0.17458527697826651 0 0.12574768761326591 -0.17365922399620121 0 0.11141599445945349 -0.1892314225604943 0 0.12574768761326591 -0.17365922399620121 0 0.13523084618428721 -0.18276855246186111 0 0.11141599445945349 -0.1892314225604943 0 0.12574768761326591 -0.17365922399620121 0 0.095405874932467813 -0.18887779734800569 0 0.11141599445945349 -0.1892314225604943 0 0.1002282447692335 -0.17458527697826651 0 0.1040552578412003 -0.15282191894301261 0 0.1002282447692335 -0.17458527697826651 0 0.08311303581058499 -0.16124853818171381 0 0.095405874932467813 -0.18887779734800569 0 0.1002282447692335 -0.17458527697826651 0 0.081821336385090343 -0.18186245165470949 0 0.1002282447692335 -0.17458527697826651 0 0.08311303581058499 -0.16124853818171381 0 0.081821336385090343 -0.18186245165470949 0 0.08311303581058499 -0.16124853818171381 0 0.081821336385090343 -0.18186245165470949 0 0.066780308608768796 -0.17493307235476979 0 0.070887819862862286 -0.1914088031202833 0 0.081821336385090343 -0.18186245165470949 0 0.066780308608768796 -0.17493307235476979 0 0.055741541871671067 -0.19352675789948551 0 0.070887819862862286 -0.1914088031202833 0 0.066780308608768796 -0.17493307235476979 0 0.08311303581058499 -0.16124853818171381 0 0.066780308608768796 -0.17493307235476979 0 0.065413952892267702 -0.150678580858252 0 0.065413952892267702 -0.150678580858252 0 0.082362828069140165 -0.1319846138898183 0 0.08311303581058499 -0.16124853818171381 0 0.065413952892267702 -0.150678580858252 0 0.082362828069140165 -0.1319846138898183 0 0.1040552578412003 -0.15282191894301261 0 0.08311303581058499 -0.16124853818171381 0 0.082362828069140165 -0.1319846138898183 0 0.1040552578412003 -0.15282191894301261 0 0.082362828069140165 -0.1319846138898183 0 0.1005807427949069 -0.13366374688330029 0 0.082362828069140165 -0.1319846138898183 0 0.095577299328253623 -0.1174095529111252 0 0.082362828069140165 -0.1319846138898183 0 0.070308403876621794 -0.13238109852993221 0 0.069837722907261313 -0.1199532536492431 0 0.065413952892267702 -0.150678580858252 0 0.082362828069140165 -0.1319846138898183 0 0.070308403876621794 -0.13238109852993221 0 0.082362828069140165 -0.1319846138898183 0 0.069837722907261313 -0.1199532536492431 0 0.065413952892267702 -0.150678580858252 0 0.070308403876621794 -0.13238109852993221 0 0.06118566078759103 -0.13005342953014129 0 0.070308403876621794 -0.13238109852993221 0 0.06118566078759103 -0.13005342953014129 0 0.069837722907261313 -0.1199532536492431 0 0.065413952892267702 -0.150678580858252 0 0.06118566078759103 -0.13005342953014129 0 0.053245925046226952 -0.14076102386291889 0 0.06118566078759103 -0.13005342953014129 0 0.049352038069647858 -0.1295439288512826 0 0.048525659269531229 -0.11802361343548989 0 0.049352038069647858 -0.1295439288512826 0 0.053245925046226952 -0.14076102386291889 0 0.041700188437408421 -0.13409859591225329 0 0.06118566078759103 -0.13005342953014129 0 0.049352038069647858 -0.1295439288512826 0 0.053245925046226952 -0.14076102386291889 0 0.065413952892267702 -0.150678580858252 0 0.053245925046226952 -0.14076102386291889 0 0.048465077715394989 -0.16937254782668559 0 0.053245925046226952 -0.14076102386291889 0 0.040505841312838547 -0.14468304457988079 0 0.048465077715394989 -0.16937254782668559 0 0.040505841312838547 -0.14468304457988079 0 0.03393783807298914 -0.14093707321474161 0 0.030230252537669321 -0.1566253376229266 0 0.040505841312838547 -0.14468304457988079 0 0.030230252537669321 -0.1566253376229266 0 0.040505841312838547 -0.14468304457988079 0 0.03393783807298914 -0.14093707321474161 0 0.041700188437408421 -0.13409859591225329 0 0.03393783807298914 -0.14093707321474161 0 0.041700188437408421 -0.13409859591225329 0 0.024480650806643651 -0.1375151559245551 0 0.041700188437408421 -0.13409859591225329 0 0.042102756807481732 -0.1247829815156095 0 0.031290738437872938 -0.1201921761368282 0 0.049352038069647858 -0.1295439288512826 0 0.041700188437408421 -0.13409859591225329 0 0.042102756807481732 -0.1247829815156095 0 0.053245925046226952 -0.14076102386291889 0 0.040505841312838547 -0.14468304457988079 0 0.041700188437408421 -0.13409859591225329 0 0.055741541871671067 -0.19352675789948551 0 0.066780308608768796 -0.17493307235476979 0 0.048465077715394989 -0.16937254782668559 0 0.043838458457815248 -0.18986676967386279 0 0.055741541871671067 -0.19352675789948551 0 0.048465077715394989 -0.16937254782668559 0 0.066780308608768796 -0.17493307235476979 0 0.065413952892267702 -0.150678580858252 0 0.048465077715394989 -0.16937254782668559 0 0.065413952892267702 -0.150678580858252 0 0.048465077715394989 -0.16937254782668559 0 0.040505841312838547 -0.14468304457988079 0 0.048465077715394989 -0.16937254782668559 0 0.030230252537669321 -0.1566253376229266 0 0.048465077715394989 -0.16937254782668559 0 0.033338822752702377 -0.1705348433046637 0 0.030230252537669321 -0.1566253376229266 0 0.043838458457815248 -0.18986676967386279 0 0.031516202538524517 -0.1880665147951214 0 0.048465077715394989 -0.16937254782668559 0 0.031516202538524517 -0.1880665147951214 0 0.048465077715394989 -0.16937254782668559 0 0.031516202538524517 -0.1880665147951214 0 0.048465077715394989 -0.16937254782668559 0 0.033338822752702377 -0.1705348433046637 0 0.031516202538524517 -0.1880665147951214 0 0.033338822752702377 -0.1705348433046637 0 0.01995466376250531 -0.16856763066597699 0 0.031516202538524517 -0.1880665147951214 0 0.01995466376250531 -0.16856763066597699 0 0.031516202538524517 -0.1880665147951214 0 0.01995466376250531 -0.16856763066597699 0 0.0091962193441852118 -0.18107109871456811 0 0.01995466376250531 -0.16856763066597699 0 0.030230252537669321 -0.1566253376229266 0 0.008868239412810253 -0.14987004135808221 0 0.033338822752702377 -0.1705348433046637 0 0.01995466376250531 -0.16856763066597699 0 0.030230252537669321 -0.1566253376229266 0 0.01995466376250531 -0.16856763066597699 0 0.030230252537669321 -0.1566253376229266 0 -0.0025999653858941639 -0.16131422913783491 0 0.0067086063528142403 -0.16809244781376179 0 0.008868239412810253 -0.14987004135808221 0 0.01995466376250531 -0.16856763066597699 0 0.008868239412810253 -0.14987004135808221 0 0.01995466376250531 -0.16856763066597699 0 0.0067086063528142403 -0.16809244781376179 0 0.008868239412810253 -0.14987004135808221 0 -0.0084927016390539001 -0.17431231470194719 0 0.0067086063528142403 -0.16809244781376179 0 0.0091962193441852118 -0.18107109871456811 0 0.01995466376250531 -0.16856763066597699 0 0.0091962193441852118 -0.18107109871456811 0 0.01995466376250531 -0.16856763066597699 0 0.0067086063528142403 -0.16809244781376179 0 0.0091962193441852118 -0.18107109871456811 0 -0.0015622250741301779 -0.1935745667631632 0 0.0091962193441852118 -0.18107109871456811 0 0.041700188437408421 -0.13409859591225329 0 0.014197789575412951 -0.12328672932727321 0 0.031290738437872938 -0.1201921761368282 0 0.041700188437408421 -0.13409859591225329 0 0.024480650806643651 -0.1375151559245551 0 0.014197789575412951 -0.12328672932727321 0 0.041700188437408421 -0.13409859591225329 0 0.014197789575412951 -0.12328672932727321 0 0.024480650806643651 -0.1375151559245551 0 0.011332123714495041 -0.13546109466502479 0 0.014197789575412951 -0.12328672932727321 0 0.03393783807298914 -0.14093707321474161 0 0.030230252537669321 -0.1566253376229266 0 0.024480650806643651 -0.1375151559245551 0 0.030230252537669321 -0.1566253376229266 0 0.024480650806643651 -0.1375151559245551 0 0.008868239412810253 -0.14987004135808221 0 0.024480650806643651 -0.1375151559245551 0 0.008868239412810253 -0.14987004135808221 0 0.011332123714495041 -0.13546109466502479 0 -0.00221818493688669 -0.13117245205018849 0 -0.0031786103040098569 -0.14705450477373769 0 0.008868239412810253 -0.14987004135808221 0 -0.0031786103040098569 -0.14705450477373769 0 -0.0025999653858941639 -0.16131422913783491 0 0.008868239412810253 -0.14987004135808221 0 -0.00221818493688669 -0.13117245205018849 0 0.008868239412810253 -0.14987004135808221 0 -0.00221818493688669 -0.13117245205018849 0 0.011332123714495041 -0.13546109466502479 0 0.014197789575412951 -0.12328672932727321 0 -0.00221818493688669 -0.13117245205018849 0 0.008868239412810253 -0.14987004135808221 0 0.011332123714495041 -0.13546109466502479 0 -0.013304609286582791 -0.1124748627422944 0 0.014197789575412951 -0.12328672932727321 0 0.014197789575412951 -0.12328672932727321 0 0.020945276257035669 -0.1055296092587116 0 0.0046245275045138064 -0.1076828264142336 0 -0.013304609286582791 -0.1124748627422944 0 0.014197789575412951 -0.12328672932727321 0 0.0046245275045138064 -0.1076828264142336 0 0.014197789575412951 -0.12328672932727321 0 0.020945276257035669 -0.1055296092587116 0 0.031290738437872938 -0.1201921761368282 0 0.020945276257035669 -0.1055296092587116 0 0.031290738437872938 -0.1201921761368282 0 0.040241467446851142 -0.1026788937802551 0 0.020945276257035669 -0.1055296092587116 0 0.028115865357471449 -0.087896533900266943 0 0.040241467446851142 -0.1026788937802551 0 0.020945276257035669 -0.1055296092587116 0 0.0072012692200917657 -0.09144049599341271 0 0.028115865357471449 -0.087896533900266943 0 -0.0070294542012635762 -0.10327829347153671 0 0.0046245275045138064 -0.1076828264142336 0 0.0072012692200917657 -0.09144049599341271 0 0.020945276257035669 -0.1055296092587116 0 0.0046245275045138064 -0.1076828264142336 0 0.0072012692200917657 -0.09144049599341271 0 0.0072012692200917657 -0.09144049599341271 0 0.0054575408194632406 -0.073720759659108445 0 0.018511759797904249 -0.077210571545524964 0 -0.0056293594721457006 -0.082036805430144924 0 0.0072012692200917657 -0.09144049599341271 0 0.0054575408194632406 -0.073720759659108445 0 0.0054575408194632406 -0.073720759659108445 0 0.018354718881549058 -0.065167425818499949 0 0.003426744450576454 -0.054815297075420773 0 -0.0072319765520409062 -0.068818796064575097 0 0.0054575408194632406 -0.073720759659108445 0 0.003426744450576454 -0.054815297075420773 0 0.0054575408194632406 -0.073720759659108445 0 0.018354718881549058 -0.065167425818499949 0 0.018511759797904249 -0.077210571545524964 0 0.018511759797904249 -0.077210571545524964 0 0.028115865357471449 -0.087896533900266943 0 0.033429404710945708 -0.067827642356336801 0 0.018354718881549058 -0.065167425818499949 0 0.018511759797904249 -0.077210571545524964 0 0.033429404710945708 -0.067827642356336801 0 0.0072012692200917657 -0.09144049599341271 0 0.018511759797904249 -0.077210571545524964 0 0.028115865357471449 -0.087896533900266943 0 0.028115865357471449 -0.087896533900266943 0 0.044094628308957058 -0.087651847290754856 0 0.040241467446851142 -0.1026788937802551 0 0.028115865357471449 -0.087896533900266943 0 0.044094628308957058 -0.087651847290754856 0 0.033429404710945708 -0.067827642356336801 0 0.044094628308957058 -0.087651847290754856 0 0.033429404710945708 -0.067827642356336801 0 0.052580487019044733 -0.06457445167855122 0 0.052580487019044733 -0.06457445167855122 0 0.057640786708643768 -0.07951032993234286 0 0.068682665651441266 -0.069637891440837665 0 0.044094628308957058 -0.087651847290754856 0 0.052580487019044733 -0.06457445167855122 0 0.057640786708643768 -0.07951032993234286 0 0.044094628308957058 -0.087651847290754856 0 0.057640786708643768 -0.07951032993234286 0 0.064045145718632748 -0.088800152685812248 0 0.056223070490067702 -0.1049071233711502 0 0.048525659269531229 -0.11802361343548989 0 0.040241467446851142 -0.1026788937802551 0 0.044094628308957058 -0.087651847290754856 0 0.056223070490067702 -0.1049071233711502 0 0.064045145718632748 -0.088800152685812248 0 0.06118566078759103 -0.13005342953014129 0 0.056223070490067702 -0.1049071233711502 0 0.048525659269531229 -0.11802361343548989 0 0.048525659269531229 -0.11802361343548989 0 0.042102756807481732 -0.1247829815156095 0 0.031290738437872938 -0.1201921761368282 0 0.048525659269531229 -0.11802361343548989 0 0.031290738437872938 -0.1201921761368282 0 0.040241467446851142 -0.1026788937802551 0 0.049352038069647858 -0.1295439288512826 0 0.048525659269531229 -0.11802361343548989 0 0.042102756807481732 -0.1247829815156095 0 0.044094628308957058 -0.087651847290754856 0 0.056223070490067702 -0.1049071233711502 0 0.040241467446851142 -0.1026788937802551 0 0.020415517075116841 0.0076517724901667356 0 0.020207185183206099 -0.010785841930981459 0 0.039787151186370009 -0.0039594854922263374 0 0.020207185183206099 -0.010785841930981459 0 0.0047038114401232534 -0.001040937293712483 0 0.0026421611525163911 -0.019923693291100199 0 0.020415517075116841 0.0076517724901667356 0 0.020207185183206099 -0.010785841930981459 0 0.0047038114401232534 -0.001040937293712483 0 0.020207185183206099 -0.010785841930981459 0 0.0026421611525163911 -0.019923693291100199 0 0.018057611388834851 -0.030223969914345401 0 0.0026421611525163911 -0.019923693291100199 0 0.018057611388834851 -0.030223969914345401 0 0.001114662024295677 -0.034644724797188199 0 0.018057611388834851 -0.030223969914345401 0 0.03214982838215158 -0.036550164909951742 0 0.03396684481877061 -0.021771474300517551 0 0.020207185183206099 -0.010785841930981459 0 0.018057611388834851 -0.030223969914345401 0 0.03396684481877061 -0.021771474300517551 0 0.018057611388834851 -0.030223969914345401 0 0.010882918392325341 -0.043546784918672053 0 0.022583515379492949 -0.04946345385366932 0 0.018057611388834851 -0.030223969914345401 0 0.022583515379492949 -0.04946345385366932 0 0.03214982838215158 -0.036550164909951742 0 0.010882918392325341 -0.043546784918672053 0 0.001114662024295677 -0.034644724797188199 0 0.003426744450576454 -0.054815297075420773 0 0.018057611388834851 -0.030223969914345401 0 0.010882918392325341 -0.043546784918672053 0 0.001114662024295677 -0.034644724797188199 0 0.018354718881549058 -0.065167425818499949 0 0.003426744450576454 -0.054815297075420773 0 0.022583515379492949 -0.04946345385366932 0 0.010882918392325341 -0.043546784918672053 0 0.003426744450576454 -0.054815297075420773 0 0.022583515379492949 -0.04946345385366932 0 0.018354718881549058 -0.065167425818499949 0 0.033429404710945708 -0.067827642356336801 0 0.022583515379492949 -0.04946345385366932 0 0.033429404710945708 -0.067827642356336801 0 0.022583515379492949 -0.04946345385366932 0 0.040434423972952403 -0.049093231793294147 0 0.033429404710945708 -0.067827642356336801 0 0.052580487019044733 -0.06457445167855122 0 0.040434423972952403 -0.049093231793294147 0 0.052580487019044733 -0.06457445167855122 0 0.040434423972952403 -0.049093231793294147 0 0.05544232884238081 -0.044875881875575382 0 0.052580487019044733 -0.06457445167855122 0 0.05544232884238081 -0.044875881875575382 0 0.068339170937992105 -0.053424337060716878 0 0.040434423972952403 -0.049093231793294147 0 0.05544232884238081 -0.044875881875575382 0 0.045706746350707102 -0.032198694687932281 0 0.05544232884238081 -0.044875881875575382 0 0.045706746350707102 -0.032198694687932281 0 0.061157621829282929 -0.025231604425866621 0 0.040434423972952403 -0.049093231793294147 0 0.045706746350707102 -0.032198694687932281 0 0.03214982838215158 -0.036550164909951742 0 0.022583515379492949 -0.04946345385366932 0 0.040434423972952403 -0.049093231793294147 0 0.03214982838215158 -0.036550164909951742 0 0.045706746350707102 -0.032198694687932281 0 0.03214982838215158 -0.036550164909951742 0 0.03396684481877061 -0.021771474300517551 0 0.045706746350707102 -0.032198694687932281 0 0.03396684481877061 -0.021771474300517551 0 0.047710046720236987 -0.018368172826886429 0 0.061157621829282929 -0.025231604425866621 0 0.047710046720236987 -0.018368172826886429 0 0.057931869416054299 -0.0086796052278893948 0 0.045706746350707102 -0.032198694687932281 0 0.061157621829282929 -0.025231604425866621 0 0.047710046720236987 -0.018368172826886429 0 0.053306813386582982 0.0056008818424343951 0 0.057931869416054299 -0.0086796052278893948 0 0.039787151186370009 -0.0039594854922263374 0 0.047710046720236987 -0.018368172826886429 0 0.057931869416054299 -0.0086796052278893948 0 0.039787151186370009 -0.0039594854922263374 0 0.053306813386582982 0.0056008818424343951 0 0.065940651683257009 0.0024831850618150888 0 0.057931869416054299 -0.0086796052278893948 0 0.020207185183206099 -0.010785841930981459 0 0.03396684481877061 -0.021771474300517551 0 0.039787151186370009 -0.0039594854922263374 0 0.03396684481877061 -0.021771474300517551 0 0.047710046720236987 -0.018368172826886429 0 0.039787151186370009 -0.0039594854922263374 0 0.07992851590561921 0.0082161523869754144 0 0.085319843464057188 -0.007629982329875426 0 0.074177093133044117 -0.010507922444979889 0 0.07992851590561921 0.0082161523869754144 0 0.085319843464057188 -0.007629982329875426 0 0.09649789417263642 -0.0037639840011086311 0 0.093491186985964037 -0.01472799792969565 0 0.085319843464057188 -0.007629982329875426 0 0.09649789417263642 -0.0037639840011086311 0 0.093491186985964037 -0.01472799792969565 0 0.085319843464057188 -0.007629982329875426 0 0.083581835824733053 -0.016535058395947159 0 0.085319843464057188 -0.007629982329875426 0 0.074177093133044117 -0.010507922444979889 0 0.083581835824733053 -0.016535058395947159 0 0.061157621829282929 -0.025231604425866621 0 0.057931869416054299 -0.0086796052278893948 0 0.074177093133044117 -0.010507922444979889 0 0.065940651683257009 0.0024831850618150888 0 0.057931869416054299 -0.0086796052278893948 0 0.074177093133044117 -0.010507922444979889 0 0.061157621829282929 -0.025231604425866621 0 0.077044537184394621 -0.024954964190685061 0 0.071280738265345076 -0.03811759874850193 0 0.061157621829282929 -0.025231604425866621 0 0.074177093133044117 -0.010507922444979889 0 0.077044537184394621 -0.024954964190685061 0 0.077044537184394621 -0.024954964190685061 0 0.087876518356205288 -0.024854425084499782 0 0.083696735197635597 -0.035074751153617953 0 0.077044537184394621 -0.024954964190685061 0 0.083581835824733053 -0.016535058395947159 0 0.087876518356205288 -0.024854425084499782 0 0.074177093133044117 -0.010507922444979889 0 0.077044537184394621 -0.024954964190685061 0 0.083581835824733053 -0.016535058395947159 0 0.093491186985964037 -0.01472799792969565 0 0.083581835824733053 -0.016535058395947159 0 0.087876518356205288 -0.024854425084499782 0 0.093491186985964037 -0.01472799792969565 0 0.087876518356205288 -0.024854425084499782 0 0.096892307268332672 -0.02266252034611416 0 0.087876518356205288 -0.024854425084499782 0 0.093921030959280866 -0.033511072873054298 0 0.096892307268332672 -0.02266252034611416 0 0.087876518356205288 -0.024854425084499782 0 0.083696735197635597 -0.035074751153617953 0 0.093921030959280866 -0.033511072873054298 0 0.088828324516270887 -0.041348533459236683 0 0.095977453204919599 -0.050472192210401508 0 0.093921030959280866 -0.033511072873054298 0 0.088828324516270887 -0.041348533459236683 0 0.083696735197635597 -0.035074751153617953 0 0.093921030959280866 -0.033511072873054298 0 0.088828324516270887 -0.041348533459236683 0 0.081718078703247488 -0.046336117599872988 0 0.095977453204919599 -0.050472192210401508 0 0.088828324516270887 -0.041348533459236683 0 0.081718078703247488 -0.046336117599872988 0 0.083696735197635597 -0.035074751153617953 0 0.081718078703247488 -0.046336117599872988 0 0.083696735197635597 -0.035074751153617953 0 0.071280738265345076 -0.03811759874850193 0 0.05544232884238081 -0.044875881875575382 0 0.061157621829282929 -0.025231604425866621 0 0.071280738265345076 -0.03811759874850193 0 0.05544232884238081 -0.044875881875575382 0 0.071280738265345076 -0.03811759874850193 0 0.068339170937992105 -0.053424337060716878 0 0.077044537184394621 -0.024954964190685061 0 0.083696735197635597 -0.035074751153617953 0 0.071280738265345076 -0.03811759874850193 0 0.081718078703247488 -0.046336117599872988 0 0.071280738265345076 -0.03811759874850193 0 0.068339170937992105 -0.053424337060716878 0 0.081718078703247488 -0.046336117599872988 0 0.068339170937992105 -0.053424337060716878 0 0.079819511512682115 -0.059373961925762081 0 0.068339170937992105 -0.053424337060716878 0 0.079819511512682115 -0.059373961925762081 0 0.068682665651441266 -0.069637891440837665 0 0.079819511512682115 -0.059373961925762081 0 0.095977453204919599 -0.050472192210401508 0 0.084380189065810102 -0.076999271316981366 0 0.081718078703247488 -0.046336117599872988 0 0.079819511512682115 -0.059373961925762081 0 0.095977453204919599 -0.050472192210401508 0 0.095977453204919599 -0.050472192210401508 0 0.1084893608633546 -0.054995312108922077 0 0.1003826539890946 -0.069656067773248523 0 0.095977453204919599 -0.050472192210401508 0 0.1084893608633546 -0.054995312108922077 0 0.10497618281608501 -0.042163163930312997 0 0.1084893608633546 -0.054995312108922077 0 0.12021542192502691 -0.05736310542253667 0 0.11225492598618329 -0.067700646346746801 0 0.12021542192502691 -0.05736310542253667 0 0.1181844865236701 -0.045884275653046647 0 0.1350650896680477 -0.050994701792827862 0 0.1084893608633546 -0.054995312108922077 0 0.12021542192502691 -0.05736310542253667 0 0.1181844865236701 -0.045884275653046647 0 0.1084893608633546 -0.054995312108922077 0 0.1181844865236701 -0.045884275653046647 0 0.10497618281608501 -0.042163163930312997 0 0.1181844865236701 -0.045884275653046647 0 0.1169603374125384 -0.034526050343312617 0 0.10497618281608501 -0.042163163930312997 0 0.10497618281608501 -0.042163163930312997 0 0.1139069069496291 -0.021464697665753471 0 0.1169603374125384 -0.034526050343312617 0 0.10497618281608501 -0.042163163930312997 0 0.1139069069496291 -0.021464697665753471 0 0.1181844865236701 -0.045884275653046647 0 0.1169603374125384 -0.034526050343312617 0 0.1283586559847627 -0.040725310836502493 0 0.095977453204919599 -0.050472192210401508 0 0.10497618281608501 -0.042163163930312997 0 0.1075747173440291 -0.023945113103821601 0 0.095977453204919599 -0.050472192210401508 0 0.093921030959280866 -0.033511072873054298 0 0.1075747173440291 -0.023945113103821601 0 0.095977453204919599 -0.050472192210401508 0 0.1075747173440291 -0.023945113103821601 0 0.10497618281608501 -0.042163163930312997 0 0.1075747173440291 -0.023945113103821601 0 0.1139069069496291 -0.021464697665753471 0 0.093921030959280866 -0.033511072873054298 0 0.096892307268332672 -0.02266252034611416 0 0.1075747173440291 -0.023945113103821601 0 0.093491186985964037 -0.01472799792969565 0 0.096892307268332672 -0.02266252034611416 0 0.10169828607787421 -0.015923098960230999 0 0.096892307268332672 -0.02266252034611416 0 0.10169828607787421 -0.015923098960230999 0 0.1075747173440291 -0.023945113103821601 0 0.10169828607787421 -0.015923098960230999 0 0.1075747173440291 -0.023945113103821601 0 0.1082483433893755 -0.0084409933366877514 0 0.1169603374125384 -0.034526050343312617 0 0.1213672368215104 -0.025634276355807499 0 0.12969235634276979 -0.031284000123743903 0 0.1169603374125384 -0.034526050343312617 0 0.1213672368215104 -0.025634276355807499 0 0.1139069069496291 -0.021464697665753471 0 0.1213672368215104 -0.025634276355807499 0 0.1139069069496291 -0.021464697665753471 0 0.12490934658110441 -0.01526235729042 0 0.11917198148314 0.002581966002757949 0 0.1075747173440291 -0.023945113103821601 0 0.1139069069496291 -0.021464697665753471 0 0.11917198148314 0.002581966002757949 0 0.1139069069496291 -0.021464697665753471 0 0.1228376310831711 -0.00076623140119310329 0 0.11917198148314 0.002581966002757949 0 0.1075747173440291 -0.023945113103821601 0 0.1082483433893755 -0.0084409933366877514 0 0.1139069069496291 -0.021464697665753471 0 0.12490934658110441 -0.01526235729042 0 0.1228376310831711 -0.00076623140119310329 0 0.1139069069496291 -0.021464697665753471 0 0.1228376310831711 -0.00076623140119310329 0 0.11917198148314 0.002581966002757949 0 0.1075747173440291 -0.023945113103821601 0 0.11917198148314 0.002581966002757949 0 0.1105415625726717 -0.0014271332550589229 0 0.1082483433893755 -0.0084409933366877514 0 0.1078625722471533 0.0022823866337398822 0 0.1105415625726717 -0.0014271332550589229 0 0.1039166904039584 -0.0028966343462391718 0 0.1039166904039584 -0.0028966343462391718 0 0.1082483433893755 -0.0084409933366877514 0 0.10154047648190589 -0.00941290969201335 0 0.1105415625726717 -0.0014271332550589229 0 0.1039166904039584 -0.0028966343462391718 0 0.1082483433893755 -0.0084409933366877514 0 0.10169828607787421 -0.015923098960230999 0 0.1082483433893755 -0.0084409933366877514 0 0.10154047648190589 -0.00941290969201335 0 0.093491186985964037 -0.01472799792969565 0 0.10154047648190589 -0.00941290969201335 0 0.09649789417263642 -0.0037639840011086311 0 0.093491186985964037 -0.01472799792969565 0 0.10169828607787421 -0.015923098960230999 0 0.10154047648190589 -0.00941290969201335 0 0.1039166904039584 -0.0028966343462391718 0 0.10154047648190589 -0.00941290969201335 0 0.09649789417263642 -0.0037639840011086311 0 0.088046088292129038 -0.10430519341125349 0 0.072782924926700548 -0.1035263504235614 0 0.088717560391344957 -0.092993146067331611 0 0.088046088292129038 -0.10430519341125349 0 0.080670658246847674 -0.112136361820053 0 0.072782924926700548 -0.1035263504235614 0 0.088046088292129038 -0.10430519341125349 0 0.088717560391344957 -0.092993146067331611 0 0.100171096126226 -0.096028489315426471 0 0.088046088292129038 -0.10430519341125349 0 0.089116900718008318 -0.11226838151764811 0 0.096817389343646892 -0.1088784313235004 0 0.088046088292129038 -0.10430519341125349 0 0.089116900718008318 -0.11226838151764811 0 0.080670658246847674 -0.112136361820053 0 0.089116900718008318 -0.11226838151764811 0 0.082844213492092533 -0.1195429602861619 0 0.095577299328253623 -0.1174095529111252 0 0.082362828069140165 -0.1319846138898183 0 0.082844213492092533 -0.1195429602861619 0 0.095577299328253623 -0.1174095529111252 0 0.082362828069140165 -0.1319846138898183 0 0.095577299328253623 -0.1174095529111252 0 0.082362828069140165 -0.1319846138898183 0 0.082844213492092533 -0.1195429602861619 0 0.069837722907261313 -0.1199532536492431 0 0.089116900718008318 -0.11226838151764811 0 0.082844213492092533 -0.1195429602861619 0 0.080670658246847674 -0.112136361820053 0 0.080670658246847674 -0.112136361820053 0 0.069837722907261313 -0.1199532536492431 0 0.072782924926700548 -0.1035263504235614 0 0.06118566078759103 -0.13005342953014129 0 0.072782924926700548 -0.1035263504235614 0 0.06118566078759103 -0.13005342953014129 0 0.069837722907261313 -0.1199532536492431 0 0.072782924926700548 -0.1035263504235614 0 0.06118566078759103 -0.13005342953014129 0 0.056223070490067702 -0.1049071233711502 0 0.072782924926700548 -0.1035263504235614 0 0.082844213492092533 -0.1195429602861619 0 0.080670658246847674 -0.112136361820053 0 0.069837722907261313 -0.1199532536492431 0 0.056223070490067702 -0.1049071233711502 0 0.072782924926700548 -0.1035263504235614 0 0.064045145718632748 -0.088800152685812248 0 0.057640786708643768 -0.07951032993234286 0 0.064045145718632748 -0.088800152685812248 0 0.068682665651441266 -0.069637891440837665 0 0.064045145718632748 -0.088800152685812248 0 0.068682665651441266 -0.069637891440837665 0 0.084380189065810102 -0.076999271316981366 0 0.072782924926700548 -0.1035263504235614 0 0.064045145718632748 -0.088800152685812248 0 0.084380189065810102 -0.076999271316981366 0 0.052580487019044733 -0.06457445167855122 0 0.068339170937992105 -0.053424337060716878 0 0.068682665651441266 -0.069637891440837665 0 0.079819511512682115 -0.059373961925762081 0 0.068682665651441266 -0.069637891440837665 0 0.084380189065810102 -0.076999271316981366 0 0.095977453204919599 -0.050472192210401508 0 0.084380189065810102 -0.076999271316981366 0 0.1003826539890946 -0.069656067773248523 0 0.095977453204919599 -0.050472192210401508 0 0.084380189065810102 -0.076999271316981366 0 0.084380189065810102 -0.076999271316981366 0 0.095693843046354268 -0.0841642264331387 0 0.1003826539890946 -0.069656067773248523 0 0.072782924926700548 -0.1035263504235614 0 0.084380189065810102 -0.076999271316981366 0 0.072782924926700548 -0.1035263504235614 0 0.084380189065810102 -0.076999271316981366 0 0.088717560391344957 -0.092993146067331611 0 0.084380189065810102 -0.076999271316981366 0 0.088717560391344957 -0.092993146067331611 0 0.095693843046354268 -0.0841642264331387 0 0.088717560391344957 -0.092993146067331611 0 0.095693843046354268 -0.0841642264331387 0 0.100171096126226 -0.096028489315426471 0 0.095693843046354268 -0.0841642264331387 0 0.1061825878765964 -0.082065358753895937 0 0.100171096126226 -0.096028489315426471 0 0.095693843046354268 -0.0841642264331387 0 0.1061825878765964 -0.082065358753895937 0 0.1003826539890946 -0.069656067773248523 0 0.1061825878765964 -0.082065358753895937 0 0.1152940355071756 -0.093458773729521216 0 0.100171096126226 -0.096028489315426471 0 0.1061825878765964 -0.082065358753895937 0 0.1003826539890946 -0.069656067773248523 0 0.11225492598618329 -0.067700646346746801 0 0.1084893608633546 -0.054995312108922077 0 0.1003826539890946 -0.069656067773248523 0 0.11225492598618329 -0.067700646346746801 0 0.1061825878765964 -0.082065358753895937 0 0.11225492598618329 -0.067700646346746801 0 0.1171317857577618 -0.078667044940758796 0 0.1171317857577618 -0.078667044940758796 0 0.12857779857738699 -0.078718698725873171 0 0.12708324658387871 -0.067240591211139955 0 0.11225492598618329 -0.067700646346746801 0 0.1171317857577618 -0.078667044940758796 0 0.12708324658387871 -0.067240591211139955 0 0.12021542192502691 -0.05736310542253667 0 0.11225492598618329 -0.067700646346746801 0 0.12708324658387871 -0.067240591211139955 0 0.1061825878765964 -0.082065358753895937 0 0.1152940355071756 -0.093458773729521216 0 0.1171317857577618 -0.078667044940758796 0 0.1171317857577618 -0.078667044940758796 0 0.1286838548293292 -0.09135300801218077 0 0.12857779857738699 -0.078718698725873171 0 0.1152940355071756 -0.093458773729521216 0 0.1171317857577618 -0.078667044940758796 0 0.1286838548293292 -0.09135300801218077 0 0.1152940355071756 -0.093458773729521216 0 0.1230450488982011 -0.098166020395255585 0 0.1286838548293292 -0.09135300801218077 0 0.1152940355071756 -0.093458773729521216 0 0.1230450488982011 -0.098166020395255585 0 0.1196469902177196 -0.1061558951397697 0 0.1230450488982011 -0.098166020395255585 0 0.1196469902177196 -0.1061558951397697 0 0.12917406780106669 -0.1036793655145172 0 0.1196469902177196 -0.1061558951397697 0 0.1094725419179296 -0.1044020385603272 0 0.1154331983948798 -0.1174886032934183 0 0.1152940355071756 -0.093458773729521216 0 0.1196469902177196 -0.1061558951397697 0 0.1094725419179296 -0.1044020385603272 0 0.1152940355071756 -0.093458773729521216 0 0.1094725419179296 -0.1044020385603272 0 0.100171096126226 -0.096028489315426471 0 0.1094725419179296 -0.1044020385603272 0 0.096817389343646892 -0.1088784313235004 0 0.100171096126226 -0.096028489315426471 0 0.088046088292129038 -0.10430519341125349 0 0.096817389343646892 -0.1088784313235004 0 0.100171096126226 -0.096028489315426471 0 0.096817389343646892 -0.1088784313235004 0 0.1051359327507693 -0.1227177542784853 0 0.1154331983948798 -0.1174886032934183 0 0.096817389343646892 -0.1088784313235004 0 0.1154331983948798 -0.1174886032934183 0 0.1005807427949069 -0.13366374688330029 0 0.095577299328253623 -0.1174095529111252 0 0.1051359327507693 -0.1227177542784853 0 0.1094725419179296 -0.1044020385603272 0 0.096817389343646892 -0.1088784313235004 0 0.1154331983948798 -0.1174886032934183 0 0.089116900718008318 -0.11226838151764811 0 0.096817389343646892 -0.1088784313235004 0 0.095577299328253623 -0.1174095529111252 0 0.096817389343646892 -0.1088784313235004 0 0.095577299328253623 -0.1174095529111252 0 0.1051359327507693 -0.1227177542784853 0 0.1154331983948798 -0.1174886032934183 0 0.13404900744611239 -0.12609877526333699 0 0.1196469902177196 -0.1061558951397697 0 0.1154331983948798 -0.1174886032934183 0 0.12686113813069899 -0.1114359576666621 0 0.1154331983948798 -0.1174886032934183 0 0.12686113813069899 -0.1114359576666621 0 0.13390982127973511 -0.11942472678041111 0 0.1154331983948798 -0.1174886032934183 0 0.13390982127973511 -0.11942472678041111 0 0.13404900744611239 -0.12609877526333699 0 0.12686113813069899 -0.1114359576666621 0 0.13614161296009411 -0.11043119760519431 0 0.13390982127973511 -0.11942472678041111 0 0.13614161296009411 -0.11043119760519431 0 0.14023431030656019 -0.11642081500581559 0 0.13390982127973511 -0.11942472678041111 0 0.13614161296009411 -0.11043119760519431 0 0.14023431030656019 -0.11642081500581559 0 0.14347338005148061 -0.1082488085161593 0 0.13773130733042549 -0.12113088311922759 0 0.1427320902892944 -0.12257921542734659 0 0.13404900744611239 -0.12609877526333699 0 0.13390982127973511 -0.11942472678041111 0 0.13773130733042549 -0.12113088311922759 0 0.13404900744611239 -0.12609877526333699 0 0.13390982127973511 -0.11942472678041111 0 0.13404900744611239 -0.12609877526333699 0 0.14023431030656019 -0.11642081500581559 0 0.13773130733042549 -0.12113088311922759 0 0.1427320902892944 -0.12257921542734659 0 0.14023431030656019 -0.11642081500581559 0 0.13390982127973511 -0.11942472678041111 0 0.13773130733042549 -0.12113088311922759 0 0.1427320902892944 -0.12257921542734659 0 0.15192118682329561 -0.12273271218809589 0 0.1490682445489844 -0.1279194233146575 0 0.1427320902892944 -0.12257921542734659 0 0.1474293378639818 -0.11515719203513899 0 0.15192118682329561 -0.12273271218809589 0 0.14023431030656019 -0.11642081500581559 0 0.1427320902892944 -0.12257921542734659 0 0.1474293378639818 -0.11515719203513899 0 0.1474293378639818 -0.11515719203513899 0 0.15201290161170181 -0.107226104105896 0 0.14347338005148061 -0.1082488085161593 0 0.14023431030656019 -0.11642081500581559 0 0.1474293378639818 -0.11515719203513899 0 0.14347338005148061 -0.1082488085161593 0 0.1474293378639818 -0.11515719203513899 0 0.15419764536576119 -0.1149677746217292 0 0.15201290161170181 -0.107226104105896 0 0.15419764536576119 -0.1149677746217292 0 0.15201290161170181 -0.107226104105896 0 0.1590985184781393 -0.1107939778183322 0 0.15419764536576119 -0.1149677746217292 0 0.15192118682329561 -0.12273271218809589 0 0.1605262820516872 -0.11892888696118289 0 0.1474293378639818 -0.11515719203513899 0 0.15419764536576119 -0.1149677746217292 0 0.15192118682329561 -0.12273271218809589 0 0.153855148049276 -0.097460838801678593 0 0.15201290161170181 -0.107226104105896 0 0.1462355681673109 -0.099255024001954253 0 0.153855148049276 -0.097460838801678593 0 0.1462355681673109 -0.099255024001954253 0 0.1490737095502995 -0.088653392770718792 0 0.153855148049276 -0.097460838801678593 0 0.15201290161170181 -0.107226104105896 0 0.16008969536972259 -0.10263897543636979 0 0.14347338005148061 -0.1082488085161593 0 0.1462355681673109 -0.099255024001954253 0 0.13800617896953651 -0.1013117005447786 0 0.15201290161170181 -0.107226104105896 0 0.14347338005148061 -0.1082488085161593 0 0.1462355681673109 -0.099255024001954253 0 0.1462355681673109 -0.099255024001954253 0 0.13800617896953651 -0.1013117005447786 0 0.14099209077157121 -0.092629299272494275 0 0.13800617896953651 -0.1013117005447786 0 0.1286838548293292 -0.09135300801218077 0 0.14099209077157121 -0.092629299272494275 0 0.13614161296009411 -0.11043119760519431 0 0.13800617896953651 -0.1013117005447786 0 0.12917406780106669 -0.1036793655145172 0 0.13614161296009411 -0.11043119760519431 0 0.14347338005148061 -0.1082488085161593 0 0.13800617896953651 -0.1013117005447786 0 0.1196469902177196 -0.1061558951397697 0 0.12686113813069899 -0.1114359576666621 0 0.12917406780106669 -0.1036793655145172 0 0.12686113813069899 -0.1114359576666621 0 0.13614161296009411 -0.11043119760519431 0 0.12917406780106669 -0.1036793655145172 0 0.1230450488982011 -0.098166020395255585 0 0.12917406780106669 -0.1036793655145172 0 0.1286838548293292 -0.09135300801218077 0 0.13800617896953651 -0.1013117005447786 0 0.12917406780106669 -0.1036793655145172 0 0.1286838548293292 -0.09135300801218077 0 0.1286838548293292 -0.09135300801218077 0 0.12857779857738699 -0.078718698725873171 0 0.13748132505412469 -0.08396770010957226 0 0.13748132505412469 -0.08396770010957226 0 0.1367334774756912 -0.073531819827653083 0 0.14538989296775451 -0.078880163337803719 0 0.12857779857738699 -0.078718698725873171 0 0.13748132505412469 -0.08396770010957226 0 0.1367334774756912 -0.073531819827653083 0 0.1286838548293292 -0.09135300801218077 0 0.13748132505412469 -0.08396770010957226 0 0.14099209077157121 -0.092629299272494275 0 0.12857779857738699 -0.078718698725873171 0 0.12708324658387871 -0.067240591211139955 0 0.1367334774756912 -0.073531819827653083 0 0.12708324658387871 -0.067240591211139955 0 0.1367334774756912 -0.073531819827653083 0 0.14110971147140131 -0.064913967020147179 0 0.1367334774756912 -0.073531819827653083 0 0.14110971147140131 -0.064913967020147179 0 0.14964674351361701 -0.070099729323911744 0 0.14110971147140131 -0.064913967020147179 0 0.14964674351361701 -0.070099729323911744 0 0.15194569281242609 -0.056105127932606663 0 0.1367334774756912 -0.073531819827653083 0 0.14964674351361701 -0.070099729323911744 0 0.14538989296775451 -0.078880163337803719 0 0.14964674351361701 -0.070099729323911744 0 0.14538989296775451 -0.078880163337803719 0 0.15822082836811369 -0.079982126599630443 0 0.14964674351361701 -0.070099729323911744 0 0.15822082836811369 -0.079982126599630443 0 0.1603896916223197 -0.069044426588861466 0 0.14964674351361701 -0.070099729323911744 0 0.1603896916223197 -0.069044426588861466 0 0.15194569281242609 -0.056105127932606663 0 0.13748132505412469 -0.08396770010957226 0 0.14099209077157121 -0.092629299272494275 0 0.1490737095502995 -0.088653392770718792 0 0.1462355681673109 -0.099255024001954253 0 0.14099209077157121 -0.092629299272494275 0 0.1490737095502995 -0.088653392770718792 0 0.13748132505412469 -0.08396770010957226 0 0.14538989296775451 -0.078880163337803719 0 0.1490737095502995 -0.088653392770718792 0 0.14538989296775451 -0.078880163337803719 0 0.1490737095502995 -0.088653392770718792 0 0.15822082836811369 -0.079982126599630443 0 0.153855148049276 -0.097460838801678593 0 0.1490737095502995 -0.088653392770718792 0 0.1594354292934542 -0.091737259282716963 0 0.1490737095502995 -0.088653392770718792 0 0.1594354292934542 -0.091737259282716963 0 0.15822082836811369 -0.079982126599630443 0 0.1594354292934542 -0.091737259282716963 0 0.15822082836811369 -0.079982126599630443 0 0.1684140015429216 -0.087293140772549349 0 0.15822082836811369 -0.079982126599630443 0 0.1684140015429216 -0.087293140772549349 0 0.1694423915093585 -0.075846288749261012 0 0.1684140015429216 -0.087293140772549349 0 0.1776016981043757 -0.094466756631608209 0 0.16825903644140999 -0.098606158866582916 0 0.1594354292934542 -0.091737259282716963 0 0.1684140015429216 -0.087293140772549349 0 0.16825903644140999 -0.098606158866582916 0 0.15822082836811369 -0.079982126599630443 0 0.1603896916223197 -0.069044426588861466 0 0.1694423915093585 -0.075846288749261012 0 0.1603896916223197 -0.069044426588861466 0 0.1694423915093585 -0.075846288749261012 0 0.17187576892014289 -0.062138750134232333 0 0.17971720707086189 -0.073145871694163048 0 0.17187576892014289 -0.062138750134232333 0 0.19180584502786041 -0.068172372335855602 0 0.17187576892014289 -0.062138750134232333 0 0.19180584502786041 -0.068172372335855602 0 0.1694423915093585 -0.075846288749261012 0 0.17971720707086189 -0.073145871694163048 0 0.17187576892014289 -0.062138750134232333 0 0.1694423915093585 -0.075846288749261012 0 0.17971720707086189 -0.073145871694163048 0 0.17803685153179119 -0.083473416706129469 0 0.17971720707086189 -0.073145871694163048 0 0.18645595400882431 -0.078186102724248294 0 0.19180584502786041 -0.068172372335855602 0 0.1684140015429216 -0.087293140772549349 0 0.17803685153179119 -0.083473416706129469 0 0.1776016981043757 -0.094466756631608209 0 0.1684140015429216 -0.087293140772549349 0 0.1694423915093585 -0.075846288749261012 0 0.17803685153179119 -0.083473416706129469 0 0.17803685153179119 -0.083473416706129469 0 0.18645595400882431 -0.078186102724248294 0 0.18748362772352481 -0.090285751384613616 0 0.17971720707086189 -0.073145871694163048 0 0.17803685153179119 -0.083473416706129469 0 0.18645595400882431 -0.078186102724248294 0 0.17803685153179119 -0.083473416706129469 0 0.18748362772352481 -0.090285751384613616 0 0.1776016981043757 -0.094466756631608209 0 0.1776016981043757 -0.094466756631608209 0 0.1757785255420414 -0.1036637588673371 0 0.18737718651252391 -0.1018645954104864 0 0.18748362772352481 -0.090285751384613616 0 0.1776016981043757 -0.094466756631608209 0 0.18737718651252391 -0.1018645954104864 0 0.1776016981043757 -0.094466756631608209 0 0.1757785255420414 -0.1036637588673371 0 0.16825903644140999 -0.098606158866582916 0 0.1757785255420414 -0.1036637588673371 0 0.17797479248166551 -0.1125427820454727 0 0.16787713834435419 -0.11000951374301229 0 0.1757785255420414 -0.1036637588673371 0 0.18737718651252391 -0.1018645954104864 0 0.17797479248166551 -0.1125427820454727 0 0.18737718651252391 -0.1018645954104864 0 0.18701697985041221 -0.11880972375357141 0 0.17797479248166551 -0.1125427820454727 0 0.18701697985041221 -0.11880972375357141 0 0.173543926957343 -0.1211375462363173 0 0.17990838590865871 -0.12844737664361131 0 0.18701697985041221 -0.11880972375357141 0 0.173543926957343 -0.1211375462363173 0 0.17797479248166551 -0.1125427820454727 0 0.173543926957343 -0.1211375462363173 0 0.17797479248166551 -0.1125427820454727 0 0.16787713834435419 -0.11000951374301229 0 0.173543926957343 -0.1211375462363173 0 0.16787713834435419 -0.11000951374301229 0 0.1605262820516872 -0.11892888696118289 0 0.173543926957343 -0.1211375462363173 0 0.1605262820516872 -0.11892888696118289 0 0.1641162962428066 -0.126449221113482 0 0.15192118682329561 -0.12273271218809589 0 0.1605262820516872 -0.11892888696118289 0 0.1587247560068413 -0.12564209046719049 0 0.1605262820516872 -0.11892888696118289 0 0.1587247560068413 -0.12564209046719049 0 0.1641162962428066 -0.126449221113482 0 0.15419764536576119 -0.1149677746217292 0 0.1605262820516872 -0.11892888696118289 0 0.1590985184781393 -0.1107939778183322 0 0.16787713834435419 -0.11000951374301229 0 0.1605262820516872 -0.11892888696118289 0 0.1590985184781393 -0.1107939778183322 0 0.15201290161170181 -0.107226104105896 0 0.1590985184781393 -0.1107939778183322 0 0.16008969536972259 -0.10263897543636979 0 0.16787713834435419 -0.11000951374301229 0 0.1590985184781393 -0.1107939778183322 0 0.16008969536972259 -0.10263897543636979 0 0.1594354292934542 -0.091737259282716963 0 0.16008969536972259 -0.10263897543636979 0 0.16825903644140999 -0.098606158866582916 0 0.153855148049276 -0.097460838801678593 0 0.1594354292934542 -0.091737259282716963 0 0.16008969536972259 -0.10263897543636979 0 0.1757785255420414 -0.1036637588673371 0 0.16787713834435419 -0.11000951374301229 0 0.16825903644140999 -0.098606158866582916 0 0.16787713834435419 -0.11000951374301229 0 0.16008969536972259 -0.10263897543636979 0 0.16825903644140999 -0.098606158866582916 0 0.1552076984021574 -0.0047487866015848753 0 0.1380919344669613 -0.01469948322874493 0 0.1606476670511833 -0.017066892083396779 0 0.14127976741107601 0.00215554095495248 0 0.1552076984021574 -0.0047487866015848753 0 0.1380919344669613 -0.01469948322874493 0 0.14127976741107601 0.00215554095495248 0 0.1228376310831711 -0.00076623140119310329 0 0.1380919344669613 -0.01469948322874493 0 0.1228376310831711 -0.00076623140119310329 0 0.1380919344669613 -0.01469948322874493 0 0.12490934658110441 -0.01526235729042 0 0.1228376310831711 -0.00076623140119310329 0 0.1380919344669613 -0.01469948322874493 0 0.1380919344669613 -0.01469948322874493 0 0.1415761600091012 -0.038003691908970592 0 0.12969235634276979 -0.031284000123743903 0 0.1213672368215104 -0.025634276355807499 0 0.12490934658110441 -0.01526235729042 0 0.12969235634276979 -0.031284000123743903 0 0.12490934658110441 -0.01526235729042 0 0.1380919344669613 -0.01469948322874493 0 0.12969235634276979 -0.031284000123743903 0 0.1380919344669613 -0.01469948322874493 0 0.15334623785075199 -0.02863273505629621 0 0.1415761600091012 -0.038003691908970592 0 0.1380919344669613 -0.01469948322874493 0 0.15334623785075199 -0.02863273505629621 0 0.1606476670511833 -0.017066892083396779 0 0.1380919344669613 -0.01469948322874493 0 0.15334623785075199 -0.02863273505629621 0 0.15437572795414581 -0.042117567211766717 0 0.1415761600091012 -0.038003691908970592 0 0.15194569281242609 -0.056105127932606663 0 0.15334623785075199 -0.02863273505629621 0 0.15437572795414581 -0.042117567211766717 0 0.1415761600091012 -0.038003691908970592 0 0.1181844865236701 -0.045884275653046647 0 0.1283586559847627 -0.040725310836502493 0 0.1350650896680477 -0.050994701792827862 0 0.1415761600091012 -0.038003691908970592 0 0.12969235634276979 -0.031284000123743903 0 0.1283586559847627 -0.040725310836502493 0 0.1169603374125384 -0.034526050343312617 0 0.12969235634276979 -0.031284000123743903 0 0.1283586559847627 -0.040725310836502493 0 0.1415761600091012 -0.038003691908970592 0 0.1283586559847627 -0.040725310836502493 0 0.1350650896680477 -0.050994701792827862 0 0.1181844865236701 -0.045884275653046647 0 0.1350650896680477 -0.050994701792827862 0 0.12021542192502691 -0.05736310542253667 0 0.12708324658387871 -0.067240591211139955 0 0.1350650896680477 -0.050994701792827862 0 0.12708324658387871 -0.067240591211139955 0 0.14110971147140131 -0.064913967020147179 0 0.1350650896680477 -0.050994701792827862 0 0.14110971147140131 -0.064913967020147179 0 0.15194569281242609 -0.056105127932606663 0 0.1415761600091012 -0.038003691908970592 0 0.1350650896680477 -0.050994701792827862 0 0.15194569281242609 -0.056105127932606663 0 0.1350650896680477 -0.050994701792827862 0 0.15194569281242609 -0.056105127932606663 0 0.14110971147140131 -0.064913967020147179 0 0.1350650896680477 -0.050994701792827862 0 0.15194569281242609 -0.056105127932606663 0 0.15194569281242609 -0.056105127932606663 0 0.16860054123454279 -0.042565986883847551 0 0.15437572795414581 -0.042117567211766717 0 0.15194569281242609 -0.056105127932606663 0 0.16860054123454279 -0.042565986883847551 0 0.1603896916223197 -0.069044426588861466 0 0.15194569281242609 -0.056105127932606663 0 0.17187576892014289 -0.062138750134232333 0 0.15194569281242609 -0.056105127932606663 0 0.165016394264413 -0.053661354003145263 0 0.17187576892014289 -0.062138750134232333 0 0.15194569281242609 -0.056105127932606663 0 0.165016394264413 -0.053661354003145263 0 0.16860054123454279 -0.042565986883847551 0 0.15194569281242609 -0.056105127932606663 0 0.17187576892014289 -0.062138750134232333 0 0.165016394264413 -0.053661354003145263 0 0.17187576892014289 -0.062138750134232333 0 0.18345715790010181 -0.056135992415964377 0 0.165016394264413 -0.053661354003145263 0 0.18345715790010181 -0.056135992415964377 0 0.16860054123454279 -0.042565986883847551 0 0.17187576892014289 -0.062138750134232333 0 0.18345715790010181 -0.056135992415964377 0 0.19180584502786041 -0.068172372335855602 0 0.18345715790010181 -0.056135992415964377 0 0.17385144243116649 -0.043269821226828903 0 0.18595588634396351 -0.043176695624854357 0 0.18345715790010181 -0.056135992415964377 0 0.17385144243116649 -0.043269821226828903 0 0.16860054123454279 -0.042565986883847551 0 0.18345715790010181 -0.056135992415964377 0 0.16860054123454279 -0.042565986883847551 0 0.18595588634396351 -0.043176695624854357 0 0.1782733089797521 -0.034702753096601993 0 0.1941468740000297 -0.021798736782002521 0 0.17385144243116649 -0.043269821226828903 0 0.18595588634396351 -0.043176695624854357 0 0.1782733089797521 -0.034702753096601993 0 0.17385144243116649 -0.043269821226828903 0 0.1782733089797521 -0.034702753096601993 0 0.16860054123454279 -0.042565986883847551 0 0.1782733089797521 -0.034702753096601993 0 0.16860054123454279 -0.042565986883847551 0 0.17385144243116649 -0.043269821226828903 0 0.1782733089797521 -0.034702753096601993 0 0.1782733089797521 -0.034702753096601993 0 0.16860054123454279 -0.042565986883847551 0 0.1670526359884773 -0.02836254214418232 0 0.15334623785075199 -0.02863273505629621 0 0.16860054123454279 -0.042565986883847551 0 0.1670526359884773 -0.02836254214418232 0 0.15334623785075199 -0.02863273505629621 0 0.15437572795414581 -0.042117567211766717 0 0.16860054123454279 -0.042565986883847551 0 0.15334623785075199 -0.02863273505629621 0 0.16860054123454279 -0.042565986883847551 0 0.15334623785075199 -0.02863273505629621 0 0.1606476670511833 -0.017066892083396779 0 0.1670526359884773 -0.02836254214418232 0 0.1606476670511833 -0.017066892083396779 0 0.1670526359884773 -0.02836254214418232 0 0.1743954248261565 -0.018844343600769399 0 0.1782733089797521 -0.034702753096601993 0 0.1743954248261565 -0.018844343600769399 0 0.1918659379284415 -0.0083679514935210662 0 0.1782733089797521 -0.034702753096601993 0 0.1670526359884773 -0.02836254214418232 0 0.1743954248261565 -0.018844343600769399 0 0.1782733089797521 -0.034702753096601993 0 0.1918659379284415 -0.0083679514935210662 0 0.1782733089797521 -0.034702753096601993 0 0.1941468740000297 -0.021798736782002521 0 0.1743954248261565 -0.018844343600769399 0 0.17983697574181159 -0.0080573062328258595 0 0.1918659379284415 -0.0083679514935210662 0 0.1743954248261565 -0.018844343600769399 0 0.17983697574181159 -0.0080573062328258595 0 0.17056947168728639 -0.0076341498549102596 0 0.17983697574181159 -0.0080573062328258595 0 0.18580903226614379 -0.0011502469314075439 0 0.17786282304025339 -0.001583287003114023 0 0.17983697574181159 -0.0080573062328258595 0 0.18580903226614379 -0.0011502469314075439 0 0.1918659379284415 -0.0083679514935210662 0 0.17983697574181159 -0.0080573062328258595 0 0.17786282304025339 -0.001583287003114023 0 0.17056947168728639 -0.0076341498549102596 0 0.17227434920368959 0.00081991249798677823 0 0.17786282304025339 -0.001583287003114023 0 0.17056947168728639 -0.0076341498549102596 0 0.17227434920368959 0.00081991249798677823 0 0.16550177429739321 0.001625335581948511 0 0.17056947168728639 -0.0076341498549102596 0 0.1606476670511833 -0.017066892083396779 0 0.1743954248261565 -0.018844343600769399 0 0.17056947168728639 -0.0076341498549102596 0 0.1552076984021574 -0.0047487866015848753 0 0.1606476670511833 -0.017066892083396779 0 0.17056947168728639 -0.0076341498549102596 0 0.15830422717032419 0.0026668804518291322 0 0.16550177429739321 0.001625335581948511 0 0.1552076984021574 -0.0047487866015848753 0 0.16550177429739321 0.001625335581948511 0 0.1552076984021574 -0.0047487866015848753 0 0.17056947168728639 -0.0076341498549102596 0 0.21653748859829491 -0.0035968485671754561 0 0.20239897911060981 -0.0049616950454924097 0 0.1941468740000297 -0.021798736782002521 0 0.21653748859829491 -0.0035968485671754561 0 0.1941468740000297 -0.021798736782002521 0 0.20955206102217341 -0.019021580532265901 0 0.21653748859829491 -0.0035968485671754561 0 0.20955206102217341 -0.019021580532265901 0 0.22864161374710179 -0.024239001361894639 0 0.21653748859829491 -0.0035968485671754561 0 0.1941468740000297 -0.021798736782002521 0 0.20938161325362409 0.0025060029461209908 0 0.21653748859829491 -0.0035968485671754561 0 0.20239897911060981 -0.0049616950454924097 0 0.19981118715584381 0.0070254328827108366 0 0.20239897911060981 -0.0049616950454924097 0 0.1918659379284415 -0.0083679514935210662 0 0.19981118715584381 0.0070254328827108366 0 0.1918659379284415 -0.0083679514935210662 0 0.20239897911060981 -0.0049616950454924097 0 0.1918659379284415 -0.0083679514935210662 0 0.1941468740000297 -0.021798736782002521 0 0.1894192936343001 0.0060385698470956234 0 0.18580903226614379 -0.0011502469314075439 0 0.1918659379284415 -0.0083679514935210662 0 0.1894192936343001 0.0060385698470956234 0 0.1918659379284415 -0.0083679514935210662 0 0.1918659379284415 -0.0083679514935210662 0 0.1941468740000297 -0.021798736782002521 0 0.1782733089797521 -0.034702753096601993 0 0.1918659379284415 -0.0083679514935210662 0 0.1941468740000297 -0.021798736782002521 0 0.1941468740000297 -0.021798736782002521 0 0.2031559883210855 -0.029985938475911671 0 0.20955206102217341 -0.019021580532265901 0 0.20955206102217341 -0.019021580532265901 0 0.21066165658577479 -0.033085676709690801 0 0.22864161374710179 -0.024239001361894639 0 0.2031559883210855 -0.029985938475911671 0 0.20955206102217341 -0.019021580532265901 0 0.21066165658577479 -0.033085676709690801 0 0.21864271396698939 -0.038649087319523719 0 0.21066165658577479 -0.033085676709690801 0 0.21034122995680221 -0.050048420551560682 0 0.21066165658577479 -0.033085676709690801 0 0.1982633616763636 -0.046037759879686967 0 0.21034122995680221 -0.050048420551560682 0 0.2031559883210855 -0.029985938475911671 0 0.21066165658577479 -0.033085676709690801 0 0.1982633616763636 -0.046037759879686967 0 0.21864271396698939 -0.038649087319523719 0 0.21034122995680221 -0.050048420551560682 0 0.21819242210762169 -0.050823402618315167 0 0.1941468740000297 -0.021798736782002521 0 0.2031559883210855 -0.029985938475911671 0 0.1982633616763636 -0.046037759879686967 0 0.18595588634396351 -0.043176695624854357 0 0.1941468740000297 -0.021798736782002521 0 0.1982633616763636 -0.046037759879686967 0 0.1941468740000297 -0.021798736782002521 0 0.1982633616763636 -0.046037759879686967 0 0.1982633616763636 -0.046037759879686967 0 0.19180584502786041 -0.068172372335855602 0 0.20237984935269879 -0.070276782977371152 0 0.1982633616763636 -0.046037759879686967 0 0.20237984935269879 -0.070276782977371152 0 0.18345715790010181 -0.056135992415964377 0 0.1982633616763636 -0.046037759879686967 0 0.19180584502786041 -0.068172372335855602 0 0.18345715790010181 -0.056135992415964377 0 0.18595588634396351 -0.043176695624854357 0 0.1982633616763636 -0.046037759879686967 0 0.21034122995680221 -0.050048420551560682 0 0.21390737605136481 -0.061417813804776289 0 0.20237984935269879 -0.070276782977371152 0 0.1982633616763636 -0.046037759879686967 0 0.21034122995680221 -0.050048420551560682 0 0.20237984935269879 -0.070276782977371152 0 0.21034122995680221 -0.050048420551560682 0 0.21819242210762169 -0.050823402618315167 0 0.21390737605136481 -0.061417813804776289 0 0.2255736282180465 -0.056882305063223393 0 0.23627526009844421 -0.049694667024589079 0 0.23165324526163639 -0.065502610206523884 0 0.21390737605136481 -0.061417813804776289 0 0.2255736282180465 -0.056882305063223393 0 0.2221192681341374 -0.068345353637844553 0 0.21819242210762169 -0.050823402618315167 0 0.21390737605136481 -0.061417813804776289 0 0.2255736282180465 -0.056882305063223393 0 0.21819242210762169 -0.050823402618315167 0 0.2255736282180465 -0.056882305063223393 0 0.22546512762764079 -0.044057692677509197 0 0.2255736282180465 -0.056882305063223393 0 0.23627526009844421 -0.049694667024589079 0 0.22546512762764079 -0.044057692677509197 0 0.24617004458672351 -0.058202332164817121 0 0.23627526009844421 -0.049694667024589079 0 0.24390890644978661 -0.075150332687283522 0 0.23627526009844421 -0.049694667024589079 0 0.24390890644978661 -0.075150332687283522 0 0.25164978009717781 -0.053061021673298493 0 0.24617004458672351 -0.058202332164817121 0 0.24422464309495209 -0.046986837608536558 0 0.24617004458672351 -0.058202332164817121 0 0.24422464309495209 -0.046986837608536558 0 0.23627526009844421 -0.049694667024589079 0 0.25164978009717781 -0.053061021673298493 0 0.2539732262079259 -0.044675773385505282 0 0.24422464309495209 -0.046986837608536558 0 0.24422464309495209 -0.046986837608536558 0 0.23627526009844421 -0.049694667024589079 0 0.24524507923365879 -0.0330622213940093 0 0.25845033672230949 -0.02738613623275089 0 0.24422464309495209 -0.046986837608536558 0 0.24524507923365879 -0.0330622213940093 0 0.23627526009844421 -0.049694667024589079 0 0.24524507923365879 -0.0330622213940093 0 0.22864161374710179 -0.024239001361894639 0 0.21864271396698939 -0.038649087319523719 0 0.21066165658577479 -0.033085676709690801 0 0.22864161374710179 -0.024239001361894639 0 0.23627526009844421 -0.049694667024589079 0 0.22864161374710179 -0.024239001361894639 0 0.21864271396698939 -0.038649087319523719 0 0.22546512762764079 -0.044057692677509197 0 0.22864161374710179 -0.024239001361894639 0 0.23627526009844421 -0.049694667024589079 0 0.22546512762764079 -0.044057692677509197 0 0.22864161374710179 -0.024239001361894639 0 0.21864271396698939 -0.038649087319523719 0 0.21819242210762169 -0.050823402618315167 0 0.22546512762764079 -0.044057692677509197 0 0.22864161374710179 -0.024239001361894639 0 0.24437070500465241 -0.019757014484825589 0 0.23246643938152739 -0.0092251246746631842 0 0.24524507923365879 -0.0330622213940093 0 0.22864161374710179 -0.024239001361894639 0 0.24437070500465241 -0.019757014484825589 0 0.25013504981522988 -0.025019616072594848 0 0.24524507923365879 -0.0330622213940093 0 0.24437070500465241 -0.019757014484825589 0 0.25247407830029878 -0.019873092178793648 0 0.25006914023697918 -0.01208141302270524 0 0.24437070500465241 -0.019757014484825589 0 0.25013504981522988 -0.025019616072594848 0 0.25247407830029878 -0.019873092178793648 0 0.24437070500465241 -0.019757014484825589 0 0.24437070500465241 -0.019757014484825589 0 0.242989310538931 -0.0092135161021761666 0 0.23246643938152739 -0.0092251246746631842 0 0.25006914023697918 -0.01208141302270524 0 0.242989310538931 -0.0092135161021761666 0 0.2479891295484222 -0.0022684572774312019 0 0.25006914023697918 -0.01208141302270524 0 0.24437070500465241 -0.019757014484825589 0 0.242989310538931 -0.0092135161021761666 0 0.2429424487767215 0.0026164120279975069 0 0.2479891295484222 -0.0022684572774312019 0 0.24005113852307369 -0.0027355710512556022 0 0.242989310538931 -0.0092135161021761666 0 0.2479891295484222 -0.0022684572774312019 0 0.24005113852307369 -0.0027355710512556022 0 0.23517440673197429 0.0051848507458196356 0 0.24005113852307369 -0.0027355710512556022 0 0.23246643938152739 -0.0092251246746631842 0 0.242989310538931 -0.0092135161021761666 0 0.24005113852307369 -0.0027355710512556022 0 0.23246643938152739 -0.0092251246746631842 0 0.22100796739575951 0.001216664300799794 0 0.22864161374710179 -0.024239001361894639 0 0.23246643938152739 -0.0092251246746631842 0 0.23517440673197429 0.0051848507458196356 0 0.22100796739575951 0.001216664300799794 0 0.23246643938152739 -0.0092251246746631842 0 0.22100796739575951 0.001216664300799794 0 0.21653748859829491 -0.0035968485671754561 0 0.22864161374710179 -0.024239001361894639 0 0.22100796739575951 0.001216664300799794 0 0.22864161374710179 -0.024239001361894639 0 0.206496337029034 -0.094515806075055359 0 0.21061282470536921 -0.1187548291727395 0 0.206496337029034 -0.094515806075055359 0 0.22623965631488491 -0.089683688039789988 0 0.22333782165884589 -0.10574313483481231 0 0.206496337029034 -0.094515806075055359 0 0.21061282470536921 -0.1187548291727395 0 0.22333782165884589 -0.10574313483481231 0 0.18737718651252391 -0.1018645954104864 0 0.18701697985041221 -0.11880972375357141 0 0.21061282470536921 -0.1187548291727395 0 0.18701697985041221 -0.11880972375357141 0 0.21061282470536921 -0.1187548291727395 0 0.19260125287660149 -0.13207131947283501 0 0.18748362772352481 -0.090285751384613616 0 0.18737718651252391 -0.1018645954104864 0 0.206496337029034 -0.094515806075055359 0 0.18737718651252391 -0.1018645954104864 0 0.206496337029034 -0.094515806075055359 0 0.21061282470536921 -0.1187548291727395 0 0.18748362772352481 -0.090285751384613616 0 0.206496337029034 -0.094515806075055359 0 0.19448955746265811 -0.082220240722777116 0 0.206496337029034 -0.094515806075055359 0 0.19448955746265811 -0.082220240722777116 0 0.20237984935269879 -0.070276782977371152 0 0.18645595400882431 -0.078186102724248294 0 0.18748362772352481 -0.090285751384613616 0 0.19448955746265811 -0.082220240722777116 0 0.18645595400882431 -0.078186102724248294 0 0.19448955746265811 -0.082220240722777116 0 0.19180584502786041 -0.068172372335855602 0 0.19448955746265811 -0.082220240722777116 0 0.19180584502786041 -0.068172372335855602 0 0.20237984935269879 -0.070276782977371152 0 0.21390737605136481 -0.061417813804776289 0 0.20237984935269879 -0.070276782977371152 0 0.21248527081093549 -0.070330245212121473 0 0.20237984935269879 -0.070276782977371152 0 0.21248527081093549 -0.070330245212121473 0 0.2145783618208984 -0.079628257083024359 0 0.21248527081093549 -0.070330245212121473 0 0.2145783618208984 -0.079628257083024359 0 0.2221192681341374 -0.068345353637844553 0 0.21390737605136481 -0.061417813804776289 0 0.21248527081093549 -0.070330245212121473 0 0.2221192681341374 -0.068345353637844553 0 0.206496337029034 -0.094515806075055359 0 0.20237984935269879 -0.070276782977371152 0 0.2145783618208984 -0.079628257083024359 0 0.206496337029034 -0.094515806075055359 0 0.2145783618208984 -0.079628257083024359 0 0.22623965631488491 -0.089683688039789988 0 0.206496337029034 -0.094515806075055359 0 0.20237984935269879 -0.070276782977371152 0 0.2145783618208984 -0.079628257083024359 0 0.22623965631488491 -0.089683688039789988 0 0.23038916340776741 -0.077440392619678861 0 0.22623965631488491 -0.089683688039789988 0 0.23038916340776741 -0.077440392619678861 0 0.23781669784438761 -0.088769324738514177 0 0.22623965631488491 -0.089683688039789988 0 0.23781669784438761 -0.088769324738514177 0 0.23714180950183539 -0.10160942858925499 0 0.2145783618208984 -0.079628257083024359 0 0.2221192681341374 -0.068345353637844553 0 0.23038916340776741 -0.077440392619678861 0 0.2255736282180465 -0.056882305063223393 0 0.2221192681341374 -0.068345353637844553 0 0.23165324526163639 -0.065502610206523884 0 0.2221192681341374 -0.068345353637844553 0 0.23038916340776741 -0.077440392619678861 0 0.23165324526163639 -0.065502610206523884 0 0.25256726729664603 -0.064532785491330763 0 0.24617004458672351 -0.058202332164817121 0 0.24390890644978661 -0.075150332687283522 0 0.23627526009844421 -0.049694667024589079 0 0.23165324526163639 -0.065502610206523884 0 0.24390890644978661 -0.075150332687283522 0 0.23038916340776741 -0.077440392619678861 0 0.23165324526163639 -0.065502610206523884 0 0.24390890644978661 -0.075150332687283522 0 0.25154255280112903 -0.1006059983499779 0 0.24390890644978661 -0.075150332687283522 0 0.25154255280112903 -0.1006059983499779 0 0.24390890644978661 -0.075150332687283522 0 0.23781669784438761 -0.088769324738514177 0 0.23038916340776741 -0.077440392619678861 0 0.24390890644978661 -0.075150332687283522 0 0.23781669784438761 -0.088769324738514177 0 0.25154255280112903 -0.1006059983499779 0 0.23714180950183539 -0.10160942858925499 0 0.24954668948061209 -0.11284283178631641 0 0.25154255280112903 -0.1006059983499779 0 0.23781669784438761 -0.088769324738514177 0 0.23714180950183539 -0.10160942858925499 0 0.23714180950183539 -0.10160942858925499 0 0.22333782165884589 -0.10574313483481231 0 0.23542538064511609 -0.1194854446592761 0 0.22623965631488491 -0.089683688039789988 0 0.23714180950183539 -0.10160942858925499 0 0.22333782165884589 -0.10574313483481231 0 0.21061282470536921 -0.1187548291727395 0 0.22333782165884589 -0.10574313483481231 0 0.23542538064511609 -0.1194854446592761 0 0.25741251913389712 -0.1305951081492244 0 0.23542538064511609 -0.1194854446592761 0 0.24954668948061209 -0.11284283178631641 0 0.23714180950183539 -0.10160942858925499 0 0.23542538064511609 -0.1194854446592761 0 0.24954668948061209 -0.11284283178631641 0 0.25741251913389712 -0.1305951081492244 0 0.25452239946831973 -0.14829655140993131 0 0.23191914561449989 -0.13726295483178369 0 0.25741251913389712 -0.1305951081492244 0 0.23542538064511609 -0.1194854446592761 0 0.23191914561449989 -0.13726295483178369 0 0.25452239946831973 -0.14829655140993131 0 0.23782434991563151 -0.15439369078169049 0 0.23191914561449989 -0.13726295483178369 0 0.23782434991563151 -0.15439369078169049 0 0.2147293123817042 -0.1429938522704238 0 0.23782434991563151 -0.15439369078169049 0 0.2147293123817042 -0.1429938522704238 0 0.21952864142792899 -0.1712536350637954 0 0.23782434991563151 -0.15439369078169049 0 0.23191914561449989 -0.13726295483178369 0 0.2147293123817042 -0.1429938522704238 0 0.21061282470536921 -0.1187548291727395 0 0.23542538064511609 -0.1194854446592761 0 0.23191914561449989 -0.13726295483178369 0 0.21061282470536921 -0.1187548291727395 0 0.23191914561449989 -0.13726295483178369 0 0.2147293123817042 -0.1429938522704238 0 0.2147293123817042 -0.1429938522704238 0 0.19260125287660149 -0.13207131947283501 0 0.21061282470536921 -0.1187548291727395 0 0.2147293123817042 -0.1429938522704238 0 0.19260125287660149 -0.13207131947283501 0 0.21061282470536921 -0.1187548291727395 0 0.2147293123817042 -0.1429938522704238 0 0.2147293123817042 -0.1429938522704238 0 0.20548350855114439 -0.15623176612928341 0 0.19677556980284089 -0.14597147697610061 0 0.20548350855114439 -0.15623176612928341 0 0.19677556980284089 -0.14597147697610061 0 0.19325106823209409 -0.153061144976989 0 0.19677556980284089 -0.14597147697610061 0 0.19325106823209409 -0.153061144976989 0 0.18786488322971459 -0.15098965934649999 0 0.19325106823209409 -0.153061144976989 0 0.18786488322971459 -0.15098965934649999 0 0.1842505296355367 -0.15589311325690541 0 0.19677556980284089 -0.14597147697610061 0 0.18786488322971459 -0.15098965934649999 0 0.188659048266132 -0.1418371739210742 0 0.2147293123817042 -0.1429938522704238 0 0.19677556980284089 -0.14597147697610061 0 0.19260125287660149 -0.13207131947283501 0 0.19677556980284089 -0.14597147697610061 0 0.188659048266132 -0.1418371739210742 0 0.19260125287660149 -0.13207131947283501 0 0.18830323417204939 -0.1765657128700695 0 0.20313295091115369 -0.1678787213591082 0 0.20600005448239761 -0.18645800734220749 0 0.18830323417204939 -0.1765657128700695 0 0.20600005448239761 -0.18645800734220749 0 0.1956377870383576 -0.1970896374814364 0 0.19325106823209409 -0.153061144976989 0 0.18830323417204939 -0.1765657128700695 0 0.19325106823209409 -0.153061144976989 0 0.18830323417204939 -0.1765657128700695 0 0.20313295091115369 -0.1678787213591082 0 0.19325106823209409 -0.153061144976989 0 0.18830323417204939 -0.1765657128700695 0 0.18144082188941271 -0.16389154531309821 0 0.20548350855114439 -0.15623176612928341 0 0.19325106823209409 -0.153061144976989 0 0.20313295091115369 -0.1678787213591082 0 0.20548350855114439 -0.15623176612928341 0 0.20313295091115369 -0.1678787213591082 0 0.21952864142792899 -0.1712536350637954 0 0.2147293123817042 -0.1429938522704238 0 0.21952864142792899 -0.1712536350637954 0 0.2147293123817042 -0.1429938522704238 0 0.20548350855114439 -0.15623176612928341 0 0.21952864142792899 -0.1712536350637954 0 0.20600005448239761 -0.18645800734220749 0 0.21952864142792899 -0.1712536350637954 0 0.22432797047415351 -0.19951341785716731 0 0.20313295091115369 -0.1678787213591082 0 0.20600005448239761 -0.18645800734220749 0 0.21952864142792899 -0.1712536350637954 0 0.21952864142792899 -0.1712536350637954 0 0.2437278363918948 -0.18195096812212239 0 0.22432797047415351 -0.19951341785716731 0 0.21952864142792899 -0.1712536350637954 0 0.22432797047415351 -0.19951341785716731 0 0.23782434991563151 -0.15439369078169049 0 0.21952864142792899 -0.1712536350637954 0 0.2437278363918948 -0.18195096812212239 0 0.260919387449559 -0.16579352929295721 0 0.23782434991563151 -0.15439369078169049 0 0.260919387449559 -0.16579352929295721 0 0.23782434991563151 -0.15439369078169049 0 0.2437278363918948 -0.18195096812212239 0 0.2437278363918948 -0.18195096812212239 0 0.24314545538918961 -0.20571013864437751 0 0.22432797047415351 -0.19951341785716731 0 0.2593871514889205 -0.19799184377322379 0 0.2437278363918948 -0.18195096812212239 0 0.24314545538918961 -0.20571013864437751 0 0.22432797047415351 -0.19951341785716731 0 0.2342802842193491 -0.2219117808856606 0 0.21564630723174069 -0.21833189921059021 0 0.24314545538918961 -0.20571013864437751 0 0.22432797047415351 -0.19951341785716731 0 0.2342802842193491 -0.2219117808856606 0 0.2462907050713771 -0.25204034373521428 0 0.2499607574480687 -0.24385609709525671 0 0.2374752251495614 -0.24157268794541539 0 0.25134951441318748 -0.22920843539767929 0 0.2499607574480687 -0.24385609709525671 0 0.2374752251495614 -0.24157268794541539 0 0.25134951441318748 -0.22920843539767929 0 0.24314545538918961 -0.20571013864437751 0 0.2342802842193491 -0.2219117808856606 0 0.25134951441318748 -0.22920843539767929 0 0.2374752251495614 -0.24157268794541539 0 0.2342802842193491 -0.2219117808856606 0 0.2374752251495614 -0.24157268794541539 0 0.22060620183210919 -0.232775489656291 0 0.2342802842193491 -0.2219117808856606 0 0.22060620183210919 -0.232775489656291 0 0.2342802842193491 -0.2219117808856606 0 0.21564630723174069 -0.21833189921059021 0 0.22198339683909701 -0.25340717595137879 0 0.2374752251495614 -0.24157268794541539 0 0.22060620183210919 -0.232775489656291 0 0.22198339683909701 -0.25340717595137879 0 0.22060620183210919 -0.232775489656291 0 0.22198339683909701 -0.25340717595137879 0 0.22060620183210919 -0.232775489656291 0 0.20573671357227499 -0.23448295905173899 0 0.22198339683909701 -0.25340717595137879 0 0.20573671357227499 -0.23448295905173899 0 0.19815896102696709 -0.24816545406213189 0 0.22060620183210919 -0.232775489656291 0 0.20573671357227499 -0.23448295905173899 0 0.21564630723174069 -0.21833189921059021 0 0.20573671357227499 -0.23448295905173899 0 0.19801089506944891 -0.22061097325298201 0 0.21564630723174069 -0.21833189921059021 0 0.20573671357227499 -0.23448295905173899 0 0.19801089506944891 -0.22061097325298201 0 0.18862314846194941 -0.23474346369713109 0 0.19801089506944891 -0.22061097325298201 0 0.18862314846194941 -0.23474346369713109 0 0.17884496266341901 -0.22149700646801701 0 0.20573671357227499 -0.23448295905173899 0 0.18862314846194941 -0.23474346369713109 0 0.19815896102696709 -0.24816545406213189 0 0.20600005448239761 -0.18645800734220749 0 0.22432797047415351 -0.19951341785716731 0 0.20571207111442141 -0.20503903284801611 0 0.22432797047415351 -0.19951341785716731 0 0.21564630723174069 -0.21833189921059021 0 0.20571207111442141 -0.20503903284801611 0 0.19801089506944891 -0.22061097325298201 0 0.21564630723174069 -0.21833189921059021 0 0.20571207111442141 -0.20503903284801611 0 0.19801089506944891 -0.22061097325298201 0 0.19227081910603411 -0.2100117569492751 0 0.17884496266341901 -0.22149700646801701 0 0.20571207111442141 -0.20503903284801611 0 0.19227081910603411 -0.2100117569492751 0 0.1956377870383576 -0.1970896374814364 0 0.19801089506944891 -0.22061097325298201 0 0.20571207111442141 -0.20503903284801611 0 0.19227081910603411 -0.2100117569492751 0 0.18830323417204939 -0.1765657128700695 0 0.1956377870383576 -0.1970896374814364 0 0.18335540011200491 -0.20007028076315 0 0.19227081910603411 -0.2100117569492751 0 0.1956377870383576 -0.1970896374814364 0 0.18335540011200491 -0.20007028076315 0 0.1956377870383576 -0.1970896374814364 0 0.18335540011200491 -0.20007028076315 0 0.20600005448239761 -0.18645800734220749 0 0.20571207111442141 -0.20503903284801611 0 0.1956377870383576 -0.1970896374814364 0 0.18830323417204939 -0.1765657128700695 0 0.18335540011200491 -0.20007028076315 0 0.18335540011200491 -0.20007028076315 0 0.16873688803845349 -0.19227854821165941 0 0.17543185729929969 -0.18273889272689711 0 0.19227081910603411 -0.2100117569492751 0 0.18335540011200491 -0.20007028076315 0 0.17884496266341901 -0.22149700646801701 0 0.18335540011200491 -0.20007028076315 0 0.17884496266341901 -0.22149700646801701 0 0.18335540011200491 -0.20007028076315 0 0.16621660047528611 -0.21253283526692829 0 0.17884496266341901 -0.22149700646801701 0 0.16621660047528611 -0.21253283526692829 0 0.1593158439583067 -0.2059041094785751 0 0.15302060169630469 -0.2217977003443504 0 0.18335540011200491 -0.20007028076315 0 0.16621660047528611 -0.21253283526692829 0 0.1593158439583067 -0.2059041094785751 0 0.16621660047528611 -0.21253283526692829 0 0.1593158439583067 -0.2059041094785751 0 0.1593158439583067 -0.2059041094785751 0 0.15759932706250929 -0.18907488386135229 0 0.16873688803845349 -0.19227854821165941 0 0.18335540011200491 -0.20007028076315 0 0.1593158439583067 -0.2059041094785751 0 0.18335540011200491 -0.20007028076315 0 0.1593158439583067 -0.2059041094785751 0 0.16873688803845349 -0.19227854821165941 0 0.18066177981631051 -0.25348299893649828 0 0.19815896102696709 -0.24816545406213189 0 0.17433452521483719 -0.24292373217288479 0 0.19815896102696709 -0.24816545406213189 0 0.17433452521483719 -0.24292373217288479 0 0.18862314846194941 -0.23474346369713109 0 0.19815896102696709 -0.24816545406213189 0 0.17433452521483719 -0.24292373217288479 0 0.18066177981631051 -0.25348299893649828 0 0.17304535898525439 -0.24904788565112909 0 0.17433452521483719 -0.24292373217288479 0 0.17304535898525439 -0.24904788565112909 0 0.17433452521483719 -0.24292373217288479 0 0.18862314846194941 -0.23474346369713109 0 0.17433452521483719 -0.24292373217288479 0 0.17884496266341901 -0.22149700646801701 0 0.17433452521483719 -0.24292373217288479 0 0.17884496266341901 -0.22149700646801701 0 0.17433452521483719 -0.24292373217288479 0 0.17884496266341901 -0.22149700646801701 0 0.16512535944417561 -0.22744738033917331 0 0.16512535944417561 -0.22744738033917331 0 0.15532271566916761 -0.23874085795770611 0 0.15302060169630469 -0.2217977003443504 0 0.16621660047528611 -0.21253283526692829 0 0.17884496266341901 -0.22149700646801701 0 0.16512535944417561 -0.22744738033917331 0 0.16621660047528611 -0.21253283526692829 0 0.16512535944417561 -0.22744738033917331 0 0.15302060169630469 -0.2217977003443504 0 0.17304535898525439 -0.24904788565112909 0 0.17433452521483719 -0.24292373217288479 0 0.15532271566916761 -0.23874085795770611 0 0.15867772839633809 -0.25707915377424612 0 0.17304535898525439 -0.24904788565112909 0 0.15532271566916761 -0.23874085795770611 0 0.17433452521483719 -0.24292373217288479 0 0.16512535944417561 -0.22744738033917331 0 0.15532271566916761 -0.23874085795770611 0 0.17433452521483719 -0.24292373217288479 0 0.15532271566916761 -0.23874085795770611 0 0.15532271566916761 -0.23874085795770611 0 0.1363109061234978 -0.23455798374252809 0 0.13687529418603939 -0.26162068250561471 0 0.15532271566916761 -0.23874085795770611 0 0.1363109061234978 -0.23455798374252809 0 0.15532271566916761 -0.23874085795770611 0 0.15302060169630469 -0.2217977003443504 0 0.1363109061234978 -0.23455798374252809 0 0.15302060169630469 -0.2217977003443504 0 0.1363109061234978 -0.23455798374252809 0 0.13583218450739579 -0.2116030352811932 0 0.12594488917549271 -0.2231145762792166 0 0.1363109061234978 -0.23455798374252809 0 0.13583218450739579 -0.2116030352811932 0 0.1363109061234978 -0.23455798374252809 0 0.13583218450739579 -0.2116030352811932 0 0.13687529418603939 -0.26162068250561471 0 0.1363109061234978 -0.23455798374252809 0 0.13687529418603939 -0.26162068250561471 0 0.1223190960555403 -0.2394332616338683 0 0.1363109061234978 -0.23455798374252809 0 0.1593158439583067 -0.2059041094785751 0 0.15759932706250929 -0.18907488386135229 0 0.14727334507129489 -0.19433633097022029 0 0.14727334507129489 -0.19433633097022029 0 0.13523084618428721 -0.18276855246186111 0 0.1593158439583067 -0.2059041094785751 0 0.14727334507129489 -0.19433633097022029 0 0.1593158439583067 -0.2059041094785751 0 0.14727334507129489 -0.19433633097022029 0 0.13583218450739579 -0.2116030352811932 0 0.1593158439583067 -0.2059041094785751 0 0.13583218450739579 -0.2116030352811932 0 0.1593158439583067 -0.2059041094785751 0 0.15302060169630469 -0.2217977003443504 0 0.13583218450739579 -0.2116030352811932 0 0.1146962174531268 -0.21673223195775559 0 0.12594488917549271 -0.2231145762792166 0 0.13583218450739579 -0.2116030352811932 0 0.1146962174531268 -0.21673223195775559 0 0.13583218450739579 -0.2116030352811932 0 0.13583218450739579 -0.2116030352811932 0 0.13523084618428721 -0.18276855246186111 0 0.1210323504124224 -0.2015702574875764 0 0.13583218450739579 -0.2116030352811932 0 0.13523084618428721 -0.18276855246186111 0 0.14727334507129489 -0.19433633097022029 0 0.13583218450739579 -0.2116030352811932 0 0.13523084618428721 -0.18276855246186111 0 0.13523084618428721 -0.18276855246186111 0 0.13483495552902119 -0.16378539130439421 0 0.13523084618428721 -0.18276855246186111 0 0.14953284821028701 -0.17659781711855899 0 0.13483495552902119 -0.16378539130439421 0 0.12574768761326591 -0.17365922399620121 0 0.13523084618428721 -0.18276855246186111 0 0.13483495552902119 -0.16378539130439421 0 0.12574768761326591 -0.17365922399620121 0 0.13523084618428721 -0.18276855246186111 0 0.15759932706250929 -0.18907488386135229 0 0.14727334507129489 -0.19433633097022029 0 0.14953284821028701 -0.17659781711855899 0 0.14727334507129489 -0.19433633097022029 0 0.13523084618428721 -0.18276855246186111 0 0.14953284821028701 -0.17659781711855899 0 0.15759932706250929 -0.18907488386135229 0 0.14953284821028701 -0.17659781711855899 0 0.16056198994912749 -0.17787080610445691 0 0.14953284821028701 -0.17659781711855899 0 0.15118562361057611 -0.16212531631630639 0 0.13483495552902119 -0.16378539130439421 0 0.15118562361057611 -0.16212531631630639 0 0.13483495552902119 -0.16378539130439421 0 0.15272907190244081 -0.1550331303974728 0 0.15118562361057611 -0.16212531631630639 0 0.15272907190244081 -0.1550331303974728 0 0.15987479688754311 -0.1572750313981319 0 0.14953284821028701 -0.17659781711855899 0 0.15118562361057611 -0.16212531631630639 0 0.1601367247146048 -0.167216461388007 0 0.1232701832726428 -0.15427141090171109 0 0.12574768761326591 -0.17365922399620121 0 0.13483495552902119 -0.16378539130439421 0 0.12574768761326591 -0.17365922399620121 0 0.13483495552902119 -0.16378539130439421 0 0.13483495552902119 -0.16378539130439421 0 0.13444198148756639 -0.1449420832838656 0 0.14315652521050079 -0.14523933820255211 0 0.1232701832726428 -0.15427141090171109 0 0.13483495552902119 -0.16378539130439421 0 0.13444198148756639 -0.1449420832838656 0 0.13483495552902119 -0.16378539130439421 0 0.13444198148756639 -0.1449420832838656 0 0.13444198148756639 -0.1449420832838656 0 0.1434537453928684 -0.13532839273855221 0 0.14315652521050079 -0.14523933820255211 0 0.13444198148756639 -0.1449420832838656 0 0.13404900744611239 -0.12609877526333699 0 0.13444198148756639 -0.1449420832838656 0 0.13404900744611239 -0.12609877526333699 0 0.1434537453928684 -0.13532839273855221 0 0.11727103389215909 -0.1361484369810822 0 0.13444198148756639 -0.1449420832838656 0 0.13404900744611239 -0.12609877526333699 0 0.13404900744611239 -0.12609877526333699 0 0.1490682445489844 -0.1279194233146575 0 0.1609569453379138 -0.13854421730491809 0 0.13404900744611239 -0.12609877526333699 0 0.1609569453379138 -0.13854421730491809 0 0.13404900744611239 -0.12609877526333699 0 0.1434537453928684 -0.13532839273855221 0 0.1609569453379138 -0.13854421730491809 0 0.1434537453928684 -0.13532839273855221 0 0.14993504674019009 -0.14021612160814689 0 0.1609569453379138 -0.13854421730491809 0 0.1427320902892944 -0.12257921542734659 0 0.13404900744611239 -0.12609877526333699 0 0.1490682445489844 -0.1279194233146575 0 0.1434537453928684 -0.13532839273855221 0 0.14993504674019009 -0.14021612160814689 0 0.14315652521050079 -0.14523933820255211 0 0.14993504674019009 -0.14021612160814689 0 0.15469010670848909 -0.14221164189652771 0 0.1609569453379138 -0.13854421730491809 0 0.15568199284830581 -0.1296421963895899 0 0.1490682445489844 -0.1279194233146575 0 0.1609569453379138 -0.13854421730491809 0 0.15192118682329561 -0.12273271218809589 0 0.15568199284830581 -0.1296421963895899 0 0.1587247560068413 -0.12564209046719049 0 0.15192118682329561 -0.12273271218809589 0 0.15568199284830581 -0.1296421963895899 0 0.1490682445489844 -0.1279194233146575 0 0.13483495552902119 -0.16378539130439421 0 0.15469010670848909 -0.14221164189652771 0 0.13483495552902119 -0.16378539130439421 0 0.14315652521050079 -0.14523933820255211 0 0.15469010670848909 -0.14221164189652771 0 0.13483495552902119 -0.16378539130439421 0 0.15469010670848909 -0.14221164189652771 0 0.15272907190244081 -0.1550331303974728 0 0.14993504674019009 -0.14021612160814689 0 0.14315652521050079 -0.14523933820255211 0 0.15469010670848909 -0.14221164189652771 0 0.15272907190244081 -0.1550331303974728 0 0.16278769519534109 -0.1503194818261428 0 0.15987479688754311 -0.1572750313981319 0 0.16278769519534109 -0.1503194818261428 0 0.15987479688754311 -0.1572750313981319 0 0.16866771310860729 -0.15951236945753941 0 0.15469010670848909 -0.14221164189652771 0 0.15272907190244081 -0.1550331303974728 0 0.16278769519534109 -0.1503194818261428 0 0.15469010670848909 -0.14221164189652771 0 0.16278769519534109 -0.1503194818261428 0 0.1609569453379138 -0.13854421730491809 0 0.16278769519534109 -0.1503194818261428 0 0.1609569453379138 -0.13854421730491809 0 0.17433915911560069 -0.15342176620747169 0 0.16278769519534109 -0.1503194818261428 0 0.17433915911560069 -0.15342176620747169 0 0.16866771310860729 -0.15951236945753941 0 0.1609569453379138 -0.13854421730491809 0 0.16898528270356589 -0.1319020538664718 0 0.17739448715537109 -0.13831623988886119 0 0.1587247560068413 -0.12564209046719049 0 0.1613780220681113 -0.13045743568360191 0 0.1641162962428066 -0.126449221113482 0 0.15568199284830581 -0.1296421963895899 0 0.1587247560068413 -0.12564209046719049 0 0.1613780220681113 -0.13045743568360191 0 0.15568199284830581 -0.1296421963895899 0 0.1613780220681113 -0.13045743568360191 0 0.1609569453379138 -0.13854421730491809 0 0.1613780220681113 -0.13045743568360191 0 0.1609569453379138 -0.13854421730491809 0 0.16898528270356589 -0.1319020538664718 0 0.173543926957343 -0.1211375462363173 0 0.16898528270356589 -0.1319020538664718 0 0.1641162962428066 -0.126449221113482 0 0.1613780220681113 -0.13045743568360191 0 0.16898528270356589 -0.1319020538664718 0 0.1641162962428066 -0.126449221113482 0 0.173543926957343 -0.1211375462363173 0 0.16898528270356589 -0.1319020538664718 0 0.17990838590865871 -0.12844737664361131 0 0.16898528270356589 -0.1319020538664718 0 0.17739448715537109 -0.13831623988886119 0 0.17990838590865871 -0.12844737664361131 0 0.188659048266132 -0.1418371739210742 0 0.19260125287660149 -0.13207131947283501 0 0.17739448715537109 -0.13831623988886119 0 0.19260125287660149 -0.13207131947283501 0 0.17739448715537109 -0.13831623988886119 0 0.17990838590865871 -0.12844737664361131 0 0.18701697985041221 -0.11880972375357141 0 0.19260125287660149 -0.13207131947283501 0 0.17990838590865871 -0.12844737664361131 0 0.18786488322971459 -0.15098965934649999 0 0.1609569453379138 -0.13854421730491809 0 0.17433915911560069 -0.15342176620747169 0 0.18786488322971459 -0.15098965934649999 0 0.1609569453379138 -0.13854421730491809 0 0.18786488322971459 -0.15098965934649999 0 0.1609569453379138 -0.13854421730491809 0 0.17739448715537109 -0.13831623988886119 0 0.18786488322971459 -0.15098965934649999 0 0.188659048266132 -0.1418371739210742 0 0.17739448715537109 -0.13831623988886119 0 0.18786488322971459 -0.15098965934649999 0 0.17433915911560069 -0.15342176620747169 0 0.1842505296355367 -0.15589311325690541 0 0.17433915911560069 -0.15342176620747169 0 0.1842505296355367 -0.15589311325690541 0 0.18144082188941271 -0.16389154531309821 0 0.19325106823209409 -0.153061144976989 0 0.1842505296355367 -0.15589311325690541 0 0.18144082188941271 -0.16389154531309821 0 0.18830323417204939 -0.1765657128700695 0 0.18144082188941271 -0.16389154531309821 0 0.17072519494025609 -0.1704686386871877 0 0.17433915911560069 -0.15342176620747169 0 0.18144082188941271 -0.16389154531309821 0 0.16866771310860729 -0.15951236945753941 0 0.18144082188941271 -0.16389154531309821 0 0.16866771310860729 -0.15951236945753941 0 0.17072519494025609 -0.1704686386871877 0 0.18830323417204939 -0.1765657128700695 0 0.18335540011200491 -0.20007028076315 0 0.17543185729929969 -0.18273889272689711 0 0.18830323417204939 -0.1765657128700695 0 0.17543185729929969 -0.18273889272689711 0 0.17072519494025609 -0.1704686386871877 0 0.17543185729929969 -0.18273889272689711 0 0.16056198994912749 -0.17787080610445691 0 0.17072519494025609 -0.1704686386871877 0 0.16873688803845349 -0.19227854821165941 0 0.17543185729929969 -0.18273889272689711 0 0.16056198994912749 -0.17787080610445691 0 0.15759932706250929 -0.18907488386135229 0 0.16873688803845349 -0.19227854821165941 0 0.16056198994912749 -0.17787080610445691 0 0.14953284821028701 -0.17659781711855899 0 0.16056198994912749 -0.17787080610445691 0 0.1601367247146048 -0.167216461388007 0 0.16056198994912749 -0.17787080610445691 0 0.1601367247146048 -0.167216461388007 0 0.17072519494025609 -0.1704686386871877 0 0.1601367247146048 -0.167216461388007 0 0.15987479688754311 -0.1572750313981319 0 0.16866771310860729 -0.15951236945753941 0 0.15118562361057611 -0.16212531631630639 0 0.1601367247146048 -0.167216461388007 0 0.15987479688754311 -0.1572750313981319 0 0.1601367247146048 -0.167216461388007 0 0.16866771310860729 -0.15951236945753941 0 0.17072519494025609 -0.1704686386871877 0 
</DataArray>
</Points>
<Cells>
<DataArray type="UInt32" Name="connectivity" format="ascii">
0 1 2 3 4 5 6 7 8 9 10 11 12 13 14 15 16 17 18 19 20 21 22 23 24 25 26 27 28 29 30 31 32 33 34 35 36 37 38 39 40 41 42 43 44 45 46 47 48 49 50 51 52 53 54 55 56 57 58 59 60 61 62 63 64 65 66 67 68 69 70 71 72 73 74 75 76 77 78 79 80 81 82 83 84 85 86 87 88 89 90 91 92 93 94 95 96 97 98 99 100 101 102 103 104 105 106 107 108 109 110 111 112 113 114 115 116 117 118 119 120 121 122 123 124 125 126 127 128 129 130 131 132 133 134 135 136 137 138 139 140 141 142 143 144 145 146 147 148 149 150 151 152 153 154 155 156 157 158 159 160 161 162 163 164 165 166 167 168 169 170 171 172 173 174 175 176 177 178 179 180 181 182 183 184 185 186 187 188 189 190 191 192 193 194 195 196 197 198 199 200 201 202 203 204 205 206 207 208 209 210 211 212 213 214 215 216 217 218 219 220 221 222 223 224 225 226 227 228 229 230 231 232 233 234 235 236 237 238 239 240 241 242 243 244 245 246 247 248 249 250 251 252 253 254 255 256 257 258 259 260 261 262 263 264 265 266 267 268 269 270 271 272 273 274 275 276 277 278 279 280 281 282 283 284 285 286 287 288 289 290 291 292 293 294 295 296 297 298 299 300 301 302 303 304 305 306 307 308 309 310 311 312 313 314 315 316 317 318 319 320 321 322 323 324 325 326 327 328 329 330 331 332 333 334 335 336 337 338 339 340 341 342 343 344 345 346 347 348 349 350 351 352 353 354 355 356 357 358 359 360 361 362 363 364 365 366 367 368 369 370 371 372 373 374 375 376 377 378 379 380 381 382 383 384 385 386 387 388 389 390 391 392 393 394 395 396 397 398 399 400 401 402 403 404 405 406 407 408 409 410 411 412 413 414 415 416 417 418 419 420 421 422 423 424 425 426 427 428 429 430 431 432 433 434 435 436 437 438 439 440 441 442 443 444 445 446 447 448 449 450 451 452 453 454 455 456 457 458 459 460 461 462 463 464 465 466 467 468 469 470 471 472 473 474 475 476 477 478 479 480 481 482 483 484 485 486 487 488 489 490 491 492 493 494 495 496 497 498 499 500 501 502 503 504 505 506 507 508 509 510 511 512 513 514 515 516 517 518 519 520 521 522 523 524 525 526 527 528 529 530 531 532 533 534 535 536 537 538 539 540 541 542 543 544 545 546 547 548 549 550 551 552 553 554 555 556 557 558 559 560 561 562 563 564 565 566 567 568 569 570 571 572 573 574 575 576 577 578 579 580 581 582 583 584 585 586 587 588 589 590 591 592 593 594 595 596 597 598 599 600 601 602 603 604 605 606 607 608 609 610 611 612 613 614 615 616 617 618 619 620 621 622 623 624 625 626 627 628 629 630 631 632 633 634 635 636 637 638 639 640 641 642 643 644 645 646 647 648 649 650 651 652 653 654 655 656 657 658 659 660 661 662 663 664 665 666 667 668 669 670 671 672 673 674 675 676 677 678 679 680 681 682 683 684 685 686 687 688 689 690 691 692 693 694 695 696 697 698 699 700 701 702 703 704 705 706 707 708 709 710 711 712 713 714 715 716 717 718 719 720 721 722 723 724 725 726 727 728 729 730 731 732 733 734 735 736 737 738 739 740 741 742 743 744 745 746 747 748 749 750 751 752 753 754 755 756 757 758 759 760 761 762 763 764 765 766 767 768 769 770 771 772 773 774 775 776 777 778 779 780 781 782 783 784 785 786 787 788 789 790 791 792 793 794 795 796 797 798 799 800 801 802 803 804 805 806 807 808 809 810 811 812 813 814 815 816 817 818 819 820 821 822 823 824 825 826 827 828 829 830 831 832 833 834 835 836 837 838 839 840 841 842 843 844 845 846 847 848 849 850 851 852 853 854 855 856 857 858 859 860 861 862 863 864 865 866 867 868 869 870 871 872 873 874 875 876 877 878 879 880 881 882 883 884 885 886 887 888 889 890 891 892 893 894 895 896 897 898 899 900 901 902 903 904 905 906 907 908 909 910 911 912 913 914 915 916 917 918 919 920 921 922 923 924 925 926 927 928 929 930 931 932 933 934 935 936 937 938 939 940 941 942 943 944 945 946 947 948 949 950 951 952 953 954 955 956 957 958 959 960 961 962 963 964 965 966 967 968 969 970 971 972 973 974 975 976 977 978 979 980 981 982 983 984 985 986 987 988 989 990 991 992 993 994 995 996 997 998 999 1000 1001 1002 1003 1004 1005 1006 1007 1008 1009 1010 1011 1012 1013 1014 1015 1016 1017 1018 1019 1020 1021 1022 1023 1024 1025 1026 1027 1028 1029 1030 1031 1032 1033 1034 1035 1036 1037 1038 1039 1040 1041 1042 1043 1044 1045 1046 1047 1048 1049 1050 1051 1052 1053 1054 1055 1056 1057 1058 1059 1060 1061 1062 1063 1064 1065 1066 1067 1068 1069 1070 1071 1072 1073 1074 1075 1076 1077 1078 1079 1080 1081 1082 1083 1084 1085 1086 1087 1088 1089 1090 1091 1092 1093 1094 1095 1096 1097 1098 1099 1100 1101 1102 1103 1104 1105 1106 1107 1108 1109 1110 1111 1112 1113 1114 1115 1116 1117 1118 1119 1120 1121 1122 1123 1124 1125 1126 1127 1128 1129 1130 1131 1132 1133 1134 1135 1136 1137 1138 1139 1140 1141 1142 1143 1144 1145 1146 1147 1148 1149 1150 1151 1152 1153 1154 1155 1156 1157 1158 1159 1160 1161 1162 1163 1164 1165 1166 1167 1168 1169 1170 1171 1172 1173 1174 1175 1176 1177 1178 1179 1180 1181 1182 1183 1184 1185 1186 1187 1188 1189 1190 1191 1192 1193 1194 1195 1196 1197 1198 1199 1200 1201 1202 1203 1204 1205 1206 1207 1208 1209 1210 1211 1212 1213 1214 1215 1216 1217 1218 1219 1220 1221 1222 1223 1224 1225 1226 1227 1228 1229 1230 1231 1232 1233 1234 1235 1236 1237 1238 1239 1240 1241 1242 1243 1244 1245 1246 1247 1248 1249 1250 1251 1252 1253 1254 1255 1256 1257 1258 1259 1260 1261 1262 1263 1264 1265 1266 1267 1268 1269 1270 1271 1272 1273 1274 1275 1276 1277 1278 1279 1280 1281 1282 1283 1284 1285 1286 1287 1288 1289 1290 1291 1292 1293 1294 1295 1296 1297 1298 1299 1300 1301 1302 1303 1304 1305 1306 1307 1308 1309 1310 1311 1312 1313 1314 1315 1316 1317 1318 1319 1320 1321 1322 1323 1324 1325 1326 1327 1328 1329 1330 1331 1332 1333 1334 1335 1336 1337 1338 1339 1340 1341 1342 1343 1344 1345 1346 1347 1348 1349 1350 1351 1352 1353 1354 1355 1356 1357 1358 1359 1360 1361 1362 1363 1364 1365 1366 1367 1368 1369 1370 1371 1372 1373 1374 1375 1376 1377 1378 1379 1380 1381 1382 1383 1384 1385 1386 1387 1388 1389 1390 1391 1392 1393 1394 1395 1396 1397 1398 1399 1400 1401 1402 1403 1404 1405 1406 1407 1408 1409 1410 1411 1412 1413 1414 1415 1416 1417 1418 1419 1420 1421 1422 1423 1424 1425 1426 1427 1428 1429 1430 1431 1432 1433 1434 1435 1436 1437 1438 1439 1440 1441 1442 1443 1444 1445 1446 1447 1448 1449 1450 1451 1452 1453 1454 1455 1456 1457 1458 1459 1460 1461 1462 1463 1464 1465 1466 1467 1468 1469 1470 1471 1472 1473 1474 1475 1476 1477 1478 1479 1480 1481 1482 1483 1484 1485 1486 1487 1488 1489 1490 1491 1492 1493 1494 1495 1496 1497 1498 1499 1500 1501 1502 1503 1504 1505 1506 1507 1508 1509 1510 1511 1512 1513 1514 1515 1516 1517 1518 1519 1520 1521 1522 1523 1524 1525 1526 1527 1528 1529 1530 1531 1532 1533 1534 1535 1536 1537 1538 1539 1540 1541 1542 1543 1544 1545 1546 1547 1548 1549 1550 1551 1552 1553 1554 1555 1556 1557 1558 1559 1560 1561 1562 1563 1564 1565 1566 1567 1568 1569 1570 1571 1572 1573 1574 1575 1576 1577 1578 1579 1580 1581 1582 1583 1584 1585 1586 1587 1588 1589 1590 1591 1592 1593 1594 1595 1596 1597 1598 1599 1600 1601 1602 1603 1604 1605 1606 1607 1608 1609 1610 1611 1612 1613 1614 1615 1616 1617 1618 1619 1620 1621 1622 1623 1624 1625 1626 1627 1628 1629 1630 1631 1632 1633 1634 1635 1636 1637 1638 1639 1640 1641 1642 1643 1644 1645 1646 1647 1648 1649 1650 1651 1652 1653 1654 1655 1656 1657 1658 1659 1660 1661 1662 1663 1664 1665 1666 1667 1668 1669 1670 1671 1672 1673 1674 1675 1676 1677 1678 1679 1680 1681 1682 1683 1684 1685 1686 1687 1688 1689 1690 1691 1692 1693 1694 1695 1696 1697 1698 1699 1700 1701 1702 1703 1704 1705 1706 1707 1708 1709 1710 1711 1712 1713 1714 1715 1716 1717 1718 1719 1720 1721 1722 1723 1724 1725 1726 1727 1728 1729 1730 1731 1732 1733 1734 1735 1736 1737 1738 1739 1740 1741 1742 1743 1744 1745 1746 1747 1748 1749 1750 1751 1752 1753 1754 1755 1756 1757 1758 1759 1760 1761 1762 1763 1764 1765 1766 1767 1768 1769 1770 1771 1772 1773 1774 1775 1776 1777 1778 1779 1780 1781 1782 1783 1784 1785 1786 1787 1788 1789 1790 1791 1792 1793 1794 1795 1796 1797 1798 1799 1800 1801 1802 1803 1804 1805 1806 1807 1808 1809 1810 1811 1812 1813 1814 1815 1816 1817 1818 1819 1820 1821 1822 1823 1824 1825 1826 1827 1828 1829 1830 1831 1832 1833 1834 1835 1836 1837 1838 1839 1840 1841 1842 1843 1844 1845 1846 1847 1848 1849 1850 1851 1852 1853 1854 1855 1856 1857 1858 1859 1860 1861 1862 1863 1864 1865 1866 1867 1868 1869 1870 1871 1872 1873 1874 1875 1876 1877 1878 1879 1880 1881 1882 1883 1884 1885 1886 1887 1888 1889 1890 1891 1892 1893 1894 1895 1896 1897 1898 1899 1900 1901 1902 1903 1904 1905 1906 1907 1908 1909 1910 1911 1912 1913 1914 1915 1916 1917 1918 1919 1920 1921 1922 1923 1924 1925 1926 1927 1928 1929 1930 1931 1932 1933 1934 1935 1936 1937 1938 1939 1940 1941 1942 1943 1944 1945 1946 1947 1948 1949 1950 1951 1952 1953 1954 1955 1956 1957 1958 1959 1960 1961 1962 1963 1964 1965 1966 1967 1968 1969 1970 1971 1972 1973 1974 1975 1976 1977 1978 1979 1980 1981 1982 1983 1984 1985 1986 1987 1988 1989 1990 1991 1992 1993 1994 1995 1996 1997 1998 1999 2000 2001 2002 2003 2004 2005 2006 2007 2008 2009 2010 2011 2012 2013 2014 2015 2016 2017 2018 2019 2020 2021 2022 2023 2024 2025 2026 2027 2028 2029 2030 2031 2032 2033 2034 2035 2036 2037 2038 2039 2040 2041 2042 2043 2044 2045 2046 2047 2048 2049 2050 2051 2052 2053 2054 2055 2056 2057 2058 2059 2060 2061 2062 2063 2064 2065 2066 2067 2068 2069 2070 2071 2072 2073 2074 2075 2076 2077 2078 2079 2080 2081 2082 2083 2084 2085 2086 2087 2088 2089 2090 2091 2092 2093 2094 2095 2096 2097 2098 2099 2100 2101 2102 2103 2104 2105 2106 2107 2108 2109 2110 2111 2112 2113 2114 2115 2116 2117 2118 2119 2120 2121 2122 2123 2124 2125 2126 2127 2128 2129 2130 2131 2132 2133 2134 2135 2136 2137 2138 2139 2140 2141 2142 2143 2144 2145 2146 2147 2148 2149 2150 2151 2152 2153 2154 2155 2156 2157 2158 2159 2160 2161 2162 2163 2164 2165 2166 2167 2168 2169 2170 2171 2172 2173 2174 2175 2176 2177 2178 2179 2180 2181 2182 2183 2184 2185 2186 2187 2188 2189 2190 2191 2192 2193 2194 2195 2196 2197 2198 2199 2200 2201 2202 2203 2204 2205 2206 2207 2208 2209 2210 2211 2212 2213 2214 2215 2216 2217 2218 2219 2220 2221 2222 2223 2224 2225 2226 2227 2228 2229 2230 2231 2232 2233 2234 2235 2236 2237 2238 2239 2240 2241 2242 2243 2244 2245 2246 2247 2248 2249 2250 2251 2252 2253 2254 2255 2256 2257 2258 2259 2260 2261 2262 2263 2264 2265 2266 2267 2268 2269 2270 2271 2272 2273 2274 2275 2276 2277 2278 2279 2280 2281 2282 2283 2284 2285 2286 2287 2288 2289 2290 2291 2292 2293 2294 2295 2296 2297 2298 2299 2300 2301 2302 2303 2304 2305 2306 2307 2308 2309 2310 2311 2312 2313 2314 2315 2316 2317 2318 2319 2320 2321 2322 2323 2324 2325 2326 2327 2328 2329 2330 2331 2332 2333 2334 2335 2336 2337 2338 2339 2340 2341 2342 2343 2344 2345 2346 2347 2348 2349 2350 2351 2352 2353 2354 2355 2356 2357 2358 2359 2360 2361 2362 2363 2364 2365 2366 2367 2368 2369 2370 2371 2372 2373 2374 2375 2376 2377 2378 2379 2380 2381 2382 2383 2384 2385 2386 2387 2388 2389 2390 2391 2392 2393 2394 2395 2396 2397 2398 2399 2400 2401 2402 2403 2404 2405 2406 2407 2408 2409 2410 2411 2412 2413 2414 2415 2416 2417 2418 2419 2420 2421 2422 2423 2424 2425 2426 2427 2428 2429 2430 2431 2432 2433 2434 2435 2436 2437 2438 2439 2440 2441 2442 2443 2444 2445 2446 2447 2448 2449 2450 2451 2452 2453 2454 2455 2456 2457 2458 2459 2460 2461 2462 2463 2464 2465 2466 2467 2468 2469 2470 2471 2472 2473 2474 2475 2476 2477 2478 2479 2480 2481 2482 2483 2484 2485 2486 2487 2488 2489 2490 2491 2492 2493 2494 2495 2496 2497 2498 2499 2500 2501 2502 2503 2504 2505 2506 2507 2508 2509 2510 2511 2512 2513 2514 2515 2516 2517 2518 2519 2520 2521 2522 2523 2524 2525 2526 2527 2528 2529 2530 2531 2532 2533 2534 2535 2536 2537 2538 2539 2540 2541 2542 2543 2544 2545 2546 2547 2548 2549 2550 2551 2552 2553 2554 2555 2556 2557 2558 2559 2560 2561 2562 2563 2564 2565 2566 2567 2568 2569 2570 2571 2572 2573 2574 2575 2576 2577 2578 2579 2580 2581 2582 2583 2584 2585 2586 2587 2588 2589 2590 2591 2592 2593 2594 2595 2596 2597 2598 2599 2600 2601 2602 2603 2604 2605 2606 2607 2608 2609 2610 2611 2612 2613 2614 2615 2616 2617 2618 2619 2620 2621 2622 2623 2624 2625 2626 2627 2628 2629 2630 2631 2632 2633 2634 2635 2636 2637 2638 2639 2640 2641 2642 2643 2644 2645 2646 2647 2648 2649 2650 2651 2652 2653 2654 2655 2656 2657 2658 2659 2660 2661 2662 2663 2664 2665 2666 2667 2668 2669 2670 2671 2672 2673 2674 2675 2676 2677 2678 2679 2680 2681 2682 2683 2684 2685 2686 2687 2688 2689 2690 2691 2692 2693 2694 2695 2696 2697 2698 2699 2700 2701 2702 2703 2704 2705 2706 2707 2708 2709 2710 2711 2712 2713 2714 2715 2716 2717 2718 2719 2720 2721 2722 2723 2724 2725 2726 2727 2728 2729 2730 2731 2732 2733 2734 2735 2736 2737 2738 2739 2740 2741 2742 2743 2744 2745 2746 2747 2748 2749 2750 2751 2752 2753 2754 2755 2756 2757 2758 2759 2760 2761 2762 2763 2764 2765 2766 2767 2768 2769 2770 2771 2772 2773 2774 2775 2776 2777 2778 2779 2780 2781 2782 2783 2784 2785 2786 2787 2788 2789 2790 2791 2792 2793 2794 2795 2796 2797 2798 2799 2800 2801 2802 2803 2804 2805 2806 2807 2808 2809 2810 2811 2812 2813 2814 2815 2816 2817 2818 2819 2820 2821 2822 2823 2824 2825 2826 2827 2828 2829 2830 2831 2832 2833 2834 2835 2836 2837 2838 2839 2840 2841 2842 2843 2844 2845 2846 2847 2848 2849 2850 2851 2852 2853 2854 2855 2856 2857 2858 2859 2860 2861 2862 2863 2864 2865 2866 2867 2868 2869 2870 2871 2872 2873 2874 2875 2876 2877 2878 2879 2880 2881 2882 2883 2884 2885 2886 2887 2888 2889 2890 2891 2892 2893 2894 2895 2896 2897 2898 2899 2900 2901 2902 2903 2904 2905 2906 2907 2908 2909 2910 2911 2912 2913 2914 2915 2916 2917 2918 2919 2920 2921 2922 2923 2924 2925 2926 2927 2928 2929 2930 2931 2932 2933 2934 2935 2936 2937 2938 2939 2940 2941 2942 2943 2944 2945 2946 2947 2948 2949 2950 2951 2952 2953 2954 2955 2956 2957 2958 2959 2960 2961 2962 2963 2964 2965 2966 2967 2968 2969 2970 2971 2972 2973 2974 2975 2976 2977 2978 2979 2980 2981 2982 2983 2984 2985 2986 2987 2988 2989 2990 2991 2992 2993 2994 2995 2996 2997 2998 2999 3000 3001 3002 3003 3004 3005 3006 3007 3008 3009 3010 3011 3012 3013 3014 3015 3016 3017 3018 3019 3020 3021 3022 3023 3024 3025 3026 3027 3028 3029 3030 3031 3032 3033 3034 3035 3036 3037 3038 3039 3040 3041 3042 3043 3044 3045 3046 3047 3048 3049 3050 3051 3052 3053 3054 3055 3056 3057 3058 3059 3060 3061 3062 3063 3064 3065 3066 3067 3068 3069 3070 3071 3072 3073 3074 3075 3076 3077 3078 3079 3080 3081 3082 3083 3084 3085 3086 3087 3088 3089 3090 3091 3092 3093 3094 3095 3096 3097 3098 3099 3100 3101 3102 3103 3104 3105 3106 3107 3108 3109 3110 3111 3112 3113 3114 3115 3116 3117 3118 3119 3120 3121 3122 3123 3124 3125 3126 3127 3128 3129 3130 3131 3132 3133 3134 3135 3136 3137 3138 3139 3140 3141 3142 3143 3144 3145 3146 3147 3148 3149 3150 3151 3152 3153 3154 3155 3156 3157 3158 3159 3160 3161 3162 3163 3164 3165 3166 3167 3168 3169 3170 3171 3172 3173 3174 3175 3176 3177 3178 3179 3180 3181 3182 3183 3184 3185 3186 3187 3188 3189 3190 3191 3192 3193 3194 3195 3196 3197 3198 3199 3200 3201 3202 3203 3204 3205 3206 3207 3208 3209 3210 3211 3212 3213 3214 3215 3216 3217 3218 3219 3220 3221 3222 3223 3224 3225 3226 3227 3228 3229 3230 3231 3232 3233 3234 3235 3236 3237 3238 3239 3240 3241 3242 3243 3244 3245 3246 3247 3248 3249 3250 3251 3252 3253 3254 3255 3256 3257 3258 3259 3260 3261 3262 3263 3264 3265 3266 3267 3268 3269 3270 3271 3272 3273 3274 3275 3276 3277 3278 3279 3280 3281 3282 3283 3284 3285 3286 3287 3288 3289 3290 3291 3292 3293 3294 3295 3296 3297 3298 3299 3300 3301 3302 3303 3304 3305 3306 3307 3308 3309 3310 3311 3312 3313 3314 3315 3316 3317 3318 3319 3320 3321 3322 3323 3324 3325 3326 3327 3328 3329 3330 3331 3332 3333 3334 3335 3336 3337 3338 3339 3340 3341 3342 3343 3344 3345 3346 3347 3348 3349 3350 3351 3352 3353 3354 3355 3356 3357 3358 3359 3360 3361 3362 3363 3364 3365 3366 3367 3368 3369 3370 3371 3372 3373 3374 3375 3376 3377 3378 3379 3380 3381 3382 3383 3384 3385 3386 3387 3388 3389 3390 3391 3392 3393 3394 3395 3396 3397 3398 3399 3400 3401 3402 3403 3404 3405 3406 3407 3408 3409 3410 3411 3412 3413 3414 3415 3416 3417 3418 3419 3420 3421 3422 3423 3424 3425 3426 3427 3428 3429 3430 3431 3432 3433 3434 3435 3436 3437 3438 3439 3440 3441 3442 3443 3444 3445 3446 3447 3448 3449 3450 3451 3452 3453 3454 3455 3456 3457 3458 3459 3460 3461 3462 3463 3464 3465 3466 3467 3468 3469 3470 3471 3472 3473 3474 3475 3476 3477 3478 3479 3480 3481 3482 3483 3484 3485 3486 3487 3488 3489 3490 3491 3492 3493 3494 3495 3496 3497 3498 3499 3500 3501 3502 3503 3504 3505 3506 3507 3508 3509 3510 3511 3512 3513 3514 3515 3516 3517 3518 3519 3520 3521 3522 3523 3524 3525 3526 3527 3528 3529 3530 3531 3532 3533 3534 3535 3536 3537 3538 3539 3540 3541 3542 3543 3544 3545 3546 3547 3548 3549 3550 3551 3552 3553 3554 3555 3556 3557 3558 3559 3560 3561 3562 3563 3564 3565 3566 3567 3568 3569 3570 3571 3572 3573 3574 3575 3576 3577 3578 3579 3580 3581 3582 3583 3584 3585 3586 3587 3588 3589 3590 3591 3592 3593 3594 3595 3596 3597 3598 3599 3600 3601 3602 3603 3604 3605 3606 3607 3608 3609 3610 3611 3612 3613 3614 3615 3616 3617 3618 3619 3620 3621 3622 3623 3624 3625 3626 3627 3628 3629 3630 3631 3632 3633 3634 3635 3636 3637 3638 3639 3640 3641 3642 3643 3644 3645 3646 3647 3648 3649 3650 3651 3652 3653 3654 3655 3656 3657 3658 3659 3660 3661 3662 3663 3664 3665 3666 3667 3668 3669 3670 3671 3672 3673 3674 3675 3676 3677 3678 3679 3680 3681 3682 3683 3684 3685 3686 3687 3688 3689 3690 3691 3692 3693 3694 3695 3696 3697 3698 3699 3700 3701 3702 3703 3704 3705 3706 3707 3708 3709 3710 3711 3712 3713 3714 3715 3716 3717 3718 3719 3720 3721 3722 3723 3724 3725 3726 3727 3728 3729 3730 3731 3732 3733 3734 3735 3736 3737 3738 3739 3740 3741 3742 3743 3744 3745 3746 3747 3748 3749 3750 3751 3752 3753 3754 3755 3756 3757 3758 3759 3760 3761 3762 3763 3764 3765 3766 3767 3768 3769 3770 3771 3772 3773 3774 3775 3776 3777 3778 3779 3780 3781 3782 3783 3784 3785 3786 3787 3788 3789 3790 3791 3792 3793 3794 3795 3796 3797 3798 3799 3800 3801 3802 3803 3804 3805 3806 3807 3808 3809 3810 3811 3812 3813 3814 3815 3816 3817 3818 3819 3820 3821 3822 3823 3824 3825 3826 3827 3828 3829 3830 3831 3832 3833 3834 3835 3836 3837 3838 3839 3840 3841 3842 3843 3844 3845 3846 3847 3848 3849 3850 3851 3852 3853 3854 3855 3856 3857 3858 3859 3860 3861 3862 3863 3864 3865 3866 3867 3868 3869 3870 3871 3872 3873 3874 3875 3876 3877 3878 3879 3880 3881 3882 3883 3884 3885 3886 3887 3888 3889 3890 3891 3892 3893 3894 3895 3896 3897 3898 3899 3900 3901 3902 3903 3904 3905 3906 3907 3908 3909 3910 3911 3912 3913 3914 3915 3916 3917 3918 3919 3920 3921 3922 3923 3924 3925 3926 3927 3928 3929 3930 3931 3932 3933 3934 3935 3936 3937 3938 3939 3940 3941 3942 3943 3944 3945 3946 3947 3948 3949 3950 3951 3952 3953 3954 3955 3956 3957 3958 3959 3960 3961 3962 3963 3964 3965 3966 3967 3968 3969 3970 3971 3972 3973 3974 3975 3976 3977 3978 3979 3980 3981 3982 3983 3984 3985 3986 3987 3988 3989 3990 3991 3992 3993 3994 3995 3996 3997 3998 3999 4000 4001 4002 4003 4004 4005 4006 4007 4008 4009 4010 4011 4012 4013 4014 4015 4016 4017 4018 4019 4020 4021 4022 4023 4024 4025 4026 4027 4028 4029 4030 4031 4032 4033 4034 4035 4036 4037 4038 4039 4040 4041 4042 4043 4044 4045 4046 4047 4048 4049 4050 4051 4052 4053 4054 4055 4056 4057 4058 4059 4060 4061 4062 4063 4064 4065 4066 4067 4068 4069 4070 4071 4072 4073 4074 4075 4076 4077 4078 4079 4080 4081 4082 4083 4084 4085 4086 4087 4088 4089 4090 4091 4092 4093 4094 4095 4096 4097 4098 4099 4100 4101 4102 4103 4104 4105 4106 4107 4108 4109 4110 4111 4112 4113 4114 4115 4116 4117 4118 4119 4120 4121 4122 4123 4124 4125 4126 4127 4128 4129 4130 4131 4132 4133 4134 4135 4136 4137 4138 4139 4140 4141 4142 4143 4144 4145 4146 4147 4148 4149 4150 4151 4152 4153 4154 4155 4156 4157 4158 4159 4160 4161 4162 4163 4164 4165 4166 4167 4168 4169 4170 4171 4172 4173 4174 4175 4176 4177 4178 4179 4180 4181 4182 4183 4184 4185 4186 4187 4188 4189 4190 4191 4192 4193 4194 4195 4196 4197 4198 4199 4200 4201 4202 4203 4204 4205 4206 4207 4208 4209 4210 4211 4212 4213 4214 4215 4216 4217 4218 4219 4220 4221 4222 4223 4224 4225 4226 4227 4228 4229 4230 4231 4232 4233 4234 4235 4236 4237 4238 4239 4240 4241 4242 4243 4244 4245 4246 4247 4248 4249 4250 4251 4252 4253 4254 4255 4256 4257 4258 4259 4260 4261 4262 4263 4264 4265 4266 4267 4268 4269 4270 4271 4272 4273 4274 4275 4276 4277 4278 4279 4280 4281 4282 4283 4284 4285 4286 4287 4288 4289 4290 4291 4292 4293 4294 4295 4296 4297 4298 4299 4300 4301 4302 4303 4304 4305 4306 4307 4308 4309 4310 4311 4312 4313 4314 4315 4316 4317 4318 4319 4320 4321 4322 4323 4324 4325 4326 4327 4328 4329 4330 4331 4332 4333 4334 4335 4336 4337 4338 4339 4340 4341 4342 4343 4344 4345 4346 4347 4348 4349 4350 4351 4352 4353 4354 4355 4356 4357 4358 4359 4360 4361 4362 4363 4364 4365 4366 4367 4368 4369 4370 4371 4372 4373 4374 4375 4376 4377 4378 4379 4380 4381 4382 4383 4384 4385 4386 4387 4388 4389 4390 4391 4392 4393 4394 4395 4396 4397 4398 4399 4400 4401 4402 4403 4404 4405 4406 4407 4408 4409 4410 4411 4412 4413 4414 4415 4416 4417 4418 4419 4420 4421 4422 4423 4424 4425 4426 4427 4428 4429 4430 4431 4432 4433 4434 4435 4436 4437 4438 4439 4440 4441 4442 4443 4444 4445 4446 4447 4448 4449 4450 4451 4452 4453 4454 4455 4456 4457 4458 4459 4460 4461 4462 4463 4464 4465 4466 4467 4468 4469 4470 4471 4472 4473 4474 4475 4476 4477 4478 4479 4480 4481 4482 4483 4484 4485 4486 4487 4488 4489 4490 4491 4492 4493 4494 4495 4496 4497 4498 4499 4500 4501 4502 4503 4504 4505 4506 4507 4508 4509 4510 4511 4512 4513 4514 4515 4516 4517 4518 4519 4520 4521 4522 4523 4524 4525 4526 4527 4528 4529 4530 4531 4532 4533 4534 4535 4536 4537 4538 4539 4540 4541 4542 4543 4544 4545 4546 4547 4548 4549 4550 4551 4552 4553 4554 4555 4556 4557 4558 4559 4560 4561 4562 4563 4564 4565 4566 4567 4568 4569 4570 4571 4572 4573 4574 4575 4576 4577 4578 4579 4580 4581 4582 4583 4584 4585 4586 4587 4588 4589 4590 4591 4592 4593 4594 4595 4596 4597 4598 4599 4600 4601 4602 4603 4604 4605 4606 4607 4608 4609 4610 4611 4612 4613 4614 4615 4616 4617 4618 4619 4620 4621 4622 4623 4624 4625 4626 4627 4628 4629 4630 4631 4632 4633 4634 4635 4636 4637 4638 4639 4640 4641 4642 4643 4644 4645 4646 4647 4648 4649 4650 4651 4652 4653 4654 4655 4656 4657 4658 4659 4660 4661 4662 4663 4664 4665 4666 4667 4668 4669 4670 4671 4672 4673 4674 4675 4676 4677 4678 4679 4680 4681 4682 4683 4684 4685 4686 4687 4688 4689 4690 4691 4692 4693 4694 4695 4696 4697 4698 4699 4700 4701 4702 4703 4704 4705 4706 4707 4708 4709 4710 4711 4712 4713 4714 4715 4716 4717 4718 4719 4720 4721 4722 4723 4724 4725 4726 4727 4728 4729 4730 4731 4732 4733 4734 4735 4736 4737 4738 4739 4740 4741 4742 4743 4744 4745 4746 4747 4748 4749 4750 4751 4752 4753 4754 4755 4756 4757 4758 4759 4760 4761 4762 4763 4764 4765 4766 4767 4768 4769 4770 4771 4772 4773 4774 4775 4776 4777 4778 4779 4780 4781 4782 4783 4784 4785 4786 4787 4788 4789 4790 4791 4792 4793 4794 4795 4796 4797 4798 4799 4800 4801 4802 4803 4804 4805 4806 4807 4808 4809 4810 4811 4812 4813 4814 4815 4816 4817 4818 4819 4820 4821 4822 4823 4824 4825 4826 4827 4828 4829 4830 4831 4832 4833 4834 4835 4836 4837 4838 4839 4840 4841 4842 4843 4844 4845 4846 4847 4848 4849 4850 4851 4852 4853 4854 4855 4856 4857 4858 4859 4860 4861 4862 4863 4864 4865 4866 4867 4868 4869 4870 4871 4872 4873 4874 4875 4876 4877 4878 4879 4880 4881 4882 4883 4884 4885 4886 4887 4888 4889 4890 4891 4892 4893 4894 4895 4896 4897 4898 4899 4900 4901 4902 4903 4904 4905 4906 4907 4908 4909 4910 4911 4912 4913 4914 4915 4916 4917 4918 4919 4920 4921 4922 4923 4924 4925 4926 4927 4928 4929 4930 4931 4932 4933 4934 4935 4936 4937 4938 4939 4940 4941 4942 4943 4944 4945 4946 4947 4948 4949 4950 4951 4952 4953 4954 4955 4956 4957 4958 4959 4960 4961 4962 4963 4964 4965 4966 4967 4968 4969 4970 4971 4972 4973 4974 4975 4976 4977 4978 4979 4980 4981 4982 4983 4984 4985 4986 4987 4988 4989 4990 4991 4992 4993 4994 4995 4996 4997 4998 4999 5000 5001 5002 5003 5004 5005 5006 5007 5008 5009 5010 5011 5012 5013 5014 5015 5016 5017 5018 5019 5020 5021 5022 5023 5024 5025 5026 5027 5028 5029 5030 5031 5032 5033 5034 5035 5036 5037 5038 5039 5040 5041 5042 5043 5044 5045 5046 5047 5048 5049 5050 5051 5052 5053 5054 5055 5056 5057 5058 5059 5060 5061 5062 5063 5064 5065 5066 5067 5068 5069 5070 5071 5072 5073 5074 5075 5076 5077 5078 5079 5080 5081 5082 5083 5084 5085 5086 5087 5088 5089 5090 5091 5092 5093 5094 5095 5096 5097 5098 5099 5100 5101 5102 5103 5104 5105 5106 5107 5108 5109 5110 5111 5112 5113 5114 5115 5116 5117 5118 5119 5120 5121 5122 5123 5124 5125 5126 5127 5128 5129 5130 5131 5132 5133 5134 5135 5136 5137 5138 5139 5140 5141 5142 5143 5144 5145 5146 5147 5148 5149 5150 5151 5152 5153 5154 5155 5156 5157 5158 5159 5160 5161 5162 5163 5164 5165 5166 5167 5168 5169 5170 5171 5172 5173 5174 5175 5176 5177 5178 5179 5180 5181 5182 5183 5184 5185 5186 5187 5188 5189 5190 5191 5192 5193 5194 5195 5196 5197 5198 5199 5200 5201 5202 5203 5204 5205 5206 5207 5208 5209 5210 5211 5212 5213 5214 5215 5216 5217 5218 5219 5220 5221 5222 5223 5224 5225 5226 5227 5228 5229 5230 5231 5232 5233 5234 5235 5236 5237 5238 5239 5240 5241 5242 5243 5244 5245 5246 5247 5248 5249 5250 5251 5252 5253 5254 5255 5256 5257 5258 5259 5260 5261 5262 5263 5264 5265 5266 5267 5268 5269 5270 5271 5272 5273 5274 5275 5276 5277 5278 5279 5280 5281 5282 5283 5284 5285 5286 5287 5288 5289 5290 5291 5292 5293 5294 5295 5296 5297 5298 5299 5300 5301 5302 5303 5304 5305 5306 5307 5308 5309 5310 5311 5312 5313 5314 5315 5316 5317 5318 5319 5320 5321 5322 5323 5324 5325 5326 5327 5328 5329 5330 5331 5332 5333 5334 5335 5336 5337 5338 5339 5340 5341 5342 5343 5344 5345 5346 5347 5348 5349 5350 5351 5352 5353 5354 5355 5356 5357 5358 5359 5360 5361 5362 5363 5364 5365 5366 5367 5368 5369 5370 5371 5372 5373 5374 5375 5376 5377 5378 5379 5380 5381 5382 5383 5384 5385 5386 5387 5388 5389 5390 5391 5392 5393 5394 5395 5396 5397 5398 5399 5400 5401 5402 5403 5404 5405 5406 5407 5408 5409 5410 5411 5412 5413 5414 5415 5416 5417 5418 5419 5420 5421 5422 5423 5424 5425 5426 5427 5428 5429 5430 5431 5432 5433 5434 5435 5436 5437 5438 5439 5440 5441 5442 5443 5444 5445 5446 5447 5448 5449 5450 5451 5452 5453 5454 5455 5456 5457 5458 5459 5460 5461 5462 5463 5464 5465 5466 5467 5468 5469 5470 5471 5472 5473 5474 5475 5476 5477 5478 5479 5480 5481 5482 5483 5484 5485 5486 5487 5488 5489 5490 5491 5492 5493 5494 5495 5496 5497 5498 5499 5500 5501 5502 5503 5504 5505 5506 5507 5508 5509 5510 5511 5512 5513 5514 5515 5516 5517 5518 5519 5520 5521 5522 5523 5524 5525 5526 5527 5528 5529 5530 5531 5532 5533 5534 5535 5536 5537 5538 5539 5540 5541 5542 5543 5544 5545 5546 5547 5548 5549 5550 5551 5552 5553 5554 5555 5556 5557 5558 5559 5560 5561 5562 5563 5564 5565 5566 5567 5568 5569 5570 5571 5572 5573 5574 5575 5576 5577 5578 5579 5580 5581 5582 5583 5584 5585 5586 5587 5588 5589 5590 5591 5592 5593 5594 5595 5596 5597 5598 5599 5600 5601 5602 5603 5604 5605 5606 5607 5608 5609 5610 5611 5612 5613 5614 5615 5616 5617 5618 5619 5620 5621 5622 5623 5624 5625 5626 5627 5628 5629 5630 5631 5632 5633 5634 5635 5636 5637 5638 5639 5640 5641 5642 5643 5644 5645 5646 5647 5648 5649 5650 5651 5652 5653 5654 5655 5656 5657 5658 5659 5660 5661 5662 5663 5664 5665 5666 5667 5668 5669 5670 5671 5672 5673 5674 5675 5676 5677 5678 5679 5680 5681 5682 5683 5684 5685 5686 5687 5688 5689 5690 5691 5692 5693 5694 5695 5696 5697 5698 5699 5700 5701 5702 5703 5704 5705 5706 5707 5708 5709 5710 5711 5712 5713 5714 5715 5716 5717 5718 5719 5720 5721 5722 5723 5724 5725 5726 5727 5728 5729 5730 5731 5732 5733 5734 5735 5736 5737 5738 5739 5740 5741 5742 5743 5744 5745 5746 5747 5748 5749 5750 5751 5752 5753 5754 5755 5756 5757 5758 5759 5760 5761 5762 5763 5764 5765 5766 5767 5768 5769 5770 5771 5772 5773 5774 5775 5776 5777 5778 5779 5780 5781 5782 5783 5784 5785 5786 5787 5788 5789 5790 5791 5792 5793 5794 5795 5796 5797 5798 5799 5800 5801 5802 5803 5804 5805 5806 5807 5808 5809 5810 5811 5812 5813 5814 5815 5816 5817 5818 5819 5820 5821 5822 5823 5824 5825 5826 5827 5828 5829 5830 5831 5832 5833 5834 5835 5836 5837 5838 5839 5840 5841 5842 5843 5844 5845 5846 5847 5848 5849 5850 5851 5852 5853 5854 5855 5856 5857 5858 5859 5860 5861 5862 5863 5864 5865 5866 5867 5868 5869 5870 5871 5872 5873 5874 5875 5876 5877 5878 5879 5880 5881 5882 5883 5884 5885 5886 5887 5888 5889 5890 5891 5892 5893 5894 5895 5896 5897 5898 5899 5900 5901 5902 5903 5904 5905 5906 5907 5908 5909 5910 5911 5912 5913 5914 5915 5916 5917 5918 5919 5920 5921 5922 5923 5924 5925 5926 5927 5928 5929 5930 5931 5932 5933 5934 5935 5936 5937 5938 5939 5940 5941 5942 5943 5944 5945 5946 5947 5948 5949 5950 5951 5952 5953 5954 5955 5956 5957 5958 5959 5960 5961 5962 5963 5964 5965 5966 5967 5968 5969 5970 5971 5972 5973 5974 5975 5976 5977 5978 5979 5980 5981 5982 5983 5984 5985 5986 5987 5988 5989 5990 5991 5992 5993 5994 5995 5996 5997 5998 5999 6000 6001 6002 6003 6004 6005 6006 6007 6008 6009 6010 6011 6012 6013 6014 6015 6016 6017 6018 6019 6020 6021 6022 6023 6024 6025 6026 6027 6028 6029 6030 6031 6032 6033 6034 6035 6036 6037 6038 6039 6040 6041 6042 6043 6044 6045 6046 6047 6048 6049 6050 6051 6052 6053 6054 6055 6056 6057 6058 6059 6060 6061 6062 6063 6064 6065 6066 6067 6068 6069 6070 6071 6072 6073 6074 6075 6076 6077 6078 6079 6080 6081 6082 6083 6084 6085 6086 6087 6088 6089 6090 6091 6092 6093 6094 6095 6096 6097 6098 6099 6100 6101 6102 6103 6104 6105 6106 6107 6108 6109 6110 6111 6112 6113 6114 6115 6116 6117 6118 6119 6120 6121 6122 6123 6124 6125 6126 6127 6128 6129 6130 6131 6132 6133 6134 6135 6136 6137 6138 6139 6140 6141 6142 6143 6144 6145 6146 6147 6148 6149 6150 6151 6152 6153 6154 6155 6156 6157 6158 6159 6160 6161 6162 6163 6164 6165 6166 6167 6168 6169 6170 6171 6172 6173 6174 6175 6176 6177 6178 6179 6180 6181 6182 6183 6184 6185 6186 6187 6188 6189 6190 6191 6192 6193 6194 6195 6196 6197 6198 6199 6200 6201 6202 6203 6204 6205 6206 6207 6208 6209 6210 6211 6212 6213 6214 6215 6216 6217 6218 6219 6220 6221 6222 6223 6224 6225 6226 6227 6228 6229 6230 6231 6232 6233 6234 6235 6236 6237 6238 6239 6240 6241 6242 6243 6244 6245 6246 6247 6248 6249 6250 6251 6252 6253 6254 6255 6256 6257 6258 6259 6260 6261 6262 6263 6264 6265 6266 6267 6268 6269 6270 6271 6272 6273 6274 6275 6276 6277 6278 6279 6280 6281 6282 6283 6284 6285 6286 6287 6288 6289 6290 6291 6292 6293 6294 6295 6296 6297 6298 6299 6300 6301 6302 6303 6304 6305 6306 6307 6308 6309 6310 6311 6312 6313 6314 6315 6316 6317 6318 6319 6320 6321 6322 6323 6324 6325 6326 6327 6328 6329 6330 6331 6332 6333 6334 6335 6336 6337 6338 6339 6340 6341 6342 6343 6344 6345 6346 6347 6348 6349 6350 6351 6352 6353 6354 6355 6356 6357 6358 6359 6360 6361 6362 6363 6364 6365 6366 6367 6368 6369 6370 6371 6372 6373 6374 6375 6376 6377 6378 6379 6380 6381 6382 6383 6384 6385 6386 6387 6388 6389 6390 6391 6392 6393 6394 6395 6396 6397 6398 6399 6400 6401 6402 6403 6404 6405 6406 6407 6408 6409 6410 6411 6412 6413 6414 6415 6416 6417 6418 6419 6420 6421 6422 6423 6424 6425 6426 6427 6428 6429 6430 6431 6432 6433 6434 6435 6436 6437 6438 6439 6440 6441 6442 6443 6444 6445 6446 6447 6448 6449 6450 6451 6452 6453 6454 6455 6456 6457 6458 6459 6460 6461 6462 6463 6464 6465 6466 6467 6468 6469 6470 6471 6472 6473 6474 6475 6476 6477 6478 6479 6480 6481 6482 6483 6484 6485 6486 6487 6488 6489 6490 6491 6492 6493 6494 6495 6496 6497 6498 6499 6500 6501 6502 6503 6504 6505 6506 6507 6508 6509 6510 6511 6512 6513 6514 6515 6516 6517 6518 6519 6520 6521 6522 6523 6524 6525 6526 6527 6528 6529 6530 6531 6532 6533 6534 6535 6536 6537 6538 6539 6540 6541 6542 6543 6544 6545 6546 6547 6548 6549 6550 6551 6552 6553 6554 6555 6556 6557 6558 6559 6560 6561 6562 6563 6564 6565 6566 6567 6568 6569 6570 6571 6572 6573 6574 6575 6576 6577 6578 6579 6580 6581 6582 6583 6584 6585 6586 6587 6588 6589 6590 6591 6592 6593 6594 6595 6596 6597 6598 6599 6600 6601 6602 6603 6604 6605 6606 6607 6608 6609 6610 6611 6612 6613 6614 6615 6616 6617 6618 6619 6620 6621 6622 6623 6624 6625 6626 6627 6628 6629 6630 6631 6632 6633 6634 6635 6636 6637 6638 6639 6640 6641 6642 6643 6644 6645 6646 6647 6648 6649 6650 6651 6652 6653 6654 6655 6656 6657 6658 6659 6660 6661 6662 6663 6664 6665 6666 6667 6668 6669 6670 6671 6672 6673 6674 6675 6676 6677 6678 6679 6680 6681 6682 6683 6684 6685 6686 6687 6688 6689 6690 6691 6692 6693 6694 6695 6696 6697 6698 6699 6700 6701 6702 6703 6704 6705 6706 6707 6708 6709 6710 6711 6712 6713 6714 6715 6716 6717 6718 6719 6720 6721 6722 6723 6724 6725 6726 6727 6728 6729 6730 6731 6732 6733 6734 6735 6736 6737 6738 6739 6740 6741 6742 6743 6744 6745 6746 6747 6748 6749 6750 6751 6752 6753 6754 6755 6756 6757 6758 6759 6760 6761 6762 6763 6764 6765 6766 6767 6768 6769 6770 6771 6772 6773 6774 6775 6776 6777 6778 6779 6780 6781 6782 6783 6784 6785 6786 6787 6788 6789 6790 6791 6792 6793 6794 6795 6796 6797 6798 6799 6800 6801 6802 6803 6804 6805 6806 6807 6808 6809 6810 6811 6812 6813 6814 6815 6816 6817 6818 6819 6820 6821 6822 6823 6824 6825 6826 6827 6828 6829 6830 6831 6832 6833 6834 6835 6836 6837 6838 6839 6840 6841 6842 6843 6844 6845 6846 6847 6848 6849 6850 6851 6852 6853 6854 6855 6856 6857 6858 6859 6860 6861 6862 6863 6864 6865 6866 6867 6868 6869 6870 6871 6872 6873 6874 6875 6876 6877 6878 6879 6880 6881 6882 6883 6884 6885 6886 6887 6888 6889 6890 6891 6892 6893 6894 6895 6896 6897 6898 6899 6900 6901 6902 6903 6904 6905 6906 6907 6908 6909 6910 6911 6912 6913 6914 6915 6916 6917 6918 6919 6920 6921 6922 6923 6924 6925 6926 6927 6928 6929 6930 6931 6932 6933 6934 6935 6936 6937 6938 6939 6940 6941 6942 6943 6944 6945 6946 6947 6948 6949 6950 6951 6952 6953 6954 6955 6956 6957 6958 6959 6960 6961 6962 6963 6964 6965 6966 6967 6968 6969 6970 6971 6972 6973 6974 6975 6976 6977 6978 6979 6980 6981 6982 6983 6984 6985 6986 6987 6988 6989 6990 6991 6992 6993 6994 6995 6996 6997 6998 6999 7000 7001 7002 7003 7004 7005 7006 7007 7008 7009 7010 7011 7012 7013 7014 7015 7016 7017 7018 7019 7020 7021 7022 7023 7024 7025 7026 7027 7028 7029 7030 7031 7032 7033 7034 7035 7036 7037 7038 7039 7040 7041 7042 7043 7044 7045 7046 7047 7048 7049 7050 7051 7052 7053 7054 7055 7056 7057 7058 7059 7060 7061 7062 7063 7064 7065 7066 7067 7068 7069 7070 7071 7072 7073 7074 7075 7076 7077 7078 7079 7080 7081 7082 7083 7084 7085 7086 7087 7088 7089 7090 7091 7092 7093 7094 7095 7096 7097 7098 7099 7100 7101 7102 7103 7104 7105 7106 7107 7108 7109 7110 7111 7112 7113 7114 7115 7116 7117 7118 7119 7120 7121 7122 7123 7124 7125 7126 7127 7128 7129 7130 7131 7132 7133 7134 7135 7136 7137 7138 7139 7140 7141 7142 7143 7144 7145 7146 7147 7148 7149 7150 7151 7152 7153 7154 7155 7156 7157 7158 7159 7160 7161 7162 7163 7164 7165 7166 7167 7168 7169 7170 7171 7172 7173 7174 7175 7176 7177 7178 7179 7180 7181 7182 7183 7184 7185 7186 7187 7188 7189 7190 7191 7192 7193 7194 7195 7196 7197 7198 7199 7200 7201 7202 7203 7204 7205 7206 7207 7208 7209 7210 7211 7212 7213 7214 7215 7216 7217 7218 7219 7220 7221 7222 7223 7224 7225 7226 7227 7228 7229 7230 7231 7232 7233 7234 7235 7236 7237 7238 7239 7240 7241 7242 7243 7244 7245 7246 7247 7248 7249 7250 7251 7252 7253 7254 7255 7256 7257 7258 7259 7260 7261 7262 7263 7264 7265 7266 7267 7268 7269 7270 7271 7272 7273 7274 7275 7276 7277 7278 7279 7280 7281 7282 7283 7284 7285 7286 7287 7288 7289 7290 7291 7292 7293 7294 7295 7296 7297 7298 7299 7300 7301 7302 7303 7304 7305 7306 7307 7308 7309 7310 7311 7312 7313 7314 7315 7316 7317 7318 7319 7320 7321 7322 7323 7324 7325 7326 7327 7328 7329 7330 7331 7332 7333 7334 7335 7336 7337 7338 7339 7340 7341 7342 7343 7344 7345 7346 7347 7348 7349 7350 7351 7352 7353 7354 7355 7356 7357 7358 7359 7360 7361 7362 7363 7364 7365 7366 7367 7368 7369 7370 7371 7372 7373 7374 7375 7376 7377 7378 7379 7380 7381 7382 7383 7384 7385 7386 7387 7388 7389 7390 7391 7392 7393 7394 7395 7396 7397 7398 7399 7400 7401 7402 7403 7404 7405 7406 7407 7408 7409 7410 7411 7412 7413 7414 7415 7416 7417 7418 7419 7420 7421 7422 7423 7424 7425 7426 7427 7428 7429 7430 7431 7432 7433 7434 7435 7436 7437 7438 7439 7440 7441 7442 7443 7444 7445 7446 7447 7448 7449 7450 7451 7452 7453 7454 7455 7456 7457 7458 7459 7460 7461 7462 7463 7464 7465 7466 7467 7468 7469 7470 7471 7472 7473 7474 7475 7476 7477 7478 7479 7480 7481 7482 7483 7484 7485 7486 7487 7488 7489 7490 7491 7492 7493 7494 7495 7496 7497 7498 7499 7500 7501 7502 7503 7504 7505 7506 7507 7508 7509 7510 7511 7512 7513 7514 7515 7516 7517 7518 7519 7520 7521 7522 7523 7524 7525 7526 7527 7528 7529 7530 7531 7532 7533 7534 7535 7536 7537 7538 7539 7540 7541 7542 7543 7544 7545 7546 7547 7548 7549 7550 7551 7552 7553 7554 7555 7556 7557 7558 7559 7560 7561 7562 7563 7564 7565 7566 7567 7568 7569 7570 7571 7572 7573 7574 7575 7576 7577 7578 7579 7580 7581 7582 7583 7584 7585 7586 7587 7588 7589 7590 7591 7592 7593 7594 7595 7596 7597 7598 7599 7600 7601 7602 7603 7604 7605 7606 7607 7608 7609 7610 7611 7612 7613 7614 7615 7616 7617 7618 7619 7620 7621 7622 7623 7624 7625 7626 7627 7628 7629 7630 7631 7632 7633 7634 7635 7636 7637 7638 7639 7640 7641 7642 7643 7644 7645 7646 7647 7648 7649 7650 7651 7652 7653 7654 7655 7656 7657 7658 7659 7660 7661 7662 7663 7664 7665 7666 7667 7668 7669 7670 7671 7672 7673 7674 7675 7676 7677 7678 7679 7680 7681 7682 7683 7684 7685 7686 7687 7688 7689 7690 7691 7692 7693 7694 7695 7696 7697 7698 7699 7700 7701 7702 7703 7704 7705 7706 7707 7708 7709 7710 7711 7712 7713 7714 7715 7716 7717 7718 7719 7720 7721 7722 7723 7724 7725 7726 7727 7728 7729 7730 7731 7732 7733 7734 7735 7736 7737 7738 7739 7740 7741 7742 7743 7744 7745 7746 7747 7748 7749 7750 7751 7752 7753 7754 7755 7756 7757 7758 7759 7760 7761 7762 7763 7764 7765 7766 7767 7768 7769 7770 7771 7772 7773 7774 7775 7776 7777 7778 7779 7780 7781 7782 7783 7784 7785 7786 7787 7788 7789 7790 7791 7792 7793 7794 7795 7796 7797 7798 7799 7800 7801 7802 7803 7804 7805 7806 7807 7808 7809 7810 7811 7812 7813 7814 7815 7816 7817 7818 7819 7820 7821 7822 7823 7824 7825 7826 7827 7828 7829 7830 7831 7832 7833 7834 7835 7836 7837 7838 7839 7840 7841 7842 7843 7844 7845 7846 7847 7848 7849 7850 7851 7852 7853 7854 7855 7856 7857 7858 7859 7860 7861 7862 7863 7864 7865 7866 7867 7868 7869 7870 7871 7872 7873 7874 7875 7876 7877 7878 7879 7880 7881 7882 7883 7884 7885 7886 7887 7888 7889 7890 7891 7892 7893 7894 7895 7896 7897 7898 7899 7900 7901 7902 7903 7904 7905 7906 7907 7908 7909 7910 7911 7912 7913 7914 7915 7916 7917 7918 7919 7920 7921 7922 7923 7924 7925 7926 7927 7928 7929 7930 7931 7932 7933 7934 7935 7936 7937 7938 7939 7940 7941 7942 7943 7944 7945 7946 7947 7948 7949 7950 7951 7952 7953 7954 7955 7956 7957 7958 7959 7960 7961 7962 7963 7964 7965 7966 7967 7968 7969 7970 7971 7972 7973 7974 7975 7976 7977 7978 7979 7980 7981 7982 7983 7984 7985 7986 7987 7988 7989 7990 7991 7992 7993 7994 7995 7996 7997 7998 7999 8000 8001 8002 8003 8004 8005 8006 8007 8008 8009 8010 8011 8012 8013 8014 8015 8016 8017 8018 8019 8020 8021 8022 8023 8024 8025 8026 8027 8028 8029 8030 8031 8032 8033 8034 8035 8036 8037 8038 8039 8040 8041 8042 8043 8044 8045 8046 8047 8048 8049 8050 8051 8052 8053 8054 8055 8056 8057 8058 8059 8060 8061 8062 8063 8064 8065 8066 8067 8068 8069 8070 8071 8072 8073 8074 8075 8076 8077 8078 8079 8080 8081 8082 8083 8084 8085 8086 8087 8088 8089 8090 8091 8092 8093 8094 8095 8096 8097 8098 8099 8100 8101 8102 8103 8104 8105 8106 8107 8108 8109 8110 8111 8112 8113 8114 8115 8116 8117 8118 8119 8120 8121 8122 8123 8124 8125 8126 8127 8128 8129 8130 8131 8132 8133 8134 8135 8136 8137 8138 8139 8140 8141 8142 8143 8144 8145 8146 8147 8148 8149 8150 8151 8152 8153 8154 8155 8156 8157 8158 8159 8160 8161 8162 8163 8164 8165 8166 8167 8168 8169 8170 8171 8172 8173 8174 8175 8176 8177 8178 8179 8180 8181 8182 8183 8184 8185 8186 8187 8188 8189 8190 8191 8192 8193 8194 8195 8196 8197 8198 8199 8200 8201 8202 8203 8204 8205 8206 8207 8208 8209 8210 8211 8212 8213 8214 8215 8216 8217 8218 8219 8220 8221 8222 8223 8224 8225 8226 8227 8228 8229 8230 8231 8232 8233 8234 8235 8236 8237 8238 8239 8240 8241 8242 8243 8244 8245 8246 8247 8248 8249 8250 8251 8252 8253 8254 8255 8256 8257 8258 8259 8260 8261 8262 8263 8264 8265 8266 8267 8268 8269 8270 8271 8272 8273 8274 8275 8276 8277 8278 8279 8280 8281 8282 8283 8284 8285 8286 8287 8288 8289 8290 8291 8292 8293 8294 8295 8296 8297 8298 8299 8300 8301 8302 8303 8304 8305 8306 8307 8308 8309 8310 8311 8312 8313 8314 8315 8316 8317 8318 8319 8320 8321 8322 8323 8324 8325 8326 8327 8328 8329 8330 8331 8332 8333 8334 8335 8336 8337 8338 8339 8340 8341 8342 8343 8344 8345 8346 8347 8348 8349 8350 8351 8352 8353 8354 8355 8356 8357 8358 8359 8360 8361 8362 8363 8364 8365 8366 8367 8368 8369 8370 8371 8372 8373 8374 8375 8376 8377 8378 8379 8380 8381 8382 8383 8384 8385 8386 8387 8388 8389 8390 8391 8392 8393 8394 8395 8396 8397 8398 8399 8400 8401 8402 8403 8404 8405 8406 8407 8408 8409 8410 8411 8412 8413 8414 8415 8416 8417 8418 8419 8420 8421 8422 8423 8424 8425 8426 8427 8428 8429 8430 8431 8432 8433 8434 8435 8436 8437 8438 8439 8440 8441 8442 8443 8444 8445 8446 8447 8448 8449 8450 8451 8452 8453 8454 8455 8456 8457 8458 8459 8460 8461 8462 8463 8464 8465 8466 8467 8468 8469 8470 8471 8472 8473 8474 8475 8476 8477 8478 8479 8480 8481 8482 8483 8484 8485 8486 8487 8488 8489 8490 8491 8492 8493 8494 8495 8496 8497 8498 8499 8500 8501 8502 8503 8504 8505 8506 8507 8508 8509 8510 8511 8512 8513 8514 8515 8516 8517 8518 8519 8520 8521 8522 8523 8524 8525 8526 8527 8528 8529 8530 8531 8532 8533 8534 8535 8536 8537 8538 8539 8540 8541 8542 8543 8544 8545 8546 8547 8548 8549 8550 8551 8552 8553 8554 8555 8556 8557 8558 8559 8560 8561 8562 8563 8564 8565 8566 8567 8568 8569 8570 8571 8572 8573 8574 8575 8576 8577 8578 8579 8580 8581 8582 8583 8584 8585 8586 8587 8588 8589 8590 8591 8592 8593 8594 8595 8596 8597 8598 8599 8600 8601 8602 8603 8604 8605 8606 8607 8608 8609 8610 8611 8612 8613 8614 8615 8616 8617 8618 8619 8620 8621 8622 8623 8624 8625 8626 8627 8628 8629 8630 8631 8632 8633 8634 8635 8636 8637 8638 8639 8640 8641 8642 8643 8644 8645 8646 8647 8648 8649 8650 8651 8652 8653 8654 8655 8656 8657 8658 8659 8660 8661 8662 8663 8664 8665 8666 8667 8668 8669 8670 8671 8672 8673 8674 8675 8676 8677 8678 8679 8680 8681 8682 8683 8684 8685 8686 8687 8688 8689 8690 8691 8692 8693 8694 8695 8696 8697 8698 8699 8700 8701 8702 8703 8704 8705 8706 8707 8708 8709 8710 8711 8712 8713 8714 8715 8716 8717 8718 8719 8720 8721 8722 8723 8724 8725 8726 8727 8728 8729 8730 8731 8732 8733 8734 8735 8736 8737 8738 8739 8740 8741 8742 8743 8744 8745 8746 8747 8748 8749 8750 8751 8752 8753 8754 8755 8756 8757 8758 8759 8760 8761 8762 8763 8764 8765 8766 8767 8768 8769 8770 8771 8772 8773 8774 8775 8776 8777 8778 8779 8780 8781 8782 8783 8784 8785 8786 8787 8788 8789 8790 8791 8792 8793 8794 8795 8796 8797 8798 8799 8800 8801 8802 8803 8804 8805 8806 8807 8808 8809 8810 8811 8812 8813 8814 8815 8816 8817 8818 8819 8820 8821 8822 8823 8824 8825 8826 8827 8828 8829 8830 8831 8832 8833 8834 8835 8836 8837 8838 8839 8840 8841 8842 8843 8844 8845 8846 8847 8848 8849 8850 8851 8852 8853 8854 8855 8856 8857 8858 8859 8860 8861 8862 8863 8864 8865 8866 8867 8868 8869 8870 8871 8872 8873 8874 8875 8876 8877 8878 8879 8880 8881 8882 8883 8884 8885 8886 8887 8888 8889 8890 8891 8892 8893 8894 8895 8896 8897 8898 8899 8900 8901 8902 8903 8904 8905 8906 8907 8908 8909 8910 8911 8912 8913 8914 8915 8916 8917 8918 8919 8920 8921 8922 8923 8924 8925 8926 8927 8928 8929 8930 8931 8932 8933 8934 8935 8936 8937 8938 8939 8940 8941 8942 8943 8944 8945 8946 8947 8948 8949 8950 8951 8952 8953 8954 8955 8956 8957 8958 8959 8960 8961 8962 8963 8964 8965 8966 8967 8968 8969 8970 8971 8972 8973 8974 8975 8976 8977 8978 8979 8980 8981 8982 8983 8984 8985 8986 8987 8988 8989 8990 8991 8992 8993 8994 8995 8996 8997 8998 8999 9000 9001 9002 9003 9004 9005 9006 9007 9008 9009 9010 9011 9012 9013 9014 9015 9016 9017 9018 9019 9020 9021 9022 9023 9024 9025 9026 9027 9028 9029 9030 9031 9032 9033 9034 9035 9036 9037 9038 9039 9040 9041 9042 9043 9044 9045 9046 9047 9048 9049 9050 9051 9052 9053 9054 9055 9056 9057 9058 9059 9060 9061 9062 9063 9064 9065 9066 9067 9068 9069 9070 9071 9072 9073 9074 9075 9076 9077 9078 9079 9080 9081 9082 9083 9084 9085 9086 9087 9088 9089 9090 9091 9092 9093 9094 9095 9096 9097 9098 9099 9100 9101 9102 9103 9104 9105 9106 9107 9108 9109 9110 9111 9112 9113 9114 9115 9116 9117 9118 9119 9120 9121 9122 9123 9124 9125 9126 9127 9128 9129 9130 9131 9132 9133 9134 9135 9136 9137 9138 9139 9140 9141 9142 9143 9144 9145 9146 9147 9148 9149 9150 9151 9152 9153 9154 9155 9156 9157 9158 9159 9160 9161 9162 9163 9164 9165 9166 9167 9168 9169 9170 9171 9172 9173 9174 9175 9176 9177 9178 9179 9180 9181 9182 9183 9184 9185 9186 9187 9188 9189 9190 9191 9192 9193 9194 9195 9196 9197 9198 9199 9200 9201 9202 9203 9204 9205 9206 9207 9208 9209 9210 9211 9212 9213 9214 9215 9216 9217 9218 9219 9220 9221 9222 9223 9224 9225 9226 9227 9228 9229 9230 9231 9232 9233 9234 9235 9236 9237 9238 9239 9240 9241 9242 9243 9244 9245 9246 9247 9248 9249 9250 9251 9252 9253 9254 9255 9256 9257 9258 9259 9260 9261 9262 9263 9264 9265 9266 9267 9268 9269 9270 9271 9272 9273 9274 9275 9276 9277 9278 9279 9280 9281 9282 9283 9284 9285 9286 9287 9288 9289 9290 9291 9292 9293 9294 9295 9296 9297 9298 9299 9300 9301 9302 9303 9304 9305 9306 9307 9308 9309 9310 9311 9312 9313 9314 9315 9316 9317 9318 9319 9320 9321 9322 9323 9324 9325 9326 9327 9328 9329 9330 9331 9332 9333 9334 9335 9336 9337 9338 9339 9340 9341 9342 9343 9344 9345 9346 9347 9348 9349 9350 9351 9352 9353 9354 9355 9356 9357 9358 9359 9360 9361 9362 9363 9364 9365 9366 9367 9368 9369 9370 9371 9372 9373 9374 9375 9376 9377 9378 9379 9380 9381 9382 9383 9384 9385 9386 9387 9388 9389 9390 9391 9392 9393 9394 9395 9396 9397 9398 9399 9400 9401 9402 9403 9404 9405 9406 9407 9408 9409 9410 9411 9412 9413 9414 9415 9416 9417 9418 9419 9420 9421 9422 9423 9424 9425 9426 9427 9428 9429 9430 9431 9432 9433 9434 9435 9436 9437 9438 9439 9440 9441 9442 9443 9444 9445 9446 9447 9448 9449 9450 9451 9452 9453 9454 9455 9456 9457 9458 9459 9460 9461 9462 9463 9464 9465 9466 9467 9468 9469 9470 9471 9472 9473 9474 9475 9476 9477 9478 9479 9480 9481 9482 9483 9484 9485 9486 9487 9488 9489 9490 9491 9492 9493 9494 9495 9496 9497 9498 9499 9500 9501 9502 9503 9504 9505 9506 9507 9508 9509 9510 9511 9512 9513 9514 9515 9516 9517 9518 9519 9520 9521 9522 9523 9524 9525 9526 9527 9528 9529 9530 9531 9532 9533 9534 9535 9536 9537 9538 9539 9540 9541 9542 9543 9544 9545 9546 9547 9548 9549 9550 9551 9552 9553 9554 9555 9556 9557 9558 9559 9560 9561 9562 9563 9564 9565 9566 9567 9568 9569 9570 9571 9572 9573 9574 9575 9576 9577 9578 9579 9580 9581 9582 9583 9584 9585 9586 9587 9588 9589 9590 9591 9592 9593 9594 9595 9596 9597 9598 9599 9600 9601 9602 9603 9604 9605 9606 9607 9608 9609 9610 9611 9612 9613 9614 9615 9616 9617 9618 9619 9620 9621 9622 9623 9624 9625 9626 9627 9628 9629 9630 9631 9632 9633 9634 9635 9636 9637 9638 9639 9640 9641 9642 9643 9644 9645 9646 9647 9648 9649 9650 9651 9652 9653 9654 9655 9656 9657 9658 9659 9660 9661 9662 9663 9664 9665 9666 9667 9668 9669 9670 9671 9672 9673 9674 9675 9676 9677 9678 9679 9680 9681 9682 9683 9684 9685 9686 9687 9688 9689 9690 9691 9692 9693 9694 9695 9696 9697 9698 9699 9700 9701 9702 9703 9704 9705 9706 9707 9708 9709 9710 9711 9712 9713 9714 9715 9716 9717 9718 9719 9720 9721 9722 9723 9724 9725 9726 9727 9728 9729 9730 9731 9732 9733 9734 9735 9736 9737 9738 9739 9740 9741 9742 9743 9744 9745 9746 9747 9748 9749 9750 9751 9752 9753 9754 9755 9756 9757 9758 9759 9760 9761 9762 9763 9764 9765 9766 9767 9768 9769 9770 9771 9772 9773 9774 9775 9776 9777 9778 9779 9780 9781 9782 9783 9784 9785 9786 9787 9788 9789 9790 9791 9792 9793 9794 9795 9796 9797 9798 9799 9800 9801 9802 9803 9804 9805 9806 9807 9808 9809 9810 9811 9812 9813 9814 9815 9816 9817 9818 9819 9820 9821 9822 9823 9824 9825 9826 9827 9828 9829 9830 9831 9832 9833 9834 9835 9836 9837 9838 9839 9840 9841 9842 9843 9844 9845 9846 9847 9848 9849 9850 9851 9852 9853 9854 9855 9856 9857 9858 9859 9860 9861 9862 9863 9864 9865 9866 9867 9868 9869 9870 9871 9872 9873 9874 9875 9876 9877 9878 9879 9880 9881 9882 9883 9884 9885 9886 9887 9888 9889 9890 9891 9892 9893 9894 9895 9896 9897 9898 9899 9900 9901 9902 9903 9904 9905 9906 9907 9908 9909 9910 9911 9912 9913 9914 9915 9916 9917 9918 9919 9920 9921 9922 9923 9924 9925 9926 9927 9928 9929 9930 9931 9932 9933 9934 9935 9936 9937 9938 9939 9940 9941 9942 9943 9944 9945 9946 9947 9948 9949 9950 9951 9952 9953 9954 9955 9956 9957 9958 9959 9960 9961 9962 9963 9964 9965 9966 9967 9968 9969 9970 9971 9972 9973 9974 9975 9976 9977 9978 9979 9980 9981 9982 9983 9984 9985 9986 9987 9988 9989 9990 9991 9992 9993 9994 9995 9996 9997 9998 9999 10000 10001 10002 10003 10004 10005 10006 10007 10008 10009 10010 10011 10012 10013 10014 10015 10016 10017 10018 10019 10020 10021 10022 10023 10024 10025 10026 10027 10028 10029 10030 10031 10032 10033 10034 10035 10036 10037 10038 10039 10040 10041 10042 10043 10044 10045 10046 10047 10048 10049 10050 10051 10052 10053 10054 10055 10056 10057 10058 10059 10060 10061 10062 10063 10064 10065 10066 10067 10068 10069 10070 10071 10072 10073 10074 10075 10076 10077 10078 10079 10080 10081 10082 10083 10084 10085 10086 10087 10088 10089 10090 10091 10092 10093 10094 10095 10096 10097 10098 10099 10100 10101 10102 10103 10104 10105 10106 10107 10108 10109 10110 10111 10112 10113 10114 10115 10116 10117 10118 10119 10120 10121 10122 10123 10124 10125 10126 10127 10128 10129 10130 10131 10132 10133 10134 10135 10136 10137 10138 10139 10140 10141 10142 10143 10144 10145 10146 10147 10148 10149 10150 10151 10152 10153 10154 10155 10156 10157 10158 10159 10160 10161 10162 10163 10164 10165 10166 10167 10168 10169 10170 10171 10172 10173 10174 10175 10176 10177 10178 10179 10180 10181 10182 10183 10184 10185 10186 10187 10188 10189 10190 10191 10192 10193 10194 10195 10196 10197 10198 10199 10200 10201 10202 10203 10204 10205 10206 10207 10208 10209 10210 10211 10212 10213 10214 10215 10216 10217 10218 10219 10220 10221 10222 10223 10224 10225 10226 10227 10228 10229 10230 10231 10232 10233 10234 10235 10236 10237 10238 10239 10240 10241 10242 10243 10244 10245 10246 10247 10248 10249 10250 10251 10252 10253 10254 10255 10256 10257 10258 10259 10260 10261 10262 10263 10264 10265 10266 10267 10268 10269 10270 10271 10272 10273 10274 10275 10276 10277 10278 10279 10280 10281 10282 10283 10284 10285 10286 10287 10288 10289 10290 10291 10292 10293 10294 10295 10296 10297 10298 10299 10300 10301 10302 10303 10304 10305 10306 10307 10308 10309 10310 10311 10312 10313 10314 10315 10316 10317 10318 10319 10320 10321 10322 10323 10324 10325 10326 10327 10328 10329 10330 10331 10332 10333 10334 10335 10336 10337 10338 10339 10340 10341 10342 10343 10344 10345 10346 10347 10348 10349 10350 10351 10352 10353 10354 10355 10356 10357 10358 10359 10360 10361 10362 10363 10364 10365 10366 10367 10368 10369 10370 10371 10372 10373 10374 10375 10376 10377 10378 10379 10380 10381 10382 10383 10384 10385 10386 10387 10388 10389 10390 10391 10392 10393 10394 10395 10396 10397 10398 10399 10400 10401 10402 10403 10404 10405 10406 10407 10408 10409 10410 10411 10412 10413 10414 10415 10416 10417 10418 10419 10420 10421 10422 10423 10424 10425 10426 10427 10428 10429 10430 10431 10432 10433 10434 10435 10436 10437 10438 10439 10440 10441 10442 10443 10444 10445 10446 10447 10448 10449 10450 10451 10452 10453 10454 10455 10456 10457 10458 10459 10460 10461 10462 10463 10464 10465 10466 10467 10468 10469 10470 10471 10472 10473 10474 10475 10476 10477 10478 10479 10480 10481 10482 10483 10484 10485 10486 10487 10488 10489 10490 10491 10492 10493 10494 10495 10496 10497 10498 10499 10500 10501 10502 10503 10504 10505 10506 10507 10508 10509 10510 10511 10512 10513 10514 10515 10516 10517 10518 10519 10520 10521 10522 10523 10524 10525 10526 10527 10528 10529 10530 10531 10532 10533 10534 10535 10536 10537 10538 10539 10540 10541 10542 10543 10544 10545 10546 10547 10548 10549 10550 10551 10552 10553 10554 10555 10556 10557 10558 10559 10560 10561 10562 10563 10564 10565 10566 10567 10568 10569 10570 10571 10572 10573 10574 10575 10576 10577 10578 10579 10580 10581 10582 10583 10584 10585 10586 10587 10588 10589 10590 10591 10592 10593 10594 10595 10596 10597 10598 10599 10600 10601 10602 10603 10604 10605 10606 10607 10608 10609 10610 10611 10612 10613 10614 10615 10616 10617 10618 10619 10620 10621 10622 10623 10624 10625 10626 10627 10628 10629 10630 10631 10632 10633 10634 10635 10636 10637 10638 10639 10640 10641 10642 10643 10644 10645 10646 10647 10648 10649 10650 10651 10652 10653 10654 10655 10656 10657 10658 10659 10660 10661 10662 10663 10664 10665 10666 10667 10668 10669 10670 10671 10672 10673 10674 10675 10676 10677 10678 10679 10680 10681 10682 10683 10684 10685 10686 10687 10688 10689 10690 10691 10692 10693 10694 10695 10696 10697 10698 10699 10700 10701 10702 10703 10704 10705 10706 10707 10708 10709 10710 10711 10712 10713 10714 10715 10716 10717 10718 10719 10720 10721 10722 10723 10724 10725 10726 10727 10728 10729 10730 10731 10732 10733 10734 10735 10736 10737 10738 10739 10740 10741 10742 10743 10744 10745 10746 10747 10748 10749 10750 10751 10752 10753 10754 10755 10756 10757 10758 10759 10760 10761 10762 10763 10764 10765 10766 10767 10768 10769 10770 10771 10772 10773 10774 10775 10776 10777 10778 10779 10780 10781 10782 10783 10784 10785 10786 10787 10788 10789 10790 10791 10792 10793 10794 10795 10796 10797 10798 10799 10800 10801 10802 10803 10804 10805 10806 10807 10808 10809 10810 10811 10812 10813 10814 10815 10816 10817 10818 10819 10820 10821 10822 10823 10824 10825 10826 10827 10828 10829 10830 10831 10832 10833 10834 10835 10836 10837 10838 10839 10840 10841 10842 10843 10844 10845 10846 10847 10848 10849 10850 10851 10852 10853 10854 10855 10856 10857 10858 10859 10860 10861 10862 10863 10864 10865 10866 10867 10868 10869 10870 10871 10872 10873 10874 10875 10876 10877 10878 10879 10880 10881 10882 10883 10884 10885 10886 10887 10888 10889 10890 10891 10892 10893 10894 10895 10896 10897 10898 10899 10900 10901 10902 10903 10904 10905 10906 10907 10908 10909 10910 10911 10912 10913 10914 10915 10916 10917 10918 10919 10920 10921 10922 10923 10924 10925 10926 10927 10928 10929 10930 10931 10932 10933 10934 10935 10936 10937 10938 10939 10940 10941 10942 10943 10944 10945 10946 10947 10948 10949 10950 10951 10952 10953 10954 10955 10956 10957 10958 10959 10960 10961 10962 10963 10964 10965 10966 10967 10968 10969 10970 10971 10972 10973 10974 10975 10976 10977 10978 10979 10980 10981 10982 10983 10984 10985 10986 10987 10988 10989 10990 10991 10992 10993 10994 10995 10996 10997 10998 10999 11000 11001 11002 11003 11004 11005 11006 11007 11008 11009 11010 11011 11012 11013 11014 11015 11016 11017 11018 11019 11020 11021 11022 11023 11024 11025 11026 11027 11028 11029 11030 11031 11032 11033 11034 11035 11036 11037 11038 11039 11040 11041 11042 11043 11044 11045 11046 11047 11048 11049 11050 11051 11052 11053 11054 11055 11056 11057 11058 11059 11060 11061 11062 11063 11064 11065 11066 11067 11068 11069 11070 11071 11072 11073 11074 11075 11076 11077 11078 11079 11080 11081 11082 11083 11084 11085 11086 11087 11088 11089 11090 11091 11092 11093 11094 11095 11096 11097 11098 11099 11100 11101 11102 11103 11104 11105 11106 11107 11108 11109 11110 11111 11112 11113 11114 11115 11116 11117 11118 11119 11120 11121 11122 11123 11124 11125 11126 11127 11128 11129 11130 11131 11132 11133 11134 11135 11136 11137 11138 11139 11140 11141 11142 11143 11144 11145 11146 11147 11148 11149 11150 11151 11152 11153 11154 11155 11156 11157 11158 11159 11160 11161 11162 11163 11164 11165 11166 11167 11168 11169 11170 11171 11172 11173 11174 11175 11176 11177 11178 11179 11180 11181 11182 11183 11184 11185 11186 11187 11188 11189 11190 11191 11192 11193 11194 11195 11196 11197 11198 11199 11200 11201 11202 11203 11204 11205 11206 11207 11208 11209 11210 11211 11212 11213 11214 11215 11216 11217 11218 11219 11220 11221 11222 11223 11224 11225 11226 11227 11228 11229 11230 11231 11232 11233 11234 11235 11236 11237 11238 11239 11240 11241 11242 11243 11244 11245 11246 11247 11248 11249 11250 11251 11252 11253 11254 11255 11256 11257 11258 11259 11260 11261 11262 11263 11264 11265 11266 11267 11268 11269 11270 11271 11272 11273 11274 11275 11276 11277 11278 11279 11280 11281 11282 11283 11284 11285 11286 11287 11288 11289 11290 11291 11292 11293 11294 11295 11296 11297 11298 11299 11300 11301 11302 11303 11304 11305 11306 11307 11308 11309 11310 11311 11312 11313 11314 11315 11316 11317 11318 11319 11320 11321 11322 11323 11324 11325 11326 11327 11328 11329 11330 11331 11332 11333 11334 11335 11336 11337 11338 11339 11340 11341 11342 11343 11344 11345 11346 11347 11348 11349 11350 11351 11352 11353 11354 11355 11356 11357 11358 11359 11360 11361 11362 11363 11364 11365 11366 11367 11368 11369 11370 11371 11372 11373 11374 11375 11376 11377 11378 11379 11380 11381 11382 11383 11384 11385 11386 11387 11388 11389 11390 11391 11392 11393 11394 11395 11396 11397 11398 11399 11400 11401 11402 11403 11404 11405 11406 11407 11408 11409 11410 11411 11412 11413 11414 11415 11416 11417 11418 11419 11420 11421 11422 11423 11424 11425 11426 11427 11428 11429 11430 11431 11432 11433 11434 11435 11436 11437 11438 11439 11440 11441 11442 11443 11444 11445 11446 11447 11448 11449 11450 11451 11452 11453 11454 11455 11456 11457 11458 11459 11460 11461 11462 11463 11464 11465 11466 11467 11468 11469 11470 11471 11472 11473 11474 11475 11476 11477 11478 11479 11480 11481 11482 11483 11484 11485 11486 11487 11488 11489 11490 11491 11492 11493 11494 11495 11496 11497 11498 11499 11500 11501 11502 11503 11504 11505 11506 11507 11508 11509 11510 11511 11512 11513 11514 11515 11516 11517 11518 11519 11520 11521 11522 11523 11524 11525 11526 11527 11528 11529 11530 11531 11532 11533 11534 11535 11536 11537 11538 11539 11540 11541 11542 11543 11544 11545 11546 11547 11548 11549 11550 11551 11552 11553 11554 11555 11556 11557 11558 11559 11560 11561 11562 11563 11564 11565 11566 11567 11568 11569 11570 11571 11572 11573 11574 11575 11576 11577 11578 11579 11580 11581 11582 11583 11584 11585 11586 11587 11588 11589 11590 11591 11592 11593 11594 11595 11596 11597 11598 11599 11600 11601 11602 11603 11604 11605 11606 11607 11608 11609 11610 11611 11612 11613 11614 11615 11616 11617 11618 11619 11620 11621 11622 11623 11624 11625 11626 11627 11628 11629 11630 11631 11632 11633 11634 11635 11636 11637 11638 11639 11640 11641 11642 11643 11644 11645 11646 11647 11648 11649 11650 11651 11652 11653 11654 11655 11656 11657 11658 11659 11660 11661 11662 11663 11664 11665 11666 11667 11668 11669 11670 11671 11672 11673 11674 11675 11676 11677 11678 11679 11680 11681 11682 11683 11684 11685 11686 11687 11688 11689 11690 11691 11692 11693 11694 11695 11696 11697 11698 11699 11700 11701 11702 11703 11704 11705 11706 11707 11708 11709 11710 11711 11712 11713 11714 11715 11716 11717 11718 11719 11720 11721 11722 11723 11724 11725 11726 11727 11728 11729 11730 11731 11732 11733 11734 11735 11736 11737 11738 11739 11740 11741 11742 11743 11744 11745 11746 11747 11748 11749 11750 11751 11752 11753 11754 11755 11756 11757 11758 11759 11760 11761 11762 11763 11764 11765 11766 11767 11768 11769 11770 11771 11772 11773 11774 11775 11776 11777 11778 11779 11780 11781 11782 11783 11784 11785 11786 11787 11788 11789 11790 11791 11792 11793 11794 11795 11796 11797 11798 11799 11800 11801 11802 11803 11804 11805 11806 11807 11808 11809 11810 11811 11812 11813 11814 11815 11816 11817 11818 11819 11820 11821 11822 11823 11824 11825 11826 11827 11828 11829 11830 11831 11832 11833 11834 11835 11836 11837 11838 11839 11840 11841 11842 11843 11844 11845 11846 11847 11848 11849 11850 11851 11852 11853 11854 11855 11856 11857 11858 11859 11860 11861 11862 11863 11864 11865 11866 11867 11868 11869 11870 11871 11872 11873 11874 11875 11876 11877 11878 11879 11880 11881 11882 11883 11884 11885 11886 11887 11888 11889 11890 11891 11892 11893 11894 11895 11896 11897 11898 11899 11900 11901 11902 11903 11904 11905 11906 11907 11908 11909 11910 11911 11912 11913 11914 11915 11916 11917 11918 11919 11920 11921 11922 11923 11924 11925 11926 11927 11928 11929 11930 11931 11932 11933 11934 11935 11936 11937 11938 11939 11940 11941 11942 11943 11944 11945 11946 11947 11948 11949 11950 11951 11952 11953 11954 11955 11956 11957 11958 11959 11960 11961 11962 11963 11964 11965 11966 11967 11968 11969 11970 11971 11972 11973 11974 11975 11976 11977 11978 11979 11980 11981 11982 11983 11984 11985 11986 11987 11988 11989 11990 11991 11992 11993 11994 11995 11996 11997 11998 11999 12000 12001 12002 12003 12004 12005 12006 12007 12008 12009 12010 12011 12012 12013 12014 12015 12016 12017 12018 12019 12020 12021 12022 12023 12024 12025 12026 12027 12028 12029 12030 12031 12032 12033 12034 12035 12036 12037 12038 12039 12040 12041 12042 12043 12044 12045 12046 12047 12048 12049 12050 12051 12052 12053 12054 12055 12056 12057 12058 12059 12060 12061 12062 12063 12064 12065 12066 12067 12068 12069 12070 12071 12072 12073 12074 12075 12076 12077 12078 12079 12080 12081 12082 12083 12084 12085 12086 12087 12088 12089 12090 12091 12092 12093 12094 12095 12096 12097 12098 12099 12100 12101 12102 12103 12104 12105 12106 12107 12108 12109 12110 12111 12112 12113 12114 12115 12116 12117 12118 12119 12120 12121 12122 12123 12124 12125 12126 12127 12128 12129 12130 12131 12132 12133 12134 12135 12136 12137 12138 12139 12140 12141 12142 12143 12144 12145 12146 12147 12148 12149 12150 12151 12152 12153 12154 12155 12156 12157 12158 12159 12160 12161 12162 12163 12164 12165 12166 12167 12168 12169 12170 12171 12172 12173 12174 12175 12176 12177 12178 12179 12180 12181 12182 12183 12184 12185 12186 12187 12188 12189 12190 12191 12192 12193 12194 12195 12196 12197 12198 12199 12200 12201 12202 12203 12204 12205 12206 12207 12208 12209 12210 12211 12212 12213 12214 12215 12216 12217 12218 12219 12220 12221 12222 12223 12224 12225 12226 12227 12228 12229 12230 12231 12232 12233 12234 12235 12236 12237 12238 12239 12240 12241 12242 12243 12244 12245 12246 12247 12248 12249 12250 12251 12252 12253 12254 12255 12256 12257 12258 12259 12260 12261 12262 12263 12264 12265 12266 12267 12268 12269 12270 12271 12272 12273 12274 12275 12276 12277 12278 12279 12280 12281 12282 12283 12284 12285 12286 12287 12288 12289 12290 12291 12292 12293 12294 12295 12296 12297 12298 12299 12300 12301 12302 12303 12304 12305 12306 12307 12308 12309 12310 12311 12312 12313 12314 12315 12316 12317 12318 12319 12320 12321 12322 12323 12324 12325 12326 12327 12328 12329 12330 12331 12332 12333 12334 12335 12336 12337 12338 12339 12340 12341 12342 12343 12344 12345 12346 12347 12348 12349 12350 12351 12352 12353 12354 12355 12356 12357 12358 12359 12360 12361 12362 12363 12364 12365 12366 12367 12368 12369 12370 12371 12372 12373 12374 12375 12376 12377 12378 12379 12380 12381 12382 12383 12384 12385 12386 12387 12388 12389 12390 12391 12392 12393 12394 12395 12396 12397 12398 12399 12400 12401 12402 12403 12404 12405 12406 12407 12408 12409 12410 12411 12412 12413 12414 12415 12416 12417 12418 12419 12420 12421 12422 12423 12424 12425 12426 12427 12428 12429 12430 12431 12432 12433 12434 12435 12436 12437 12438 12439 12440 12441 12442 12443 12444 12445 12446 12447 12448 12449 12450 12451 12452 12453 12454 12455 12456 12457 12458 12459 12460 12461 12462 12463 12464 12465 12466 12467 12468 12469 12470 12471 12472 12473 12474 12475 12476 12477 12478 12479 12480 12481 12482 12483 12484 12485 12486 12487 12488 12489 12490 12491 12492 12493 12494 12495 12496 12497 12498 12499 12500 12501 12502 12503 12504 12505 12506 12507 12508 12509 12510 12511 12512 12513 12514 12515 12516 12517 12518 12519 12520 12521 12522 12523 12524 12525 12526 12527 12528 12529 12530 12531 12532 12533 12534 12535 12536 12537 12538 12539 12540 12541 12542 12543 12544 12545 12546 12547 12548 12549 12550 12551 12552 12553 12554 12555 12556 12557 12558 12559 12560 12561 12562 12563 12564 12565 12566 12567 12568 12569 12570 12571 12572 12573 12574 12575 12576 12577 12578 12579 12580 12581 12582 12583 12584 12585 12586 12587 12588 12589 12590 12591 12592 12593 12594 12595 12596 12597 12598 12599 12600 12601 12602 12603 12604 12605 12606 12607 12608 12609 12610 12611 12612 12613 12614 12615 12616 12617 12618 12619 12620 12621 12622 12623 12624 12625 12626 12627 12628 12629 12630 12631 12632 12633 12634 12635 12636 12637 12638 12639 12640 12641 12642 12643 12644 12645 12646 12647 12648 12649 12650 12651 12652 12653 12654 12655 12656 12657 12658 12659 12660 12661 12662 12663 12664 12665 12666 12667 12668 12669 12670 12671 12672 12673 12674 12675 12676 12677 12678 12679 12680 12681 12682 12683 12684 12685 12686 12687 12688 12689 12690 12691 12692 12693 12694 12695 12696 12697 12698 12699 12700 12701 12702 12703 12704 12705 12706 12707 12708 12709 12710 12711 12712 12713 12714 12715 12716 12717 12718 12719 12720 12721 12722 12723 12724 12725 12726 12727 12728 12729 12730 12731 12732 12733 12734 12735 12736 12737 12738 12739 12740 12741 12742 12743 12744 12745 12746 12747 12748 12749 12750 12751 12752 12753 12754 12755 12756 12757 12758 12759 12760 12761 12762 12763 12764 12765 12766 12767 12768 12769 12770 12771 12772 12773 12774 12775 12776 12777 12778 12779 12780 12781 12782 12783 12784 12785 12786 12787 12788 12789 12790 12791 12792 12793 12794 12795 12796 12797 12798 12799 12800 12801 12802 12803 12804 12805 12806 12807 12808 12809 12810 12811 12812 12813 12814 12815 12816 12817 12818 12819 12820 12821 12822 12823 12824 12825 12826 12827 12828 12829 12830 12831 12832 12833 12834 12835 12836 12837 12838 12839 12840 12841 12842 12843 12844 12845 12846 12847 12848 12849 12850 12851 12852 12853 12854 12855 12856 12857 12858 12859 12860 12861 12862 12863 12864 12865 12866 12867 12868 12869 12870 12871 12872 12873 12874 12875 12876 12877 12878 12879 12880 12881 12882 12883 12884 12885 12886 12887 12888 12889 12890 12891 12892 12893 12894 12895 12896 12897 12898 12899 12900 12901 12902 12903 12904 12905 12906 12907 12908 12909 12910 12911 12912 12913 12914 12915 12916 12917 12918 12919 12920 12921 12922 12923 12924 12925 12926 12927 12928 12929 12930 12931 12932 12933 12934 12935 12936 12937 12938 12939 12940 12941 12942 12943 12944 12945 12946 12947 12948 12949 12950 12951 12952 12953 12954 12955 12956 12957 12958 12959 12960 12961 12962 12963 12964 12965 12966 12967 12968 12969 12970 12971 12972 12973 12974 12975 12976 12977 12978 12979 12980 12981 12982 12983 12984 12985 12986 12987 12988 12989 12990 12991 12992 12993 12994 12995 12996 12997 12998 12999 13000 13001 13002 13003 13004 13005 13006 13007 13008 13009 13010 13011 13012 13013 13014 13015 13016 13017 13018 13019 13020 13021 13022 13023 13024 13025 13026 13027 13028 13029 13030 13031 13032 13033 13034 13035 13036 13037 13038 13039 13040 13041 13042 13043 13044 13045 13046 13047 13048 13049 13050 13051 13052 13053 13054 13055 13056 13057 13058 13059 13060 13061 13062 13063 13064 13065 13066 13067 13068 13069 13070 13071 13072 13073 13074 13075 13076 13077 13078 13079 13080 13081 13082 13083 13084 13085 13086 13087 13088 13089 13090 13091 13092 13093 13094 13095 13096 13097 13098 13099 13100 13101 13102 13103 13104 13105 13106 13107 13108 13109 13110 13111 13112 13113 13114 13115 13116 13117 13118 13119 13120 13121 13122 13123 13124 13125 13126 13127 13128 13129 13130 13131 13132 13133 13134 13135 13136 13137 13138 13139 13140 13141 13142 13143 13144 13145 13146 13147 13148 13149 13150 13151 13152 13153 13154 13155 13156 13157 13158 13159 13160 13161 13162 13163 13164 13165 13166 13167 13168 13169 13170 13171 13172 13173 13174 13175 13176 13177 13178 13179 13180 13181 13182 13183 13184 13185 13186 13187 13188 13189 13190 13191 13192 13193 13194 13195 13196 13197 13198 13199 13200 13201 13202 13203 13204 13205 13206 13207 13208 13209 13210 13211 13212 13213 13214 13215 13216 13217 13218 13219 13220 13221 13222 13223 13224 13225 13226 13227 13228 13229 13230 13231 13232 13233 13234 13235 13236 13237 13238 13239 13240 13241 13242 13243 13244 13245 13246 13247 13248 13249 13250 13251 13252 13253 13254 13255 13256 13257 13258 13259 13260 13261 13262 13263 13264 13265 13266 13267 13268 13269 13270 13271 13272 13273 13274 13275 13276 13277 13278 13279 13280 13281 13282 13283 13284 13285 13286 13287 13288 13289 13290 13291 13292 13293 13294 13295 13296 13297 13298 13299 13300 13301 13302 13303 13304 13305 13306 13307 13308 13309 13310 13311 13312 13313 13314 13315 13316 13317 13318 13319 13320 13321 13322 13323 13324 13325 13326 13327 13328 13329 13330 13331 13332 13333 13334 13335 13336 13337 13338 13339 13340 13341 13342 13343 13344 13345 13346 13347 13348 13349 13350 13351 13352 13353 13354 13355 13356 13357 13358 13359 13360 13361 13362 13363 13364 13365 13366 13367 13368 13369 13370 13371 13372 13373 13374 13375 13376 13377 13378 13379 13380 13381 13382 13383 13384 13385 13386 13387 13388 13389 13390 13391 13392 13393 13394 13395 13396 13397 13398 13399 13400 13401 13402 13403 13404 13405 13406 13407 13408 13409 13410 13411 13412 13413 13414 13415 13416 13417 13418 13419 13420 13421 13422 13423 13424 13425 13426 13427 13428 13429 13430 13431 13432 13433 13434 13435 13436 13437 13438 13439 13440 13441 13442 13443 13444 13445 13446 13447 13448 13449 13450 13451 13452 13453 13454 13455 13456 13457 13458 13459 13460 13461 13462 13463 13464 13465 13466 13467 13468 13469 13470 13471 13472 13473 13474 13475 13476 13477 13478 13479 13480 13481 13482 13483 13484 13485 13486 13487 13488 13489 13490 13491 13492 13493 13494 13495 13496 13497 13498 13499 13500 13501 13502 13503 13504 13505 13506 13507 13508 13509 13510 13511 13512 13513 13514 13515 13516 13517 13518 13519 13520 13521 13522 13523 13524 13525 13526 13527 13528 13529 13530 13531 13532 13533 13534 13535 13536 13537 13538 13539 13540 13541 13542 13543 13544 13545 13546 13547 13548 13549 13550 13551 13552 13553 13554 13555 13556 13557 13558 13559 13560 13561 13562 13563 13564 13565 13566 13567 13568 13569 13570 13571 13572 13573 13574 13575 13576 13577 13578 13579 13580 13581 13582 13583 13584 13585 13586 13587 13588 13589 13590 13591 13592 13593 13594 13595 13596 13597 13598 13599 13600 13601 13602 13603 13604 13605 13606 13607 13608 13609 13610 13611 13612 13613 13614 13615 13616 13617 13618 13619 13620 13621 13622 13623 13624 13625 13626 13627 13628 13629 13630 13631 13632 13633 13634 13635 13636 13637 13638 13639 13640 13641 13642 13643 13644 13645 13646 13647 13648 13649 13650 13651 13652 13653 13654 13655 13656 13657 13658 13659 13660 13661 13662 13663 13664 13665 13666 13667 13668 13669 13670 13671 13672 13673 13674 13675 13676 13677 13678 13679 13680 13681 13682 13683 13684 13685 13686 13687 13688 13689 13690 13691 13692 13693 13694 13695 13696 13697 13698 13699 13700 13701 13702 13703 13704 13705 13706 13707 13708 13709 13710 13711 13712 13713 13714 13715 13716 13717 13718 13719 13720 13721 13722 13723 13724 13725 13726 13727 13728 13729 13730 13731 13732 13733 13734 13735 13736 13737 13738 13739 13740 13741 13742 13743 13744 13745 13746 13747 13748 13749 13750 13751 13752 13753 13754 13755 13756 13757 13758 13759 13760 13761 13762 13763 13764 13765 13766 13767 13768 13769 13770 13771 13772 13773 13774 13775 13776 13777 13778 13779 13780 13781 13782 13783 13784 13785 13786 13787 13788 13789 13790 13791 13792 13793 13794 13795 13796 13797 13798 13799 13800 13801 13802 13803 13804 13805 13806 13807 13808 13809 13810 13811 13812 13813 13814 13815 13816 13817 13818 13819 13820 13821 13822 13823 13824 13825 13826 13827 13828 13829 13830 13831 13832 13833 13834 13835 13836 13837 13838 13839 13840 13841 13842 13843 13844 13845 13846 13847 13848 13849 13850 13851 13852 13853 13854 13855 13856 13857 13858 13859 13860 13861 13862 13863 13864 13865 13866 13867 13868 13869 13870 13871 13872 13873 13874 13875 13876 13877 13878 13879 13880 13881 13882 13883 13884 13885 13886 13887 13888 13889 13890 13891 13892 13893 13894 13895 13896 13897 13898 13899 13900 13901 13902 13903 13904 13905 13906 13907 13908 13909 13910 13911 13912 13913 13914 13915 13916 13917 13918 13919 13920 13921 13922 13923 13924 13925 13926 13927 13928 13929 13930 13931 13932 13933 13934 13935 13936 13937 13938 13939 13940 13941 13942 13943 13944 13945 13946 13947 13948 13949 13950 13951 13952 13953 13954 13955 13956 13957 13958 13959 13960 13961 13962 13963 13964 13965 13966 13967 13968 13969 13970 13971 13972 13973 13974 13975 13976 13977 13978 13979 13980 13981 13982 13983 13984 13985 13986 13987 13988 13989 13990 13991 13992 13993 13994 13995 13996 13997 13998 13999 14000 14001 14002 14003 14004 14005 14006 14007 14008 14009 14010 14011 14012 14013 14014 14015 14016 14017 14018 14019 14020 14021 14022 14023 14024 14025 14026 14027 14028 14029 14030 14031 14032 14033 14034 14035 14036 14037 14038 14039 14040 14041 14042 14043 14044 14045 14046 14047 14048 14049 14050 14051 14052 14053 14054 14055 14056 14057 14058 14059 14060 14061 14062 14063 14064 14065 14066 14067 14068 14069 14070 14071 14072 14073 14074 14075 14076 14077 14078 14079 14080 14081 14082 14083 14084 14085 14086 14087 14088 14089 14090 14091 14092 14093 14094 14095 14096 14097 14098 14099 14100 14101 14102 14103 14104 14105 14106 14107 14108 14109 14110 14111 14112 14113 14114 14115 14116 14117 14118 14119 14120 14121 14122 14123 14124 14125 14126 14127 14128 14129 14130 14131 14132 14133 14134 14135 14136 14137 14138 14139 14140 14141 14142 14143 14144 14145 14146 14147 14148 14149 14150 14151 14152 14153 14154 14155 14156 14157 14158 14159 14160 14161 14162 14163 14164 14165 14166 14167 14168 14169 14170 14171 14172 14173 14174 14175 14176 14177 14178 14179 14180 14181 14182 14183 14184 14185 14186 14187 14188 14189 14190 14191 14192 14193 14194 14195 14196 14197 14198 14199 14200 14201 14202 14203 14204 14205 14206 14207 14208 14209 14210 14211 14212 14213 14214 14215 14216 14217 14218 14219 14220 14221 14222 14223 14224 14225 14226 14227 14228 14229 14230 14231 14232 14233 14234 14235 14236 14237 14238 14239 14240 14241 14242 14243 14244 14245 14246 14247 14248 14249 14250 14251 14252 14253 14254 14255 14256 14257 14258 14259 14260 14261 14262 14263 14264 14265 14266 14267 14268 14269 14270 14271 14272 14273 14274 14275 14276 14277 14278 14279 14280 14281 14282 14283 14284 14285 14286 14287 14288 14289 14290 14291 14292 14293 14294 14295 14296 14297 14298 14299 14300 14301 14302 14303 14304 14305 14306 14307 14308 14309 14310 14311 14312 14313 14314 14315 14316 14317 14318 14319 14320 14321 14322 14323 14324 14325 14326 14327 14328 14329 14330 14331 14332 14333 14334 14335 14336 14337 14338 14339 14340 14341 14342 14343 14344 14345 14346 14347 14348 14349 14350 14351 14352 14353 14354 14355 14356 14357 14358 14359 14360 14361 14362 14363 14364 14365 14366 14367 14368 14369 14370 14371 14372 14373 14374 14375 14376 14377 14378 14379 14380 14381 14382 14383 14384 14385 14386 14387 14388 14389 14390 14391 14392 14393 14394 14395 14396 14397 14398 14399 14400 14401 14402 14403 14404 14405 14406 14407 14408 14409 14410 14411 14412 14413 14414 14415 14416 14417 14418 14419 14420 14421 14422 14423 14424 14425 14426 14427 14428 14429 14430 14431 14432 14433 14434 14435 14436 14437 14438 14439 14440 14441 14442 14443 14444 14445 14446 14447 14448 14449 14450 14451 14452 14453 14454 14455 14456 14457 14458 14459 14460 14461 14462 14463 14464 14465 14466 14467 14468 14469 14470 14471 14472 14473 14474 14475 14476 14477 14478 14479 14480 14481 14482 14483 14484 14485 14486 14487 14488 14489 14490 14491 14492 14493 14494 14495 14496 14497 14498 14499 14500 14501 14502 14503 14504 14505 14506 14507 14508 14509 14510 14511 14512 14513 14514 14515 14516 14517 14518 14519 14520 14521 14522 14523 14524 14525 14526 14527 14528 14529 14530 14531 14532 14533 14534 14535 14536 14537 14538 14539 14540 14541 14542 14543 14544 14545 14546 14547 14548 14549 14550 14551 14552 14553 14554 14555 14556 14557 14558 14559 14560 14561 14562 14563 14564 14565 14566 14567 14568 14569 14570 14571 14572 14573 14574 14575 14576 14577 14578 14579 14580 14581 14582 14583 14584 14585 14586 14587 14588 14589 14590 14591 14592 14593 14594 14595 14596 14597 14598 14599 14600 14601 14602 14603 14604 14605 14606 14607 14608 14609 14610 14611 14612 14613 14614 14615 14616 14617 14618 14619 14620 14621 14622 14623 14624 14625 14626 14627 14628 14629 14630 14631 14632 14633 14634 14635 14636 14637 14638 14639 14640 14641 14642 14643 14644 14645 14646 14647 14648 14649 14650 14651 14652 14653 14654 14655 14656 14657 14658 14659 14660 14661 14662 14663 14664 14665 14666 14667 14668 14669 14670 14671 14672 14673 14674 14675 14676 14677 14678 14679 14680 14681 14682 14683 14684 14685 14686 14687 14688 14689 14690 14691 14692 14693 14694 14695 14696 14697 14698 14699 14700 14701 14702 14703 14704 14705 14706 14707 14708 14709 14710 14711 14712 14713 14714 14715 14716 14717 14718 14719 14720 14721 14722 14723 14724 14725 14726 14727 14728 14729 14730 14731 14732 14733 14734 14735 14736 14737 14738 14739 14740 14741 14742 14743 14744 14745 14746 14747 14748 14749 14750 14751 14752 14753 14754 14755 14756 14757 14758 14759 14760 14761 14762 14763 14764 14765 14766 14767 14768 14769 14770 14771 14772 14773 14774 14775 14776 14777 14778 14779 14780 14781 14782 14783 14784 14785 14786 14787 14788 14789 14790 14791 14792 14793 14794 14795 14796 14797 14798 14799 14800 14801 14802 14803 14804 14805 14806 14807 14808 14809 14810 14811 14812 14813 14814 14815 14816 14817 14818 14819 14820 14821 14822 14823 14824 14825 14826 14827 14828 14829 14830 14831 14832 14833 14834 14835 14836 14837 14838 14839 14840 14841 14842 14843 14844 14845 14846 14847 14848 14849 14850 14851 14852 14853 14854 14855 14856 14857 14858 14859 14860 14861 14862 14863 14864 14865 14866 14867 14868 14869 14870 14871 14872 14873 14874 14875 14876 14877 14878 14879 14880 14881 14882 14883 14884 14885 14886 14887 14888 14889 14890 14891 14892 14893 14894 14895 14896 14897 14898 14899 14900 14901 14902 14903 14904 14905 14906 14907 14908 14909 14910 14911 14912 14913 14914 14915 14916 14917 14918 14919 14920 14921 14922 14923 14924 14925 14926 14927 14928 14929 14930 14931 14932 14933 14934 14935 14936 14937 14938 14939 14940 14941 14942 14943 14944 14945 14946 14947 14948 14949 14950 14951 14952 14953 14954 14955 14956 14957 14958 14959 14960 14961 14962 14963 14964 14965 14966 14967 14968 14969 14970 14971 14972 14973 14974 14975 14976 14977 14978 14979 14980 14981 14982 14983 14984 14985 14986 14987 14988 14989 14990 14991 14992 14993 14994 14995 14996 14997 14998 14999 15000 15001 15002 15003 15004 15005 15006 15007 15008 15009 15010 15011 15012 15013 15014 15015 15016 15017 15018 15019 15020 15021 15022 15023 15024 15025 15026 15027 15028 15029 15030 15031 15032 15033 15034 15035 15036 15037 15038 15039 15040 15041 15042 15043 15044 15045 15046 15047 15048 15049 15050 15051 15052 15053 15054 15055 15056 15057 15058 15059 15060 15061 15062 15063 15064 15065 15066 15067 15068 15069 15070 15071 15072 15073 15074 15075 15076 15077 15078 15079 15080 15081 15082 15083 15084 15085 15086 15087 15088 15089 15090 15091 15092 15093 15094 15095 15096 15097 15098 15099 15100 15101 15102 15103 15104 15105 15106 15107 15108 15109 15110 15111 15112 15113 15114 15115 15116 15117 15118 15119 15120 15121 15122 15123 15124 15125 15126 15127 15128 15129 15130 15131 15132 15133 15134 15135 15136 15137 15138 15139 15140 15141 15142 15143 15144 15145 15146 15147 15148 15149 15150 15151 15152 15153 15154 15155 15156 15157 15158 15159 15160 15161 15162 15163 15164 15165 15166 15167 15168 15169 15170 15171 15172 15173 15174 15175 15176 15177 15178 15179 15180 15181 15182 15183 15184 15185 15186 15187 15188 15189 15190 15191 15192 15193 15194 15195 15196 15197 15198 15199 15200 15201 15202 15203 15204 15205 15206 15207 15208 15209 15210 15211 15212 15213 15214 15215 15216 15217 15218 15219 15220 15221 15222 15223 15224 15225 15226 15227 15228 15229 15230 15231 15232 15233 15234 15235 15236 15237 15238 15239 15240 15241 15242 15243 15244 15245 15246 15247 15248 15249 15250 15251 15252 15253 15254 15255 15256 15257 15258 15259 15260 15261 15262 15263 15264 15265 15266 15267 15268 15269 15270 15271 15272 15273 15274 15275 15276 15277 15278 15279 15280 15281 15282 15283 15284 15285 15286 15287 15288 15289 15290 15291 15292 15293 15294 15295 15296 15297 15298 15299 15300 15301 15302 15303 15304 15305 15306 15307 15308 15309 15310 15311 15312 15313 15314 15315 15316 15317 15318 15319 15320 15321 15322 15323 15324 15325 15326 15327 15328 15329 15330 15331 15332 15333 15334 15335 15336 15337 15338 15339 15340 15341 15342 15343 15344 15345 15346 15347 15348 15349 15350 15351 15352 15353 15354 15355 15356 15357 15358 15359 15360 15361 15362 15363 15364 15365 15366 15367 15368 15369 15370 15371 15372 15373 15374 15375 15376 15377 15378 15379 15380 15381 15382 15383 15384 15385 15386 15387 15388 15389 15390 15391 15392 15393 15394 15395 15396 15397 15398 15399 15400 15401 15402 15403 15404 15405 15406 15407 15408 15409 15410 15411 15412 15413 15414 15415 15416 15417 15418 15419 15420 15421 15422 15423 15424 15425 15426 15427 15428 15429 15430 15431 15432 15433 15434 15435 15436 15437 15438 15439 15440 15441 15442 15443 15444 15445 15446 15447 15448 15449 15450 15451 15452 15453 15454 15455 15456 15457 15458 15459 15460 15461 15462 15463 15464 15465 15466 15467 15468 15469 15470 15471 15472 15473 15474 15475 15476 15477 15478 15479 15480 15481 15482 15483 15484 15485 15486 15487 15488 15489 15490 15491 15492 15493 15494 15495 15496 15497 15498 15499 15500 15501 15502 15503 15504 15505 15506 15507 15508 15509 15510 15511 15512 15513 15514 15515 15516 15517 15518 15519 15520 15521 15522 15523 15524 15525 15526 15527 15528 15529 15530 15531 15532 15533 15534 15535 15536 15537 15538 15539 15540 15541 15542 15543 15544 15545 15546 15547 15548 15549 15550 15551 15552 15553 15554 15555 15556 15557 15558 15559 15560 15561 15562 15563 15564 15565 15566 15567 15568 15569 15570 15571 15572 15573 15574 15575 15576 15577 15578 15579 15580 15581 15582 15583 15584 15585 15586 15587 15588 15589 15590 15591 15592 15593 15594 15595 15596 15597 15598 15599 15600 15601 15602 15603 15604 15605 15606 15607 15608 15609 15610 15611 15612 15613 15614 15615 15616 15617 15618 15619 15620 15621 15622 15623 15624 15625 15626 15627 15628 15629 15630 15631 15632 15633 15634 15635 15636 15637 15638 15639 15640 15641 15642 15643 15644 15645 15646 15647 15648 15649 15650 15651 15652 15653 15654 15655 15656 15657 15658 15659 15660 15661 15662 15663 15664 15665 15666 15667 15668 15669 15670 15671 15672 15673 15674 15675 15676 15677 15678 15679 15680 15681 15682 15683 15684 15685 15686 15687 15688 15689 15690 15691 15692 15693 15694 15695 15696 15697 15698 15699 15700 15701 15702 15703 15704 15705 15706 15707 15708 15709 15710 15711 15712 15713 15714 15715 15716 15717 15718 15719 15720 15721 15722 15723 15724 15725 15726 15727 15728 15729 15730 15731 15732 15733 15734 15735 15736 15737 15738 15739 15740 15741 15742 15743 15744 15745 15746 15747 15748 15749 15750 15751 15752 15753 15754 15755 15756 15757 15758 15759 15760 15761 15762 15763 15764 15765 15766 15767 15768 15769 15770 15771 15772 15773 15774 15775 15776 15777 15778 15779 15780 15781 15782 15783 15784 15785 15786 15787 15788 15789 15790 15791 15792 15793 15794 15795 15796 15797 15798 15799 15800 15801 15802 15803 15804 15805 15806 15807 15808 15809 15810 15811 15812 15813 15814 15815 15816 15817 15818 15819 15820 15821 15822 15823 15824 15825 15826 15827 15828 15829 15830 15831 15832 15833 15834 15835 15836 15837 15838 15839 15840 15841 15842 15843 15844 15845 15846 15847 15848 15849 15850 15851 15852 15853 15854 15855 15856 15857 15858 15859 15860 15861 15862 15863 15864 15865 15866 15867 15868 15869 15870 15871 15872 15873 15874 15875 15876 15877 15878 15879 15880 15881 15882 15883 15884 15885 15886 15887 15888 15889 15890 15891 15892 15893 15894 15895 15896 15897 15898 15899 15900 15901 15902 15903 15904 15905 15906 15907 15908 15909 15910 15911 15912 15913 15914 15915 15916 15917 15918 15919 15920 15921 15922 15923 15924 15925 15926 15927 15928 15929 15930 15931 15932 15933 15934 15935 15936 15937 15938 15939 15940 15941 15942 15943 15944 15945 15946 15947 15948 15949 15950 15951 15952 15953 15954 15955 15956 15957 15958 15959 15960 15961 15962 15963 15964 15965 15966 15967 15968 15969 15970 15971 15972 15973 15974 15975 15976 15977 15978 15979 15980 15981 15982 15983 15984 15985 15986 15987 15988 15989 15990 15991 15992 15993 15994 15995 15996 15997 15998 15999 16000 16001 16002 16003 16004 16005 16006 16007 16008 16009 16010 16011 16012 16013 16014 16015 16016 16017 16018 16019 16020 16021 16022 16023 16024 16025 16026 16027 16028 16029 16030 16031 16032 16033 16034 16035 16036 16037 16038 16039 16040 16041 16042 16043 16044 16045 16046 16047 16048 16049 16050 16051 16052 16053 16054 16055 16056 16057 16058 16059 16060 16061 16062 16063 16064 16065 16066 16067 16068 16069 16070 16071 16072 16073 16074 16075 16076 16077 16078 16079 16080 16081 16082 16083 16084 16085 16086 16087 16088 16089 16090 16091 16092 16093 16094 16095 16096 16097 16098 16099 16100 16101 16102 16103 16104 16105 16106 16107 16108 16109 16110 16111 16112 16113 16114 16115 16116 16117 16118 16119 16120 16121 16122 16123 16124 16125 16126 16127 16128 16129 16130 16131 16132 16133 16134 16135 16136 16137 16138 16139 16140 16141 16142 16143 16144 16145 16146 16147 16148 16149 16150 16151 16152 16153 16154 16155 16156 16157 16158 16159 16160 16161 16162 16163 16164 16165 16166 16167 16168 16169 16170 16171 16172 16173 16174 16175 16176 16177 16178 16179 16180 16181 16182 16183 16184 16185 16186 16187 16188 16189 16190 16191 16192 16193 16194 16195 16196 16197 16198 16199 16200 16201 16202 16203 16204 16205 16206 16207 16208 16209 16210 16211 16212 16213 16214 16215 16216 16217 16218 16219 16220 16221 16222 16223 16224 16225 16226 16227 16228 16229 16230 16231 16232 16233 16234 16235 16236 16237 16238 16239 16240 16241 16242 16243 16244 16245 16246 16247 16248 16249 16250 16251 16252 16253 16254 16255 16256 16257 16258 16259 16260 16261 16262 16263 16264 16265 16266 16267 16268 16269 16270 16271 16272 16273 16274 16275 16276 16277 16278 16279 16280 16281 16282 16283 16284 16285 16286 16287 16288 16289 16290 16291 16292 16293 16294 16295 16296 16297 16298 16299 16300 16301 16302 16303 16304 16305 16306 16307 16308 16309 16310 16311 16312 16313 16314 16315 16316 16317 16318 16319 16320 16321 16322 16323 16324 16325 16326 16327 16328 16329 16330 16331 16332 16333 16334 16335 16336 16337 16338 16339 16340 16341 16342 16343 16344 16345 16346 16347 16348 16349 16350 16351 16352 16353 16354 16355 16356 16357 16358 16359 16360 16361 16362 16363 16364 16365 16366 16367 16368 16369 16370 16371 16372 16373 16374 16375 16376 16377 16378 16379 16380 16381 16382 16383 16384 16385 16386 16387 16388 16389 16390 16391 16392 16393 16394 16395 16396 16397 16398 16399 16400 16401 16402 16403 16404 16405 16406 16407 16408 16409 16410 16411 16412 16413 16414 16415 16416 16417 16418 16419 16420 16421 16422 16423 16424 16425 16426 16427 16428 16429 16430 16431 16432 16433 16434 16435 16436 16437 16438 16439 16440 16441 16442 16443 16444 16445 16446 16447 16448 16449 16450 16451 16452 16453 16454 16455 16456 16457 16458 16459 16460 16461 16462 16463 16464 16465 16466 16467 16468 16469 16470 16471 16472 16473 16474 16475 16476 16477 16478 16479 16480 16481 16482 16483 16484 16485 16486 16487 16488 16489 16490 16491 16492 16493 16494 16495 16496 16497 16498 16499 16500 16501 16502 16503 16504 16505 16506 16507 16508 16509 16510 16511 16512 16513 16514 16515 16516 16517 16518 16519 16520 16521 16522 16523 16524 16525 16526 16527 16528 16529 16530 16531 16532 16533 16534 16535 16536 16537 16538 16539 16540 16541 16542 16543 16544 16545 16546 16547 16548 16549 16550 16551 16552 16553 16554 16555 16556 16557 16558 16559 16560 16561 16562 16563 16564 16565 16566 16567 16568 16569 16570 16571 16572 16573 16574 16575 16576 16577 16578 16579 16580 16581 16582 16583 16584 16585 16586 16587 16588 16589 16590 16591 16592 16593 16594 16595 16596 16597 16598 16599 16600 16601 16602 16603 16604 16605 16606 16607 16608 16609 16610 16611 16612 16613 16614 16615 16616 16617 16618 16619 16620 16621 16622 16623 16624 16625 16626 16627 16628 16629 16630 16631 16632 16633 16634 16635 16636 16637 16638 16639 16640 16641 16642 16643 16644 16645 16646 16647 16648 16649 16650 16651 16652 16653 16654 16655 16656 16657 16658 16659 16660 16661 16662 16663 16664 16665 16666 16667 16668 16669 16670 16671 16672 16673 16674 16675 16676 16677 16678 16679 16680 16681 16682 16683 16684 16685 16686 16687 16688 16689 16690 16691 16692 16693 16694 16695 16696 16697 16698 16699 16700 16701 16702 16703 16704 16705 16706 16707 16708 16709 16710 16711 16712 16713 16714 16715 16716 16717 16718 16719 16720 16721 16722 16723 16724 16725 16726 16727 16728 16729 16730 16731 16732 16733 16734 16735 16736 16737 16738 16739 16740 16741 16742 16743 16744 16745 16746 16747 16748 16749 16750 16751 16752 16753 16754 16755 16756 16757 16758 16759 16760 16761 16762 16763 16764 16765 16766 16767 16768 16769 16770 16771 16772 16773 16774 16775 16776 16777 16778 16779 16780 16781 16782 16783 16784 16785 16786 16787 16788 16789 16790 16791 16792 16793 16794 16795 16796 16797 16798 16799 16800 16801 16802 16803 16804 16805 16806 16807 16808 16809 16810 16811 16812 16813 16814 16815 16816 16817 16818 16819 16820 16821 16822 16823 16824 16825 16826 16827 16828 16829 16830 16831 16832 16833 16834 16835 16836 16837 16838 16839 16840 16841 16842 16843 16844 16845 16846 16847 16848 16849 16850 16851 16852 16853 16854 16855 16856 16857 16858 16859 16860 16861 16862 16863 16864 16865 16866 16867 16868 16869 16870 16871 16872 16873 16874 16875 16876 16877 16878 16879 16880 16881 16882 16883 16884 16885 16886 16887 16888 16889 16890 16891 16892 16893 16894 16895 16896 16897 16898 16899 16900 16901 16902 16903 16904 16905 16906 16907 16908 16909 16910 16911 16912 16913 16914 16915 16916 16917 16918 16919 16920 16921 16922 16923 16924 16925 16926 16927 16928 16929 16930 16931 16932 16933 16934 16935 16936 16937 16938 16939 16940 16941 16942 16943 16944 16945 16946 16947 16948 16949 16950 16951 16952 16953 16954 16955 16956 16957 16958 16959 16960 16961 16962 16963 16964 16965 16966 16967 16968 16969 16970 16971 16972 16973 16974 16975 16976 16977 16978 16979 16980 16981 16982 16983 16984 16985 16986 16987 16988 16989 16990 16991 16992 16993 16994 16995 16996 16997 16998 16999 17000 17001 17002 17003 17004 17005 17006 17007 17008 17009 17010 17011 17012 17013 17014 17015 17016 17017 17018 17019 17020 17021 17022 17023 17024 17025 17026 17027 17028 17029 17030 17031 17032 17033 17034 17035 17036 17037 17038 17039 17040 17041 17042 17043 17044 17045 17046 17047 17048 17049 17050 17051 17052 17053 17054 17055 17056 17057 17058 17059 17060 17061 17062 17063 17064 17065 17066 17067 17068 17069 17070 17071 17072 17073 17074 17075 17076 17077 17078 17079 17080 17081 17082 17083 17084 17085 17086 17087 17088 17089 17090 17091 17092 17093 17094 17095 17096 17097 17098 17099 17100 17101 17102 17103 17104 17105 17106 17107 17108 17109 17110 17111 17112 17113 17114 17115 17116 17117 17118 17119 17120 17121 17122 17123 17124 17125 17126 17127 17128 17129 17130 17131 17132 17133 17134 17135 17136 17137 17138 17139 17140 17141 17142 17143 17144 17145 17146 17147 17148 17149 17150 17151 17152 17153 17154 17155 17156 17157 17158 17159 17160 17161 17162 17163 17164 17165 17166 17167 17168 17169 17170 17171 17172 17173 17174 17175 17176 17177 17178 17179 17180 17181 17182 17183 17184 17185 17186 17187 17188 17189 17190 17191 17192 17193 17194 17195 17196 17197 17198 17199 17200 17201 17202 17203 17204 17205 17206 17207 17208 17209 17210 17211 17212 17213 17214 17215 17216 17217 17218 17219 17220 17221 17222 17223 17224 17225 17226 17227 17228 17229 17230 17231 17232 17233 17234 17235 17236 17237 17238 17239 17240 17241 17242 17243 17244 17245 17246 17247 17248 17249 17250 17251 17252 17253 17254 17255 17256 17257 17258 17259 17260 17261 17262 17263 17264 17265 17266 17267 17268 17269 17270 17271 17272 17273 17274 17275 17276 17277 17278 17279 17280 17281 17282 17283 17284 17285 17286 17287 17288 17289 17290 17291 17292 17293 17294 17295 17296 17297 17298 17299 17300 17301 17302 17303 17304 17305 17306 17307 17308 17309 17310 17311 17312 17313 17314 17315 17316 17317 17318 17319 17320 17321 17322 17323 17324 17325 17326 17327 17328 17329 17330 17331 17332 17333 17334 17335 17336 17337 17338 17339 17340 17341 17342 17343 17344 17345 17346 17347 17348 17349 17350 17351 17352 17353 17354 17355 17356 17357 17358 17359 17360 17361 17362 17363 17364 17365 17366 17367 17368 17369 17370 17371 17372 17373 17374 17375 17376 17377 17378 17379 17380 17381 17382 17383 17384 17385 17386 17387 17388 17389 17390 17391 17392 17393 17394 17395 17396 17397 17398 17399 17400 17401 17402 17403 17404 17405 17406 17407 17408 17409 17410 17411 17412 17413 17414 17415 17416 17417 17418 17419 17420 17421 17422 17423 17424 17425 17426 17427 17428 17429 17430 17431 17432 17433 17434 17435 17436 17437 17438 17439 17440 17441 17442 17443 17444 17445 17446 17447 17448 17449 17450 17451 17452 17453 17454 17455 17456 17457 17458 17459 17460 17461 17462 17463 17464 17465 17466 17467 17468 17469 17470 17471 17472 17473 17474 17475 17476 17477 17478 17479 17480 17481 17482 17483 17484 17485 17486 17487 17488 17489 17490 17491 17492 17493 17494 17495 17496 17497 17498 17499 17500 17501 17502 17503 17504 17505 17506 17507 17508 17509 17510 17511 17512 17513 17514 17515 17516 17517 17518 17519 17520 17521 17522 17523 17524 17525 17526 17527 17528 17529 17530 17531 17532 17533 17534 17535 17536 17537 17538 17539 17540 17541 17542 17543 17544 17545 17546 17547 17548 17549 17550 17551 17552 17553 17554 17555 17556 17557 17558 17559 17560 17561 17562 17563 17564 17565 17566 17567 17568 17569 17570 17571 17572 17573 17574 17575 17576 17577 17578 17579 17580 17581 17582 17583 17584 17585 17586 17587 17588 17589 17590 17591 17592 17593 17594 17595 17596 17597 17598 17599 17600 17601 17602 17603 17604 17605 17606 17607 17608 17609 17610 17611 17612 17613 17614 17615 17616 17617 17618 17619 17620 17621 17622 17623 17624 17625 17626 17627 17628 17629 17630 17631 17632 17633 17634 17635 17636 17637 17638 17639 17640 17641 17642 17643 17644 17645 17646 17647 17648 17649 17650 17651 17652 17653 17654 17655 17656 17657 17658 17659 17660 17661 17662 17663 17664 17665 17666 17667 17668 17669 17670 17671 17672 17673 17674 17675 17676 17677 17678 17679 17680 17681 17682 17683 17684 17685 17686 17687 17688 17689 17690 17691 17692 17693 17694 17695 17696 17697 17698 17699 17700 17701 17702 17703 17704 17705 17706 17707 17708 17709 17710 17711 17712 17713 17714 17715 17716 17717 17718 17719 17720 17721 17722 17723 17724 17725 17726 17727 17728 17729 17730 17731 17732 17733 17734 17735 17736 17737 17738 17739 17740 17741 17742 17743 17744 17745 17746 17747 17748 17749 17750 17751 17752 17753 17754 17755 17756 17757 17758 17759 17760 17761 17762 17763 17764 17765 17766 17767 17768 17769 17770 17771 17772 17773 17774 17775 17776 17777 17778 17779 17780 17781 17782 17783 17784 17785 17786 17787 17788 17789 17790 17791 17792 17793 17794 17795 17796 17797 17798 17799 17800 17801 17802 17803 17804 17805 17806 17807 17808 17809 17810 17811 17812 17813 17814 17815 17816 17817 17818 17819 17820 17821 17822 17823 17824 17825 17826 17827 17828 17829 17830 17831 17832 17833 17834 17835 17836 17837 17838 17839 17840 17841 17842 17843 17844 17845 17846 17847 17848 17849 17850 17851 17852 17853 17854 17855 17856 17857 17858 17859 17860 17861 17862 17863 17864 17865 17866 17867 17868 17869 17870 17871 17872 17873 17874 17875 17876 17877 17878 17879 17880 17881 17882 17883 17884 17885 17886 17887 17888 17889 17890 17891 17892 17893 17894 17895 17896 17897 17898 17899 17900 17901 17902 17903 17904 17905 17906 17907 17908 17909 17910 17911 17912 17913 17914 17915 17916 17917 17918 17919 17920 17921 17922 17923 17924 17925 17926 17927 17928 17929 17930 17931 17932 17933 17934 17935 17936 17937 17938 17939 17940 17941 17942 17943 17944 17945 17946 17947 17948 17949 17950 17951 17952 17953 17954 17955 17956 17957 17958 17959 17960 17961 17962 17963 17964 17965 17966 17967 17968 17969 17970 17971 17972 17973 17974 17975 17976 17977 17978 17979 17980 17981 17982 17983 17984 17985 17986 17987 17988 17989 17990 17991 17992 17993 17994 17995 17996 17997 17998 17999 18000 18001 18002 18003 18004 18005 18006 18007 18008 18009 18010 18011 18012 18013 18014 18015 18016 18017 18018 18019 18020 18021 18022 18023 18024 18025 18026 18027 18028 18029 18030 18031 18032 18033 18034 18035 18036 18037 18038 18039 18040 18041 18042 18043 18044 18045 18046 18047 18048 18049 18050 18051 18052 18053 18054 18055 18056 18057 18058 18059 18060 18061 18062 18063 18064 18065 18066 18067 18068 18069 18070 18071 18072 18073 18074 18075 18076 18077 18078 18079 18080 18081 18082 18083 18084 18085 18086 18087 18088 18089 18090 18091 18092 18093 18094 18095 18096 18097 18098 18099 18100 18101 18102 18103 18104 18105 18106 18107 18108 18109 18110 18111 18112 18113 18114 18115 18116 18117 18118 18119 18120 18121 18122 18123 18124 18125 18126 18127 18128 18129 18130 18131 18132 18133 18134 18135 18136 18137 18138 18139 18140 18141 18142 18143 18144 18145 18146 18147 18148 18149 18150 18151 18152 18153 18154 18155 18156 18157 18158 18159 18160 18161 18162 18163 18164 18165 18166 18167 18168 18169 18170 18171 18172 18173 18174 18175 18176 18177 18178 18179 18180 18181 18182 18183 18184 18185 18186 18187 18188 18189 18190 18191 18192 18193 18194 18195 18196 18197 18198 18199 18200 18201 18202 18203 18204 18205 18206 18207 18208 18209 18210 18211 18212 18213 18214 18215 18216 18217 18218 18219 18220 18221 18222 18223 18224 18225 18226 18227 18228 18229 18230 18231 18232 18233 18234 18235 18236 18237 18238 18239 18240 18241 18242 18243 18244 18245 18246 18247 18248 18249 18250 18251 18252 18253 18254 18255 18256 18257 18258 18259 18260 18261 18262 18263 18264 18265 18266 18267 18268 18269 18270 18271 18272 18273 18274 18275 18276 18277 18278 18279 18280 18281 18282 18283 18284 18285 18286 18287 18288 18289 18290 18291 18292 18293 18294 18295 18296 18297 18298 18299 18300 18301 18302 18303 18304 18305 18306 18307 18308 18309 18310 18311 18312 18313 18314 18315 18316 18317 18318 18319 18320 18321 18322 18323 18324 18325 18326 18327 18328 18329 18330 18331 18332 18333 18334 18335 18336 18337 18338 18339 18340 18341 18342 18343 18344 18345 18346 18347 18348 18349 18350 18351 18352 18353 18354 18355 18356 18357 18358 18359 18360 18361 18362 18363 18364 18365 18366 18367 18368 18369 18370 18371 18372 18373 18374 18375 18376 18377 18378 18379 18380 18381 18382 18383 18384 18385 18386 18387 18388 18389 18390 18391 18392 18393 18394 18395 18396 18397 18398 18399 18400 18401 18402 18403 18404 18405 18406 18407 18408 18409 18410 18411 18412 18413 18414 18415 18416 18417 18418 18419 18420 18421 18422 18423 18424 18425 18426 18427 18428 18429 18430 18431 18432 18433 18434 18435 18436 18437 18438 18439 18440 18441 18442 18443 18444 18445 18446 18447 18448 18449 18450 18451 18452 18453 18454 18455 18456 18457 18458 18459 18460 18461 18462 18463 18464 18465 18466 18467 18468 18469 18470 18471 18472 18473 18474 18475 18476 18477 18478 18479 18480 18481 18482 18483 18484 18485 18486 18487 18488 18489 18490 18491 18492 18493 18494 18495 18496 18497 18498 18499 18500 18501 18502 18503 18504 18505 18506 18507 18508 18509 18510 18511 18512 18513 18514 18515 18516 18517 18518 18519 18520 18521 18522 18523 18524 18525 18526 18527 18528 18529 18530 18531 18532 18533 18534 18535 18536 18537 18538 18539 18540 18541 18542 18543 18544 18545 18546 18547 18548 18549 18550 18551 18552 18553 18554 18555 18556 18557 18558 18559 18560 18561 18562 18563 18564 18565 18566 18567 18568 18569 18570 18571 18572 18573 18574 18575 18576 18577 18578 18579 18580 18581 18582 18583 18584 18585 18586 18587 18588 18589 18590 18591 18592 18593 18594 18595 18596 18597 18598 18599 18600 18601 18602 18603 18604 18605 18606 18607 18608 18609 18610 18611 18612 18613 18614 18615 18616 18617 18618 18619 18620 18621 18622 18623 18624 18625 18626 18627 18628 18629 18630 18631 18632 18633 18634 18635 18636 18637 18638 18639 18640 18641 18642 18643 18644 18645 18646 18647 18648 18649 18650 18651 18652 18653 18654 18655 18656 18657 18658 18659 18660 18661 18662 18663 18664 18665 18666 18667 18668 18669 18670 18671 18672 18673 18674 18675 18676 18677 18678 18679 18680 18681 18682 18683 18684 18685 18686 18687 18688 18689 18690 18691 18692 18693 18694 18695 18696 18697 18698 18699 18700 18701 18702 18703 18704 18705 18706 18707 18708 18709 18710 18711 18712 18713 18714 18715 18716 18717 18718 18719 18720 18721 18722 18723 18724 18725 18726 18727 18728 18729 18730 18731 18732 18733 18734 18735 18736 18737 18738 18739 18740 18741 18742 18743 18744 18745 18746 18747 18748 18749 18750 18751 18752 18753 18754 18755 18756 18757 18758 18759 18760 18761 18762 18763 18764 18765 18766 18767 18768 18769 18770 18771 18772 18773 18774 18775 18776 18777 18778 18779 18780 18781 18782 18783 18784 18785 18786 18787 18788 18789 18790 18791 18792 18793 18794 18795 18796 18797 18798 18799 18800 18801 18802 18803 18804 18805 18806 18807 18808 18809 18810 18811 18812 18813 18814 18815 18816 18817 18818 18819 18820 18821 18822 18823 18824 18825 18826 18827 18828 18829 18830 18831 18832 18833 18834 18835 18836 18837 18838 18839 18840 18841 18842 18843 18844 18845 18846 18847 18848 18849 18850 18851 18852 18853 18854 18855 18856 18857 18858 18859 18860 18861 18862 18863 18864 18865 18866 18867 18868 18869 18870 18871 18872 18873 18874 18875 18876 18877 18878 18879 18880 18881 18882 18883 18884 18885 18886 18887 18888 18889 18890 18891 18892 18893 18894 18895 18896 18897 18898 18899 18900 18901 18902 18903 18904 18905 18906 18907 18908 18909 18910 18911 18912 18913 18914 18915 18916 18917 18918 18919 18920 18921 18922 18923 18924 18925 18926 18927 18928 18929 18930 18931 18932 18933 18934 18935 18936 18937 18938 18939 18940 18941 18942 18943 18944 18945 18946 18947 18948 18949 18950 18951 18952 18953 18954 18955 18956 18957 18958 18959 18960 18961 18962 18963 18964 18965 18966 18967 18968 18969 18970 18971 18972 18973 18974 18975 18976 18977 18978 18979 18980 18981 18982 18983 18984 18985 18986 18987 18988 18989 18990 18991 18992 18993 18994 18995 18996 18997 18998 18999 19000 19001 19002 19003 19004 19005 19006 19007 19008 19009 19010 19011 19012 19013 19014 19015 19016 19017 19018 19019 19020 19021 19022 19023 19024 19025 19026 19027 19028 19029 19030 19031 19032 19033 19034 19035 19036 19037 19038 19039 19040 19041 19042 19043 19044 19045 19046 19047 19048 19049 19050 19051 19052 19053 19054 19055 19056 19057 19058 19059 19060 19061 19062 19063 19064 19065 19066 19067 19068 19069 19070 19071 19072 19073 19074 19075 19076 19077 19078 19079 19080 19081 19082 19083 19084 19085 19086 19087 19088 19089 19090 19091 19092 19093 19094 19095 19096 19097 19098 19099 19100 19101 19102 19103 19104 19105 19106 19107 19108 19109 19110 19111 19112 19113 19114 19115 19116 19117 19118 19119 19120 19121 19122 19123 19124 19125 19126 19127 19128 19129 19130 19131 19132 19133 19134 19135 19136 19137 19138 19139 19140 19141 19142 19143 19144 19145 19146 19147 19148 19149 19150 19151 19152 19153 19154 19155 19156 19157 19158 19159 19160 19161 19162 19163 19164 19165 19166 19167 19168 19169 19170 19171 19172 19173 19174 19175 19176 19177 19178 19179 19180 19181 19182 19183 19184 19185 19186 19187 19188 19189 19190 19191 19192 19193 19194 19195 19196 19197 19198 19199 19200 19201 19202 19203 19204 19205 19206 19207 19208 19209 19210 19211 19212 19213 19214 19215 19216 19217 19218 19219 19220 19221 19222 19223 19224 19225 19226 19227 19228 19229 19230 19231 19232 19233 19234 19235 19236 19237 19238 19239 19240 19241 19242 19243 19244 19245 19246 19247 19248 19249 19250 19251 19252 19253 19254 19255 19256 19257 19258 19259 19260 19261 19262 19263 19264 19265 19266 19267 19268 19269 19270 19271 19272 19273 19274 19275 19276 19277 19278 19279 19280 19281 19282 19283 19284 19285 19286 19287 19288 19289 19290 19291 19292 19293 19294 19295 19296 19297 19298 19299 19300 19301 19302 19303 19304 19305 19306 19307 19308 19309 19310 19311 19312 19313 19314 19315 19316 19317 19318 19319 19320 19321 19322 19323 19324 19325 19326 19327 19328 19329 19330 19331 19332 19333 19334 19335 19336 19337 19338 19339 19340 19341 19342 19343 19344 19345 19346 19347 19348 19349 19350 19351 19352 19353 19354 19355 19356 19357 19358 19359 19360 19361 19362 19363 19364 19365 19366 19367 19368 19369 19370 19371 19372 19373 19374 19375 19376 19377 19378 19379 19380 19381 19382 19383 19384 19385 19386 19387 19388 19389 19390 19391 19392 19393 19394 19395 19396 19397 19398 19399 19400 19401 19402 19403 19404 19405 19406 19407 19408 19409 19410 19411 19412 19413 19414 19415 19416 19417 19418 19419 19420 19421 19422 19423 19424 19425 19426 19427 19428 19429 19430 19431 19432 19433 19434 19435 19436 19437 19438 19439 19440 19441 19442 19443 19444 19445 19446 19447 19448 19449 19450 19451 19452 19453 19454 19455 19456 19457 19458 19459 19460 19461 19462 19463 19464 19465 19466 19467 19468 19469 19470 19471 19472 19473 19474 19475 19476 19477 19478 19479 19480 19481 19482 19483 19484 19485 19486 19487 19488 19489 19490 19491 19492 19493 19494 19495 19496 19497 19498 19499 19500 19501 19502 19503 19504 19505 19506 19507 19508 19509 19510 19511 19512 19513 19514 19515 19516 19517 19518 19519 19520 19521 19522 19523 19524 19525 19526 19527 19528 19529 19530 19531 19532 19533 19534 19535 19536 19537 19538 19539 19540 19541 19542 19543 19544 19545 19546 19547 19548 19549 19550 19551 19552 19553 19554 19555 19556 19557 19558 19559 19560 19561 19562 19563 19564 19565 19566 19567 19568 19569 19570 19571 19572 19573 19574 19575 19576 19577 19578 19579 19580 19581 19582 19583 19584 19585 19586 19587 19588 19589 19590 19591 19592 19593 19594 19595 19596 19597 19598 19599 19600 19601 19602 19603 19604 19605 19606 19607 19608 19609 19610 19611 19612 19613 19614 19615 19616 19617 19618 19619 19620 19621 19622 19623 19624 19625 19626 19627 19628 19629 19630 19631 19632 19633 19634 19635 19636 19637 19638 19639 19640 19641 19642 19643 19644 19645 19646 19647 19648 19649 19650 19651 19652 19653 19654 19655 19656 19657 19658 19659 19660 19661 19662 19663 19664 19665 19666 19667 19668 19669 19670 19671 19672 19673 19674 19675 19676 19677 19678 19679 19680 19681 19682 19683 19684 19685 19686 19687 19688 19689 19690 19691 19692 19693 19694 19695 19696 19697 19698 19699 19700 19701 19702 19703 19704 19705 19706 19707 19708 19709 19710 19711 19712 19713 19714 19715 19716 19717 19718 19719 19720 19721 19722 19723 19724 19725 19726 19727 19728 19729 19730 19731 19732 19733 19734 19735 19736 19737 19738 19739 19740 19741 19742 19743 19744 19745 19746 19747 19748 19749 19750 19751 19752 19753 19754 19755 19756 19757 19758 19759 19760 19761 19762 19763 19764 19765 19766 19767 19768 19769 19770 19771 19772 19773 19774 19775 19776 19777 19778 19779 19780 19781 19782 19783 19784 19785 19786 19787 19788 19789 19790 19791 19792 19793 19794 19795 19796 19797 19798 19799 19800 19801 19802 19803 19804 19805 19806 19807 19808 19809 19810 19811 19812 19813 19814 19815 19816 19817 19818 19819 19820 19821 19822 19823 19824 19825 19826 19827 19828 19829 19830 19831 19832 19833 19834 19835 19836 19837 19838 19839 19840 19841 19842 19843 19844 19845 19846 19847 19848 19849 19850 19851 19852 19853 19854 19855 19856 19857 19858 19859 19860 19861 19862 19863 19864 19865 19866 19867 19868 19869 19870 19871 19872 19873 19874 19875 19876 19877 19878 19879 19880 19881 19882 19883 19884 19885 19886 19887 19888 19889 19890 19891 19892 19893 19894 19895 19896 19897 19898 19899 19900 19901 19902 19903 19904 19905 19906 19907 19908 19909 19910 19911 19912 19913 19914 19915 19916 19917 19918 19919 19920 19921 19922 19923 19924 19925 19926 19927 19928 19929 19930 19931 19932 19933 19934 19935 19936 19937 19938 19939 19940 19941 19942 19943 19944 19945 19946 19947 19948 19949 19950 19951 19952 19953 19954 19955 19956 19957 19958 19959 19960 19961 19962 19963 19964 19965 19966 19967 19968 19969 19970 19971 19972 19973 19974 19975 19976 19977 19978 19979 19980 19981 19982 19983 19984 19985 19986 19987 19988 19989 19990 19991 19992 19993 19994 19995 19996 19997 19998 19999 20000 20001 20002 20003 20004 20005 20006 20007 20008 20009 20010 20011 20012 20013 20014 20015 20016 20017 20018 20019 20020 20021 20022 20023 20024 20025 20026 20027 20028 20029 20030 20031 20032 20033 20034 20035 20036 20037 20038 20039 20040 20041 20042 20043 20044 20045 20046 20047 20048 20049 20050 20051 20052 20053 20054 20055 20056 20057 20058 20059 20060 20061 20062 20063 20064 20065 20066 20067 20068 20069 20070 20071 20072 20073 20074 20075 20076 20077 20078 20079 20080 20081 20082 20083 20084 20085 20086 20087 20088 20089 20090 20091 20092 20093 20094 20095 20096 20097 20098 20099 20100 20101 20102 20103 20104 20105 20106 20107 20108 20109 20110 20111 20112 20113 20114 20115 20116 20117 20118 20119 20120 20121 20122 20123 20124 20125 20126 20127 20128 20129 20130 20131 20132 20133 20134 20135 20136 20137 20138 20139 20140 20141 20142 20143 20144 20145 20146 20147 20148 20149 20150 20151 20152 20153 20154 20155 20156 20157 20158 20159 20160 20161 20162 20163 20164 20165 20166 20167 20168 20169 20170 20171 20172 20173 20174 20175 20176 20177 20178 20179 20180 20181 20182 20183 20184 20185 20186 20187 20188 20189 20190 20191 20192 20193 20194 20195 20196 20197 20198 20199 20200 20201 20202 20203 20204 20205 20206 20207 20208 20209 20210 20211 20212 20213 20214 20215 20216 20217 20218 20219 20220 20221 20222 20223 20224 20225 20226 20227 20228 20229 20230 20231 20232 20233 20234 20235 20236 20237 20238 20239 20240 20241 20242 20243 20244 20245 20246 20247 20248 20249 20250 20251 20252 20253 20254 20255 20256 20257 20258 20259 20260 20261 20262 20263 20264 20265 20266 20267 20268 20269 20270 20271 20272 20273 20274 20275 20276 20277 20278 20279 20280 20281 20282 20283 20284 20285 20286 20287 20288 20289 20290 20291 20292 20293 20294 20295 20296 20297 20298 20299 20300 20301 20302 20303 20304 20305 20306 20307 20308 20309 20310 20311 20312 20313 20314 20315 20316 20317 20318 20319 20320 20321 20322 20323 20324 20325 20326 20327 20328 20329 20330 20331 20332 20333 20334 20335 20336 20337 20338 20339 20340 20341 20342 20343 20344 20345 20346 20347 20348 20349 20350 20351 20352 20353 20354 20355 20356 20357 20358 20359 20360 20361 20362 20363 20364 20365 20366 20367 20368 20369 20370 20371 20372 20373 20374 20375 20376 20377 20378 20379 20380 20381 20382 20383 20384 20385 20386 20387 20388 20389 20390 20391 20392 20393 20394 20395 20396 20397 20398 20399 20400 20401 20402 20403 20404 20405 20406 20407 20408 20409 20410 20411 20412 20413 20414 20415 20416 20417 20418 20419 20420 20421 20422 20423 20424 20425 20426 20427 20428 20429 20430 20431 20432 20433 20434 20435 20436 20437 20438 20439 20440 20441 20442 20443 20444 20445 20446 20447 20448 20449 20450 20451 20452 20453 20454 20455 20456 20457 20458 20459 20460 20461 20462 20463 20464 20465 20466 20467 20468 20469 20470 20471 20472 20473 20474 20475 20476 20477 20478 20479 20480 20481 20482 20483 20484 20485 20486 20487 20488 20489 20490 20491 20492 20493 20494 20495 20496 20497 20498 20499 20500 20501 20502 20503 20504 20505 20506 20507 20508 20509 20510 20511 20512 20513 20514 20515 20516 20517 20518 20519 20520 20521 20522 20523 20524 20525 20526 20527 20528 20529 20530 20531 20532 20533 20534 20535 20536 20537 20538 20539 20540 20541 20542 20543 20544 20545 20546 20547 20548 20549 20550 20551 20552 20553 20554 20555 20556 20557 20558 20559 20560 20561 20562 20563 20564 20565 20566 20567 20568 20569 20570 20571 20572 20573 20574 20575 20576 20577 20578 20579 20580 20581 20582 20583 20584 20585 20586 20587 20588 20589 20590 20591 20592 20593 20594 20595 20596 20597 20598 20599 20600 20601 20602 20603 20604 20605 20606 20607 20608 20609 20610 20611 20612 20613 20614 20615 20616 20617 20618 20619 20620 20621 20622 20623 20624 20625 20626 20627 20628 20629 20630 20631 20632 20633 20634 20635 20636 20637 20638 20639 20640 20641 20642 20643 20644 20645 20646 20647 20648 20649 20650 20651 20652 20653 20654 20655 20656 20657 20658 20659 20660 20661 20662 20663 20664 20665 20666 20667 20668 20669 20670 20671 20672 20673 20674 20675 20676 20677 20678 20679 20680 20681 20682 20683 20684 20685 20686 20687 20688 20689 20690 20691 20692 20693 20694 20695 20696 20697 20698 20699 20700 20701 20702 20703 20704 20705 20706 20707 20708 20709 20710 20711 20712 20713 20714 20715 20716 20717 20718 20719 20720 20721 20722 20723 20724 20725 20726 20727 20728 20729 20730 20731 20732 20733 20734 20735 20736 20737 20738 20739 20740 20741 20742 20743 20744 20745 20746 20747 20748 20749 20750 20751 20752 20753 20754 20755 20756 20757 20758 20759 20760 20761 20762 20763 20764 20765 20766 20767 20768 20769 20770 20771 20772 20773 20774 20775 20776 20777 20778 20779 20780 20781 20782 20783 20784 20785 20786 20787 20788 20789 20790 20791 20792 20793 20794 20795 20796 20797 20798 20799 20800 20801 20802 20803 20804 20805 20806 20807 20808 20809 20810 20811 20812 20813 20814 20815 20816 20817 20818 20819 20820 20821 20822 20823 20824 20825 20826 20827 20828 20829 20830 20831 20832 20833 20834 20835 20836 20837 20838 20839 20840 20841 20842 20843 20844 20845 20846 20847 20848 20849 20850 20851 20852 20853 20854 20855 20856 20857 20858 20859 20860 20861 20862 20863 20864 20865 20866 20867 20868 20869 20870 20871 20872 20873 20874 20875 20876 20877 20878 20879 20880 20881 20882 20883 20884 20885 20886 20887 20888 20889 20890 20891 20892 20893 20894 20895 20896 20897 20898 20899 20900 20901 20902 20903 20904 20905 20906 20907 20908 20909 20910 20911 20912 20913 20914 20915 20916 20917 20918 20919 20920 20921 20922 20923 20924 20925 20926 20927 20928 20929 20930 20931 20932 20933 20934 20935 20936 20937 20938 20939 20940 20941 20942 20943 20944 20945 20946 20947 20948 20949 20950 20951 20952 20953 20954 20955 20956 20957 20958 20959 20960 20961 20962 20963 20964 20965 20966 20967 20968 20969 20970 20971 20972 20973 20974 20975 20976 20977 20978 20979 20980 20981 20982 20983 20984 20985 20986 20987 20988 20989 20990 20991 20992 20993 20994 20995 20996 20997 20998 20999 21000 21001 21002 21003 21004 21005 21006 21007 21008 21009 21010 21011 21012 21013 21014 21015 21016 21017 21018 21019 21020 21021 21022 21023 21024 21025 21026 21027 21028 21029 21030 21031 21032 21033 21034 21035 21036 21037 21038 21039 21040 21041 21042 21043 21044 21045 21046 21047 21048 21049 21050 21051 21052 21053 21054 21055 21056 21057 21058 21059 21060 21061 21062 21063 21064 21065 21066 21067 21068 21069 21070 21071 21072 21073 21074 21075 21076 21077 21078 21079 21080 21081 21082 21083 21084 21085 21086 21087 21088 21089 21090 21091 21092 21093 21094 21095 21096 21097 21098 21099 21100 21101 21102 21103 21104 21105 21106 21107 21108 21109 21110 21111 21112 21113 21114 21115 21116 21117 21118 21119 21120 21121 21122 21123 21124 21125 21126 21127 21128 21129 21130 21131 21132 21133 21134 21135 21136 21137 21138 21139 21140 21141 21142 21143 21144 21145 21146 21147 21148 21149 21150 21151 21152 21153 21154 21155 21156 21157 21158 21159 21160 21161 21162 21163 21164 21165 21166 21167 21168 21169 21170 21171 21172 21173 21174 21175 21176 21177 21178 21179 21180 21181 21182 21183 21184 21185 21186 21187 21188 21189 21190 21191 21192 21193 21194 21195 21196 21197 21198 21199 21200 21201 21202 21203 21204 21205 21206 21207 21208 21209 21210 21211 21212 21213 21214 21215 21216 21217 21218 21219 21220 21221 21222 21223 21224 21225 21226 21227 21228 21229 21230 21231 21232 21233 21234 21235 21236 21237 21238 21239 21240 21241 21242 21243 21244 21245 21246 21247 21248 21249 21250 21251 21252 21253 21254 21255 21256 21257 21258 21259 21260 21261 21262 21263 21264 21265 21266 21267 21268 21269 21270 21271 21272 21273 21274 21275 21276 21277 21278 21279 21280 21281 21282 21283 21284 21285 21286 21287 21288 21289 21290 21291 21292 21293 21294 21295 21296 21297 21298 21299 21300 21301 21302 21303 21304 21305 21306 21307 21308 21309 21310 21311 21312 21313 21314 21315 21316 21317 21318 21319 21320 21321 21322 21323 21324 21325 21326 21327 21328 21329 21330 21331 21332 21333 21334 21335 21336 21337 21338 21339 21340 21341 21342 21343 21344 21345 21346 21347 21348 21349 21350 21351 21352 21353 21354 21355 21356 21357 21358 21359 21360 21361 21362 21363 21364 21365 21366 21367 21368 21369 21370 21371 21372 21373 21374 21375 21376 21377 21378 21379 21380 21381 21382 21383 21384 21385 21386 21387 21388 21389 21390 21391 21392 21393 21394 21395 21396 21397 21398 21399 21400 21401 21402 21403 21404 21405 21406 21407 21408 21409 21410 21411 21412 21413 21414 21415 21416 21417 21418 21419 21420 21421 21422 21423 21424 21425 21426 21427 21428 21429 21430 21431 21432 21433 21434 21435 21436 21437 21438 21439 21440 21441 21442 21443 21444 21445 21446 21447 21448 21449 21450 21451 21452 21453 21454 21455 21456 21457 21458 21459 21460 21461 21462 21463 21464 21465 21466 21467 21468 21469 21470 21471 21472 21473 21474 21475 21476 21477 21478 21479 21480 21481 21482 21483 21484 21485 21486 21487 21488 21489 21490 21491 21492 21493 21494 21495 21496 21497 21498 21499 21500 21501 21502 21503 21504 21505 21506 21507 21508 21509 21510 21511 21512 21513 21514 21515 21516 21517 21518 21519 21520 21521 21522 21523 21524 21525 21526 21527 21528 21529 21530 21531 21532 21533 21534 21535 21536 21537 21538 21539 21540 21541 21542 21543 21544 21545 21546 21547 21548 21549 21550 21551 21552 21553 21554 21555 21556 21557 21558 21559 21560 21561 21562 21563 21564 21565 21566 21567 21568 21569 21570 21571 21572 21573 21574 21575 21576 21577 21578 21579 21580 21581 21582 21583 21584 21585 21586 21587 21588 21589 21590 21591 21592 21593 21594 21595 21596 21597 21598 21599 21600 21601 21602 21603 21604 21605 21606 21607 21608 21609 21610 21611 21612 21613 21614 21615 21616 21617 21618 21619 21620 21621 21622 21623 21624 21625 21626 21627 21628 21629 21630 21631 21632 21633 21634 21635 21636 21637 21638 21639 21640 21641 21642 21643 21644 21645 21646 21647 21648 21649 21650 21651 21652 21653 21654 21655 21656 21657 21658 21659 21660 21661 21662 21663 21664 21665 21666 21667 21668 21669 21670 21671 21672 21673 21674 21675 21676 21677 21678 21679 21680 21681 21682 21683 21684 21685 21686 21687 21688 21689 21690 21691 21692 21693 21694 21695 21696 21697 21698 21699 21700 21701 21702 21703 21704 21705 21706 21707 21708 21709 21710 21711 21712 21713 21714 21715 21716 21717 21718 21719 21720 21721 21722 21723 21724 21725 21726 21727 21728 21729 21730 21731 21732 21733 21734 21735 21736 21737 21738 21739 21740 21741 21742 21743 21744 21745 21746 21747 21748 21749 21750 21751 21752 21753 21754 21755 21756 21757 21758 21759 21760 21761 21762 21763 21764 21765 21766 21767 21768 21769 21770 21771 21772 21773 21774 21775 21776 21777 21778 21779 21780 21781 21782 21783 21784 21785 21786 21787 21788 21789 21790 21791 21792 21793 21794 21795 21796 21797 21798 21799 21800 21801 21802 21803 21804 21805 21806 21807 21808 21809 21810 21811 21812 21813 21814 21815 21816 21817 21818 21819 21820 21821 21822 21823 21824 21825 21826 21827 21828 21829 21830 21831 21832 21833 21834 21835 21836 21837 21838 21839 21840 21841 21842 21843 21844 21845 21846 21847 21848 21849 21850 21851 21852 21853 21854 21855 21856 21857 21858 21859 21860 21861 21862 21863 21864 21865 21866 21867 21868 21869 21870 21871 21872 21873 21874 21875 21876 21877 21878 21879 21880 21881 21882 21883 21884 21885 21886 21887 21888 21889 21890 21891 21892 21893 21894 21895 21896 21897 21898 21899 21900 21901 21902 21903 21904 21905 21906 21907 21908 21909 21910 21911 21912 21913 21914 21915 21916 21917 21918 21919 21920 21921 21922 21923 21924 21925 21926 21927 21928 21929 21930 21931 21932 21933 21934 21935 21936 21937 21938 21939 21940 21941 21942 21943 21944 21945 21946 21947 21948 21949 21950 21951 21952 21953 21954 21955 21956 21957 21958 21959 21960 21961 21962 21963 21964 21965 21966 21967 21968 21969 21970 21971 21972 21973 21974 21975 21976 21977 21978 21979 21980 21981 21982 21983 21984 21985 21986 21987 21988 21989 21990 21991 21992 21993 21994 21995 21996 21997 21998 21999 22000 22001 22002 22003 22004 22005 22006 22007 22008 22009 22010 22011 22012 22013 22014 22015 22016 22017 22018 22019 22020 22021 22022 22023 22024 22025 22026 22027 22028 22029 22030 22031 22032 22033 22034 22035 22036 22037 22038 22039 22040 22041 22042 22043 22044 22045 22046 22047 22048 22049 22050 22051 22052 22053 22054 22055 22056 22057 22058 22059 22060 22061 22062 22063 22064 22065 22066 22067 22068 22069 22070 22071 22072 22073 22074 22075 22076 22077 22078 22079 22080 22081 22082 22083 22084 22085 22086 22087 22088 22089 22090 22091 22092 22093 22094 22095 22096 22097 22098 22099 22100 22101 22102 22103 22104 22105 22106 22107 22108 22109 22110 22111 22112 22113 22114 22115 22116 22117 22118 22119 22120 22121 22122 22123 22124 22125 22126 22127 22128 22129 22130 22131 22132 22133 22134 22135 22136 22137 22138 22139 22140 22141 22142 22143 22144 22145 22146 22147 22148 22149 22150 22151 22152 22153 22154 22155 22156 22157 22158 22159 22160 22161 22162 22163 22164 22165 22166 22167 22168 22169 22170 22171 22172 22173 22174 22175 22176 22177 22178 22179 22180 22181 22182 22183 22184 22185 22186 22187 22188 22189 22190 22191 22192 22193 22194 22195 22196 22197 22198 22199 22200 22201 22202 22203 22204 22205 22206 22207 22208 22209 22210 22211 22212 22213 22214 22215 22216 22217 22218 22219 22220 22221 22222 22223 22224 22225 22226 22227 22228 22229 22230 22231 22232 22233 22234 22235 22236 22237 22238 22239 22240 22241 22242 22243 22244 22245 22246 22247 22248 22249 22250 22251 22252 22253 22254 22255 22256 22257 22258 22259 22260 22261 22262 22263 22264 22265 22266 22267 22268 22269 22270 22271 22272 22273 22274 22275 22276 22277 22278 22279 22280 22281 22282 22283 22284 22285 22286 22287 22288 22289 22290 22291 22292 22293 22294 22295 22296 22297 22298 22299 22300 22301 22302 22303 22304 22305 22306 22307 22308 22309 22310 22311 22312 22313 22314 22315 22316 22317 22318 22319 22320 22321 22322 22323 22324 22325 22326 22327 22328 22329 22330 22331 22332 22333 22334 22335 22336 22337 22338 22339 22340 22341 22342 22343 22344 22345 22346 22347 22348 22349 22350 22351 22352 22353 22354 22355 22356 22357 22358 22359 22360 22361 22362 22363 22364 22365 22366 22367 22368 22369 22370 22371 22372 22373 22374 22375 22376 22377 22378 22379 22380 22381 22382 22383 22384 22385 22386 22387 22388 22389 22390 22391 22392 22393 22394 22395 22396 22397 22398 22399 22400 22401 22402 22403 22404 22405 22406 22407 22408 22409 22410 22411 22412 22413 22414 22415 22416 22417 22418 22419 22420 22421 22422 22423 22424 22425 22426 22427 22428 22429 22430 22431 22432 22433 22434 22435 22436 22437 22438 22439 22440 22441 22442 22443 22444 22445 22446 22447 22448 22449 22450 22451 22452 22453 22454 22455 22456 22457 22458 22459 22460 22461 22462 22463 22464 22465 22466 22467 22468 22469 22470 22471 22472 22473 22474 22475 22476 22477 22478 22479 22480 22481 22482 22483 22484 22485 22486 22487 22488 22489 22490 22491 22492 22493 22494 22495 22496 22497 22498 22499 22500 22501 22502 22503 22504 22505 22506 22507 22508 22509 22510 22511 22512 22513 22514 22515 22516 22517 22518 22519 22520 22521 22522 22523 22524 22525 22526 22527 22528 22529 22530 22531 22532 22533 22534 22535 22536 22537 22538 22539 22540 22541 22542 22543 22544 22545 22546 22547 22548 22549 22550 22551 22552 22553 22554 22555 22556 22557 22558 22559 22560 22561 22562 22563 22564 22565 22566 22567 22568 22569 22570 22571 22572 22573 22574 22575 22576 22577 22578 22579 22580 22581 22582 22583 22584 22585 22586 22587 22588 22589 22590 22591 22592 22593 22594 22595 22596 22597 22598 22599 22600 22601 22602 22603 22604 22605 22606 22607 22608 22609 22610 22611 22612 22613 22614 22615 22616 22617 22618 22619 22620 22621 22622 22623 22624 22625 22626 22627 22628 22629 22630 22631 22632 22633 22634 22635 22636 22637 22638 22639 22640 22641 22642 22643 22644 22645 22646 22647 22648 22649 22650 22651 22652 22653 22654 22655 22656 22657 22658 22659 22660 22661 22662 22663 22664 22665 22666 22667 22668 22669 22670 22671 22672 22673 22674 22675 22676 22677 22678 22679 22680 22681 22682 22683 22684 22685 22686 22687 22688 22689 22690 22691 22692 22693 22694 22695 22696 22697 22698 22699 22700 22701 22702 22703 22704 22705 22706 22707 22708 22709 22710 22711 22712 22713 22714 22715 22716 22717 22718 22719 22720 22721 22722 22723 22724 22725 22726 22727 22728 22729 22730 22731 22732 22733 22734 22735 22736 22737 22738 22739 22740 22741 22742 22743 22744 22745 22746 22747 22748 22749 22750 22751 22752 22753 22754 22755 22756 22757 22758 22759 22760 22761 22762 22763 22764 22765 22766 22767 22768 22769 22770 22771 22772 22773 22774 22775 22776 22777 22778 22779 22780 22781 22782 22783 22784 22785 22786 22787 22788 22789 22790 22791 22792 22793 22794 22795 22796 22797 22798 22799 22800 22801 22802 22803 22804 22805 22806 22807 22808 22809 22810 22811 22812 22813 22814 22815 22816 22817 22818 22819 22820 22821 22822 22823 22824 22825 22826 22827 22828 22829 22830 22831 22832 22833 22834 22835 22836 22837 22838 22839 22840 22841 22842 22843 22844 22845 22846 22847 22848 22849 22850 22851 22852 22853 22854 22855 22856 22857 22858 22859 22860 22861 22862 22863 22864 22865 22866 22867 22868 22869 22870 22871 22872 22873 22874 22875 22876 22877 22878 22879 22880 22881 22882 22883 22884 22885 22886 22887 22888 22889 22890 22891 22892 22893 22894 22895 22896 22897 22898 22899 22900 22901 22902 22903 22904 22905 22906 22907 22908 22909 22910 22911 22912 22913 22914 22915 22916 22917 22918 22919 22920 22921 22922 22923 22924 22925 22926 22927 22928 22929 22930 22931 22932 22933 22934 22935 22936 22937 22938 22939 22940 22941 22942 22943 22944 22945 22946 22947 22948 22949 22950 22951 22952 22953 22954 22955 22956 22957 22958 22959 22960 22961 22962 22963 22964 22965 22966 22967 22968 22969 22970 22971 22972 22973 22974 22975 22976 22977 22978 22979 22980 22981 22982 22983 22984 22985 22986 22987 22988 22989 22990 22991 22992 22993 22994 22995 22996 22997 22998 22999 23000 23001 23002 23003 23004 23005 23006 23007 23008 23009 23010 23011 23012 23013 23014 23015 23016 23017 23018 23019 23020 23021 23022 23023 23024 23025 23026 23027 23028 23029 23030 23031 23032 23033 23034 23035 23036 23037 23038 23039 23040 23041 23042 23043 23044 23045 23046 23047 23048 23049 23050 23051 23052 23053 23054 23055 23056 23057 23058 23059 23060 23061 23062 23063 23064 23065 23066 23067 23068 23069 23070 23071 23072 23073 23074 23075 23076 23077 23078 23079 23080 23081 23082 23083 23084 23085 23086 23087 23088 23089 23090 23091 23092 23093 23094 23095 23096 23097 23098 23099 23100 23101 23102 23103 23104 23105 23106 23107 23108 23109 23110 23111 23112 23113 23114 23115 23116 23117 23118 23119 23120 23121 23122 23123 23124 23125 23126 23127 23128 23129 23130 23131 23132 23133 23134 23135 23136 23137 23138 23139 23140 23141 23142 23143 23144 23145 23146 23147 23148 23149 23150 23151 23152 23153 23154 23155 23156 23157 23158 23159 23160 23161 23162 23163 23164 23165 23166 23167 23168 23169 23170 23171 23172 23173 23174 23175 23176 23177 23178 23179 23180 23181 23182 23183 23184 23185 23186 23187 23188 23189 23190 23191 23192 23193 23194 23195 23196 23197 23198 23199 23200 23201 23202 23203 23204 23205 23206 23207 23208 23209 23210 23211 23212 23213 23214 23215 23216 23217 23218 23219 23220 23221 23222 23223 23224 23225 23226 23227 23228 23229 23230 23231 23232 23233 23234 23235 23236 23237 23238 23239 23240 23241 23242 23243 23244 23245 23246 23247 23248 23249 23250 23251 23252 23253 23254 23255 23256 23257 23258 23259 23260 23261 23262 23263 23264 23265 23266 23267 23268 23269 23270 23271 23272 23273 23274 23275 23276 23277 23278 23279 23280 23281 23282 23283 23284 23285 23286 23287 23288 23289 23290 23291 23292 23293 23294 23295 23296 23297 23298 23299 23300 23301 23302 23303 23304 23305 23306 23307 23308 23309 23310 23311 23312 23313 23314 23315 23316 23317 23318 23319 23320 23321 23322 23323 23324 23325 23326 23327 23328 23329 23330 23331 23332 23333 23334 23335 23336 23337 23338 23339 23340 23341 23342 23343 23344 23345 23346 23347 23348 23349 23350 23351 23352 23353 23354 23355 23356 23357 23358 23359 23360 23361 23362 23363 23364 23365 23366 23367 23368 23369 23370 23371 23372 23373 23374 23375 23376 23377 23378 23379 23380 23381 23382 23383 23384 23385 23386 23387 23388 23389 23390 23391 23392 23393 23394 23395 23396 23397 23398 23399 23400 23401 23402 23403 23404 23405 23406 23407 23408 23409 23410 23411 23412 23413 23414 23415 23416 23417 23418 23419 23420 23421 23422 23423 23424 23425 23426 23427 23428 23429 23430 23431 23432 23433 23434 23435 23436 23437 23438 23439 23440 23441 23442 23443 23444 23445 23446 23447 23448 23449 23450 23451 23452 23453 23454 23455 23456 23457 23458 23459 23460 23461 23462 23463 23464 23465 23466 23467 23468 23469 23470 23471 23472 23473 23474 23475 23476 23477 23478 23479 23480 23481 23482 23483 23484 23485 23486 23487 23488 23489 23490 23491 23492 23493 23494 23495 23496 23497 23498 23499 23500 23501 23502 23503 23504 23505 23506 23507 23508 23509 23510 23511 23512 23513 23514 23515 23516 23517 23518 23519 23520 23521 23522 23523 23524 23525 23526 23527 23528 23529 23530 23531 23532 23533 23534 23535 23536 23537 23538 23539 23540 23541 23542 23543 23544 23545 23546 23547 23548 23549 23550 23551 23552 23553 23554 23555 23556 23557 23558 23559 23560 23561 23562 23563 23564 23565 23566 23567 23568 23569 23570 23571 23572 23573 23574 23575 23576 23577 23578 23579 23580 23581 23582 23583 23584 23585 23586 23587 23588 23589 23590 23591 23592 23593 23594 23595 23596 23597 23598 23599 23600 23601 23602 23603 23604 23605 23606 23607 23608 23609 23610 23611 23612 23613 23614 23615 23616 23617 23618 23619 23620 23621 23622 23623 23624 23625 23626 23627 23628 23629 23630 23631 23632 23633 23634 23635 23636 23637 23638 23639 23640 23641 23642 23643 23644 23645 23646 23647 23648 23649 23650 23651 23652 23653 23654 23655 23656 23657 23658 23659 23660 23661 23662 23663 23664 23665 23666 23667 23668 23669 23670 23671 23672 23673 23674 23675 23676 23677 23678 23679 23680 23681 23682 23683 23684 23685 23686 23687 23688 23689 23690 23691 23692 23693 23694 23695 23696 23697 23698 23699 23700 23701 23702 23703 23704 23705 23706 23707 23708 23709 23710 23711 23712 23713 23714 23715 23716 23717 23718 23719 23720 23721 23722 23723 23724 23725 23726 23727 23728 23729 23730 23731 23732 23733 23734 23735 23736 23737 23738 23739 23740 23741 23742 23743 23744 23745 23746 23747 23748 23749 23750 23751 23752 23753 23754 23755 23756 23757 23758 23759 23760 23761 23762 23763 23764 23765 23766 23767 23768 23769 23770 23771 23772 23773 23774 23775 23776 23777 23778 23779 23780 23781 23782 23783 23784 23785 23786 23787 23788 23789 23790 23791 23792 23793 23794 23795 23796 23797 23798 23799 23800 23801 23802 23803 23804 23805 23806 23807 23808 23809 23810 23811 23812 23813 23814 23815 23816 23817 23818 23819 23820 23821 23822 23823 23824 23825 23826 23827 23828 23829 23830 23831 23832 23833 23834 23835 23836 23837 23838 23839 23840 23841 23842 23843 23844 23845 23846 23847 23848 23849 23850 23851 23852 23853 23854 23855 23856 23857 23858 23859 23860 23861 23862 23863 23864 23865 23866 23867 23868 23869 23870 23871 23872 23873 23874 23875 23876 23877 23878 23879 23880 23881 23882 23883 23884 23885 23886 23887 23888 23889 23890 23891 23892 23893 23894 23895 23896 23897 23898 23899 23900 23901 23902 23903 23904 23905 23906 23907 23908 23909 23910 23911 23912 23913 23914 23915 23916 23917 23918 23919 23920 23921 23922 23923 23924 23925 23926 23927 23928 23929 23930 23931 23932 23933 23934 23935 23936 23937 23938 23939 23940 23941 23942 23943 23944 23945 23946 23947 23948 23949 23950 23951 23952 23953 23954 23955 23956 23957 23958 23959 23960 23961 23962 23963 23964 23965 23966 23967 23968 23969 23970 23971 23972 23973 23974 23975 23976 23977 23978 23979 23980 23981 23982 23983 23984 23985 23986 23987 23988 23989 23990 23991 23992 23993 23994 23995 23996 23997 23998 23999 24000 24001 24002 24003 24004 24005 24006 24007 24008 24009 24010 24011 24012 24013 24014 24015 24016 24017 24018 24019 24020 24021 24022 24023 24024 24025 24026 24027 24028 24029 24030 24031 24032 24033 24034 24035 24036 24037 24038 24039 24040 24041 24042 24043 24044 24045 24046 24047 24048 24049 24050 24051 24052 24053 24054 24055 24056 24057 24058 24059 24060 24061 24062 24063 24064 24065 24066 24067 24068 24069 24070 24071 24072 24073 24074 24075 24076 24077 24078 24079 24080 24081 24082 24083 24084 24085 24086 24087 24088 24089 24090 24091 24092 24093 24094 24095 24096 24097 24098 24099 24100 24101 24102 24103 24104 24105 24106 24107 24108 24109 24110 24111 24112 24113 24114 24115 24116 24117 24118 24119 24120 24121 24122 24123 24124 24125 24126 24127 24128 24129 24130 24131 24132 24133 24134 24135 24136 24137 24138 24139 24140 24141 24142 24143 24144 24145 24146 24147 24148 24149 24150 24151 24152 24153 24154 24155 24156 24157 24158 24159 24160 24161 24162 24163 24164 24165 24166 24167 24168 24169 24170 24171 24172 24173 24174 24175 24176 24177 24178 24179 24180 24181 24182 24183 24184 24185 24186 24187 24188 24189 24190 24191 24192 24193 24194 24195 24196 24197 24198 24199 24200 24201 24202 24203 24204 24205 24206 24207 24208 24209 24210 24211 24212 24213 24214 24215 24216 24217 24218 24219 24220 24221 24222 24223 24224 24225 24226 24227 24228 24229 24230 24231 24232 24233 24234 24235 24236 24237 24238 24239 24240 24241 24242 24243 24244 24245 24246 24247 24248 24249 24250 24251 24252 24253 24254 24255 24256 24257 24258 24259 24260 24261 24262 24263 24264 24265 24266 24267 24268 24269 24270 24271 24272 24273 24274 24275 24276 24277 24278 24279 24280 24281 24282 24283 24284 24285 24286 24287 24288 24289 24290 24291 24292 24293 24294 24295 24296 24297 24298 24299 24300 24301 24302 24303 24304 24305 24306 24307 24308 24309 24310 24311 24312 24313 24314 24315 24316 24317 24318 24319 24320 24321 24322 24323 24324 24325 24326 24327 24328 24329 24330 24331 24332 24333 24334 24335 24336 24337 24338 24339 24340 24341 24342 24343 24344 24345 24346 24347 24348 24349 24350 24351 24352 24353 24354 24355 24356 24357 24358 24359 24360 24361 24362 24363 24364 24365 24366 24367 24368 24369 24370 24371 24372 24373 24374 24375 24376 24377 24378 24379 24380 24381 24382 24383 24384 24385 24386 24387 24388 24389 24390 24391 24392 24393 24394 24395 24396 24397 24398 24399 24400 24401 24402 24403 24404 24405 24406 24407 24408 24409 24410 24411 24412 24413 24414 24415 24416 24417 24418 24419 24420 24421 24422 24423 24424 24425 24426 24427 24428 24429 24430 24431 24432 24433 24434 24435 24436 24437 24438 24439 24440 24441 24442 24443 24444 24445 24446 24447 24448 24449 24450 24451 24452 24453 24454 24455 24456 24457 24458 24459 24460 24461 24462 24463 24464 24465 24466 24467 24468 24469 24470 24471 24472 24473 24474 24475 24476 24477 24478 24479 24480 24481 24482 24483 24484 24485 24486 24487 24488 24489 24490 24491 24492 24493 24494 24495 24496 24497 24498 24499 24500 24501 24502 24503 24504 24505 24506 24507 24508 24509 24510 24511 24512 24513 24514 24515 24516 24517 24518 24519 24520 24521 24522 24523 24524 24525 24526 24527 24528 24529 24530 24531 24532 24533 24534 24535 24536 24537 24538 24539 24540 24541 24542 24543 24544 24545 24546 24547 24548 24549 24550 24551 24552 24553 24554 24555 24556 24557 24558 24559 24560 24561 24562 24563 24564 24565 24566 24567 24568 24569 24570 24571 24572 24573 24574 24575 24576 24577 24578 24579 24580 24581 24582 24583 24584 24585 24586 24587 24588 24589 24590 24591 24592 24593 24594 24595 24596 24597 24598 24599 24600 24601 24602 24603 24604 24605 24606 24607 24608 24609 24610 24611 24612 24613 24614 24615 24616 24617 24618 24619 24620 24621 24622 24623 24624 24625 24626 24627 24628 24629 24630 24631 24632 24633 24634 24635 24636 24637 24638 24639 24640 24641 24642 24643 24644 24645 24646 24647 24648 24649 24650 24651 24652 24653 24654 24655 24656 24657 24658 24659 24660 24661 24662 24663 24664 24665 24666 24667 24668 24669 24670 24671 24672 24673 24674 24675 24676 24677 24678 24679 24680 24681 24682 24683 24684 24685 24686 24687 24688 24689 24690 24691 24692 24693 24694 24695 24696 24697 24698 24699 24700 24701 24702 24703 24704 24705 24706 24707 24708 24709 24710 24711 24712 24713 24714 24715 24716 24717 24718 24719 24720 24721 24722 24723 24724 24725 24726 24727 24728 24729 24730 24731 24732 24733 24734 24735 24736 24737 24738 24739 24740 24741 24742 24743 24744 24745 24746 24747 24748 24749 24750 24751 24752 24753 24754 24755 24756 24757 24758 24759 24760 24761 24762 24763 24764 24765 24766 24767 24768 24769 24770 24771 24772 24773 24774 24775 24776 24777 24778 24779 24780 24781 24782 24783 24784 24785 24786 24787 24788 24789 24790 24791 24792 24793 24794 24795 24796 24797 24798 24799 24800 24801 24802 24803 24804 24805 24806 24807 24808 24809 24810 24811 24812 24813 24814 24815 24816 24817 24818 24819 24820 24821 24822 24823 24824 24825 24826 24827 24828 24829 24830 24831 24832 24833 24834 24835 24836 24837 24838 24839 24840 24841 24842 24843 24844 24845 24846 24847 24848 24849 24850 24851 24852 24853 24854 24855 24856 24857 24858 24859 24860 24861 24862 24863 24864 24865 24866 24867 24868 24869 24870 24871 24872 24873 24874 24875 24876 24877 24878 24879 24880 24881 24882 24883 24884 24885 24886 24887 24888 24889 24890 24891 24892 24893 24894 24895 24896 24897 24898 24899 24900 24901 24902 24903 24904 24905 24906 24907 24908 24909 24910 24911 24912 24913 24914 24915 24916 24917 24918 24919 24920 24921 24922 24923 24924 24925 24926 24927 24928 24929 24930 24931 24932 24933 24934 24935 24936 24937 24938 24939 24940 24941 24942 24943 24944 24945 24946 24947 24948 24949 24950 24951 24952 24953 24954 24955 24956 24957 24958 24959 24960 24961 24962 24963 24964 24965 24966 24967 24968 24969 24970 24971 24972 24973 24974 24975 24976 24977 24978 24979 24980 24981 24982 24983 24984 24985 24986 24987 24988 24989 24990 24991 24992 24993 24994 24995 24996 24997 24998 24999 25000 25001 25002 25003 25004 25005 25006 25007 25008 25009 25010 25011 25012 25013 25014 25015 25016 25017 25018 25019 25020 25021 25022 25023 25024 25025 25026 25027 25028 25029 25030 25031 25032 25033 25034 25035 25036 25037 25038 25039 25040 25041 25042 25043 25044 25045 25046 25047 25048 25049 25050 25051 25052 25053 25054 25055 25056 25057 25058 25059 25060 25061 25062 25063 25064 25065 25066 25067 25068 25069 25070 25071 25072 25073 25074 25075 25076 25077 25078 25079 25080 25081 25082 25083 25084 25085 25086 25087 25088 25089 25090 25091 25092 25093 25094 25095 25096 25097 25098 25099 25100 25101 25102 25103 25104 25105 25106 25107 25108 25109 25110 25111 25112 25113 25114 25115 25116 25117 25118 25119 25120 25121 25122 25123 25124 25125 25126 25127 25128 25129 25130 25131 25132 25133 25134 25135 25136 25137 25138 25139 25140 25141 25142 25143 25144 25145 25146 25147 25148 25149 25150 25151 25152 25153 25154 25155 25156 25157 25158 25159 25160 25161 25162 25163 25164 25165 25166 25167 25168 25169 25170 25171 25172 25173 25174 25175 25176 25177 25178 25179 25180 25181 25182 25183 25184 25185 25186 25187 25188 25189 25190 25191 25192 25193 25194 25195 25196 25197 25198 25199 25200 25201 25202 25203 25204 25205 25206 25207 25208 25209 25210 25211 25212 25213 25214 25215 25216 25217 25218 25219 25220 25221 25222 25223 25224 25225 25226 25227 25228 25229 25230 25231 25232 25233 25234 25235 25236 25237 25238 25239 25240 25241 25242 25243 25244 25245 25246 25247 25248 25249 25250 25251 25252 25253 25254 25255 25256 25257 25258 25259 25260 25261 25262 25263 25264 25265 25266 25267 25268 25269 25270 25271 25272 25273 25274 25275 25276 25277 25278 25279 25280 25281 25282 25283 25284 25285 25286 25287 25288 25289 25290 25291 25292 25293 25294 25295 25296 25297 25298 25299 25300 25301 25302 25303 25304 25305 25306 25307 25308 25309 25310 25311 25312 25313 25314 25315 25316 25317 25318 25319 25320 25321 25322 25323 25324 25325 25326 25327 25328 25329 25330 25331 25332 25333 25334 25335 25336 25337 25338 25339 25340 25341 25342 25343 25344 25345 25346 25347 25348 25349 25350 25351 25352 25353 25354 25355 25356 25357 25358 25359 25360 25361 25362 25363 25364 25365 25366 25367 25368 25369 25370 25371 25372 25373 25374 25375 25376 25377 25378 25379 25380 25381 25382 25383 25384 25385 25386 25387 25388 25389 25390 25391 25392 25393 25394 25395 25396 25397 25398 25399 25400 25401 25402 25403 25404 25405 25406 25407 25408 25409 25410 25411 25412 25413 25414 25415 25416 25417 25418 25419 25420 25421 25422 25423 25424 25425 25426 25427 25428 25429 25430 25431 25432 25433 25434 25435 25436 25437 25438 25439 25440 25441 25442 25443 25444 25445 25446 25447 25448 25449 25450 25451 25452 25453 25454 25455 25456 25457 25458 25459 25460 25461 25462 25463 25464 25465 25466 25467 25468 25469 25470 25471 25472 25473 25474 25475 25476 25477 25478 25479 25480 25481 25482 25483 25484 25485 25486 25487 25488 25489 25490 25491 25492 25493 25494 25495 25496 25497 25498 25499 25500 25501 25502 25503 25504 25505 25506 25507 25508 25509 25510 25511 25512 25513 25514 25515 25516 25517 25518 25519 25520 25521 25522 25523 25524 25525 25526 25527 25528 25529 25530 25531 25532 25533 25534 25535 25536 25537 25538 25539 25540 25541 25542 25543 25544 25545 25546 25547 25548 25549 25550 25551 25552 25553 25554 25555 25556 25557 25558 25559 25560 25561 25562 25563 25564 25565 25566 25567 25568 25569 25570 25571 25572 25573 25574 25575 25576 25577 25578 25579 25580 25581 25582 25583 25584 25585 25586 25587 25588 25589 25590 25591 25592 25593 25594 25595 25596 25597 25598 25599 25600 25601 25602 25603 25604 25605 25606 25607 25608 25609 25610 25611 25612 25613 25614 25615 25616 25617 25618 25619 25620 25621 25622 25623 25624 25625 25626 25627 25628 25629 25630 25631 25632 25633 25634 25635 25636 25637 25638 25639 25640 25641 25642 25643 25644 25645 25646 25647 25648 25649 25650 25651 25652 25653 25654 25655 25656 25657 25658 25659 25660 25661 25662 25663 25664 25665 25666 25667 25668 25669 25670 25671 25672 25673 25674 25675 25676 25677 25678 25679 25680 25681 25682 25683 25684 25685 25686 25687 25688 25689 25690 25691 25692 25693 25694 25695 25696 25697 25698 25699 25700 25701 25702 25703 25704 25705 25706 25707 25708 25709 25710 25711 25712 25713 25714 25715 25716 25717 25718 25719 25720 25721 25722 25723 25724 25725 25726 25727 25728 25729 25730 25731 25732 25733 25734 25735 25736 25737 25738 25739 25740 25741 25742 25743 25744 25745 25746 25747 25748 25749 25750 25751 25752 25753 25754 25755 25756 25757 25758 25759 25760 25761 25762 25763 25764 25765 25766 25767 25768 25769 25770 25771 25772 25773 25774 25775 25776 25777 25778 25779 25780 25781 25782 25783 25784 25785 25786 25787 25788 25789 25790 25791 25792 25793 25794 25795 25796 25797 25798 25799 25800 25801 25802 25803 25804 25805 25806 25807 25808 25809 25810 25811 25812 25813 25814 25815 25816 25817 25818 25819 25820 25821 25822 25823 25824 25825 25826 25827 25828 25829 25830 25831 25832 25833 25834 25835 25836 25837 25838 25839 25840 25841 25842 25843 25844 25845 25846 25847 25848 25849 25850 25851 25852 25853 25854 25855 25856 25857 25858 25859 25860 25861 25862 25863 25864 25865 25866 25867 25868 25869 25870 25871 25872 25873 25874 25875 25876 25877 25878 25879 25880 25881 25882 25883 25884 25885 25886 25887 25888 25889 25890 25891 25892 25893 25894 25895 25896 25897 25898 25899 25900 25901 25902 25903 25904 25905 25906 25907 25908 25909 25910 25911 25912 25913 25914 25915 25916 25917 25918 25919 25920 25921 25922 25923 25924 25925 25926 25927 25928 25929 25930 25931 25932 25933 25934 25935 25936 25937 25938 25939 25940 25941 25942 25943 25944 25945 25946 25947 25948 25949 25950 25951 25952 25953 25954 25955 25956 25957 25958 25959 25960 25961 25962 25963 25964 25965 25966 25967 25968 25969 25970 25971 25972 25973 25974 25975 25976 25977 25978 25979 25980 25981 25982 25983 25984 25985 25986 25987 25988 25989 25990 25991 25992 25993 25994 25995 25996 25997 25998 25999 26000 26001 26002 26003 26004 26005 26006 26007 26008 26009 26010 26011 26012 26013 26014 26015 26016 26017 26018 26019 26020 26021 26022 26023 26024 26025 26026 26027 26028 26029 26030 26031 26032 26033 26034 26035 26036 26037 26038 26039 26040 26041 26042 26043 26044 26045 26046 26047 26048 26049 26050 26051 26052 26053 26054 26055 26056 26057 26058 26059 26060 26061 26062 26063 26064 26065 26066 26067 26068 26069 26070 26071 26072 26073 26074 26075 26076 26077 26078 26079 26080 26081 26082 26083 26084 26085 26086 26087 26088 26089 26090 26091 26092 26093 26094 26095 26096 26097 26098 26099 26100 26101 26102 26103 26104 26105 26106 26107 26108 26109 26110 26111 26112 26113 26114 26115 26116 26117 26118 26119 26120 26121 26122 26123 26124 26125 26126 26127 26128 26129 26130 26131 26132 26133 26134 26135 26136 26137 26138 26139 26140 26141 26142 26143 26144 26145 26146 26147 26148 26149 26150 26151 26152 26153 26154 26155 26156 26157 26158 26159 26160 26161 26162 26163 26164 26165 26166 26167 26168 26169 26170 26171 26172 26173 26174 26175 26176 26177 26178 26179 26180 26181 26182 26183 26184 26185 26186 26187 26188 26189 26190 26191 26192 26193 26194 26195 26196 26197 26198 26199 26200 26201 26202 26203 26204 26205 26206 26207 26208 26209 26210 26211 26212 26213 26214 26215 26216 26217 26218 26219 26220 26221 26222 26223 26224 26225 26226 26227 26228 26229 26230 26231 26232 26233 26234 26235 26236 26237 26238 26239 26240 26241 26242 26243 26244 26245 26246 26247 26248 26249 26250 26251 26252 26253 26254 26255 26256 26257 26258 26259 26260 26261 26262 26263 26264 26265 26266 26267 26268 26269 26270 26271 26272 26273 26274 26275 26276 26277 26278 26279 26280 26281 26282 26283 26284 26285 26286 26287 26288 26289 26290 26291 26292 26293 26294 26295 26296 26297 26298 26299 26300 26301 26302 26303 26304 26305 26306 26307 26308 26309 26310 26311 26312 26313 26314 26315 26316 26317 26318 26319 26320 26321 26322 26323 26324 26325 26326 26327 26328 26329 26330 26331 26332 26333 26334 26335 26336 26337 26338 26339 26340 26341 26342 26343 26344 26345 26346 26347 26348 26349 26350 26351 26352 26353 26354 26355 26356 26357 26358 26359 26360 26361 26362 26363 26364 26365 26366 26367 26368 26369 26370 26371 26372 26373 26374 26375 26376 26377 26378 26379 26380 26381 26382 26383 26384 26385 26386 26387 26388 26389 26390 26391 26392 26393 26394 26395 26396 26397 26398 26399 26400 26401 26402 26403 26404 26405 26406 26407 26408 26409 26410 26411 26412 26413 26414 26415 26416 26417 26418 26419 26420 26421 26422 26423 26424 26425 26426 26427 26428 26429 26430 26431 26432 26433 26434 26435 26436 26437 26438 26439 26440 26441 26442 26443 26444 26445 26446 26447 26448 26449 26450 26451 26452 26453 26454 26455 26456 26457 26458 26459 26460 26461 26462 26463 26464 26465 26466 26467 26468 26469 26470 26471 26472 26473 26474 26475 26476 26477 26478 26479 26480 26481 26482 26483 26484 26485 26486 26487 26488 26489 26490 26491 26492 26493 26494 26495 26496 26497 26498 26499 26500 26501 26502 26503 26504 26505 26506 26507 26508 26509 26510 26511 26512 26513 26514 26515 26516 26517 26518 26519 26520 26521 26522 26523 26524 26525 26526 26527 26528 26529 26530 26531 26532 26533 26534 26535 26536 26537 26538 26539 26540 26541 26542 26543 26544 26545 26546 26547 26548 26549 26550 26551 26552 26553 26554 26555 26556 26557 26558 26559 26560 26561 26562 26563 26564 26565 26566 26567 26568 26569 26570 26571 26572 26573 26574 26575 26576 26577 26578 26579 26580 26581 26582 26583 26584 26585 26586 26587 26588 26589 26590 26591 26592 26593 26594 26595 26596 26597 26598 26599 26600 26601 26602 26603 26604 26605 26606 26607 26608 26609 26610 26611 26612 26613 26614 26615 26616 26617 26618 26619 26620 26621 26622 26623 26624 26625 26626 26627 26628 26629 26630 26631 26632 26633 26634 26635 26636 26637 26638 26639 26640 26641 26642 26643 26644 26645 26646 26647 26648 26649 26650 26651 26652 26653 26654 26655 26656 26657 26658 26659 26660 26661 26662 26663 26664 26665 26666 26667 26668 26669 26670 26671 26672 26673 26674 26675 26676 26677 26678 26679 26680 26681 26682 26683 26684 26685 26686 26687 26688 26689 26690 26691 26692 26693 26694 26695 26696 26697 26698 26699 26700 26701 26702 26703 26704 26705 26706 26707 26708 26709 26710 26711 26712 26713 26714 26715 26716 26717 26718 26719 26720 26721 26722 26723 26724 26725 26726 26727 26728 26729 26730 26731 26732 26733 26734 26735 26736 26737 26738 26739 26740 26741 26742 26743 26744 26745 26746 26747 26748 26749 26750 26751 26752 26753 26754 26755 26756 26757 26758 26759 26760 26761 26762 26763 26764 26765 26766 26767 26768 26769 26770 26771 26772 26773 26774 26775 26776 26777 26778 26779 26780 26781 26782 26783 26784 26785 26786 26787 26788 26789 26790 26791 26792 26793 26794 26795 26796 26797 26798 26799 26800 26801 26802 26803 26804 26805 26806 26807 26808 26809 26810 26811 26812 26813 26814 26815 26816 26817 26818 26819 26820 26821 26822 26823 26824 26825 26826 26827 26828 26829 26830 26831 26832 26833 26834 26835 26836 26837 26838 26839 26840 26841 26842 26843 26844 26845 26846 26847 26848 26849 26850 26851 26852 26853 26854 26855 26856 26857 26858 26859 26860 26861 26862 26863 26864 26865 26866 26867 26868 26869 26870 26871 26872 26873 26874 26875 26876 26877 26878 26879 26880 26881 26882 26883 26884 26885 26886 26887 26888 26889 26890 26891 26892 26893 26894 26895 26896 26897 26898 26899 26900 26901 26902 26903 26904 26905 26906 26907 26908 26909 26910 26911 26912 26913 26914 26915 26916 26917 26918 26919 26920 26921 26922 26923 26924 26925 26926 26927 26928 26929 26930 26931 26932 26933 26934 26935 26936 26937 26938 26939 26940 26941 26942 26943 26944 26945 26946 26947 26948 26949 26950 26951 26952 26953 26954 26955 26956 26957 26958 26959 26960 26961 26962 26963 26964 26965 26966 26967 26968 26969 26970 26971 26972 26973 26974 26975 26976 26977 26978 26979 26980 26981 26982 26983 26984 26985 26986 26987 26988 26989 26990 26991 26992 26993 26994 26995 26996 26997 26998 26999 27000 27001 27002 27003 27004 27005 27006 27007 27008 27009 27010 27011 27012 27013 27014 27015 27016 27017 27018 27019 27020 27021 27022 27023 27024 27025 27026 27027 27028 27029 27030 27031 27032 27033 27034 27035 27036 27037 27038 27039 27040 27041 27042 27043 27044 27045 27046 27047 27048 27049 27050 27051 27052 27053 27054 27055 27056 27057 27058 27059 27060 27061 27062 27063 27064 27065 27066 27067 27068 27069 27070 27071 27072 27073 27074 27075 27076 27077 27078 27079 27080 27081 27082 27083 27084 27085 27086 27087 27088 27089 27090 27091 27092 27093 27094 27095 27096 27097 27098 27099 27100 27101 27102 27103 27104 27105 27106 27107 27108 27109 27110 27111 27112 27113 27114 27115 27116 27117 27118 27119 27120 27121 27122 27123 27124 27125 27126 27127 27128 27129 27130 27131 27132 27133 27134 27135 27136 27137 27138 27139 27140 27141 27142 27143 27144 27145 27146 27147 27148 27149 27150 27151 27152 27153 27154 27155 27156 27157 27158 27159 27160 27161 27162 27163 27164 27165 27166 27167 27168 27169 27170 27171 27172 27173 27174 27175 27176 27177 27178 27179 27180 27181 27182 27183 27184 27185 27186 27187 27188 27189 27190 27191 27192 27193 27194 27195 27196 27197 27198 27199 27200 27201 27202 27203 27204 27205 27206 27207 27208 27209 27210 27211 27212 27213 27214 27215 27216 27217 27218 27219 27220 27221 27222 27223 27224 27225 27226 27227 27228 27229 27230 27231 27232 27233 27234 27235 27236 27237 27238 27239 27240 27241 27242 27243 27244 27245 27246 27247 27248 27249 27250 27251 27252 27253 27254 27255 27256 27257 27258 27259 27260 27261 27262 27263 27264 27265 27266 27267 27268 27269 27270 27271 27272 27273 27274 27275 27276 27277 27278 27279 27280 27281 27282 27283 27284 27285 27286 27287 27288 27289 27290 27291 27292 27293 27294 27295 27296 27297 27298 27299 27300 27301 27302 27303 27304 27305 27306 27307 27308 27309 27310 27311 27312 27313 27314 27315 27316 27317 27318 27319 27320 27321 27322 27323 27324 27325 27326 27327 27328 27329 27330 27331 27332 27333 27334 27335 27336 27337 27338 27339 27340 27341 27342 27343 27344 27345 27346 27347 27348 27349 27350 27351 27352 27353 27354 27355 27356 27357 27358 27359 27360 27361 27362 27363 27364 27365 27366 27367 27368 27369 27370 27371 27372 27373 27374 27375 27376 27377 27378 27379 27380 27381 27382 27383 27384 27385 27386 27387 27388 27389 27390 27391 27392 27393 27394 27395 27396 27397 27398 27399 27400 27401 27402 27403 27404 27405 27406 27407 27408 27409 27410 27411 27412 27413 27414 27415 27416 27417 27418 27419 27420 27421 27422 27423 27424 27425 27426 27427 27428 27429 27430 27431 27432 27433 27434 27435 27436 27437 27438 27439 27440 27441 27442 27443 27444 27445 27446 27447 27448 27449 27450 27451 27452 27453 27454 27455 27456 27457 27458 27459 27460 27461 27462 27463 27464 27465 27466 27467 27468 27469 27470 27471 27472 27473 27474 27475 27476 27477 27478 27479 27480 27481 27482 27483 27484 27485 27486 27487 27488 27489 27490 27491 27492 27493 27494 27495 27496 27497 27498 27499 27500 27501 27502 27503 27504 27505 27506 27507 27508 27509 27510 27511 27512 27513 27514 27515 27516 27517 27518 27519 27520 27521 27522 27523 27524 27525 27526 27527 27528 27529 27530 27531 27532 27533 27534 27535 27536 27537 27538 27539 27540 27541 27542 27543 27544 27545 27546 27547 27548 27549 27550 27551 27552 27553 27554 27555 27556 27557 27558 27559 27560 27561 27562 27563 27564 27565 27566 27567 27568 27569 27570 27571 27572 27573 27574 27575 27576 27577 27578 27579 27580 27581 27582 27583 27584 27585 27586 27587 27588 27589 27590 27591 27592 27593 27594 27595 27596 27597 27598 27599 27600 27601 27602 27603 27604 27605 27606 27607 27608 27609 27610 27611 27612 27613 27614 27615 27616 27617 27618 27619 27620 27621 27622 27623 27624 27625 27626 27627 27628 27629 27630 27631 27632 27633 27634 27635 27636 27637 27638 27639 27640 27641 27642 27643 27644 27645 27646 27647 27648 27649 27650 27651 27652 27653 27654 27655 27656 27657 27658 27659 27660 27661 27662 27663 27664 27665 27666 27667 27668 27669 27670 27671 27672 27673 27674 27675 27676 27677 27678 27679 27680 27681 27682 27683 27684 27685 27686 27687 27688 27689 27690 27691 27692 27693 27694 27695 27696 27697 27698 27699 27700 27701 27702 27703 27704 27705 27706 27707 27708 27709 27710 27711 27712 27713 27714 27715 27716 27717 27718 27719 27720 27721 27722 27723 27724 27725 27726 27727 27728 27729 27730 27731 27732 27733 27734 27735 27736 27737 27738 27739 27740 27741 27742 27743 27744 27745 27746 27747 27748 27749 27750 27751 27752 27753 27754 27755 27756 27757 27758 27759 27760 27761 27762 27763 27764 27765 27766 27767 27768 27769 27770 27771 27772 27773 27774 27775 27776 27777 27778 27779 27780 27781 27782 27783 27784 27785 27786 27787 27788 27789 27790 27791 27792 27793 27794 27795 27796 27797 27798 27799 27800 27801 27802 27803 27804 27805 27806 27807 27808 27809 27810 27811 27812 27813 27814 27815 27816 27817 27818 27819 27820 27821 27822 27823 27824 27825 27826 27827 27828 27829 27830 27831 27832 27833 27834 27835 27836 27837 27838 27839 27840 27841 27842 27843 27844 27845 27846 27847 27848 27849 27850 27851 27852 27853 27854 27855 27856 27857 27858 27859 27860 27861 27862 27863 27864 27865 27866 27867 27868 27869 27870 27871 27872 27873 27874 27875 27876 27877 27878 27879 27880 27881 27882 27883 27884 27885 27886 27887 27888 27889 27890 27891 27892 27893 27894 27895 27896 27897 27898 27899 27900 27901 27902 27903 27904 27905 27906 27907 27908 27909 27910 27911 27912 27913 27914 27915 27916 27917 27918 27919 27920 27921 27922 27923 27924 27925 27926 27927 27928 27929 27930 27931 27932 27933 27934 27935 27936 27937 27938 27939 27940 27941 27942 27943 27944 27945 27946 27947 27948 27949 27950 27951 27952 27953 27954 27955 27956 27957 27958 27959 27960 27961 27962 27963 27964 27965 27966 27967 27968 27969 27970 27971 27972 27973 27974 27975 27976 27977 27978 27979 27980 27981 27982 27983 27984 27985 27986 27987 27988 27989 27990 27991 27992 27993 27994 27995 27996 27997 27998 27999 28000 28001 28002 28003 28004 28005 28006 28007 28008 28009 28010 28011 28012 28013 28014 28015 28016 28017 28018 28019 28020 28021 28022 28023 28024 28025 28026 28027 28028 28029 28030 28031 28032 28033 28034 28035 28036 28037 28038 28039 28040 28041 28042 28043 28044 28045 28046 28047 28048 28049 28050 28051 28052 28053 28054 28055 28056 28057 28058 28059 28060 28061 28062 28063 28064 28065 28066 28067 28068 28069 28070 28071 28072 28073 28074 28075 28076 28077 28078 28079 28080 28081 28082 28083 28084 28085 28086 28087 28088 28089 28090 28091 28092 28093 28094 28095 28096 28097 28098 28099 28100 28101 28102 28103 28104 28105 28106 28107 28108 28109 28110 28111 28112 28113 28114 28115 28116 28117 28118 28119 28120 28121 28122 28123 28124 28125 28126 28127 28128 28129 28130 28131 28132 28133 28134 28135 28136 28137 28138 28139 28140 28141 28142 28143 28144 28145 28146 28147 28148 28149 28150 28151 28152 28153 28154 28155 28156 28157 28158 28159 28160 28161 28162 28163 28164 28165 28166 28167 28168 28169 28170 28171 28172 28173 28174 28175 28176 28177 28178 28179 28180 28181 28182 28183 28184 28185 28186 28187 28188 28189 28190 28191 28192 28193 28194 28195 28196 28197 28198 28199 28200 28201 28202 28203 28204 28205 28206 28207 28208 28209 28210 28211 28212 28213 28214 28215 28216 28217 28218 28219 28220 28221 28222 28223 28224 28225 28226 28227 28228 28229 28230 28231 28232 28233 28234 28235 28236 28237 28238 28239 28240 28241 28242 28243 28244 28245 28246 28247 28248 28249 28250 28251 28252 28253 28254 28255 28256 28257 28258 28259 28260 28261 28262 28263 28264 28265 28266 28267 28268 28269 28270 28271 28272 28273 28274 28275 28276 28277 28278 28279 28280 28281 28282 28283 28284 28285 28286 28287 28288 28289 28290 28291 28292 28293 28294 28295 28296 28297 28298 28299 28300 28301 28302 28303 28304 28305 28306 28307 28308 28309 28310 28311 28312 28313 28314 28315 28316 28317 28318 28319 28320 28321 28322 28323 28324 28325 28326 28327 28328 28329 28330 28331 28332 28333 28334 28335 28336 28337 28338 28339 28340 28341 28342 28343 28344 28345 28346 28347 28348 28349 28350 28351 28352 28353 28354 28355 28356 28357 28358 28359 28360 28361 28362 28363 28364 28365 28366 28367 28368 28369 28370 28371 28372 28373 28374 28375 28376 28377 28378 28379 28380 28381 28382 28383 28384 28385 28386 28387 28388 28389 28390 28391 28392 28393 28394 28395 28396 28397 28398 28399 28400 28401 28402 28403 28404 28405 28406 28407 28408 28409 28410 28411 28412 28413 28414 28415 28416 28417 28418 28419 28420 28421 28422 28423 28424 28425 28426 28427 28428 28429 28430 28431 28432 28433 28434 28435 28436 28437 28438 28439 28440 28441 28442 28443 28444 28445 28446 28447 28448 28449 28450 28451 28452 28453 28454 28455 28456 28457 28458 28459 28460 28461 28462 28463 28464 28465 28466 28467 28468 28469 28470 28471 28472 28473 28474 28475 28476 28477 28478 28479 28480 28481 28482 28483 28484 28485 28486 28487 28488 28489 28490 28491 28492 28493 28494 28495 28496 28497 28498 28499 28500 28501 28502 28503 28504 28505 28506 28507 28508 28509 28510 28511 28512 28513 28514 28515 28516 28517 28518 28519 28520 28521 28522 28523 28524 28525 28526 28527 28528 28529 28530 28531 28532 28533 28534 28535 28536 28537 28538 28539 28540 28541 28542 28543 28544 28545 28546 28547 28548 28549 28550 28551 28552 28553 28554 28555 28556 28557 28558 28559 28560 28561 28562 28563 28564 28565 28566 28567 28568 28569 28570 28571 28572 28573 28574 28575 28576 28577 28578 28579 28580 28581 28582 28583 28584 28585 28586 28587 28588 28589 28590 28591 28592 28593 28594 28595 28596 28597 28598 28599 28600 28601 28602 28603 28604 28605 28606 28607 28608 28609 28610 28611 28612 28613 28614 28615 28616 28617 28618 28619 28620 28621 28622 28623 28624 28625 28626 28627 28628 28629 28630 28631 28632 28633 28634 28635 28636 28637 28638 28639 28640 28641 28642 28643 28644 28645 28646 28647 28648 28649 28650 28651 28652 28653 28654 28655 28656 28657 28658 28659 28660 28661 28662 28663 28664 28665 28666 28667 28668 28669 28670 28671 28672 28673 28674 28675 28676 28677 28678 28679 28680 28681 28682 28683 28684 28685 28686 28687 28688 28689 28690 28691 28692 28693 28694 28695 28696 28697 28698 28699 28700 28701 28702 28703 28704 28705 28706 28707 28708 28709 28710 28711 28712 28713 28714 28715 28716 28717 28718 28719 28720 28721 28722 28723 28724 28725 28726 28727 28728 28729 28730 28731 28732 28733 28734 28735 28736 28737 28738 28739 28740 28741 28742 28743 28744 28745 28746 28747 28748 28749 28750 28751 28752 28753 28754 28755 28756 28757 28758 28759 28760 28761 28762 28763 28764 28765 28766 28767 28768 28769 28770 28771 28772 28773 28774 28775 28776 28777 28778 28779 28780 28781 28782 28783 28784 28785 28786 28787 28788 28789 28790 28791 28792 28793 28794 28795 28796 28797 28798 28799 28800 28801 28802 28803 28804 28805 28806 28807 28808 28809 28810 28811 28812 28813 28814 28815 28816 28817 28818 28819 28820 28821 28822 28823 28824 28825 28826 28827 28828 28829 28830 28831 28832 28833 28834 28835 28836 28837 28838 28839 28840 28841 28842 28843 28844 28845 28846 28847 28848 28849 28850 28851 28852 28853 28854 28855 28856 28857 28858 28859 28860 28861 28862 28863 28864 28865 28866 28867 28868 28869 28870 28871 28872 28873 28874 28875 28876 28877 28878 28879 28880 28881 28882 28883 28884 28885 28886 28887 28888 28889 28890 28891 28892 28893 28894 28895 28896 28897 28898 28899 28900 28901 28902 28903 28904 28905 28906 28907 28908 28909 28910 28911 28912 28913 28914 28915 28916 28917 28918 28919 28920 28921 28922 28923 28924 28925 28926 28927 28928 28929 28930 28931 28932 28933 28934 28935 28936 28937 28938 28939 28940 28941 28942 28943 28944 28945 28946 28947 28948 28949 28950 28951 28952 28953 28954 28955 28956 28957 28958 28959 28960 28961 28962 28963 28964 28965 28966 28967 28968 28969 28970 28971 28972 28973 28974 28975 28976 28977 28978 28979 28980 28981 28982 28983 28984 28985 28986 28987 28988 28989 28990 28991 28992 28993 28994 28995 28996 28997 28998 28999 29000 29001 29002 29003 29004 29005 29006 29007 29008 29009 29010 29011 29012 29013 29014 29015 29016 29017 29018 29019 29020 29021 29022 29023 29024 29025 29026 29027 29028 29029 29030 29031 29032 29033 29034 29035 29036 29037 29038 29039 29040 29041 29042 29043 29044 29045 29046 29047 29048 29049 29050 29051 29052 29053 29054 29055 29056 29057 29058 29059 29060 29061 29062 29063 29064 29065 29066 29067 29068 29069 29070 29071 29072 29073 29074 29075 29076 29077 29078 29079 29080 29081 29082 29083 29084 29085 29086 29087 29088 29089 29090 29091 29092 29093 29094 29095 29096 29097 29098 29099 29100 29101 29102 29103 29104 29105 29106 29107 29108 29109 29110 29111 29112 29113 29114 29115 29116 29117 29118 29119 29120 29121 29122 29123 29124 29125 29126 29127 29128 29129 29130 29131 29132 29133 29134 29135 29136 29137 29138 29139 29140 29141 29142 29143 29144 29145 29146 29147 29148 29149 29150 29151 29152 29153 29154 29155 29156 29157 29158 29159 29160 29161 29162 29163 29164 29165 29166 29167 29168 29169 29170 29171 29172 29173 29174 29175 29176 29177 29178 29179 29180 29181 29182 29183 29184 29185 29186 29187 29188 29189 29190 29191 29192 29193 29194 29195 29196 29197 29198 29199 29200 29201 29202 29203 29204 29205 29206 29207 29208 29209 29210 29211 29212 29213 29214 29215 29216 29217 29218 29219 29220 29221 29222 29223 29224 29225 29226 29227 29228 29229 29230 29231 29232 29233 29234 29235 29236 29237 29238 29239 29240 29241 29242 29243 29244 29245 29246 29247 29248 29249 29250 29251 29252 29253 29254 29255 29256 29257 29258 29259 29260 29261 29262 29263 29264 29265 29266 29267 29268 29269 29270 29271 29272 29273 29274 29275 29276 29277 29278 29279 29280 29281 29282 29283 29284 29285 29286 29287 29288 29289 29290 29291 29292 29293 29294 29295 29296 29297 29298 29299 29300 29301 29302 29303 29304 29305 29306 29307 29308 29309 29310 29311 29312 29313 29314 29315 29316 29317 29318 29319 29320 29321 29322 29323 29324 29325 29326 29327 29328 29329 29330 29331 29332 29333 29334 29335 29336 29337 29338 29339 29340 29341 29342 29343 29344 29345 29346 29347 29348 29349 29350 29351 29352 29353 29354 29355 29356 29357 29358 29359 29360 29361 29362 29363 29364 29365 29366 29367 29368 29369 29370 29371 29372 29373 29374 29375 29376 29377 29378 29379 29380 29381 29382 29383 29384 29385 29386 29387 29388 29389 29390 29391 29392 29393 29394 29395 29396 29397 29398 29399 29400 29401 29402 29403 29404 29405 29406 29407 29408 29409 29410 29411 29412 29413 29414 29415 29416 29417 29418 29419 29420 29421 29422 29423 29424 29425 29426 29427 29428 29429 29430 29431 29432 29433 29434 29435 29436 29437 29438 29439 29440 29441 29442 29443 29444 29445 29446 29447 29448 29449 29450 29451 29452 29453 29454 29455 29456 29457 29458 29459 29460 29461 29462 29463 29464 29465 29466 29467 29468 29469 29470 29471 29472 29473 29474 29475 29476 29477 29478 29479 29480 29481 29482 29483 29484 29485 29486 29487 29488 29489 29490 29491 29492 29493 29494 29495 29496 29497 29498 29499 29500 29501 29502 29503 29504 29505 29506 29507 29508 29509 29510 29511 29512 29513 29514 29515 29516 29517 29518 29519 29520 29521 29522 29523 29524 29525 29526 29527 29528 29529 29530 29531 29532 29533 29534 29535 29536 29537 29538 29539 29540 29541 29542 29543 29544 29545 29546 29547 29548 29549 29550 29551 29552 29553 29554 29555 29556 29557 29558 29559 29560 29561 29562 29563 29564 29565 29566 29567 29568 29569 29570 29571 29572 29573 29574 29575 29576 29577 29578 29579 29580 29581 29582 29583 29584 29585 29586 29587 29588 29589 29590 29591 29592 29593 29594 29595 29596 29597 29598 29599 29600 29601 29602 29603 29604 29605 29606 29607 29608 29609 29610 29611 29612 29613 29614 29615 29616 29617 29618 29619 29620 29621 29622 29623 29624 29625 29626 29627 29628 29629 29630 29631 29632 29633 29634 29635 29636 29637 29638 29639 29640 29641 29642 29643 29644 29645 29646 29647 29648 29649 29650 29651 29652 29653 29654 29655 29656 29657 29658 29659 29660 29661 29662 29663 29664 29665 29666 29667 29668 29669 29670 29671 29672 29673 29674 29675 29676 29677 29678 29679 29680 29681 29682 29683 29684 29685 29686 29687 29688 29689 29690 29691 29692 29693 29694 29695 29696 29697 29698 29699 29700 29701 29702 29703 29704 29705 29706 29707 29708 29709 29710 29711 29712 29713 29714 29715 29716 29717 29718 29719 29720 29721 29722 29723 29724 29725 29726 29727 29728 29729 29730 29731 29732 29733 29734 29735 29736 29737 29738 29739 29740 29741 29742 29743 29744 29745 29746 29747 29748 29749 29750 29751 29752 29753 29754 29755 29756 29757 29758 29759 29760 29761 29762 29763 29764 29765 29766 29767 29768 29769 29770 29771 29772 29773 29774 29775 29776 29777 29778 29779 29780 29781 29782 29783 29784 29785 29786 29787 29788 29789 29790 29791 29792 29793 29794 29795 29796 29797 29798 29799 29800 29801 29802 29803 29804 29805 29806 29807 29808 29809 29810 29811 29812 29813 29814 29815 29816 29817 29818 29819 29820 29821 29822 29823 29824 29825 29826 29827 29828 29829 29830 29831 29832 29833 29834 29835 29836 29837 29838 29839 29840 29841 29842 29843 29844 29845 29846 29847 29848 29849 29850 29851 29852 29853 29854 29855 29856 29857 29858 29859 29860 29861 29862 29863 29864 29865 29866 29867 29868 29869 29870 29871 29872 29873 29874 29875 29876 29877 29878 29879 29880 29881 29882 29883 29884 29885 29886 29887 29888 29889 29890 29891 29892 29893 29894 29895 29896 29897 29898 29899 29900 29901 29902 29903 29904 29905 29906 29907 29908 29909 29910 29911 29912 29913 29914 29915 29916 29917 29918 29919 29920 29921 29922 29923 29924 29925 29926 29927 29928 29929 29930 29931 29932 29933 29934 29935 29936 29937 29938 29939 29940 29941 29942 29943 29944 29945 29946 29947 29948 29949 29950 29951 29952 29953 29954 29955 29956 29957 29958 29959 29960 29961 29962 29963 29964 29965 29966 29967 29968 29969 29970 29971 29972 29973 29974 29975 29976 29977 29978 29979 29980 29981 29982 29983 29984 29985 29986 29987 29988 29989 29990 29991 29992 29993 29994 29995 29996 29997 29998 29999 30000 30001 30002 30003 30004 30005 30006 30007 30008 30009 30010 30011 30012 30013 30014 30015 30016 30017 30018 30019 30020 30021 30022 30023 30024 30025 30026 30027 30028 30029 30030 30031 30032 30033 30034 30035 30036 30037 30038 30039 30040 30041 30042 30043 30044 30045 30046 30047 30048 30049 30050 30051 30052 30053 30054 30055 30056 30057 30058 30059 30060 30061 30062 30063 30064 30065 30066 30067 30068 30069 30070 30071 30072 30073 30074 30075 30076 30077 30078 30079 30080 30081 30082 30083 30084 30085 30086 30087 30088 30089 30090 30091 30092 30093 30094 30095 30096 30097 30098 30099 30100 30101 30102 30103 30104 30105 30106 30107 30108 30109 30110 30111 30112 30113 30114 30115 30116 30117 30118 30119 30120 30121 30122 30123 30124 30125 30126 30127 30128 30129 30130 30131 30132 30133 30134 30135 30136 30137 30138 30139 30140 30141 30142 30143 30144 30145 30146 30147 30148 30149 30150 30151 30152 30153 30154 30155 30156 30157 30158 30159 30160 30161 30162 30163 30164 30165 30166 30167 30168 30169 30170 30171 30172 30173 30174 30175 30176 30177 30178 30179 30180 30181 30182 30183 30184 30185 30186 30187 30188 30189 30190 30191 30192 30193 30194 30195 30196 30197 30198 30199 30200 30201 30202 30203 30204 30205 30206 30207 30208 30209 30210 30211 30212 30213 30214 30215 30216 30217 30218 30219 30220 30221 30222 30223 30224 30225 30226 30227 30228 30229 30230 30231 30232 30233 30234 30235 30236 30237 30238 30239 30240 30241 30242 30243 30244 30245 30246 30247 30248 30249 30250 30251 30252 30253 30254 30255 30256 30257 30258 30259 30260 30261 30262 30263 30264 30265 30266 30267 30268 30269 30270 30271 30272 30273 30274 30275 30276 30277 30278 30279 30280 30281 30282 30283 30284 30285 30286 30287 30288 30289 30290 30291 30292 30293 30294 30295 30296 30297 30298 30299 30300 30301 30302 30303 30304 30305 30306 30307 30308 30309 30310 30311 30312 30313 30314 30315 30316 30317 30318 30319 30320 30321 30322 30323 30324 30325 30326 30327 30328 30329 30330 30331 30332 30333 30334 30335 30336 30337 30338 30339 30340 30341 30342 30343 30344 30345 30346 30347 30348 30349 30350 30351 30352 30353 30354 30355 30356 30357 30358 30359 30360 30361 30362 30363 30364 30365 30366 30367 30368 30369 30370 30371 30372 30373 30374 30375 30376 30377 30378 30379 30380 30381 30382 30383 30384 30385 30386 30387 30388 30389 30390 30391 30392 30393 30394 30395 30396 30397 30398 30399 30400 30401 30402 30403 30404 30405 30406 30407 30408 30409 30410 30411 30412 30413 30414 30415 30416 30417 30418 30419 30420 30421 30422 30423 30424 30425 30426 30427 30428 30429 30430 30431 30432 30433 30434 30435 30436 30437 30438 30439 30440 30441 30442 30443 30444 30445 30446 30447 30448 30449 30450 30451 30452 30453 30454 30455 30456 30457 30458 30459 30460 30461 30462 30463 30464 30465 30466 30467 30468 30469 30470 30471 30472 30473 30474 30475 30476 30477 30478 30479 30480 30481 30482 30483 30484 30485 30486 30487 30488 30489 30490 30491 30492 30493 30494 30495 30496 30497 30498 30499 30500 30501 30502 30503 30504 30505 30506 30507 30508 30509 30510 30511 30512 30513 30514 30515 30516 30517 30518 30519 30520 30521 30522 30523 30524 30525 30526 30527 30528 30529 30530 30531 30532 30533 30534 30535 30536 30537 30538 30539 30540 30541 30542 30543 30544 30545 30546 30547 30548 30549 30550 30551 30552 30553 30554 30555 30556 30557 30558 30559 30560 30561 30562 30563 30564 30565 30566 30567 30568 30569 30570 30571 30572 30573 30574 30575 30576 30577 
</DataArray>
<DataArray type="UInt32" Name="offsets" format="ascii">
3 6 9 12 15 18 20 23 26 29 31 34 37 40 42 45 48 51 54 57 60 62 64 67 70 73 76 78 80 83 85 87 90 92 95 98 101 103 106 109 111 114 117 120 123 126 129 132 134 137 140 143 146 149 152 155 158 160 163 166 168 171 173 176 178 181 183 186 189 192 195 198 201 204 207 210 213 216 219 222 225 228 231 233 236 239 242 245 248 251 254 257 259 262 265 267 269 272 275 278 281 284 287 290 293 296 299 302 305 307 310 313 316 319 322 324 327 330 332 335 338 341 344 347 350 353 356 359 362 365 368 371 374 377 380 383 386 389 391 394 397 400 403 406 408 411 414 417 420 423 426 429 432 435 438 441 444 447 450 453 456 459 462 465 468 471 474 477 480 482 485 487 490 493 496 498 501 504 507 509 512 515 518 520 522 525 528 530 533 536 539 542 544 547 550 553 556 559 561 564 567 570 573 575 578 580 583 586 588 591 594 597 599 602 605 607 610 613 616 619 622 625 628 631 634 637 639 642 645 647 650 653 656 659 662 665 668 670 673 676 679 682 685 688 691 694 697 700 703 706 709 712 715 718 721 724 727 730 733 735 738 740 743 746 749 752 755 757 760 763 766 769 772 775 778 781 783 786 789 792 794 797 800 802 805 808 811 814 816 819 822 824 827 830 833 836 839 841 844 846 849 852 855 858 861 864 867 870 873 876 879 882 885 888 891 894 897 900 902 905 908 911 914 917 919 921 924 927 930 933 936 939 942 945 948 951 953 956 959 962 965 968 971 974 977 980 982 985 988 990 992 995 998 1001 1003 1006 1009 1011 1014 1017 1020 1023 1026 1029 1032 1035 1038 1041 1044 1047 1050 1053 1056 1058 1061 1064 1067 1070 1073 1076 1079 1082 1084 1087 1090 1092 1095 1098 1101 1104 1106 1109 1112 1115 1118 1121 1124 1127 1130 1133 1136 1139 1142 1145 1148 1150 1152 1155 1158 1160 1162 1165 1167 1170 1172 1175 1177 1180 1183 1185 1188 1191 1194 1197 1200 1203 1206 1209 1212 1214 1216 1219 1222 1224 1227 1230 1233 1236 1239 1241 1244 1247 1249 1252 1255 1258 1261 1263 1266 1269 1272 1274 1277 1280 1283 1285 1288 1290 1293 1296 1298 1301 1304 1307 1310 1313 1316 1319 1322 1325 1328 1331 1333 1336 1339 1342 1345 1348 1351 1353 1356 1359 1362 1364 1367 1370 1373 1376 1379 1382 1385 1387 1390 1393 1396 1399 1402 1404 1407 1409 1412 1415 1418 1421 1424 1426 1428 1431 1434 1437 1439 1441 1444 1446 1449 1452 1455 1458 1461 1464 1467 1469 1472 1475 1478 1481 1484 1487 1490 1493 1496 1499 1502 1505 1508 1511 1513 1516 1519 1521 1524 1526 1529 1532 1535 1538 1541 1544 1547 1550 1553 1556 1559 1562 1565 1568 1570 1573 1576 1579 1582 1585 1588 1591 1594 1597 1600 1603 1606 1609 1612 1615 1618 1620 1623 1626 1629 1632 1635 1638 1641 1644 1647 1650 1653 1655 1657 1660 1663 1666 1669 1672 1675 1678 1681 1684 1687 1690 1693 1696 1699 1702 1705 1707 1710 1713 1716 1719 1722 1725 1728 1730 1733 1736 1739 1742 1745 1748 1751 1754 1756 1759 1762 1765 1767 1770 1773 1776 1779 1782 1785 1788 1791 1794 1797 1800 1803 1806 1809 1812 1815 1818 1821 1824 1827 1830 1833 1836 1839 1842 1845 1848 1851 1853 1856 1858 1861 1864 1867 1870 1873 1876 1879 1882 1885 1888 1891 1894 1897 1899 1902 1905 1908 1910 1913 1916 1919 1922 1925 1928 1931 1934 1937 1940 1943 1946 1949 1951 1953 1956 1959 1962 1965 1968 1971 1974 1976 1979 1982 1985 1988 1991 1994 1997 2000 2003 2006 2009 2011 2014 2017 2020 2023 2026 2029 2032 2034 2037 2040 2043 2046 2049 2052 2055 2058 2061 2064 2067 2070 2073 2076 2079 2082 2085 2087 2090 2093 2096 2099 2102 2105 2108 2111 2114 2117 2119 2122 2125 2128 2131 2134 2136 2139 2142 2145 2147 2150 2153 2156 2159 2161 2164 2167 2170 2173 2176 2179 2182 2184 2187 2189 2192 2195 2197 2200 2202 2205 2208 2211 2214 2217 2220 2223 2226 2229 2232 2235 2238 2241 2244 2247 2250 2253 2256 2259 2262 2265 2268 2271 2274 2277 2280 2283 2286 2289 2292 2295 2298 2301 2304 2307 2309 2312 2314 2316 2319 2322 2325 2328 2331 2334 2337 2340 2343 2346 2349 2351 2354 2357 2360 2363 2366 2369 2372 2374 2377 2379 2382 2384 2387 2390 2393 2396 2399 2402 2404 2407 2409 2411 2414 2417 2420 2423 2426 2429 2432 2435 2438 2441 2444 2447 2450 2453 2456 2459 2462 2464 2467 2470 2473 2476 2479 2482 2485 2488 2491 2494 2497 2500 2503 2506 2508 2511 2514 2517 2520 2523 2526 2529 2532 2535 2538 2541 2544 2547 2549 2552 2555 2558 2561 2564 2567 2570 2573 2576 2578 2581 2584 2587 2590 2593 2595 2597 2600 2603 2606 2609 2611 2613 2616 2619 2622 2625 2628 2631 2634 2637 2640 2643 2646 2648 2651 2654 2657 2660 2662 2665 2668 2671 2674 2677 2680 2682 2685 2688 2690 2693 2695 2698 2701 2704 2706 2709 2712 2715 2718 2721 2724 2727 2729 2732 2735 2738 2741 2743 2745 2748 2751 2753 2756 2759 2762 2764 2766 2768 2770 2773 2776 2778 2781 2784 2787 2790 2793 2796 2799 2802 2804 2806 2809 2812 2815 2818 2821 2824 2826 2829 2831 2834 2837 2840 2842 2845 2848 2851 2854 2857 2860 2863 2866 2869 2872 2875 2878 2881 2884 2887 2890 2893 2896 2899 2902 2905 2908 2911 2914 2917 2920 2923 2926 2928 2931 2934 2937 2940 2943 2946 2949 2952 2955 2958 2961 2964 2967 2970 2973 2976 2979 2982 2985 2988 2991 2993 2996 2999 3002 3005 3008 3011 3014 3017 3020 3022 3025 3028 3031 3034 3037 3040 3042 3045 3048 3051 3054 3057 3059 3062 3065 3068 3071 3074 3076 3079 3082 3085 3088 3091 3094 3097 3100 3103 3106 3108 3111 3114 3117 3120 3122 3124 3127 3130 3132 3135 3138 3141 3144 3146 3149 3152 3154 3157 3160 3163 3166 3169 3171 3173 3176 3179 3182 3185 3188 3191 3193 3196 3199 3202 3205 3208 3211 3214 3216 3218 3221 3224 3227 3229 3232 3235 3238 3240 3243 3246 3248 3251 3253 3256 3259 3262 3264 3267 3270 3272 3274 3277 3280 3283 3286 3289 3292 3294 3297 3299 3302 3304 3307 3310 3313 3315 3317 3320 3322 3325 3328 3331 3334 3337 3340 3343 3346 3349 3352 3355 3358 3361 3364 3367 3370 3372 3375 3378 3381 3384 3387 3390 3393 3395 3398 3401 3404 3407 3410 3412 3415 3418 3421 3423 3426 3429 3432 3435 3437 3440 3442 3445 3447 3450 3453 3456 3459 3461 3464 3467 3469 3472 3475 3478 3481 3484 3487 3490 3493 3496 3499 3502 3504 3507 3510 3513 3516 3518 3521 3524 3527 3530 3532 3535 3538 3541 3544 3547 3550 3552 3555 3558 3561 3563 3566 3568 3570 3573 3576 3579 3582 3585 3588 3591 3594 3597 3600 3603 3606 3609 3612 3615 3618 3621 3624 3627 3630 3633 3636 3639 3642 3645 3648 3651 3654 3656 3659 3662 3664 3666 3669 3671 3674 3677 3680 3683 3685 3688 3691 3693 3696 3699 3702 3705 3708 3711 3714 3717 3720 3723 3726 3729 3732 3735 3738 3741 3744 3747 3750 3753 3756 3759 3762 3765 3768 3771 3774 3777 3779 3782 3785 3788 3791 3794 3797 3800 3803 3805 3808 3811 3814 3817 3820 3823 3826 3828 3831 3833 3836 3839 3842 3844 3847 3850 3853 3856 3859 3862 3865 3867 3870 3872 3875 3878 3881 3884 3887 3889 3892 3895 3898 3901 3904 3907 3910 3913 3916 3919 3922 3925 3928 3931 3934 3937 3940 3943 3946 3949 3952 3955 3958 3961 3964 3967 3970 3973 3976 3979 3982 3985 3988 3991 3994 3997 4000 4003 4006 4008 4010 4013 4016 4018 4021 4024 4027 4029 4032 4035 4038 4040 4042 4045 4048 4050 4053 4056 4059 4062 4065 4068 4071 4074 4077 4080 4083 4086 4089 4092 4095 4098 4101 4104 4107 4110 4113 4115 4118 4120 4123 4126 4129 4132 4135 4138 4141 4144 4147 4150 4153 4156 4159 4162 4165 4168 4171 4174 4177 4180 4183 4186 4189 4192 4195 4198 4201 4204 4207 4210 4213 4216 4219 4222 4225 4228 4231 4234 4237 4240 4243 4246 4249 4252 4255 4257 4260 4262 4265 4267 4270 4273 4275 4278 4281 4284 4287 4290 4293 4296 4299 4302 4305 4308 4311 4314 4317 4320 4323 4326 4329 4332 4335 4338 4341 4344 4347 4350 4353 4356 4358 4361 4364 4367 4370 4373 4376 4379 4382 4385 4388 4391 4394 4397 4400 4403 4406 4409 4412 4415 4418 4421 4424 4427 4430 4433 4436 4439 4442 4445 4448 4451 4454 4457 4460 4463 4466 4469 4472 4475 4478 4481 4484 4487 4490 4493 4496 4499 4502 4505 4507 4510 4513 4516 4519 4521 4524 4527 4530 4533 4536 4539 4542 4545 4547 4550 4553 4556 4559 4562 4564 4566 4568 4571 4574 4577 4580 4582 4584 4587 4590 4592 4595 4598 4601 4604 4607 4610 4613 4616 4619 4622 4625 4628 4631 4634 4636 4638 4641 4643 4646 4649 4652 4655 4658 4661 4664 4667 4670 4673 4676 4679 4682 4685 4688 4691 4694 4697 4699 4702 4705 4708 4711 4714 4717 4719 4722 4725 4728 4731 4734 4737 4740 4743 4746 4749 4752 4755 4758 4761 4764 4767 4770 4773 4775 4778 4781 4784 4787 4790 4793 4796 4799 4802 4804 4807 4810 4812 4815 4818 4821 4824 4827 4830 4833 4836 4839 4842 4845 4848 4851 4854 4857 4860 4862 4865 4867 4870 4873 4876 4879 4881 4884 4886 4889 4892 4894 4896 4899 4902 4904 4907 4910 4913 4915 4918 4921 4924 4927 4930 4933 4935 4938 4941 4944 4946 4949 4952 4955 4958 4960 4963 4966 4969 4972 4975 4978 4981 4983 4986 4989 4992 4995 4998 5000 5003 5006 5008 5011 5014 5017 5020 5023 5026 5029 5031 5034 5037 5040 5042 5044 5047 5050 5053 5055 5058 5061 5064 5067 5070 5072 5074 5076 5079 5082 5085 5088 5091 5094 5097 5100 5103 5105 5107 5110 5112 5115 5118 5121 5124 5127 5129 5132 5135 5137 5140 5142 5145 5148 5151 5153 5156 5159 5161 5164 5167 5170 5173 5176 5179 5182 5184 5187 5190 5192 5194 5197 5200 5202 5205 5207 5210 5213 5215 5218 5221 5223 5226 5228 5231 5234 5237 5239 5242 5245 5247 5250 5252 5255 5258 5260 5263 5265 5268 5271 5274 5277 5279 5281 5284 5287 5290 5293 5296 5299 5302 5305 5308 5310 5313 5316 5319 5322 5325 5328 5331 5334 5337 5340 5343 5346 5349 5352 5355 5358 5361 5364 5366 5368 5371 5374 5377 5379 5382 5385 5388 5391 5393 5396 5399 5401 5404 5407 5410 5412 5415 5418 5420 5423 5426 5429 5432 5434 5437 5440 5443 5446 5449 5451 5454 5457 5460 5462 5464 5467 5470 5472 5475 5478 5481 5484 5487 5489 5491 5494 5497 5500 5503 5505 5508 5511 5514 5517 5519 5522 5525 5528 5531 5534 5537 5540 5543 5546 5549 5552 5555 5558 5561 5564 5567 5570 5573 5576 5579 5582 5585 5588 5591 5594 5597 5600 5603 5605 5608 5611 5614 5617 5620 5623 5626 5629 5632 5635 5638 5640 5643 5646 5649 5652 5654 5657 5660 5663 5665 5668 5671 5673 5676 5679 5682 5685 5688 5690 5693 5696 5699 5702 5705 5708 5711 5714 5717 5720 5723 5726 5729 5732 5735 5738 5741 5744 5747 5750 5752 5755 5758 5761 5764 5767 5769 5772 5775 5778 5781 5784 5787 5790 5792 5795 5798 5801 5804 5807 5810 5813 5816 5819 5822 5825 5828 5831 5833 5836 5839 5842 5845 5848 5850 5852 5855 5858 5861 5864 5866 5869 5871 5874 5877 5880 5882 5884 5887 5890 5892 5895 5898 5901 5903 5906 5909 5912 5915 5917 5920 5923 5925 5927 5930 5933 5936 5939 5942 5945 5947 5950 5953 5955 5958 5961 5964 5967 5969 5972 5975 5978 5981 5984 5987 5990 5993 5996 5999 6002 6005 6008 6011 6014 6017 6020 6023 6026 6028 6031 6033 6036 6039 6042 6044 6047 6049 6052 6054 6057 6060 6062 6065 6068 6070 6072 6074 6077 6080 6083 6085 6088 6091 6094 6097 6100 6103 6105 6108 6111 6114 6117 6120 6123 6126 6128 6131 6133 6136 6139 6142 6145 6148 6151 6154 6156 6159 6162 6165 6168 6171 6174 6177 6180 6183 6186 6189 6191 6194 6197 6199 6202 6205 6208 6211 6214 6217 6220 6223 6226 6229 6232 6235 6238 6241 6244 6247 6249 6252 6255 6258 6261 6264 6267 6270 6273 6276 6279 6282 6285 6288 6291 6294 6297 6300 6303 6306 6309 6312 6314 6317 6320 6323 6325 6328 6331 6334 6337 6340 6343 6346 6349 6352 6355 6357 6360 6363 6366 6369 6372 6375 6378 6381 6384 6387 6389 6392 6395 6398 6401 6404 6407 6409 6412 6415 6418 6420 6423 6426 6429 6432 6435 6438 6441 6444 6447 6450 6453 6456 6459 6462 6465 6468 6471 6474 6477 6480 6483 6485 6488 6491 6494 6497 6500 6502 6505 6508 6510 6513 6516 6519 6522 6525 6528 6530 6533 6536 6539 6542 6544 6547 6550 6553 6556 6559 6562 6565 6568 6571 6574 6577 6580 6583 6586 6589 6592 6595 6598 6600 6603 6606 6609 6612 6615 6617 6620 6623 6626 6628 6631 6633 6636 6639 6642 6645 6648 6651 6654 6656 6659 6662 6665 6667 6669 6672 6675 6678 6681 6684 6686 6689 6692 6695 6697 6700 6703 6706 6709 6712 6715 6718 6721 6724 6727 6730 6733 6736 6739 6742 6744 6747 6750 6753 6756 6759 6762 6764 6767 6770 6773 6776 6779 6782 6785 6788 6791 6794 6797 6799 6802 6805 6808 6811 6814 6817 6820 6823 6826 6828 6831 6834 6837 6840 6842 6844 6847 6850 6853 6856 6859 6862 6865 6868 6870 6872 6875 6877 6880 6883 6886 6889 6892 6894 6897 6900 6903 6906 6909 6912 6914 6917 6919 6922 6925 6928 6931 6934 6937 6940 6943 6946 6949 6951 6954 6957 6960 6963 6966 6969 6971 6974 6977 6980 6983 6986 6989 6992 6995 6997 7000 7003 7006 7009 7012 7014 7017 7020 7022 7025 7028 7031 7034 7037 7040 7042 7045 7048 7051 7054 7057 7060 7063 7066 7068 7071 7074 7077 7080 7082 7085 7088 7091 7094 7097 7100 7103 7106 7109 7112 7114 7117 7120 7123 7126 7129 7132 7135 7138 7141 7143 7146 7149 7152 7155 7157 7160 7163 7166 7169 7172 7175 7178 7181 7183 7186 7188 7191 7194 7197 7199 7202 7205 7208 7211 7214 7217 7220 7223 7225 7228 7231 7234 7236 7239 7242 7245 7247 7250 7253 7255 7258 7261 7264 7267 7270 7273 7276 7279 7282 7285 7288 7291 7294 7297 7300 7303 7306 7309 7312 7315 7318 7321 7324 7327 7330 7333 7336 7339 7342 7345 7348 7351 7354 7357 7360 7363 7366 7369 7372 7375 7378 7381 7384 7387 7390 7393 7396 7399 7402 7405 7408 7411 7414 7416 7419 7422 7425 7427 7430 7433 7436 7439 7442 7445 7447 7450 7452 7455 7458 7461 7464 7466 7468 7471 7474 7477 7480 7483 7486 7489 7492 7495 7498 7501 7504 7507 7510 7513 7516 7519 7522 7525 7528 7531 7534 7536 7539 7542 7544 7547 7550 7553 7555 7558 7561 7564 7567 7570 7573 7576 7579 7582 7585 7588 7591 7594 7597 7599 7602 7604 7607 7609 7612 7615 7618 7621 7624 7627 7630 7633 7636 7639 7642 7645 7648 7651 7654 7657 7660 7662 7665 7668 7671 7674 7677 7680 7683 7686 7689 7692 7695 7698 7701 7704 7707 7710 7713 7716 7719 7722 7725 7728 7731 7734 7737 7740 7743 7746 7749 7752 7755 7758 7761 7763 7766 7769 7772 7775 7778 7781 7783 7786 7789 7791 7794 7796 7799 7802 7804 7807 7810 7813 7815 7818 7821 7824 7827 7830 7833 7836 7839 7842 7845 7848 7851 7854 7857 7860 7863 7866 7869 7872 7875 7878 7881 7884 7887 7890 7892 7895 7898 7901 7904 7906 7909 7912 7914 7917 7920 7923 7926 7929 7932 7935 7938 7941 7944 7947 7950 7953 7956 7959 7962 7965 7968 7971 7974 7977 7980 7983 7986 7989 7992 7995 7998 8001 8004 8006 8009 8012 8015 8017 8020 8023 8026 8029 8031 8034 8037 8040 8043 8046 8048 8051 8054 8057 8060 8062 8065 8068 8071 8074 8077 8080 8083 8086 8089 8092 8095 8098 8101 8104 8106 8108 8111 8113 8116 8118 8121 8124 8127 8130 8133 8136 8139 8142 8145 8148 8151 8154 8157 8160 8163 8166 8169 8172 8175 8178 8181 8184 8187 8190 8193 8195 8197 8200 8203 8205 8208 8211 8213 8216 8219 8222 8225 8228 8231 8234 8237 8240 8243 8246 8248 8251 8254 8256 8259 8262 8265 8268 8271 8274 8277 8280 8283 8286 8289 8292 8295 8298 8300 8302 8305 8307 8309 8312 8315 8318 8321 8323 8326 8329 8332 8334 8336 8339 8342 8345 8348 8351 8354 8357 8359 8362 8365 8368 8371 8374 8377 8380 8383 8386 8389 8392 8395 8398 8401 8404 8407 8409 8412 8415 8418 8421 8423 8426 8429 8432 8435 8438 8441 8444 8446 8449 8452 8455 8458 8461 8464 8467 8469 8472 8475 8477 8480 8483 8486 8489 8492 8495 8498 8501 8504 8507 8510 8513 8516 8519 8522 8524 8527 8530 8533 8536 8539 8542 8545 8548 8550 8553 8556 8559 8562 8565 8568 8571 8573 8576 8579 8582 8585 8588 8590 8593 8596 8599 8602 8604 8607 8610 8613 8616 8619 8622 8625 8628 8631 8634 8637 8640 8642 8645 8648 8651 8654 8657 8660 8663 8666 8669 8672 8675 8678 8681 8684 8686 8689 8692 8695 8698 8701 8704 8707 8710 8713 8716 8719 8722 8725 8727 8729 8732 8735 8737 8740 8743 8746 8749 8751 8754 8757 8760 8762 8765 8768 8770 8773 8776 8779 8782 8784 8787 8790 8793 8796 8799 8802 8805 8808 8811 8814 8817 8820 8823 8826 8829 8832 8835 8838 8841 8844 8847 8850 8853 8856 8859 8862 8865 8868 8871 8874 8877 8880 8883 8886 8888 8891 8894 8897 8899 8902 8904 8907 8910 8913 8916 8919 8922 8925 8928 8931 8934 8937 8940 8943 8946 8948 8951 8954 8957 8960 8963 8966 8969 8972 8974 8977 8980 8983 8985 8988 8991 8994 8997 9000 9003 9006 9008 9011 9013 9016 9019 9022 9025 9028 9031 9034 9037 9040 9043 9046 9049 9052 9055 9057 9060 9063 9065 9068 9071 9074 9077 9080 9083 9086 9088 9091 9094 9097 9100 9103 9106 9109 9112 9115 9118 9121 9124 9127 9130 9133 9136 9139 9142 9145 9148 9151 9154 9157 9160 9163 9166 9169 9171 9174 9177 9179 9182 9185 9188 9190 9193 9196 9198 9201 9204 9207 9210 9213 9216 9219 9222 9225 9228 9231 9234 9237 9240 9243 9246 9249 9252 9255 9257 9260 9263 9266 9269 9272 9275 9278 9281 9284 9287 9290 9293 9296 9298 9301 9304 9307 9310 9313 9316 9319 9322 9325 9328 9331 9334 9337 9340 9343 9346 9349 9352 9355 9357 9360 9363 9366 9369 9372 9375 9378 9381 9384 9387 9390 9393 9396 9399 9402 9405 9407 9410 9413 9415 9418 9421 9424 9426 9429 9432 9434 9437 9440 9443 9446 9449 9452 9455 9458 9461 9464 9467 9470 9473 9476 9478 9481 9484 9486 9489 9492 9495 9498 9501 9504 9507 9510 9513 9516 9519 9522 9525 9528 9531 9534 9537 9540 9543 9546 9549 9552 9555 9558 9561 9564 9567 9570 9573 9576 9579 9582 9585 9588 9591 9594 9596 9599 9602 9605 9608 9610 9613 9616 9619 9622 9625 9628 9631 9634 9637 9640 9643 9646 9649 9652 9655 9657 9660 9662 9664 9667 9670 9672 9675 9677 9680 9683 9686 9689 9692 9695 9698 9701 9703 9706 9709 9711 9714 9717 9720 9723 9725 9727 9730 9732 9735 9738 9741 9744 9747 9750 9753 9756 9759 9762 9765 9768 9771 9774 9777 9780 9783 9786 9789 9792 9795 9797 9800 9803 9806 9809 9812 9815 9818 9821 9824 9827 9830 9833 9836 9839 9842 9845 9848 9851 9854 9857 9860 9863 9866 9869 9872 9874 9877 9880 9883 9886 9889 9891 9894 9897 9900 9903 9906 9909 9912 9915 9918 9920 9923 9926 9929 9932 9935 9938 9941 9944 9947 9950 9953 9956 9959 9962 9965 9968 9971 9973 9975 9978 9981 9983 9986 9989 9992 9994 9997 10000 10003 10006 10009 10012 10015 10018 10021 10024 10026 10029 10032 10034 10037 10039 10042 10045 10048 10051 10053 10056 10059 10062 10064 10067 10070 10073 10076 10079 10082 10084 10087 10090 10093 10096 10099 10102 10104 10107 10110 10113 10116 10119 10122 10125 10128 10131 10134 10137 10140 10143 10146 10148 10151 10154 10156 10159 10162 10165 10167 10169 10172 10175 10178 10181 10184 10187 10190 10193 10196 10199 10201 10204 10207 10210 10212 10215 10218 10221 10224 10226 10229 10232 10235 10238 10241 10244 10247 10250 10252 10255 10258 10261 10264 10267 10269 10271 10274 10277 10280 10282 10285 10287 10289 10292 10295 10298 10301 10304 10306 10309 10312 10315 10318 10321 10324 10326 10329 10332 10335 10338 10341 10344 10347 10349 10352 10355 10357 10360 10363 10365 10368 10371 10374 10377 10380 10383 10386 10389 10392 10395 10398 10401 10404 10407 10409 10412 10415 10418 10420 10423 10426 10428 10431 10434 10437 10440 10442 10445 10448 10451 10454 10457 10460 10463 10466 10468 10471 10474 10477 10480 10482 10485 10488 10491 10494 10497 10500 10503 10506 10508 10511 10514 10517 10520 10523 10526 10529 10532 10535 10537 10540 10543 10546 10548 10551 10554 10556 10559 10562 10564 10567 10570 10573 10576 10579 10582 10585 10588 10591 10593 10596 10599 10602 10605 10608 10611 10614 10617 10620 10623 10626 10629 10632 10635 10638 10641 10643 10646 10649 10652 10655 10658 10661 10664 10667 10670 10673 10676 10679 10682 10685 10688 10691 10694 10697 10700 10703 10706 10709 10712 10715 10718 10721 10723 10726 10728 10731 10734 10737 10740 10743 10746 10749 10752 10755 10758 10760 10763 10766 10768 10771 10774 10777 10780 10783 10786 10789 10792 10795 10798 10801 10804 10807 10810 10813 10816 10819 10822 10825 10828 10831 10833 10836 10839 10842 10845 10848 10851 10854 10857 10860 10862 10865 10867 10870 10873 10876 10879 10882 10885 10888 10890 10893 10895 10898 10901 10904 10907 10910 10913 10916 10919 10922 10925 10928 10930 10933 10936 10939 10942 10944 10947 10949 10952 10955 10958 10961 10964 10967 10969 10972 10975 10977 10980 10983 10985 10988 10991 10994 10996 10998 11000 11003 11006 11009 11012 11015 11018 11021 11024 11027 11030 11033 11036 11039 11041 11044 11047 11050 11053 11056 11059 11062 11064 11067 11069 11072 11074 11077 11080 11082 11084 11087 11090 11093 11096 11099 11102 11104 11107 11110 11113 11116 11118 11121 11123 11126 11128 11131 11133 11136 11139 11142 11145 11147 11150 11153 11156 11159 11162 11164 11167 11170 11173 11176 11179 11182 11185 11188 11191 11194 11197 11200 11203 11206 11208 11211 11214 11217 11220 11223 11225 11228 11231 11234 11236 11239 11242 11245 11248 11251 11254 11257 11260 11263 11266 11269 11272 11275 11278 11281 11284 11287 11289 11292 11295 11298 11301 11303 11306 11309 11312 11315 11318 11321 11323 11326 11329 11332 11335 11338 11341 11344 11347 11350 11353 11355 11358 11361 11363 11366 11368 11371 11374 11377 11380 11383 11386 11389 11392 11395 11398 11401 11403 11406 11409 11412 11415 11418 11421 11423 11426 11428 11430 11433 11435 11438 11441 11444 11447 11450 11453 11456 11458 11461 11464 11467 11470 11473 11476 11479 11482 11485 11488 11491 11494 11497 11500 11503 11506 11508 11511 11514 11517 11520 11523 11526 11529 11532 11535 11538 11540 11543 11546 11549 11552 11555 11558 11561 11564 11567 11570 11572 11575 11578 11581 11584 11586 11589 11592 11595 11598 11601 11603 11606 11609 11612 11615 11617 11620 11623 11626 11629 11632 11635 11638 11641 11644 11647 11650 11653 11656 11659 11662 11665 11668 11671 11673 11676 11679 11682 11685 11688 11691 11694 11697 11699 11702 11704 11706 11709 11712 11715 11718 11721 11723 11726 11729 11732 11735 11738 11741 11744 11747 11750 11753 11756 11759 11762 11765 11767 11770 11773 11775 11778 11780 11782 11785 11788 11791 11794 11797 11800 11802 11805 11808 11811 11814 11816 11819 11821 11824 11827 11829 11832 11835 11838 11841 11844 11847 11849 11851 11854 11857 11860 11863 11866 11869 11872 11875 11878 11881 11884 11887 11890 11893 11896 11898 11901 11904 11907 11910 11913 11916 11919 11921 11924 11926 11929 11932 11935 11937 11940 11942 11945 11948 11951 11954 11957 11960 11963 11966 11968 11971 11974 11977 11980 11983 11985 11988 11990 11993 11996 11999 12002 12004 12007 12010 12013 12016 12019 12021 12024 12027 12030 12033 12036 12039 12042 12045 12048 12051 12054 12057 12060 12063 12066 12069 12072 12075 12078 12081 12084 12087 12090 12093 12095 12098 12101 12104 12106 12109 12111 12114 12117 12120 12122 12125 12128 12131 12134 12137 12140 12143 12146 12149 12152 12155 12158 12161 12164 12167 12170 12173 12175 12177 12179 12181 12184 12187 12190 12193 12196 12199 12201 12204 12207 12210 12212 12215 12218 12221 12224 12227 12230 12233 12236 12239 12242 12244 12246 12248 12251 12254 12256 12258 12261 12264 12267 12270 12273 12276 12279 12282 12285 12287 12290 12293 12296 12299 12302 12305 12308 12311 12313 12315 12318 12321 12324 12326 12329 12332 12335 12338 12341 12344 12347 12350 12353 12356 12359 12361 12364 12366 12369 12372 12375 12378 12381 12383 12385 12388 12391 12393 12395 12398 12401 12404 12407 12410 12413 12416 12419 12422 12425 12428 12431 12434 12437 12440 12443 12446 12449 12452 12455 12458 12461 12464 12467 12470 12473 12476 12479 12482 12485 12488 12491 12494 12497 12500 12503 12506 12509 12512 12515 12518 12521 12523 12525 12528 12531 12534 12537 12540 12543 12546 12549 12552 12555 12558 12561 12564 12567 12570 12573 12576 12579 12582 12585 12587 12590 12593 12596 12599 12602 12605 12608 12611 12614 12617 12620 12623 12626 12629 12632 12635 12637 12640 12642 12645 12648 12651 12654 12657 12660 12663 12666 12668 12671 12674 12677 12680 12683 12686 12689 12692 12695 12698 12701 12703 12706 12709 12711 12714 12717 12719 12722 12725 12728 12731 12733 12736 12739 12742 12745 12747 12750 12753 12755 12758 12760 12763 12766 12769 12772 12775 12777 12780 12783 12786 12789 12792 12795 12798 12800 12803 12806 12809 12812 12815 12818 12821 12824 12827 12830 12833 12836 12839 12842 12845 12848 12851 12854 12857 12860 12863 12866 12869 12872 12874 12877 12880 12883 12885 12888 12891 12893 12896 12899 12902 12904 12907 12910 12913 12916 12918 12921 12923 12926 12929 12932 12935 12938 12941 12944 12947 12949 12952 12955 12958 12961 12964 12967 12970 12973 12976 12979 12981 12984 12987 12989 12992 12995 12997 13000 13003 13005 13007 13010 13013 13016 13019 13022 13025 13028 13030 13032 13035 13038 13041 13043 13046 13049 13051 13053 13056 13059 13062 13064 13066 13069 13071 13074 13077 13079 13082 13085 13088 13091 13093 13096 13098 13100 13103 13106 13109 13111 13114 13116 13118 13121 13123 13125 13127 13129 13132 13134 13137 13139 13142 13144 13147 13150 13153 13155 13158 13161 13163 13166 13168 13170 13173 13176 13179 13182 13184 13187 13189 13191 13194 13197 13200 13202 13204 13207 13210 13212 13214 13217 13220 13223 13226 13228 13231 13234 13237 13240 13242 13245 13248 13251 13254 13256 13259 13261 13264 13266 13269 13271 13274 13276 13279 13281 13284 13287 13290 13293 13296 13298 13301 13304 13306 13308 13310 13313 13316 13318 13320 13323 13325 13328 13331 13333 13336 13339 13342 13345 13348 13351 13353 13356 13359 13361 13364 13366 13369 13372 13375 13378 13380 13383 13385 13388 13390 13393 13396 13399 13401 13404 13407 13409 13412 13414 13417 13419 13422 13425 13428 13431 13434 13436 13439 13442 13445 13448 13451 13454 13457 13460 13463 13466 13468 13471 13474 13477 13480 13482 13485 13488 13490 13493 13496 13499 13502 13505 13507 13510 13513 13515 13518 13521 13524 13526 13529 13531 13534 13537 13540 13542 13545 13548 13551 13554 13556 13559 13562 13565 13568 13570 13572 13575 13578 13581 13584 13587 13590 13592 13595 13598 13600 13603 13606 13609 13612 13615 13618 13621 13624 13627 13630 13633 13636 13639 13642 13645 13648 13651 13654 13657 13660 13663 13666 13669 13672 13675 13678 13681 13684 13687 13690 13693 13696 13699 13702 13705 13708 13711 13714 13717 13720 13723 13726 13729 13732 13735 13738 13741 13744 13747 13750 13753 13756 13759 13762 13765 13768 13771 13774 13776 13779 13782 13785 13788 13791 13794 13797 13800 13803 13806 13809 13812 13814 13817 13820 13822 13825 13828 13831 13833 13836 13839 13842 13845 13848 13851 13854 13857 13860 13863 13866 13869 13872 13875 13878 13880 13883 13886 13889 13892 13895 13898 13901 13904 13907 13910 13913 13916 13919 13922 13925 13928 13930 13933 13936 13939 13942 13945 13948 13951 13954 13957 13960 13963 13966 13969 13971 13974 13977 13979 13982 13985 13987 13990 13992 13995 13998 14001 14004 14007 14010 14013 14015 14018 14021 14024 14027 14030 14033 14036 14039 14042 14045 14048 14051 14053 14056 14059 14062 14064 14067 14070 14073 14076 14079 14082 14085 14088 14091 14093 14096 14099 14102 14105 14108 14111 14113 14116 14119 14122 14125 14128 14131 14133 14136 14139 14142 14144 14147 14150 14153 14156 14159 14162 14165 14167 14170 14173 14176 14179 14182 14185 14188 14191 14194 14197 14199 14202 14205 14208 14211 14214 14217 14220 14223 14226 14229 14232 14235 14238 14241 14244 14247 14249 14252 14254 14257 14260 14263 14266 14269 14272 14275 14278 14281 14284 14286 14289 14291 14294 14297 14300 14303 14306 14309 14312 14315 14318 14321 14324 14326 14329 14332 14335 14338 14341 14344 14347 14350 14353 14356 14359 14361 14364 14367 14370 14373 14376 14379 14382 14384 14387 14390 14393 14396 14399 14402 14405 14407 14410 14413 14416 14419 14422 14425 14428 14431 14434 14437 14440 14442 14445 14448 14451 14454 14457 14460 14463 14466 14468 14471 14473 14476 14479 14482 14485 14488 14491 14494 14497 14500 14503 14505 14508 14511 14514 14516 14519 14522 14525 14528 14531 14534 14537 14540 14543 14545 14548 14551 14554 14557 14560 14563 14566 14569 14572 14575 14578 14581 14584 14587 14590 14593 14595 14598 14601 14604 14607 14610 14613 14616 14619 14622 14625 14628 14631 14634 14637 14640 14643 14646 14649 14651 14654 14657 14659 14662 14665 14667 14670 14673 14676 14679 14682 14684 14687 14690 14693 14696 14699 14702 14705 14708 14711 14714 14717 14720 14723 14726 14729 14732 14735 14738 14741 14744 14747 14750 14753 14756 14759 14762 14765 14768 14771 14774 14777 14780 14783 14786 14789 14792 14795 14798 14801 14804 14807 14810 14813 14816 14819 14822 14825 14828 14831 14834 14837 14840 14843 14846 14849 14852 14855 14858 14861 14863 14866 14869 14871 14874 14877 14880 14883 14886 14889 14892 14895 14898 14901 14904 14907 14910 14913 14916 14919 14922 14925 14928 14931 14934 14937 14940 14943 14945 14947 14950 14953 14956 14959 14962 14965 14968 14971 14974 14977 14980 14983 14986 14989 14992 14995 14997 14999 15002 15005 15008 15011 15014 15017 15020 15022 15025 15027 15030 15033 15035 15037 15040 15043 15046 15049 15052 15055 15058 15061 15064 15067 15070 15072 15075 15077 15080 15083 15086 15088 15091 15094 15097 15099 15102 15104 15107 15110 15113 15116 15119 15121 15123 15126 15129 15132 15135 15138 15141 15144 15147 15150 15153 15156 15159 15162 15165 15168 15171 15174 15177 15180 15183 15186 15189 15192 15195 15198 15201 15204 15207 15210 15213 15216 15219 15222 15225 15228 15231 15234 15237 15240 15243 15246 15249 15252 15255 15258 15261 15264 15267 15270 15273 15276 15279 15282 15285 15288 15291 15294 15297 15300 15303 15306 15309 15312 15315 15318 15321 15324 15327 15330 15333 15336 15339 15342 15345 15348 15351 15354 15357 15360 15363 15366 15369 15372 15375 15378 15381 15384 15387 15390 15393 15396 15399 15402 15405 15408 15411 15414 15417 15420 15423 15426 15429 15432 15435 15437 15439 15442 15444 15447 15449 15452 15455 15457 15460 15463 15466 15469 15471 15474 15477 15480 15483 15486 15489 15492 15494 15496 15498 15501 15504 15507 15510 15513 15515 15517 15520 15523 15526 15529 15532 15535 15538 15541 15544 15547 15550 15553 15556 15559 15562 15565 15568 15571 15574 15577 15580 15583 15586 15589 15592 15595 15598 15601 15604 15607 15610 15613 15616 15619 15621 15624 15627 15629 15632 15635 15638 15641 15644 15647 15650 15653 15656 15659 15662 15664 15667 15670 15673 15676 15679 15682 15685 15687 15690 15693 15696 15699 15702 15705 15708 15711 15714 15717 15720 15723 15726 15729 15732 15735 15737 15740 15743 15745 15748 15751 15754 15757 15760 15763 15766 15769 15772 15775 15778 15781 15784 15787 15790 15793 15796 15799 15802 15805 15808 15811 15814 15816 15819 15822 15824 15827 15830 15832 15835 15838 15841 15844 15847 15850 15853 15855 15858 15861 15864 15867 15870 15873 15875 15878 15881 15883 15886 15889 15892 15895 15897 15900 15902 15905 15908 15910 15913 15916 15919 15922 15924 15927 15929 15932 15935 15937 15940 15943 15946 15949 15952 15955 15958 15961 15964 15967 15970 15973 15975 15978 15981 15984 15986 15989 15992 15994 15997 16000 16003 16006 16008 16011 16014 16017 16020 16023 16026 16029 16032 16035 16038 16040 16043 16046 16049 16052 16055 16058 16061 16064 16067 16070 16072 16075 16078 16081 16084 16087 16090 16093 16096 16099 16102 16105 16108 16110 16113 16116 16118 16121 16124 16127 16130 16133 16136 16139 16142 16145 16148 16150 16153 16156 16159 16162 16165 16167 16170 16172 16174 16177 16180 16182 16185 16188 16191 16194 16197 16200 16203 16206 16209 16211 16213 16216 16219 16222 16225 16228 16231 16233 16236 16239 16242 16245 16248 16251 16254 16257 16260 16263 16266 16269 16272 16275 16278 16281 16284 16287 16290 16293 16296 16299 16302 16305 16308 16310 16313 16316 16319 16322 16325 16328 16331 16334 16337 16340 16343 16346 16349 16352 16355 16358 16361 16364 16367 16370 16373 16376 16379 16382 16385 16388 16391 16394 16397 16400 16403 16406 16409 16412 16415 16418 16421 16424 16427 16430 16432 16435 16438 16441 16444 16447 16450 16453 16456 16459 16462 16464 16467 16470 16473 16475 16478 16480 16483 16486 16489 16491 16494 16497 16500 16502 16505 16507 16510 16512 16515 16517 16519 16522 16525 16527 16530 16533 16536 16538 16541 16544 16547 16550 16553 16555 16558 16561 16564 16567 16569 16572 16575 16578 16580 16583 16586 16589 16592 16594 16597 16599 16602 16605 16608 16611 16614 16617 16620 16623 16626 16629 16632 16635 16638 16641 16643 16646 16649 16652 16655 16657 16660 16663 16665 16668 16671 16673 16675 16678 16681 16683 16686 16688 16691 16694 16697 16699 16701 16703 16705 16708 16711 16713 16716 16719 16722 16725 16727 16730 16732 16735 16738 16740 16742 16744 16747 16749 16752 16755 16757 16759 16761 16764 16767 16770 16773 16776 16779 16782 16785 16788 16790 16792 16795 16798 16801 16804 16806 16808 16811 16814 16817 16819 16822 16824 16827 16830 16833 16836 16839 16842 16845 16848 16851 16854 16857 16859 16862 16865 16868 16871 16874 16877 16880 16883 16886 16889 16892 16895 16898 16901 16904 16907 16910 16913 16916 16919 16922 16925 16928 16930 16933 16936 16939 16942 16945 16948 16951 16954 16957 16960 16963 16966 16969 16972 16975 16978 16980 16983 16986 16988 16991 16994 16997 17000 17003 17006 17009 17012 17015 17017 17020 17023 17026 17028 17030 17033 17036 17038 17041 17044 17047 17050 17053 17055 17058 17060 17063 17066 17069 17071 17074 17077 17080 17083 17086 17089 17092 17094 17097 17100 17102 17105 17108 17111 17114 17116 17119 17122 17125 17127 17129 17132 17135 17137 17140 17143 17146 17148 17151 17154 17157 17160 17163 17166 17169 17171 17174 17177 17179 17182 17184 17186 17188 17191 17193 17196 17198 17200 17203 17206 17209 17212 17215 17218 17220 17223 17226 17228 17231 17234 17237 17240 17243 17246 17249 17252 17255 17258 17261 17264 17267 17270 17273 17276 17279 17282 17285 17288 17291 17294 17297 17300 17303 17306 17309 17312 17315 17318 17321 17324 17327 17330 17333 17335 17337 17340 17343 17346 17349 17352 17355 17358 17361 17363 17365 17367 17369 17372 17375 17377 17380 17383 17386 17389 17392 17395 17398 17401 17403 17406 17409 17411 17414 17417 17420 17422 17425 17428 17431 17434 17436 17439 17442 17445 17448 17451 17454 17457 17460 17463 17466 17469 17472 17475 17478 17480 17483 17486 17489 17492 17495 17497 17500 17503 17506 17509 17512 17515 17518 17521 17523 17526 17529 17532 17534 17536 17539 17542 17544 17546 17549 17552 17555 17558 17561 17563 17566 17569 17572 17575 17578 17581 17583 17586 17588 17591 17594 17597 17600 17603 17606 17609 17612 17614 17616 17619 17621 17623 17625 17628 17630 17633 17636 17639 17642 17645 17648 17650 17653 17656 17659 17662 17665 17668 17671 17673 17676 17679 17682 17685 17688 17691 17694 17697 17700 17703 17706 17709 17712 17715 17718 17721 17724 17727 17730 17733 17736 17739 17742 17745 17748 17751 17754 17757 17760 17763 17766 17769 17772 17775 17778 17781 17784 17787 17790 17793 17796 17799 17802 17805 17808 17811 17814 17817 17820 17823 17826 17829 17832 17835 17838 17841 17844 17846 17849 17852 17855 17858 17861 17864 17867 17869 17872 17875 17877 17880 17883 17886 17888 17891 17893 17896 17899 17901 17904 17907 17910 17913 17916 17919 17922 17924 17927 17930 17933 17935 17938 17941 17944 17947 17950 17953 17956 17958 17961 17963 17966 17969 17972 17975 17978 17981 17984 17987 17990 17993 17996 17999 18002 18005 18008 18011 18014 18017 18020 18023 18026 18029 18032 18035 18038 18040 18042 18045 18047 18050 18053 18056 18059 18062 18065 18068 18070 18073 18075 18078 18080 18082 18084 18087 18090 18092 18095 18098 18100 18103 18106 18109 18111 18114 18117 18120 18123 18126 18129 18132 18134 18136 18139 18142 18144 18147 18150 18153 18155 18158 18161 18164 18167 18169 18172 18174 18177 18180 18183 18186 18189 18192 18194 18197 18199 18202 18205 18208 18211 18214 18216 18219 18222 18224 18227 18230 18233 18236 18239 18242 18245 18248 18251 18254 18257 18260 18263 18266 18269 18272 18274 18277 18280 18282 18284 18287 18289 18292 18295 18298 18301 18304 18307 18310 18313 18315 18318 18321 18324 18327 18330 18333 18336 18339 18342 18345 18348 18351 18354 18357 18360 18363 18365 18368 18371 18374 18376 18379 18382 18384 18387 18390 18393 18396 18399 18402 18404 18407 18410 18413 18416 18419 18422 18425 18428 18431 18434 18437 18440 18443 18446 18449 18452 18455 18458 18461 18463 18465 18468 18471 18474 18477 18480 18483 18486 18488 18491 18494 18497 18499 18502 18505 18507 18510 18512 18515 18518 18520 18523 18525 18527 18530 18532 18535 18537 18540 18542 18545 18548 18551 18554 18557 18560 18563 18566 18569 18572 18575 18578 18581 18584 18587 18589 18591 18594 18597 18600 18603 18606 18609 18612 18614 18617 18620 18623 18626 18629 18632 18635 18638 18641 18644 18647 18650 18653 18656 18659 18661 18664 18666 18669 18672 18675 18678 18681 18684 18686 18689 18692 18695 18697 18700 18703 18706 18708 18711 18714 18717 18720 18723 18726 18729 18732 18735 18738 18741 18744 18747 18750 18753 18756 18759 18762 18765 18768 18771 18773 18776 18779 18782 18785 18787 18790 18793 18796 18799 18802 18804 18807 18810 18813 18815 18818 18821 18824 18827 18830 18833 18836 18839 18842 18845 18848 18851 18853 18856 18859 18862 18865 18867 18870 18873 18876 18879 18882 18885 18888 18891 18893 18896 18899 18902 18905 18908 18911 18914 18916 18919 18922 18925 18928 18930 18933 18936 18939 18942 18945 18948 18951 18954 18956 18959 18962 18965 18968 18971 18974 18977 18980 18983 18985 18988 18991 18994 18997 19000 19003 19006 19009 19012 19015 19018 19021 19024 19027 19030 19033 19036 19039 19042 19045 19048 19051 19054 19057 19060 19063 19066 19069 19071 19074 19077 19080 19083 19086 19089 19092 19094 19097 19100 19103 19106 19109 19112 19115 19118 19121 19124 19127 19130 19133 19136 19139 19142 19145 19148 19151 19154 19157 19160 19163 19166 19169 19172 19175 19178 19181 19183 19186 19189 19192 19195 19198 19201 19204 19207 19210 19213 19216 19219 19222 19225 19228 19231 19234 19237 19240 19243 19246 19249 19252 19255 19258 19261 19264 19267 19270 19273 19276 19279 19281 19284 19287 19289 19292 19295 19298 19301 19303 19306 19309 19311 19314 19317 19320 19323 19325 19328 19331 19334 19336 19339 19342 19345 19347 19350 19353 19356 19359 19362 19365 19368 19371 19374 19377 19379 19382 19385 19387 19390 19393 19396 19399 19402 19405 19407 19410 19413 19416 19419 19422 19424 19427 19430 19433 19436 19438 19441 19444 19447 19450 19453 19456 19459 19462 19465 19468 19470 19473 19476 19479 19482 19485 19488 19491 19494 19497 19499 19502 19505 19508 19511 19514 19517 19520 19523 19526 19529 19532 19535 19538 19540 19543 19546 19549 19552 19555 19558 19561 19563 19566 19569 19572 19575 19578 19580 19583 19586 19589 19592 19595 19598 19601 19604 19607 19610 19613 19616 19619 19622 19624 19627 19630 19633 19636 19639 19642 19645 19648 19650 19653 19656 19659 19662 19665 19668 19671 19674 19677 19680 19683 19686 19689 19692 19695 19698 19701 19704 19707 19710 19713 19716 19719 19722 19725 19728 19731 19734 19737 19740 19743 19746 19749 19751 19754 19757 19760 19763 19765 19767 19770 19773 19775 19778 19781 19783 19786 19789 19791 19794 19797 19800 19803 19806 19809 19812 19815 19818 19821 19824 19827 19830 19833 19836 19839 19842 19845 19848 19850 19853 19856 19859 19862 19864 19867 19870 19873 19876 19879 19882 19885 19888 19891 19894 19897 19900 19903 19906 19909 19912 19915 19918 19921 19924 19927 19930 19933 19936 19939 19942 19945 19948 19951 19954 19957 19960 19963 19966 19969 19972 19975 19978 19981 19984 19987 19990 19993 19996 19999 20002 20005 20008 20011 20014 20017 20020 20023 20026 20029 20032 20035 20038 20041 20044 20047 20050 20053 20056 20059 20062 20065 20068 20071 20074 20077 20079 20082 20085 20088 20091 20093 20096 20098 20101 20104 20106 20109 20112 20115 20118 20120 20123 20126 20128 20131 20134 20137 20140 20143 20146 20149 20152 20155 20158 20161 20164 20167 20170 20173 20176 20179 20182 20185 20188 20191 20194 20197 20200 20203 20206 20209 20212 20215 20218 20221 20224 20227 20230 20233 20236 20239 20242 20245 20248 20251 20254 20257 20260 20263 20266 20269 20272 20275 20278 20281 20284 20287 20290 20293 20296 20299 20302 20305 20308 20310 20313 20316 20319 20322 20325 20328 20331 20334 20337 20339 20342 20345 20348 20351 20354 20357 20360 20362 20365 20368 20371 20374 20377 20380 20383 20386 20389 20392 20395 20398 20401 20404 20407 20410 20413 20416 20419 20421 20423 20426 20429 20431 20434 20436 20439 20442 20445 20448 20451 20454 20457 20460 20463 20466 20469 20472 20475 20478 20481 20484 20487 20490 20493 20496 20499 20502 20505 20508 20511 20514 20517 20520 20523 20526 20529 20532 20535 20538 20541 20544 20547 20550 20553 20556 20559 20562 20565 20568 20571 20574 20577 20580 20583 20586 20589 20592 20595 20598 20601 20603 20605 20608 20611 20614 20617 20620 20623 20626 20629 20632 20635 20638 20641 20644 20647 20650 20653 20656 20659 20662 20665 20667 20670 20673 20676 20679 20682 20685 20688 20691 20694 20697 20699 20702 20705 20708 20710 20713 20716 20719 20722 20725 20728 20730 20733 20736 20739 20742 20745 20748 20751 20754 20757 20760 20763 20766 20769 20771 20774 20777 20780 20783 20786 20789 20791 20793 20796 20798 20801 20804 20806 20809 20812 20815 20817 20820 20823 20826 20828 20831 20834 20837 20840 20843 20845 20848 20850 20853 20856 20859 20862 20864 20867 20870 20873 20876 20878 20881 20883 20886 20889 20891 20893 20896 20899 20902 20905 20908 20910 20913 20916 20919 20922 20925 20927 20929 20931 20934 20936 20939 20941 20944 20947 20950 20953 20956 20958 20961 20964 20967 20970 20973 20976 20979 20982 20984 20986 20989 20992 20994 20997 21000 21003 21006 21008 21011 21014 21016 21019 21022 21024 21027 21030 21033 21036 21039 21042 21045 21048 21051 21053 21056 21059 21062 21065 21068 21071 21074 21077 21079 21082 21085 21088 21091 21094 21097 21100 21103 21106 21108 21110 21113 21116 21119 21122 21125 21128 21131 21134 21137 21140 21143 21146 21149 21152 21155 21158 21161 21164 21167 21170 21173 21176 21179 21182 21185 21188 21191 21194 21197 21200 21203 21206 21209 21212 21215 21217 21220 21223 21226 21229 21231 21234 21237 21240 21243 21246 21249 21252 21255 21258 21261 21264 21267 21270 21273 21276 21279 21281 21283 21286 21289 21292 21295 21298 21301 21304 21307 21310 21312 21315 21318 21321 21324 21326 21329 21332 21334 21337 21340 21343 21346 21349 21352 21355 21358 21361 21364 21367 21370 21373 21375 21378 21381 21384 21387 21390 21393 21396 21399 21402 21405 21408 21411 21414 21417 21420 21423 21426 21429 21432 21435 21438 21441 21444 21447 21450 21452 21455 21458 21461 21464 21467 21469 21472 21475 21478 21480 21483 21486 21489 21491 21493 21496 21499 21502 21505 21508 21511 21514 21517 21520 21523 21526 21529 21532 21535 21537 21540 21543 21546 21548 21551 21554 21557 21560 21562 21564 21567 21570 21573 21576 21579 21582 21585 21588 21591 21594 21597 21600 21603 21606 21609 21612 21615 21618 21621 21624 21627 21630 21633 21635 21638 21641 21644 21647 21650 21653 21656 21659 21662 21664 21667 21670 21673 21676 21678 21681 21683 21686 21689 21692 21695 21697 21700 21703 21706 21709 21712 21715 21718 21721 21724 21727 21730 21733 21736 21739 21742 21744 21747 21750 21752 21755 21758 21761 21764 21767 21770 21773 21776 21779 21782 21784 21786 21789 21792 21795 21798 21800 21803 21806 21809 21811 21814 21817 21820 21823 21825 21827 21830 21832 21835 21837 21840 21842 21845 21848 21850 21853 21856 21858 21861 21864 21866 21869 21872 21875 21877 21880 21883 21885 21888 21890 21893 21895 21898 21901 21903 21906 21909 21912 21915 21918 21921 21924 21927 21930 21933 21936 21939 21942 21944 21947 21950 21953 21956 21959 21962 21965 21968 21971 21974 21977 21980 21983 21986 21989 21992 21994 21996 21999 22002 22005 22008 22011 22013 22016 22019 22022 22025 22027 22030 22033 22035 22038 22041 22044 22047 22049 22052 22055 22058 22061 22064 22067 22070 22073 22076 22079 22082 22085 22088 22091 22094 22097 22100 22103 22106 22109 22112 22115 22118 22121 22124 22127 22130 22133 22136 22139 22142 22145 22148 22151 22154 22157 22160 22163 22165 22168 22171 22174 22177 22180 22183 22186 22189 22192 22195 22198 22201 22204 22206 22209 22211 22214 22217 22220 22223 22225 22228 22231 22234 22237 22240 22243 22246 22249 22252 22255 22258 22261 22264 22267 22270 22273 22276 22279 22281 22284 22286 22289 22292 22294 22297 22300 22303 22305 22308 22311 22314 22317 22320 22323 22326 22329 22332 22335 22338 22341 22344 22347 22350 22353 22356 22359 22362 22365 22368 22371 22374 22377 22380 22383 22386 22388 22391 22394 22396 22399 22402 22405 22408 22411 22414 22417 22420 22423 22426 22429 22432 22435 22438 22441 22444 22447 22450 22453 22456 22459 22462 22465 22468 22471 22474 22477 22480 22483 22486 22489 22492 22495 22498 22501 22503 22506 22508 22511 22514 22517 22520 22523 22526 22529 22532 22535 22538 22541 22544 22547 22550 22553 22556 22559 22561 22563 22566 22569 22572 22575 22578 22580 22583 22586 22589 22592 22594 22597 22600 22603 22606 22608 22611 22614 22617 22620 22623 22626 22629 22632 22635 22638 22641 22644 22647 22650 22653 22656 22659 22662 22664 22667 22670 22673 22676 22679 22682 22684 22687 22690 22692 22695 22698 22701 22704 22707 22710 22713 22716 22719 22722 22725 22728 22730 22733 22736 22738 22741 22744 22747 22750 22753 22756 22759 22762 22764 22767 22770 22773 22776 22779 22782 22784 22787 22790 22792 22795 22798 22801 22804 22807 22810 22813 22816 22819 22822 22825 22828 22831 22834 22837 22840 22843 22846 22849 22852 22855 22858 22861 22864 22867 22870 22873 22876 22879 22882 22885 22888 22891 22894 22897 22900 22902 22905 22908 22911 22913 22916 22919 22921 22924 22927 22930 22933 22936 22939 22941 22944 22947 22950 22953 22956 22958 22961 22964 22967 22970 22973 22976 22978 22981 22984 22987 22990 22992 22995 22997 23000 23003 23005 23008 23011 23014 23016 23019 23022 23025 23028 23031 23034 23037 23040 23043 23046 23049 23052 23055 23057 23060 23063 23066 23069 23072 23075 23078 23081 23084 23087 23090 23093 23096 23099 23102 23105 23108 23111 23114 23117 23120 23123 23126 23129 23131 23134 23136 23139 23141 23144 23146 23149 23152 23155 23158 23160 23163 23166 23169 23172 23174 23177 23180 23183 23186 23189 23192 23195 23198 23201 23204 23207 23210 23213 23216 23218 23221 23224 23227 23229 23232 23235 23238 23240 23243 23246 23248 23251 23254 23257 23259 23262 23265 23268 23271 23273 23276 23279 23282 23285 23287 23290 23293 23296 23299 23302 23305 23308 23311 23314 23317 23319 23322 23325 23328 23331 23334 23336 23339 23341 23344 23347 23350 23353 23356 23358 23360 23363 23366 23368 23371 23373 23376 23379 23381 23384 23387 23390 23393 23396 23399 23402 23405 23408 23411 23414 23417 23420 23422 23425 23428 23431 23434 23437 23439 23442 23445 23448 23451 23454 23457 23460 23463 23466 23469 23471 23474 23476 23479 23482 23484 23487 23490 23492 23495 23497 23500 23502 23505 23508 23511 23514 23517 23519 23521 23524 23527 23530 23533 23536 23539 23542 23545 23548 23551 23554 23556 23559 23562 23565 23568 23571 23573 23576 23579 23582 23584 23587 23589 23592 23595 23598 23601 23604 23607 23610 23613 23616 23619 23622 23625 23628 23631 23634 23636 23639 23642 23645 23648 23650 23653 23656 23659 23662 23665 23668 23671 23674 23677 23680 23683 23686 23689 23692 23695 23698 23701 23704 23707 23710 23713 23716 23719 23721 23724 23727 23729 23732 23735 23738 23741 23744 23747 23750 23752 23755 23758 23760 23763 23765 23768 23771 23774 23777 23780 23783 23786 23789 23792 23794 23797 23800 23802 23805 23808 23811 23813 23816 23819 23822 23825 23828 23831 23834 23836 23839 23842 23845 23848 23850 23852 23855 23858 23861 23864 23867 23870 23873 23876 23879 23881 23884 23887 23890 23893 23896 23899 23902 23905 23908 23911 23914 23917 23920 23923 23926 23929 23931 23934 23936 23939 23942 23945 23947 23950 23953 23956 23959 23962 23965 23968 23971 23974 23977 23980 23983 23986 23988 23991 23994 23997 24000 24003 24005 24008 24011 24014 24016 24018 24021 24024 24027 24029 24032 24035 24037 24040 24043 24046 24049 24051 24053 24056 24059 24062 24064 24067 24070 24072 24075 24078 24081 24084 24086 24089 24091 24094 24097 24100 24102 24105 24108 24111 24114 24117 24120 24123 24126 24129 24132 24135 24138 24141 24144 24147 24150 24153 24156 24159 24162 24165 24167 24170 24173 24176 24179 24182 24185 24188 24191 24194 24196 24199 24202 24205 24207 24210 24212 24215 24218 24221 24224 24227 24230 24233 24236 24239 24242 24245 24247 24250 24253 24256 24259 24262 24264 24267 24270 24273 24276 24279 24281 24284 24287 24290 24293 24296 24299 24302 24305 24308 24311 24314 24317 24320 24323 24326 24329 24331 24334 24337 24340 24343 24346 24349 24352 24355 24358 24360 24363 24366 24369 24372 24375 24378 24381 24384 24387 24390 24393 24396 24399 24402 24405 24407 24410 24413 24416 24419 24422 24425 24428 24431 24434 24437 24440 24443 24446 24449 24452 24455 24458 24461 24464 24467 24470 24473 24476 24479 24482 24485 24488 24491 24494 24496 24499 24502 24505 24508 24510 24513 24515 24517 24520 24523 24526 24529 24532 24535 24537 24540 24542 24545 24548 24551 24553 24556 24559 24561 24564 24567 24570 24573 24576 24579 24581 24584 24587 24590 24593 24596 24599 24602 24604 24607 24610 24613 24616 24618 24621 24624 24627 24630 24633 24636 24638 24641 24644 24647 24650 24653 24656 24659 24662 24665 24668 24671 24674 24676 24679 24681 24684 24687 24690 24693 24696 24699 24702 24704 24706 24709 24712 24715 24718 24721 24724 24727 24730 24732 24735 24738 24741 24743 24746 24749 24751 24754 24757 24760 24763 24766 24769 24772 24775 24778 24781 24784 24787 24790 24793 24796 24799 24802 24805 24808 24811 24814 24817 24820 24823 24826 24828 24831 24834 24836 24839 24842 24845 24848 24851 24853 24856 24859 24861 24864 24866 24869 24872 24875 24877 24880 24883 24886 24889 24891 24894 24897 24899 24901 24904 24907 24910 24913 24916 24918 24921 24924 24926 24929 24932 24935 24938 24941 24943 24946 24949 24952 24955 24958 24961 24964 24967 24970 24972 24975 24978 24981 24984 24986 24989 24992 24995 24998 25001 25004 25006 25009 25011 25014 25017 25020 25022 25025 25027 25030 25033 25035 25038 25040 25043 25046 25049 25051 25054 25057 25060 25063 25066 25069 25072 25075 25078 25081 25084 25087 25090 25092 25095 25098 25101 25104 25106 25109 25112 25115 25118 25121 25124 25126 25129 25132 25135 25138 25141 25144 25147 25149 25152 25155 25158 25161 25164 25167 25169 25172 25175 25178 25181 25184 25187 25190 25192 25195 25198 25200 25203 25206 25209 25212 25215 25218 25221 25224 25227 25229 25231 25234 25237 25240 25243 25246 25249 25252 25255 25258 25261 25264 25267 25269 25272 25275 25278 25281 25284 25287 25290 25292 25295 25298 25301 25303 25306 25308 25311 25314 25316 25319 25322 25325 25328 25331 25333 25336 25339 25342 25344 25347 25350 25353 25356 25358 25361 25364 25367 25369 25372 25375 25378 25381 25384 25387 25390 25392 25395 25398 25400 25403 25406 25409 25411 25414 25417 25420 25422 25425 25428 25431 25434 25436 25439 25442 25445 25447 25450 25453 25456 25459 25462 25465 25468 25471 25474 25476 25479 25482 25485 25488 25491 25494 25497 25500 25503 25505 25508 25511 25514 25517 25519 25522 25525 25527 25530 25533 25536 25539 25542 25545 25548 25551 25554 25557 25560 25563 25566 25569 25572 25575 25578 25581 25584 25587 25590 25593 25596 25599 25602 25605 25607 25610 25613 25616 25619 25622 25625 25628 25631 25634 25637 25640 25642 25645 25648 25651 25653 25656 25659 25662 25665 25668 25671 25673 25676 25679 25682 25685 25688 25691 25694 25697 25700 25703 25706 25709 25712 25715 25718 25721 25724 25727 25730 25733 25736 25739 25742 25745 25748 25751 25753 25756 25758 25761 25764 25766 25768 25771 25774 25777 25780 25783 25786 25789 25792 25795 25798 25801 25804 25807 25810 25813 25816 25819 25821 25824 25827 25830 25833 25836 25839 25842 25845 25848 25851 25854 25857 25860 25863 25866 25869 25872 25875 25878 25881 25884 25887 25890 25893 25896 25899 25902 25905 25908 25911 25914 25917 25920 25923 25926 25929 25932 25935 25938 25941 25944 25947 25950 25953 25956 25959 25962 25965 25968 25971 25974 25977 25980 25983 25986 25989 25992 25995 25998 26001 26004 26006 26009 26012 26014 26017 26020 26023 26026 26028 26031 26034 26037 26040 26043 26046 26049 26052 26055 26058 26060 26063 26065 26068 26071 26074 26076 26079 26082 26085 26087 26090 26092 26095 26098 26101 26103 26106 26108 26111 26113 26116 26119 26122 26124 26127 26130 26133 26136 26138 26141 26143 26146 26149 26152 26155 26158 26160 26163 26165 26167 26170 26173 26176 26179 26182 26185 26187 26190 26193 26196 26198 26201 26204 26207 26210 26213 26216 26219 26222 26225 26228 26231 26234 26237 26240 26243 26246 26249 26252 26255 26257 26260 26263 26266 26268 26270 26273 26276 26279 26282 26285 26287 26290 26293 26296 26299 26302 26305 26308 26311 26314 26317 26320 26323 26326 26329 26331 26334 26337 26339 26342 26344 26347 26350 26353 26355 26358 26360 26363 26366 26368 26371 26374 26377 26380 26383 26386 26389 26392 26395 26398 26401 26403 26406 26409 26412 26415 26418 26421 26424 26427 26430 26433 26435 26437 26440 26443 26446 26449 26452 26455 26458 26460 26463 26466 26469 26472 26475 26478 26481 26484 26487 26490 26493 26496 26499 26502 26504 26507 26510 26513 26516 26519 26522 26525 26528 26531 26534 26536 26539 26542 26545 26547 26550 26552 26554 26557 26560 26563 26566 26569 26572 26575 26578 26580 26583 26586 26589 26592 26595 26598 26601 26604 26607 26609 26612 26614 26617 26619 26622 26625 26628 26631 26634 26637 26640 26643 26645 26648 26650 26653 26656 26659 26662 26665 26668 26670 26673 26676 26678 26681 26683 26686 26689 26692 26695 26698 26701 26704 26707 26710 26713 26716 26719 26722 26725 26727 26730 26733 26736 26739 26742 26745 26748 26751 26754 26757 26759 26762 26765 26768 26771 26774 26777 26779 26782 26785 26788 26791 26794 26797 26800 26803 26806 26809 26812 26815 26818 26821 26824 26827 26830 26833 26836 26839 26842 26845 26848 26851 26854 26856 26859 26862 26865 26868 26871 26873 26876 26879 26882 26885 26888 26891 26894 26897 26900 26903 26906 26908 26911 26914 26917 26920 26922 26925 26928 26931 26934 26937 26939 26942 26945 26948 26951 26954 26956 26959 26962 26964 26967 26970 26973 26976 26979 26982 26985 26988 26991 26994 26997 27000 27003 27006 27009 27012 27015 27018 27021 27024 27027 27030 27033 27036 27039 27042 27044 27047 27050 27052 27055 27058 27061 27064 27067 27070 27073 27076 27079 27082 27085 27088 27091 27094 27097 27099 27102 27105 27108 27111 27114 27117 27120 27123 27126 27128 27131 27134 27137 27140 27143 27146 27149 27151 27154 27157 27160 27163 27166 27168 27171 27174 27177 27180 27183 27186 27188 27191 27194 27197 27200 27202 27205 27208 27211 27214 27217 27220 27223 27225 27228 27231 27233 27236 27239 27241 27244 27247 27250 27253 27255 27258 27261 27264 27267 27270 27273 27276 27279 27281 27284 27287 27289 27292 27295 27298 27301 27304 27307 27310 27313 27316 27318 27321 27324 27327 27330 27333 27335 27338 27341 27344 27347 27349 27352 27355 27358 27360 27363 27366 27369 27372 27375 27378 27381 27384 27387 27390 27393 27395 27397 27400 27403 27406 27409 27412 27415 27418 27421 27424 27427 27430 27432 27435 27438 27441 27444 27447 27449 27452 27454 27456 27459 27461 27463 27466 27469 27471 27474 27477 27480 27483 27486 27489 27491 27494 27496 27498 27501 27504 27507 27510 27513 27515 27518 27521 27524 27527 27530 27533 27536 27539 27541 27544 27547 27550 27553 27555 27558 27561 27564 27567 27570 27572 27575 27578 27580 27583 27586 27589 27592 27595 27598 27601 27603 27606 27608 27611 27614 27617 27620 27623 27626 27629 27631 27633 27636 27639 27642 27645 27648 27651 27654 27656 27659 27662 27665 27668 27671 27674 27676 27679 27682 27685 27688 27691 27694 27697 27700 27703 27706 27709 27712 27715 27718 27720 27723 27726 27728 27731 27734 27737 27740 27742 27745 27748 27751 27754 27756 27759 27762 27765 27768 27771 27774 27776 27779 27782 27785 27788 27791 27794 27797 27799 27802 27805 27808 27810 27813 27816 27819 27822 27824 27827 27830 27832 27835 27838 27841 27844 27847 27850 27853 27855 27858 27861 27864 27867 27869 27872 27874 27877 27880 27883 27886 27889 27892 27895 27898 27901 27904 27907 27910 27913 27916 27918 27921 27924 27927 27930 27933 27936 27939 27941 27944 27947 27949 27952 27955 27957 27960 27963 27966 27969 27972 27975 27978 27981 27984 27986 27989 27992 27995 27997 28000 28003 28006 28009 28012 28015 28018 28021 28024 28026 28029 28032 28035 28038 28041 28044 28047 28050 28053 28056 28059 28061 28064 28067 28070 28072 28075 28078 28081 28084 28087 28090 28093 28096 28099 28102 28105 28107 28110 28113 28116 28119 28122 28125 28128 28131 28134 28137 28139 28142 28145 28148 28151 28154 28156 28159 28162 28165 28168 28171 28174 28177 28180 28182 28185 28188 28190 28193 28196 28198 28201 28204 28207 28210 28212 28214 28217 28220 28223 28226 28228 28231 28234 28237 28240 28242 28245 28248 28250 28253 28256 28259 28262 28264 28267 28270 28272 28275 28278 28281 28284 28287 28289 28292 28295 28298 28301 28304 28307 28310 28313 28315 28318 28320 28323 28326 28329 28332 28335 28338 28341 28344 28347 28349 28351 28354 28357 28360 28363 28366 28369 28371 28374 28377 28379 28382 28385 28387 28390 28392 28395 28398 28401 28403 28406 28409 28411 28414 28417 28420 28423 28426 28429 28432 28435 28437 28439 28442 28445 28447 28449 28452 28455 28458 28461 28463 28466 28469 28472 28474 28477 28479 28482 28484 28486 28488 28491 28493 28496 28499 28502 28504 28507 28510 28513 28516 28519 28522 28525 28528 28531 28533 28536 28539 28541 28544 28547 28550 28553 28556 28559 28561 28564 28567 28570 28573 28576 28579 28581 28583 28585 28588 28591 28594 28597 28600 28603 28606 28609 28612 28615 28618 28620 28623 28626 28629 28632 28634 28637 28640 28643 28646 28649 28652 28655 28658 28660 28663 28666 28668 28671 28674 28677 28679 28682 28685 28688 28691 28694 28697 28700 28703 28706 28708 28711 28714 28717 28720 28723 28726 28729 28732 28734 28737 28740 28743 28745 28748 28751 28753 28756 28759 28762 28764 28767 28769 28772 28775 28777 28780 28782 28785 28788 28790 28793 28796 28799 28802 28805 28808 28810 28813 28816 28818 28821 28824 28827 28830 28833 28836 28839 28842 28845 28848 28851 28854 28857 28860 28863 28866 28869 28872 28875 28878 28881 28884 28887 28890 28893 28896 28899 28902 28905 28908 28911 28914 28917 28920 28923 28926 28929 28932 28935 28938 28941 28944 28947 28950 28953 28956 28959 28962 28965 28968 28971 28974 28977 28980 28983 28986 28989 28992 28995 28998 29001 29004 29007 29010 29013 29016 29019 29022 29025 29028 29031 29034 29037 29040 29043 29046 29049 29052 29055 29058 29061 29064 29067 29070 29073 29076 29079 29082 29085 29088 29091 29094 29097 29100 29103 29106 29108 29111 29114 29117 29120 29122 29125 29128 29131 29134 29137 29140 29143 29146 29149 29152 29155 29158 29160 29162 29165 29168 29171 29174 29177 29180 29183 29186 29189 29192 29195 29198 29201 29204 29207 29209 29212 29215 29218 29220 29223 29226 29229 29232 29235 29238 29241 29244 29247 29250 29252 29255 29257 29260 29263 29266 29269 29272 29275 29278 29281 29284 29287 29290 29293 29296 29299 29302 29305 29308 29311 29314 29317 29320 29323 29326 29329 29331 29334 29337 29340 29343 29345 29348 29351 29354 29357 29360 29363 29366 29369 29371 29374 29377 29380 29383 29386 29389 29392 29395 29398 29401 29404 29407 29410 29413 29416 29419 29422 29425 29428 29431 29434 29437 29440 29443 29446 29449 29452 29455 29458 29461 29464 29467 29470 29473 29476 29479 29482 29485 29488 29491 29494 29497 29500 29503 29506 29509 29512 29515 29518 29520 29523 29526 29529 29532 29535 29538 29541 29544 29547 29550 29553 29556 29559 29562 29565 29568 29571 29574 29577 29580 29583 29586 29589 29592 29595 29598 29601 29604 29607 29610 29613 29616 29618 29621 29624 29627 29630 29633 29636 29638 29641 29644 29647 29650 29653 29656 29658 29661 29664 29666 29669 29671 29674 29676 29679 29682 29685 29688 29690 29693 29696 29699 29702 29705 29707 29710 29713 29716 29718 29720 29723 29726 29729 29731 29734 29737 29740 29743 29745 29747 29750 29753 29756 29759 29762 29765 29768 29771 29774 29777 29780 29783 29786 29789 29791 29794 29797 29799 29802 29805 29807 29809 29812 29815 29818 29821 29824 29827 29830 29833 29836 29839 29841 29844 29846 29849 29852 29855 29858 29861 29864 29867 29870 29873 29876 29879 29881 29884 29887 29890 29893 29896 29899 29902 29904 29907 29910 29913 29916 29919 29922 29925 29928 29931 29934 29937 29940 29943 29946 29949 29952 29955 29958 29960 29962 29965 29968 29971 29974 29977 29980 29983 29986 29989 29992 29995 29998 30001 30004 30007 30010 30013 30015 30018 30021 30024 30027 30030 30033 30036 30039 30042 30044 30047 30050 30053 30056 30059 30062 30065 30068 30071 30074 30077 30080 30082 30085 30088 30091 30094 30096 30099 30101 30104 30107 30110 30113 30116 30119 30122 30125 30128 30130 30133 30136 30139 30142 30144 30147 30150 30153 30156 30158 30161 30163 30166 30169 30172 30175 30178 30181 30184 30187 30190 30193 30196 30199 30201 30204 30207 30210 30213 30216 30219 30222 30225 30228 30231 30234 30237 30240 30243 30246 30248 30251 30253 30256 30259 30261 30264 30267 30270 30272 30275 30277 30280 30283 30285 30288 30291 30293 30296 30298 30301 30304 30307 30310 30313 30316 30319 30321 30323 30326 30329 30332 30335 30337 30339 30342 30345 30347 30349 30352 30354 30357 30360 30362 30364 30367 30370 30372 30375 30378 30380 30383 30386 30389 30392 30395 30398 30401 30404 30406 30409 30412 30414 30417 30419 30422 30425 30428 30430 30433 30436 30439 30442 30445 30448 30451 30454 30456 30459 30462 30465 30468 30471 30474 30477 30480 30483 30486 30489 30492 30495 30498 30501 30504 30507 30510 30513 30516 30519 30522 30524 30527 30530 30533 30536 30539 30542 30545 30548 30551 30554 30557 30560 30563 30566 30569 30572 30575 30578 
</DataArray>
<DataArray type="UInt32" Name="types" format="ascii">
5 5 5 5 5 5 3 5 5 5 3 5 5 5 3 5 5 5 5 5 5 3 3 5 5 5 5 3 3 5 3 3 5 3 5 5 5 3 5 5 3 5 5 5 5 5 5 5 3 5 5 5 5 5 5 5 5 3 5 5 3 5 3 5 3 5 3 5 5 5 5 5 5 5 5 5 5 5 5 5 5 5 5 3 5 5 5 5 5 5 5 5 3 5 5 3 3 5 5 5 5 5 5 5 5 5 5 5 5 3 5 5 5 5 5 3 5 5 3 5 5 5 5 5 5 5 5 5 5 5 5 5 5 5 5 5 5 5 3 5 5 5 5 5 3 5 5 5 5 5 5 5 5 5 5 5 5 5 5 5 5 5 5 5 5 5 5 5 5 3 5 3 5 5 5 3 5 5 5 3 5 5 5 3 3 5 5 3 5 5 5 5 3 5 5 5 5 5 3 5 5 5 5 3 5 3 5 5 3 5 5 5 3 5 5 3 5 5 5 5 5 5 5 5 5 5 3 5 5 3 5 5 5 5 5 5 5 3 5 5 5 5 5 5 5 5 5 5 5 5 5 5 5 5 5 5 5 5 5 3 5 3 5 5 5 5 5 3 5 5 5 5 5 5 5 5 3 5 5 5 3 5 5 3 5 5 5 5 3 5 5 3 5 5 5 5 5 3 5 3 5 5 5 5 5 5 5 5 5 5 5 5 5 5 5 5 5 5 3 5 5 5 5 5 3 3 5 5 5 5 5 5 5 5 5 5 3 5 5 5 5 5 5 5 5 5 3 5 5 3 3 5 5 5 3 5 5 3 5 5 5 5 5 5 5 5 5 5 5 5 5 5 5 3 5 5 5 5 5 5 5 5 3 5 5 3 5 5 5 5 3 5 5 5 5 5 5 5 5 5 5 5 5 5 5 3 3 5 5 3 3 5 3 5 3 5 3 5 5 3 5 5 5 5 5 5 5 5 5 3 3 5 5 3 5 5 5 5 5 3 5 5 3 5 5 5 5 3 5 5 5 3 5 5 5 3 5 3 5 5 3 5 5 5 5 5 5 5 5 5 5 5 3 5 5 5 5 5 5 3 5 5 5 3 5 5 5 5 5 5 5 3 5 5 5 5 5 3 5 3 5 5 5 5 5 3 3 5 5 5 3 3 5 3 5 5 5 5 5 5 5 3 5 5 5 5 5 5 5 5 5 5 5 5 5 5 3 5 5 3 5 3 5 5 5 5 5 5 5 5 5 5 5 5 5 5 3 5 5 5 5 5 5 5 5 5 5 5 5 5 5 5 5 3 5 5 5 5 5 5 5 5 5 5 5 3 3 5 5 5 5 5 5 5 5 5 5 5 5 5 5 5 5 3 5 5 5 5 5 5 5 3 5 5 5 5 5 5 5 5 3 5 5 5 3 5 5 5 5 5 5 5 5 5 5 5 5 5 5 5 5 5 5 5 5 5 5 5 5 5 5 5 5 3 5 3 5 5 5 5 5 5 5 5 5 5 5 5 5 3 5 5 5 3 5 5 5 5 5 5 5 5 5 5 5 5 5 3 3 5 5 5 5 5 5 5 3 5 5 5 5 5 5 5 5 5 5 5 3 5 5 5 5 5 5 5 3 5 5 5 5 5 5 5 5 5 5 5 5 5 5 5 5 5 3 5 5 5 5 5 5 5 5 5 5 3 5 5 5 5 5 3 5 5 5 3 5 5 5 5 3 5 5 5 5 5 5 5 3 5 3 5 5 3 5 3 5 5 5 5 5 5 5 5 5 5 5 5 5 5 5 5 5 5 5 5 5 5 5 5 5 5 5 5 5 5 5 5 5 5 5 3 5 3 3 5 5 5 5 5 5 5 5 5 5 5 3 5 5 5 5 5 5 5 3 5 3 5 3 5 5 5 5 5 5 3 5 3 3 5 5 5 5 5 5 5 5 5 5 5 5 5 5 5 5 5 3 5 5 5 5 5 5 5 5 5 5 5 5 5 5 3 5 5 5 5 5 5 5 5 5 5 5 5 5 3 5 5 5 5 5 5 5 5 5 3 5 5 5 5 5 3 3 5 5 5 5 3 3 5 5 5 5 5 5 5 5 5 5 5 3 5 5 5 5 3 5 5 5 5 5 5 3 5 5 3 5 3 5 5 5 3 5 5 5 5 5 5 5 3 5 5 5 5 3 3 5 5 3 5 5 5 3 3 3 3 5 5 3 5 5 5 5 5 5 5 5 3 3 5 5 5 5 5 5 3 5 3 5 5 5 3 5 5 5 5 5 5 5 5 5 5 5 5 5 5 5 5 5 5 5 5 5 5 5 5 5 5 5 5 3 5 5 5 5 5 5 5 5 5 5 5 5 5 5 5 5 5 5 5 5 5 3 5 5 5 5 5 5 5 5 5 3 5 5 5 5 5 5 3 5 5 5 5 5 3 5 5 5 5 5 3 5 5 5 5 5 5 5 5 5 5 3 5 5 5 5 3 3 5 5 3 5 5 5 5 3 5 5 3 5 5 5 5 5 3 3 5 5 5 5 5 5 3 5 5 5 5 5 5 5 3 3 5 5 5 3 5 5 5 3 5 5 3 5 3 5 5 5 3 5 5 3 3 5 5 5 5 5 5 3 5 3 5 3 5 5 5 3 3 5 3 5 5 5 5 5 5 5 5 5 5 5 5 5 5 5 5 3 5 5 5 5 5 5 5 3 5 5 5 5 5 3 5 5 5 3 5 5 5 5 3 5 3 5 3 5 5 5 5 3 5 5 3 5 5 5 5 5 5 5 5 5 5 5 3 5 5 5 5 3 5 5 5 5 3 5 5 5 5 5 5 3 5 5 5 3 5 3 3 5 5 5 5 5 5 5 5 5 5 5 5 5 5 5 5 5 5 5 5 5 5 5 5 5 5 5 5 3 5 5 3 3 5 3 5 5 5 5 3 5 5 3 5 5 5 5 5 5 5 5 5 5 5 5 5 5 5 5 5 5 5 5 5 5 5 5 5 5 5 5 3 5 5 5 5 5 5 5 5 3 5 5 5 5 5 5 5 3 5 3 5 5 5 3 5 5 5 5 5 5 5 3 5 3 5 5 5 5 5 3 5 5 5 5 5 5 5 5 5 5 5 5 5 5 5 5 5 5 5 5 5 5 5 5 5 5 5 5 5 5 5 5 5 5 5 5 5 5 5 3 3 5 5 3 5 5 5 3 5 5 5 3 3 5 5 3 5 5 5 5 5 5 5 5 5 5 5 5 5 5 5 5 5 5 5 5 5 3 5 3 5 5 5 5 5 5 5 5 5 5 5 5 5 5 5 5 5 5 5 5 5 5 5 5 5 5 5 5 5 5 5 5 5 5 5 5 5 5 5 5 5 5 5 5 5 3 5 3 5 3 5 5 3 5 5 5 5 5 5 5 5 5 5 5 5 5 5 5 5 5 5 5 5 5 5 5 5 5 5 5 3 5 5 5 5 5 5 5 5 5 5 5 5 5 5 5 5 5 5 5 5 5 5 5 5 5 5 5 5 5 5 5 5 5 5 5 5 5 5 5 5 5 5 5 5 5 5 5 5 5 3 5 5 5 5 3 5 5 5 5 5 5 5 5 3 5 5 5 5 5 3 3 3 5 5 5 5 3 3 5 5 3 5 5 5 5 5 5 5 5 5 5 5 5 5 5 3 3 5 3 5 5 5 5 5 5 5 5 5 5 5 5 5 5 5 5 5 5 3 5 5 5 5 5 5 3 5 5 5 5 5 5 5 5 5 5 5 5 5 5 5 5 5 5 3 5 5 5 5 5 5 5 5 5 3 5 5 3 5 5 5 5 5 5 5 5 5 5 5 5 5 5 5 5 3 5 3 5 5 5 5 3 5 3 5 5 3 3 5 5 3 5 5 5 3 5 5 5 5 5 5 3 5 5 5 3 5 5 5 5 3 5 5 5 5 5 5 5 3 5 5 5 5 5 3 5 5 3 5 5 5 5 5 5 5 3 5 5 5 3 3 5 5 5 3 5 5 5 5 5 3 3 3 5 5 5 5 5 5 5 5 5 3 3 5 3 5 5 5 5 5 3 5 5 3 5 3 5 5 5 3 5 5 3 5 5 5 5 5 5 5 3 5 5 3 3 5 5 3 5 3 5 5 3 5 5 3 5 3 5 5 5 3 5 5 3 5 3 5 5 3 5 3 5 5 5 5 3 3 5 5 5 5 5 5 5 5 5 3 5 5 5 5 5 5 5 5 5 5 5 5 5 5 5 5 5 5 3 3 5 5 5 3 5 5 5 5 3 5 5 3 5 5 5 3 5 5 3 5 5 5 5 3 5 5 5 5 5 3 5 5 5 3 3 5 5 3 5 5 5 5 5 3 3 5 5 5 5 3 5 5 5 5 3 5 5 5 5 5 5 5 5 5 5 5 5 5 5 5 5 5 5 5 5 5 5 5 5 5 5 5 5 3 5 5 5 5 5 5 5 5 5 5 5 3 5 5 5 5 3 5 5 5 3 5 5 3 5 5 5 5 5 3 5 5 5 5 5 5 5 5 5 5 5 5 5 5 5 5 5 5 5 5 3 5 5 5 5 5 3 5 5 5 5 5 5 5 3 5 5 5 5 5 5 5 5 5 5 5 5 5 3 5 5 5 5 5 3 3 5 5 5 5 3 5 3 5 5 5 3 3 5 5 3 5 5 5 3 5 5 5 5 3 5 5 3 3 5 5 5 5 5 5 3 5 5 3 5 5 5 5 3 5 5 5 5 5 5 5 5 5 5 5 5 5 5 5 5 5 5 5 3 5 3 5 5 5 3 5 3 5 3 5 5 3 5 5 3 3 3 5 5 5 3 5 5 5 5 5 5 3 5 5 5 5 5 5 5 3 5 3 5 5 5 5 5 5 5 3 5 5 5 5 5 5 5 5 5 5 5 3 5 5 3 5 5 5 5 5 5 5 5 5 5 5 5 5 5 5 5 3 5 5 5 5 5 5 5 5 5 5 5 5 5 5 5 5 5 5 5 5 5 3 5 5 5 3 5 5 5 5 5 5 5 5 5 5 3 5 5 5 5 5 5 5 5 5 5 3 5 5 5 5 5 5 3 5 5 5 3 5 5 5 5 5 5 5 5 5 5 5 5 5 5 5 5 5 5 5 5 5 3 5 5 5 5 5 3 5 5 3 5 5 5 5 5 5 3 5 5 5 5 3 5 5 5 5 5 5 5 5 5 5 5 5 5 5 5 5 5 5 3 5 5 5 5 5 3 5 5 5 3 5 3 5 5 5 5 5 5 5 3 5 5 5 3 3 5 5 5 5 5 3 5 5 5 3 5 5 5 5 5 5 5 5 5 5 5 5 5 5 5 3 5 5 5 5 5 5 3 5 5 5 5 5 5 5 5 5 5 5 3 5 5 5 5 5 5 5 5 5 3 5 5 5 5 3 3 5 5 5 5 5 5 5 5 3 3 5 3 5 5 5 5 5 3 5 5 5 5 5 5 3 5 3 5 5 5 5 5 5 5 5 5 5 3 5 5 5 5 5 5 3 5 5 5 5 5 5 5 5 3 5 5 5 5 5 3 5 5 3 5 5 5 5 5 5 3 5 5 5 5 5 5 5 5 3 5 5 5 5 3 5 5 5 5 5 5 5 5 5 5 3 5 5 5 5 5 5 5 5 5 3 5 5 5 5 3 5 5 5 5 5 5 5 5 3 5 3 5 5 5 3 5 5 5 5 5 5 5 5 3 5 5 5 3 5 5 5 3 5 5 3 5 5 5 5 5 5 5 5 5 5 5 5 5 5 5 5 5 5 5 5 5 5 5 5 5 5 5 5 5 5 5 5 5 5 5 5 5 5 5 5 5 5 5 5 5 5 5 5 5 5 5 5 5 3 5 5 5 3 5 5 5 5 5 5 3 5 3 5 5 5 5 3 3 5 5 5 5 5 5 5 5 5 5 5 5 5 5 5 5 5 5 5 5 5 5 3 5 5 3 5 5 5 3 5 5 5 5 5 5 5 5 5 5 5 5 5 5 3 5 3 5 3 5 5 5 5 5 5 5 5 5 5 5 5 5 5 5 5 5 3 5 5 5 5 5 5 5 5 5 5 5 5 5 5 5 5 5 5 5 5 5 5 5 5 5 5 5 5 5 5 5 5 5 3 5 5 5 5 5 5 3 5 5 3 5 3 5 5 3 5 5 5 3 5 5 5 5 5 5 5 5 5 5 5 5 5 5 5 5 5 5 5 5 5 5 5 5 5 3 5 5 5 5 3 5 5 3 5 5 5 5 5 5 5 5 5 5 5 5 5 5 5 5 5 5 5 5 5 5 5 5 5 5 5 5 5 5 3 5 5 5 3 5 5 5 5 3 5 5 5 5 5 3 5 5 5 5 3 5 5 5 5 5 5 5 5 5 5 5 5 5 5 3 3 5 3 5 3 5 5 5 5 5 5 5 5 5 5 5 5 5 5 5 5 5 5 5 5 5 5 5 5 5 3 3 5 5 3 5 5 3 5 5 5 5 5 5 5 5 5 5 5 3 5 5 3 5 5 5 5 5 5 5 5 5 5 5 5 5 5 3 3 5 3 3 5 5 5 5 3 5 5 5 3 3 5 5 5 5 5 5 5 3 5 5 5 5 5 5 5 5 5 5 5 5 5 5 5 5 3 5 5 5 5 3 5 5 5 5 5 5 5 3 5 5 5 5 5 5 5 3 5 5 3 5 5 5 5 5 5 5 5 5 5 5 5 5 5 5 3 5 5 5 5 5 5 5 5 3 5 5 5 5 5 5 5 3 5 5 5 5 5 3 5 5 5 5 3 5 5 5 5 5 5 5 5 5 5 5 5 3 5 5 5 5 5 5 5 5 5 5 5 5 5 5 3 5 5 5 5 5 5 5 5 5 5 5 5 5 3 3 5 5 3 5 5 5 5 3 5 5 5 3 5 5 3 5 5 5 5 3 5 5 5 5 5 5 5 5 5 5 5 5 5 5 5 5 5 5 5 5 5 5 5 5 5 5 5 5 5 5 5 5 5 5 3 5 5 5 3 5 3 5 5 5 5 5 5 5 5 5 5 5 5 5 5 3 5 5 5 5 5 5 5 5 3 5 5 5 3 5 5 5 5 5 5 5 3 5 3 5 5 5 5 5 5 5 5 5 5 5 5 5 5 3 5 5 3 5 5 5 5 5 5 5 3 5 5 5 5 5 5 5 5 5 5 5 5 5 5 5 5 5 5 5 5 5 5 5 5 5 5 5 3 5 5 3 5 5 5 3 5 5 3 5 5 5 5 5 5 5 5 5 5 5 5 5 5 5 5 5 5 5 3 5 5 5 5 5 5 5 5 5 5 5 5 5 3 5 5 5 5 5 5 5 5 5 5 5 5 5 5 5 5 5 5 5 3 5 5 5 5 5 5 5 5 5 5 5 5 5 5 5 5 3 5 5 3 5 5 5 3 5 5 3 5 5 5 5 5 5 5 5 5 5 5 5 5 5 3 5 5 3 5 5 5 5 5 5 5 5 5 5 5 5 5 5 5 5 5 5 5 5 5 5 5 5 5 5 5 5 5 5 5 5 5 5 5 5 3 5 5 5 5 3 5 5 5 5 5 5 5 5 5 5 5 5 5 5 5 3 5 3 3 5 5 3 5 3 5 5 5 5 5 5 5 5 3 5 5 3 5 5 5 5 3 3 5 3 5 5 5 5 5 5 5 5 5 5 5 5 5 5 5 5 5 5 5 5 5 3 5 5 5 5 5 5 5 5 5 5 5 5 5 5 5 5 5 5 5 5 5 5 5 5 5 3 5 5 5 5 5 3 5 5 5 5 5 5 5 5 5 3 5 5 5 5 5 5 5 5 5 5 5 5 5 5 5 5 5 3 3 5 5 3 5 5 5 3 5 5 5 5 5 5 5 5 5 5 3 5 5 3 5 3 5 5 5 5 3 5 5 5 3 5 5 5 5 5 5 3 5 5 5 5 5 5 3 5 5 5 5 5 5 5 5 5 5 5 5 5 5 3 5 5 3 5 5 5 3 3 5 5 5 5 5 5 5 5 5 5 3 5 5 5 3 5 5 5 5 3 5 5 5 5 5 5 5 5 3 5 5 5 5 5 3 3 5 5 5 3 5 3 3 5 5 5 5 5 3 5 5 5 5 5 5 3 5 5 5 5 5 5 5 3 5 5 3 5 5 3 5 5 5 5 5 5 5 5 5 5 5 5 5 5 3 5 5 5 3 5 5 3 5 5 5 5 3 5 5 5 5 5 5 5 5 3 5 5 5 5 3 5 5 5 5 5 5 5 5 3 5 5 5 5 5 5 5 5 5 3 5 5 5 3 5 5 3 5 5 3 5 5 5 5 5 5 5 5 5 3 5 5 5 5 5 5 5 5 5 5 5 5 5 5 5 5 3 5 5 5 5 5 5 5 5 5 5 5 5 5 5 5 5 5 5 5 5 5 5 5 5 5 5 3 5 3 5 5 5 5 5 5 5 5 5 5 3 5 5 3 5 5 5 5 5 5 5 5 5 5 5 5 5 5 5 5 5 5 5 5 5 3 5 5 5 5 5 5 5 5 5 3 5 3 5 5 5 5 5 5 5 3 5 3 5 5 5 5 5 5 5 5 5 5 5 3 5 5 5 5 3 5 3 5 5 5 5 5 5 3 5 5 3 5 5 3 5 5 5 3 3 3 5 5 5 5 5 5 5 5 5 5 5 5 5 3 5 5 5 5 5 5 5 3 5 3 5 3 5 5 3 3 5 5 5 5 5 5 3 5 5 5 5 3 5 3 5 3 5 3 5 5 5 5 3 5 5 5 5 5 3 5 5 5 5 5 5 5 5 5 5 5 5 5 5 3 5 5 5 5 5 3 5 5 5 3 5 5 5 5 5 5 5 5 5 5 5 5 5 5 5 5 5 3 5 5 5 5 3 5 5 5 5 5 5 3 5 5 5 5 5 5 5 5 5 5 3 5 5 3 5 3 5 5 5 5 5 5 5 5 5 5 5 3 5 5 5 5 5 5 3 5 3 3 5 3 5 5 5 5 5 5 5 3 5 5 5 5 5 5 5 5 5 5 5 5 5 5 5 5 3 5 5 5 5 5 5 5 5 5 5 3 5 5 5 5 5 5 5 5 5 5 3 5 5 5 5 3 5 5 5 5 5 3 5 5 5 5 3 5 5 5 5 5 5 5 5 5 5 5 5 5 5 5 5 5 5 3 5 5 5 5 5 5 5 5 3 5 3 3 5 5 5 5 5 3 5 5 5 5 5 5 5 5 5 5 5 5 5 5 3 5 5 3 5 3 3 5 5 5 5 5 5 3 5 5 5 5 3 5 3 5 5 3 5 5 5 5 5 5 3 3 5 5 5 5 5 5 5 5 5 5 5 5 5 5 5 3 5 5 5 5 5 5 5 3 5 3 5 5 5 3 5 3 5 5 5 5 5 5 5 5 3 5 5 5 5 5 3 5 3 5 5 5 5 3 5 5 5 5 5 3 5 5 5 5 5 5 5 5 5 5 5 5 5 5 5 5 5 5 5 5 5 5 5 5 3 5 5 5 3 5 3 5 5 5 3 5 5 5 5 5 5 5 5 5 5 5 5 5 5 5 5 5 3 3 3 3 5 5 5 5 5 5 3 5 5 5 3 5 5 5 5 5 5 5 5 5 5 3 3 3 5 5 3 3 5 5 5 5 5 5 5 5 5 3 5 5 5 5 5 5 5 5 3 3 5 5 5 3 5 5 5 5 5 5 5 5 5 5 5 3 5 3 5 5 5 5 5 3 3 5 5 3 3 5 5 5 5 5 5 5 5 5 5 5 5 5 5 5 5 5 5 5 5 5 5 5 5 5 5 5 5 5 5 5 5 5 5 5 5 5 5 5 5 5 5 3 3 5 5 5 5 5 5 5 5 5 5 5 5 5 5 5 5 5 5 5 5 3 5 5 5 5 5 5 5 5 5 5 5 5 5 5 5 5 3 5 3 5 5 5 5 5 5 5 5 3 5 5 5 5 5 5 5 5 5 5 5 3 5 5 3 5 5 3 5 5 5 5 3 5 5 5 5 3 5 5 3 5 3 5 5 5 5 5 3 5 5 5 5 5 5 5 3 5 5 5 5 5 5 5 5 5 5 5 5 5 5 5 5 5 5 5 5 5 5 5 5 3 5 5 5 3 5 5 3 5 5 5 3 5 5 5 5 3 5 3 5 5 5 5 5 5 5 5 3 5 5 5 5 5 5 5 5 5 5 3 5 5 3 5 5 3 5 5 3 3 5 5 5 5 5 5 5 3 3 5 5 5 3 5 5 3 3 5 5 5 3 3 5 3 5 5 3 5 5 5 5 3 5 3 3 5 5 5 3 5 3 3 5 3 3 3 3 5 3 5 3 5 3 5 5 5 3 5 5 3 5 3 3 5 5 5 5 3 5 3 3 5 5 5 3 3 5 5 3 3 5 5 5 5 3 5 5 5 5 3 5 5 5 5 3 5 3 5 3 5 3 5 3 5 3 5 5 5 5 5 3 5 5 3 3 3 5 5 3 3 5 3 5 5 3 5 5 5 5 5 5 3 5 5 3 5 3 5 5 5 5 3 5 3 5 3 5 5 5 3 5 5 3 5 3 5 3 5 5 5 5 5 3 5 5 5 5 5 5 5 5 5 5 3 5 5 5 5 3 5 5 3 5 5 5 5 5 3 5 5 3 5 5 5 3 5 3 5 5 5 3 5 5 5 5 3 5 5 5 5 3 3 5 5 5 5 5 5 3 5 5 3 5 5 5 5 5 5 5 5 5 5 5 5 5 5 5 5 5 5 5 5 5 5 5 5 5 5 5 5 5 5 5 5 5 5 5 5 5 5 5 5 5 5 5 5 5 5 5 5 5 5 5 5 5 5 5 5 5 5 3 5 5 5 5 5 5 5 5 5 5 5 5 3 5 5 3 5 5 5 3 5 5 5 5 5 5 5 5 5 5 5 5 5 5 5 3 5 5 5 5 5 5 5 5 5 5 5 5 5 5 5 5 3 5 5 5 5 5 5 5 5 5 5 5 5 5 3 5 5 3 5 5 3 5 3 5 5 5 5 5 5 5 3 5 5 5 5 5 5 5 5 5 5 5 5 3 5 5 5 3 5 5 5 5 5 5 5 5 5 3 5 5 5 5 5 5 3 5 5 5 5 5 5 3 5 5 5 3 5 5 5 5 5 5 5 3 5 5 5 5 5 5 5 5 5 5 3 5 5 5 5 5 5 5 5 5 5 5 5 5 5 5 5 3 5 3 5 5 5 5 5 5 5 5 5 5 3 5 3 5 5 5 5 5 5 5 5 5 5 5 3 5 5 5 5 5 5 5 5 5 5 5 3 5 5 5 5 5 5 5 3 5 5 5 5 5 5 5 3 5 5 5 5 5 5 5 5 5 5 5 3 5 5 5 5 5 5 5 5 3 5 3 5 5 5 5 5 5 5 5 5 5 3 5 5 5 3 5 5 5 5 5 5 5 5 5 3 5 5 5 5 5 5 5 5 5 5 5 5 5 5 5 5 3 5 5 5 5 5 5 5 5 5 5 5 5 5 5 5 5 5 5 3 5 5 3 5 5 3 5 5 5 5 5 3 5 5 5 5 5 5 5 5 5 5 5 5 5 5 5 5 5 5 5 5 5 5 5 5 5 5 5 5 5 5 5 5 5 5 5 5 5 5 5 5 5 5 5 5 5 5 5 5 5 5 5 5 5 5 5 5 5 5 5 3 5 5 3 5 5 5 5 5 5 5 5 5 5 5 5 5 5 5 5 5 5 5 5 5 5 5 5 3 3 5 5 5 5 5 5 5 5 5 5 5 5 5 5 5 5 3 3 5 5 5 5 5 5 5 3 5 3 5 5 3 3 5 5 5 5 5 5 5 5 5 5 5 3 5 3 5 5 5 3 5 5 5 3 5 3 5 5 5 5 5 3 3 5 5 5 5 5 5 5 5 5 5 5 5 5 5 5 5 5 5 5 5 5 5 5 5 5 5 5 5 5 5 5 5 5 5 5 5 5 5 5 5 5 5 5 5 5 5 5 5 5 5 5 5 5 5 5 5 5 5 5 5 5 5 5 5 5 5 5 5 5 5 5 5 5 5 5 5 5 5 5 5 5 5 5 5 5 5 5 5 5 5 5 5 5 5 5 5 5 5 5 5 5 5 5 5 3 3 5 3 5 3 5 5 3 5 5 5 5 3 5 5 5 5 5 5 5 3 3 3 5 5 5 5 5 3 3 5 5 5 5 5 5 5 5 5 5 5 5 5 5 5 5 5 5 5 5 5 5 5 5 5 5 5 5 5 5 5 5 5 5 3 5 5 3 5 5 5 5 5 5 5 5 5 5 5 3 5 5 5 5 5 5 5 3 5 5 5 5 5 5 5 5 5 5 5 5 5 5 5 5 3 5 5 3 5 5 5 5 5 5 5 5 5 5 5 5 5 5 5 5 5 5 5 5 5 5 5 3 5 5 3 5 5 3 5 5 5 5 5 5 5 3 5 5 5 5 5 5 3 5 5 3 5 5 5 5 3 5 3 5 5 3 5 5 5 5 3 5 3 5 5 3 5 5 5 5 5 5 5 5 5 5 5 5 3 5 5 5 3 5 5 3 5 5 5 5 3 5 5 5 5 5 5 5 5 5 5 3 5 5 5 5 5 5 5 5 5 5 3 5 5 5 5 5 5 5 5 5 5 5 5 3 5 5 3 5 5 5 5 5 5 5 5 5 5 3 5 5 5 5 5 3 5 3 3 5 5 3 5 5 5 5 5 5 5 5 5 3 3 5 5 5 5 5 5 3 5 5 5 5 5 5 5 5 5 5 5 5 5 5 5 5 5 5 5 5 5 5 5 5 5 3 5 5 5 5 5 5 5 5 5 5 5 5 5 5 5 5 5 5 5 5 5 5 5 5 5 5 5 5 5 5 5 5 5 5 5 5 5 5 5 5 3 5 5 5 5 5 5 5 5 5 5 3 5 5 5 3 5 3 5 5 5 3 5 5 5 3 5 3 5 3 5 3 3 5 5 3 5 5 5 3 5 5 5 5 5 3 5 5 5 5 3 5 5 5 3 5 5 5 5 3 5 3 5 5 5 5 5 5 5 5 5 5 5 5 5 5 3 5 5 5 5 3 5 5 3 5 5 3 3 5 5 3 5 3 5 5 5 3 3 3 3 5 5 3 5 5 5 5 3 5 3 5 5 3 3 3 5 3 5 5 3 3 3 5 5 5 5 5 5 5 5 5 3 3 5 5 5 5 3 3 5 5 5 3 5 3 5 5 5 5 5 5 5 5 5 5 5 3 5 5 5 5 5 5 5 5 5 5 5 5 5 5 5 5 5 5 5 5 5 5 5 3 5 5 5 5 5 5 5 5 5 5 5 5 5 5 5 5 3 5 5 3 5 5 5 5 5 5 5 5 5 3 5 5 5 3 3 5 5 3 5 5 5 5 5 3 5 3 5 5 5 3 5 5 5 5 5 5 5 3 5 5 3 5 5 5 5 3 5 5 5 3 3 5 5 3 5 5 5 3 5 5 5 5 5 5 5 3 5 5 3 5 3 3 3 5 3 5 3 3 5 5 5 5 5 5 3 5 5 3 5 5 5 5 5 5 5 5 5 5 5 5 5 5 5 5 5 5 5 5 5 5 5 5 5 5 5 5 5 5 5 5 5 5 5 3 3 5 5 5 5 5 5 5 5 3 3 3 3 5 5 3 5 5 5 5 5 5 5 5 3 5 5 3 5 5 5 3 5 5 5 5 3 5 5 5 5 5 5 5 5 5 5 5 5 5 5 3 5 5 5 5 5 3 5 5 5 5 5 5 5 5 3 5 5 5 3 3 5 5 3 3 5 5 5 5 5 3 5 5 5 5 5 5 3 5 3 5 5 5 5 5 5 5 5 3 3 5 3 3 3 5 3 5 5 5 5 5 5 3 5 5 5 5 5 5 5 3 5 5 5 5 5 5 5 5 5 5 5 5 5 5 5 5 5 5 5 5 5 5 5 5 5 5 5 5 5 5 5 5 5 5 5 5 5 5 5 5 5 5 5 5 5 5 5 5 5 5 5 5 5 5 5 5 5 3 5 5 5 5 5 5 5 3 5 5 3 5 5 5 3 5 3 5 5 3 5 5 5 5 5 5 5 3 5 5 5 3 5 5 5 5 5 5 5 3 5 3 5 5 5 5 5 5 5 5 5 5 5 5 5 5 5 5 5 5 5 5 5 5 5 5 5 3 3 5 3 5 5 5 5 5 5 5 3 5 3 5 3 3 3 5 5 3 5 5 3 5 5 5 3 5 5 5 5 5 5 5 3 3 5 5 3 5 5 5 3 5 5 5 5 3 5 3 5 5 5 5 5 5 3 5 3 5 5 5 5 5 3 5 5 3 5 5 5 5 5 5 5 5 5 5 5 5 5 5 5 5 3 5 5 3 3 5 3 5 5 5 5 5 5 5 5 3 5 5 5 5 5 5 5 5 5 5 5 5 5 5 5 5 3 5 5 5 3 5 5 3 5 5 5 5 5 5 3 5 5 5 5 5 5 5 5 5 5 5 5 5 5 5 5 5 5 5 3 3 5 5 5 5 5 5 5 3 5 5 5 3 5 5 3 5 3 5 5 3 5 3 3 5 3 5 3 5 3 5 5 5 5 5 5 5 5 5 5 5 5 5 5 5 3 3 5 5 5 5 5 5 5 3 5 5 5 5 5 5 5 5 5 5 5 5 5 5 5 3 5 3 5 5 5 5 5 5 3 5 5 5 3 5 5 5 3 5 5 5 5 5 5 5 5 5 5 5 5 5 5 5 5 5 5 5 5 5 3 5 5 5 5 3 5 5 5 5 5 3 5 5 5 3 5 5 5 5 5 5 5 5 5 5 5 5 3 5 5 5 5 3 5 5 5 5 5 5 5 5 3 5 5 5 5 5 5 5 3 5 5 5 5 3 5 5 5 5 5 5 5 5 3 5 5 5 5 5 5 5 5 5 3 5 5 5 5 5 5 5 5 5 5 5 5 5 5 5 5 5 5 5 5 5 5 5 5 5 5 5 5 3 5 5 5 5 5 5 5 3 5 5 5 5 5 5 5 5 5 5 5 5 5 5 5 5 5 5 5 5 5 5 5 5 5 5 5 5 5 3 5 5 5 5 5 5 5 5 5 5 5 5 5 5 5 5 5 5 5 5 5 5 5 5 5 5 5 5 5 5 5 5 3 5 5 3 5 5 5 5 3 5 5 3 5 5 5 5 3 5 5 5 3 5 5 5 3 5 5 5 5 5 5 5 5 5 5 3 5 5 3 5 5 5 5 5 5 3 5 5 5 5 5 3 5 5 5 5 3 5 5 5 5 5 5 5 5 5 5 3 5 5 5 5 5 5 5 5 5 3 5 5 5 5 5 5 5 5 5 5 5 5 5 3 5 5 5 5 5 5 5 3 5 5 5 5 5 3 5 5 5 5 5 5 5 5 5 5 5 5 5 5 3 5 5 5 5 5 5 5 5 3 5 5 5 5 5 5 5 5 5 5 5 5 5 5 5 5 5 5 5 5 5 5 5 5 5 5 5 5 5 5 5 5 5 3 5 5 5 5 3 3 5 5 3 5 5 3 5 5 3 5 5 5 5 5 5 5 5 5 5 5 5 5 5 5 5 5 5 5 3 5 5 5 5 3 5 5 5 5 5 5 5 5 5 5 5 5 5 5 5 5 5 5 5 5 5 5 5 5 5 5 5 5 5 5 5 5 5 5 5 5 5 5 5 5 5 5 5 5 5 5 5 5 5 5 5 5 5 5 5 5 5 5 5 5 5 5 5 5 5 5 5 5 5 5 5 3 5 5 5 5 3 5 3 5 5 3 5 5 5 5 3 5 5 3 5 5 5 5 5 5 5 5 5 5 5 5 5 5 5 5 5 5 5 5 5 5 5 5 5 5 5 5 5 5 5 5 5 5 5 5 5 5 5 5 5 5 5 5 5 5 5 5 5 5 5 5 5 5 5 5 5 5 5 5 3 5 5 5 5 5 5 5 5 5 3 5 5 5 5 5 5 5 3 5 5 5 5 5 5 5 5 5 5 5 5 5 5 5 5 5 5 5 3 3 5 5 3 5 3 5 5 5 5 5 5 5 5 5 5 5 5 5 5 5 5 5 5 5 5 5 5 5 5 5 5 5 5 5 5 5 5 5 5 5 5 5 5 5 5 5 5 5 5 5 5 5 5 5 5 5 5 5 5 5 3 3 5 5 5 5 5 5 5 5 5 5 5 5 5 5 5 5 5 5 5 5 3 5 5 5 5 5 5 5 5 5 5 3 5 5 5 3 5 5 5 5 5 5 3 5 5 5 5 5 5 5 5 5 5 5 5 5 3 5 5 5 5 5 5 3 3 5 3 5 5 3 5 5 5 3 5 5 5 3 5 5 5 5 5 3 5 3 5 5 5 5 3 5 5 5 5 3 5 3 5 5 3 3 5 5 5 5 5 3 5 5 5 5 5 3 3 3 5 3 5 3 5 5 5 5 5 3 5 5 5 5 5 5 5 5 3 3 5 5 3 5 5 5 5 3 5 5 3 5 5 3 5 5 5 5 5 5 5 5 5 3 5 5 5 5 5 5 5 5 3 5 5 5 5 5 5 5 5 5 3 3 5 5 5 5 5 5 5 5 5 5 5 5 5 5 5 5 5 5 5 5 5 5 5 5 5 5 5 5 5 5 5 5 5 5 5 3 5 5 5 5 3 5 5 5 5 5 5 5 5 5 5 5 5 5 5 5 5 3 3 5 5 5 5 5 5 5 5 5 3 5 5 5 5 3 5 5 3 5 5 5 5 5 5 5 5 5 5 5 5 5 3 5 5 5 5 5 5 5 5 5 5 5 5 5 5 5 5 5 5 5 5 5 5 5 5 5 3 5 5 5 5 5 3 5 5 5 3 5 5 5 3 3 5 5 5 5 5 5 5 5 5 5 5 5 5 5 3 5 5 5 3 5 5 5 5 3 3 5 5 5 5 5 5 5 5 5 5 5 5 5 5 5 5 5 5 5 5 5 5 5 3 5 5 5 5 5 5 5 5 5 3 5 5 5 5 3 5 3 5 5 5 5 3 5 5 5 5 5 5 5 5 5 5 5 5 5 5 5 3 5 5 3 5 5 5 5 5 5 5 5 5 5 3 3 5 5 5 5 3 5 5 5 3 5 5 5 5 3 3 5 3 5 3 5 3 5 5 3 5 5 3 5 5 3 5 5 5 3 5 5 3 5 3 5 3 5 5 3 5 5 5 5 5 5 5 5 5 5 5 5 5 3 5 5 5 5 5 5 5 5 5 5 5 5 5 5 5 5 3 3 5 5 5 5 5 3 5 5 5 5 3 5 5 3 5 5 5 5 3 5 5 5 5 5 5 5 5 5 5 5 5 5 5 5 5 5 5 5 5 5 5 5 5 5 5 5 5 5 5 5 5 5 5 5 5 5 5 3 5 5 5 5 5 5 5 5 5 5 5 5 5 3 5 3 5 5 5 5 3 5 5 5 5 5 5 5 5 5 5 5 5 5 5 5 5 5 5 3 5 3 5 5 3 5 5 5 3 5 5 5 5 5 5 5 5 5 5 5 5 5 5 5 5 5 5 5 5 5 5 5 5 5 5 5 3 5 5 3 5 5 5 5 5 5 5 5 5 5 5 5 5 5 5 5 5 5 5 5 5 5 5 5 5 5 5 5 5 5 5 5 5 5 5 3 5 3 5 5 5 5 5 5 5 5 5 5 5 5 5 5 5 5 5 3 3 5 5 5 5 5 3 5 5 5 5 3 5 5 5 5 3 5 5 5 5 5 5 5 5 5 5 5 5 5 5 5 5 5 5 3 5 5 5 5 5 5 3 5 5 3 5 5 5 5 5 5 5 5 5 5 5 5 3 5 5 3 5 5 5 5 5 5 5 5 3 5 5 5 5 5 5 3 5 5 3 5 5 5 5 5 5 5 5 5 5 5 5 5 5 5 5 5 5 5 5 5 5 5 5 5 5 5 5 5 5 5 5 5 5 5 5 3 5 5 5 3 5 5 3 5 5 5 5 5 5 3 5 5 5 5 5 3 5 5 5 5 5 5 3 5 5 5 5 3 5 3 5 5 3 5 5 5 3 5 5 5 5 5 5 5 5 5 5 5 5 5 3 5 5 5 5 5 5 5 5 5 5 5 5 5 5 5 5 5 5 5 5 5 5 5 5 3 5 3 5 3 5 3 5 5 5 5 3 5 5 5 5 3 5 5 5 5 5 5 5 5 5 5 5 5 5 5 3 5 5 5 3 5 5 5 3 5 5 3 5 5 5 3 5 5 5 5 3 5 5 5 5 3 5 5 5 5 5 5 5 5 5 5 3 5 5 5 5 5 3 5 3 5 5 5 5 5 3 3 5 5 3 5 3 5 5 3 5 5 5 5 5 5 5 5 5 5 5 5 5 3 5 5 5 5 5 3 5 5 5 5 5 5 5 5 5 5 3 5 3 5 5 3 5 5 3 5 3 5 3 5 5 5 5 5 3 3 5 5 5 5 5 5 5 5 5 5 5 3 5 5 5 5 5 3 5 5 5 3 5 3 5 5 5 5 5 5 5 5 5 5 5 5 5 5 5 3 5 5 5 5 3 5 5 5 5 5 5 5 5 5 5 5 5 5 5 5 5 5 5 5 5 5 5 5 3 5 5 3 5 5 5 5 5 5 5 3 5 5 3 5 3 5 5 5 5 5 5 5 5 5 3 5 5 3 5 5 5 3 5 5 5 5 5 5 5 3 5 5 5 5 3 3 5 5 5 5 5 5 5 5 5 3 5 5 5 5 5 5 5 5 5 5 5 5 5 5 5 5 3 5 3 5 5 5 3 5 5 5 5 5 5 5 5 5 5 5 5 5 3 5 5 5 5 5 3 5 5 5 3 3 5 5 5 3 5 5 3 5 5 5 5 3 3 5 5 5 3 5 5 3 5 5 5 5 3 5 3 5 5 5 3 5 5 5 5 5 5 5 5 5 5 5 5 5 5 5 5 5 5 5 5 5 3 5 5 5 5 5 5 5 5 5 3 5 5 5 3 5 3 5 5 5 5 5 5 5 5 5 5 5 3 5 5 5 5 5 3 5 5 5 5 5 3 5 5 5 5 5 5 5 5 5 5 5 5 5 5 5 5 3 5 5 5 5 5 5 5 5 5 3 5 5 5 5 5 5 5 5 5 5 5 5 5 5 5 3 5 5 5 5 5 5 5 5 5 5 5 5 5 5 5 5 5 5 5 5 5 5 5 5 5 5 5 5 5 3 5 5 5 5 3 5 3 3 5 5 5 5 5 5 3 5 3 5 5 5 3 5 5 3 5 5 5 5 5 5 3 5 5 5 5 5 5 5 3 5 5 5 5 3 5 5 5 5 5 5 3 5 5 5 5 5 5 5 5 5 5 5 5 3 5 3 5 5 5 5 5 5 5 3 3 5 5 5 5 5 5 5 5 3 5 5 5 3 5 5 3 5 5 5 5 5 5 5 5 5 5 5 5 5 5 5 5 5 5 5 5 5 5 5 5 5 3 5 5 3 5 5 5 5 5 3 5 5 3 5 3 5 5 5 3 5 5 5 5 3 5 5 3 3 5 5 5 5 5 3 5 5 3 5 5 5 5 5 3 5 5 5 5 5 5 5 5 5 3 5 5 5 5 3 5 5 5 5 5 5 3 5 3 5 5 5 3 5 3 5 5 3 5 3 5 5 5 3 5 5 5 5 5 5 5 5 5 5 5 5 5 3 5 5 5 5 3 5 5 5 5 5 5 3 5 5 5 5 5 5 5 3 5 5 5 5 5 5 3 5 5 5 5 5 5 5 3 5 5 3 5 5 5 5 5 5 5 5 5 3 3 5 5 5 5 5 5 5 5 5 5 5 5 3 5 5 5 5 5 5 5 3 5 5 5 3 5 3 5 5 3 5 5 5 5 5 3 5 5 5 3 5 5 5 5 3 5 5 5 3 5 5 5 5 5 5 5 3 5 5 3 5 5 5 3 5 5 5 3 5 5 5 5 3 5 5 5 3 5 5 5 5 5 5 5 5 5 3 5 5 5 5 5 5 5 5 5 3 5 5 5 5 3 5 5 3 5 5 5 5 5 5 5 5 5 5 5 5 5 5 5 5 5 5 5 5 5 5 5 5 5 5 3 5 5 5 5 5 5 5 5 5 5 5 3 5 5 5 3 5 5 5 5 5 5 3 5 5 5 5 5 5 5 5 5 5 5 5 5 5 5 5 5 5 5 5 5 5 5 5 5 5 3 5 3 5 5 3 3 5 5 5 5 5 5 5 5 5 5 5 5 5 5 5 5 5 3 5 5 5 5 5 5 5 5 5 5 5 5 5 5 5 5 5 5 5 5 5 5 5 5 5 5 5 5 5 5 5 5 5 5 5 5 5 5 5 5 5 5 5 5 5 5 5 5 5 5 5 5 5 5 5 5 5 5 5 5 5 3 5 5 3 5 5 5 5 3 5 5 5 5 5 5 5 5 5 5 3 5 3 5 5 5 3 5 5 5 3 5 3 5 5 5 3 5 3 5 3 5 5 5 3 5 5 5 5 3 5 3 5 5 5 5 5 3 5 3 3 5 5 5 5 5 5 3 5 5 5 3 5 5 5 5 5 5 5 5 5 5 5 5 5 5 5 5 5 5 5 3 5 5 5 3 3 5 5 5 5 5 3 5 5 5 5 5 5 5 5 5 5 5 5 5 5 3 5 5 3 5 3 5 5 5 3 5 3 5 5 3 5 5 5 5 5 5 5 5 5 5 5 3 5 5 5 5 5 5 5 5 5 5 3 3 5 5 5 5 5 5 5 3 5 5 5 5 5 5 5 5 5 5 5 5 5 5 3 5 5 5 5 5 5 5 5 5 5 3 5 5 5 3 5 3 3 5 5 5 5 5 5 5 5 3 5 5 5 5 5 5 5 5 5 3 5 3 5 3 5 5 5 5 5 5 5 5 3 5 3 5 5 5 5 5 5 3 5 5 3 5 3 5 5 5 5 5 5 5 5 5 5 5 5 5 5 3 5 5 5 5 5 5 5 5 5 5 3 5 5 5 5 5 5 3 5 5 5 5 5 5 5 5 5 5 5 5 5 5 5 5 5 5 5 5 5 5 5 5 5 3 5 5 5 5 5 3 5 5 5 5 5 5 5 5 5 5 5 3 5 5 5 5 3 5 5 5 5 5 3 5 5 5 5 5 3 5 5 3 5 5 5 5 5 5 5 5 5 5 5 5 5 5 5 5 5 5 5 5 5 5 5 5 5 5 3 5 5 3 5 5 5 5 5 5 5 5 5 5 5 5 5 5 5 3 5 5 5 5 5 5 5 5 5 3 5 5 5 5 5 5 5 3 5 5 5 5 5 3 5 5 5 5 5 5 3 5 5 5 5 3 5 5 5 5 5 5 5 3 5 5 3 5 5 3 5 5 5 5 3 5 5 5 5 5 5 5 5 3 5 5 3 5 5 5 5 5 5 5 5 5 3 5 5 5 5 5 3 5 5 5 5 3 5 5 5 3 5 5 5 5 5 5 5 5 5 5 5 3 3 5 5 5 5 5 5 5 5 5 5 5 3 5 5 5 5 5 3 5 3 3 5 3 3 5 5 3 5 5 5 5 5 5 3 5 3 3 5 5 5 5 5 3 5 5 5 5 5 5 5 5 3 5 5 5 5 3 5 5 5 5 5 3 5 5 3 5 5 5 5 5 5 5 3 5 3 5 5 5 5 5 5 5 3 3 5 5 5 5 5 5 5 3 5 5 5 5 5 5 3 5 5 5 5 5 5 5 5 5 5 5 5 5 5 3 5 5 3 5 5 5 5 3 5 5 5 5 3 5 5 5 5 5 5 3 5 5 5 5 5 5 5 3 5 5 5 3 5 5 5 5 3 5 5 3 5 5 5 5 5 5 5 3 5 5 5 5 3 5 3 5 5 5 5 5 5 5 5 5 5 5 5 5 5 3 5 5 5 5 5 5 5 3 5 5 3 5 5 3 5 5 5 5 5 5 5 5 5 3 5 5 5 3 5 5 5 5 5 5 5 5 5 3 5 5 5 5 5 5 5 5 5 5 5 3 5 5 5 3 5 5 5 5 5 5 5 5 5 5 5 3 5 5 5 5 5 5 5 5 5 5 3 5 5 5 5 5 3 5 5 5 5 5 5 5 5 3 5 5 3 5 5 3 5 5 5 5 3 3 5 5 5 5 3 5 5 5 5 3 5 5 3 5 5 5 5 3 5 5 3 5 5 5 5 5 3 5 5 5 5 5 5 5 5 3 5 3 5 5 5 5 5 5 5 5 5 3 3 5 5 5 5 5 5 3 5 5 3 5 5 3 5 3 5 5 5 3 5 5 3 5 5 5 5 5 5 5 5 3 3 5 5 3 3 5 5 5 5 3 5 5 5 3 5 3 5 3 3 3 5 3 5 5 5 3 5 5 5 5 5 5 5 5 5 3 5 5 3 5 5 5 5 5 5 3 5 5 5 5 5 5 3 3 3 5 5 5 5 5 5 5 5 5 5 5 3 5 5 5 5 3 5 5 5 5 5 5 5 5 3 5 5 3 5 5 5 3 5 5 5 5 5 5 5 5 5 3 5 5 5 5 5 5 5 5 3 5 5 5 3 5 5 3 5 5 5 3 5 3 5 5 3 5 3 5 5 3 5 5 5 5 5 5 3 5 5 3 5 5 5 5 5 5 5 5 5 5 5 5 5 5 5 5 5 5 5 5 5 5 5 5 5 5 5 5 5 5 5 5 5 5 5 5 5 5 5 5 5 5 5 5 5 5 5 5 5 5 5 5 5 5 5 5 5 5 5 5 5 5 5 5 5 5 5 5 5 5 5 5 5 5 5 5 5 5 5 5 5 5 5 5 5 5 5 5 5 5 5 5 5 5 5 5 3 5 5 5 5 3 5 5 5 5 5 5 5 5 5 5 5 5 3 3 5 5 5 5 5 5 5 5 5 5 5 5 5 5 5 3 5 5 5 3 5 5 5 5 5 5 5 5 5 5 3 5 3 5 5 5 5 5 5 5 5 5 5 5 5 5 5 5 5 5 5 5 5 5 5 5 5 3 5 5 5 5 3 5 5 5 5 5 5 5 5 3 5 5 5 5 5 5 5 5 5 5 5 5 5 5 5 5 5 5 5 5 5 5 5 5 5 5 5 5 5 5 5 5 5 5 5 5 5 5 5 5 5 5 5 5 5 5 5 5 5 3 5 5 5 5 5 5 5 5 5 5 5 5 5 5 5 5 5 5 5 5 5 5 5 5 5 5 5 5 5 5 5 5 3 5 5 5 5 5 5 3 5 5 5 5 5 5 3 5 5 3 5 3 5 3 5 5 5 5 3 5 5 5 5 5 3 5 5 5 3 3 5 5 5 3 5 5 5 5 3 3 5 5 5 5 5 5 5 5 5 5 5 5 5 5 3 5 5 3 5 5 3 3 5 5 5 5 5 5 5 5 5 5 3 5 3 5 5 5 5 5 5 5 5 5 5 5 3 5 5 5 5 5 5 5 3 5 5 5 5 5 5 5 5 5 5 5 5 5 5 5 5 5 5 3 3 5 5 5 5 5 5 5 5 5 5 5 5 5 5 5 5 5 3 5 5 5 5 5 5 5 5 5 3 5 5 5 5 5 5 5 5 5 5 5 5 3 5 5 5 5 3 5 3 5 5 5 5 5 5 5 5 5 3 5 5 5 5 3 5 5 5 5 3 5 3 5 5 5 5 5 5 5 5 5 5 5 5 3 5 5 5 5 5 5 5 5 5 5 5 5 5 5 5 3 5 3 5 5 3 5 5 5 3 5 3 5 5 3 5 5 3 5 3 5 5 5 5 5 5 5 3 3 5 5 5 5 3 3 5 5 3 3 5 3 5 5 3 3 5 5 3 5 5 3 5 5 5 5 5 5 5 5 3 5 5 3 5 3 5 5 5 3 5 5 5 5 5 5 5 5 3 5 5 5 5 5 5 5 5 5 5 5 5 5 5 5 5 5 5 5 5 5 5 3 5 5 5 5 5 5 5 5 5 5 5 5 5 5 5 5 5 5 
</DataArray>
</Cells>
<PointData Scalars="" Vectors="displacement," Tensors="">
<DataArray type="Float64" Name="displacement" NumberOfComponents="3" format="ascii">
0.014998839991736243 4.7918614660807525e-07 0 0.014564099957662819 7.1339880802280615e-05 0 0.014999584645136536 -7.3291316045971907e-09 0 0.014998839991736243 4.7918614660807525e-07 0 0.014564099957662819 7.1339880802280615e-05 0 0.01311344270852712 -8.5930716222662399e-07 0 0.014564099957662819 7.1339880802280615e-05 0 0.014316729584078727 -7.6155649703841703e-06 0 0.01311344270852712 -8.5930716222662399e-07 0 0.014564099957662819 7.1339880802280615e-05 0 0.014316729584078727 -7.6155649703841703e-06 0 0.014633149834744659 1.2364714398237015e-05 0 0.014316729584078727 -7.6155649703841703e-06 0 0.014463333907618201 -0.00023803869045302216 0 0.014633149834744659 1.2364714398237015e-05 0 0.014316729584078727 -7.6155649703841703e-06 0 0.014463333907618201 -0.00023803869045302216 0 0.01311344270852712 -8.5930716222662399e-07 0 0.013669213262087483 -5.8460346766804588e-05 0 0.013110968313931836 -4.0665518422195804e-08 0 0.013432538100109028 0.00024478587046507076 0 0.013566610600308431 -5.309603981739412e-05 0 0.013181802606148131 -5.1209479425959067e-05 0 0.014463333907618201 -0.00023803869045302216 0 0.014645921254840879 9.7623351959044574e-05 0 0.014633149834744659 1.2364714398237015e-05 0 0.012854808789087839 5.3793015595091541e-05 0 0.013432538100109028 0.00024478587046507076 0 0.013181802606148131 -5.1209479425959067e-05 0 0.013669213262087483 -5.8460346766804588e-05 0 0.014014748655637066 0.00014697125813402343 0 0.014633149834744659 1.2364714398237015e-05 0 0.014770102675022113 -4.4632431160084573e-05 0 0.014566712269559445 1.1842742475741031e-05 0 0.014645921254840879 9.7623351959044574e-05 0 0.014633149834744659 1.2364714398237015e-05 0 0.014566712269559445 1.1842742475741031e-05 0 0.014770102675022113 -4.4632431160084573e-05 0 0.014384963964084835 -0.00018608168281309415 0 0.014566712269559445 1.1842742475741031e-05 0 0.014768529396498345 -5.7995452316828309e-05 0 0.014645549787990804 -0.00010541010787941641 0 0.014564099957662819 7.1339880802280615e-05 0 0.014770102675022113 -4.4632431160084573e-05 0 0.014999584645136536 -7.3291316045971907e-09 0 0.014564099957662819 7.1339880802280615e-05 0 0.014633149834744659 1.2364714398237015e-05 0 0.014770102675022113 -4.4632431160084573e-05 0 0.014770102675022113 -4.4632431160084573e-05 0 0.014999584645136536 -7.3291316045971907e-09 0 0.014960734213170795 -3.0280001254385638e-05 0 0.014999584645136536 -7.3291316045971907e-09 0 0.014997165604371854 -1.2291137237515615e-06 0 0.014960734213170795 -3.0280001254385638e-05 0 0.014999584645136536 -7.3291316045971907e-09 0 0.014997165604371854 -1.2291137237515615e-06 0 0.015000174190312156 -2.9971380085958e-09 0 0.014997165604371854 -1.2291137237515615e-06 0 0.015007452333389406 -2.6307659079600426e-05 0 0.014960734213170795 -3.0280001254385638e-05 0 0.015087912748079147 -5.2505926539762407e-05 0 0.014639253666231746 -2.747097794002562e-06 0 0.014639253666231746 -2.747097794002562e-06 0 0.014645549787990804 -0.00010541010787941641 0 0.014026838628173556 -0.00016483688515171949 0 0.014384963964084835 -0.00018608168281309415 0 0.014050680535275646 0.00016678466680253301 0 0.014997165604371854 -1.2291137237515615e-06 0 0.014996660837629287 -1.5119284963897282e-06 0 0.015000174190312156 -2.9971380085958e-09 0 0.015000010044816742 6.3519708073999993e-09 0 0.015002187147447135 4.8973292224865112e-06 0 0.014999483579203859 5.0275935499904959e-06 0 0.014996660837629287 -1.5119284963897282e-06 0 0.015000174190312156 -2.9971380085958e-09 0 0.014998770894216544 -1.0675587749890784e-06 0 0.014950224338519492 4.4950442171573236e-05 0 0.015016714045121062 8.818382784457139e-06 0 0.01499999035143953 -1.4215328259239523e-08 0 0.014950224338519492 4.4950442171573236e-05 0 0.014621073326154949 5.0435122831043568e-05 0 0.014692339113935547 6.1356624049545871e-05 0 0.014667613799666296 1.6591979482354211e-06 0 0.014639253666231746 -2.747097794002562e-06 0 0.014950224338519492 4.4950442171573236e-05 0 0.014639253666231746 -2.747097794002562e-06 0 0.014380076641350313 6.4087869775750092e-05 0 0.015014413697656329 9.400525146391682e-06 0 0.015009412631708408 2.2404451521195874e-05 0 0.015019988550905094 2.9413805437055143e-05 0 0.014950224338519492 4.4950442171573236e-05 0 0.014380076641350313 6.4087869775750092e-05 0 0.015014413697656329 9.400525146391682e-06 0 0.015009412631708408 2.2404451521195874e-05 0 0.014999483579203859 5.0275935499904959e-06 0 0.01408998471609519 0.00015589364772034822 0 0.014090417320314822 0.00010335686966803266 0 0.014122725286820409 0.00010758152857244552 0 0.015009412631708408 2.2404451521195874e-05 0 0.015019988550905094 2.9413805437055143e-05 0 0.015007586230497914 4.7558702955036304e-05 0 0.014380076641350313 6.4087869775750092e-05 0 0.014637466258406459 1.7859591779889658e-05 0 0.014026838628173556 -0.00016483688515171949 0 0.013920991547608648 6.1399495388988213e-05 0 0.014050680535275646 0.00016678466680253301 0 0.013920991547608648 6.1399495388988213e-05 0 0.014039554242686112 8.9049970621052344e-05 0 0.014050680535275646 0.00016678466680253301 0 0.014380076641350313 6.4087869775750092e-05 0 0.013945646840386497 7.5198204750588724e-05 0 0.01408998471609519 0.00015589364772034822 0 0.014039554242686112 8.9049970621052344e-05 0 0.014090417320314822 0.00010335686966803266 0 0.014039554242686112 8.9049970621052344e-05 0 0.014082453456703588 7.0186316313292855e-05 0 0.014090417320314822 0.00010335686966803266 0 0.014105189810796795 8.3715148426297478e-05 0 0.014122725286820409 0.00010758152857244552 0 0.014149591707690166 7.4629053272719372e-05 0 0.014090417320314822 0.00010335686966803266 0 0.014105189810796795 8.3715148426297478e-05 0 0.014122725286820409 0.00010758152857244552 0 0.014082453456703588 7.0186316313292855e-05 0 0.014105189810796795 8.3715148426297478e-05 0 0.014090056256552215 5.8858549845251095e-05 0 0.014082453456703588 7.0186316313292855e-05 0 0.014090417320314822 0.00010335686966803266 0 0.014105189810796795 8.3715148426297478e-05 0 0.014384963964084835 -0.00018608168281309415 0 0.014566712269559445 1.1842742475741031e-05 0 0.014050680535275646 0.00016678466680253301 0 0.014014748655637066 0.00014697125813402343 0 0.014036562344960202 0.00016969712949188243 0 0.014645921254840879 9.7623351959044574e-05 0 0.014566712269559445 1.1842742475741031e-05 0 0.014050680535275646 0.00016678466680253301 0 0.014039554242686112 8.9049970621052344e-05 0 0.014050680535275646 0.00016678466680253301 0 0.013842783295567167 4.5889489252435583e-05 0 0.013432538100109028 0.00024478587046507076 0 0.014050680535275646 0.00016678466680253301 0 0.013842783295567167 4.5889489252435583e-05 0 0.013432538100109028 0.00024478587046507076 0 0.013842783295567167 4.5889489252435583e-05 0 0.013566610600308431 -5.309603981739412e-05 0 0.013566610600308431 -5.309603981739412e-05 0 0.013892251620032676 -0.00017719914892240008 0 0.013434089046538556 -0.00033518599216942582 0 0.013842783295567167 4.5889489252435583e-05 0 0.013566610600308431 -5.309603981739412e-05 0 0.013892251620032676 -0.00017719914892240008 0 0.014039554242686112 8.9049970621052344e-05 0 0.013842783295567167 4.5889489252435583e-05 0 0.013892251620032676 -0.00017719914892240008 0 0.009820403596620824 0.00091487790791833885 0 0.0099423842545684291 0.00082931246698270285 0 0.0097793466968035207 0.00075483786740275678 0 0.011778606998270212 0.00033007045477228007 0 0.011506037444438731 0.0002882377343044586 0 0.009820403596620824 0.00091487790791833885 0 0.0097793466968035207 0.00075483786740275678 0 0.009632807594110766 0.000851108252895838 0 0.014105189810796795 8.3715148426297478e-05 0 0.014090056256552215 5.8858549845251095e-05 0 0.014149591707690166 7.4629053272719372e-05 0 0.012438556589983486 0.00066782383686334458 0 0.014246815014896521 0.00032402495191957253 0 0.014082453456703588 7.0186316313292855e-05 0 0.013892251620032676 -0.00017719914892240008 0 0.01415484460810605 -4.5016295624586745e-05 0 0.011778606998270212 0.00033007045477228007 0 0.012438556589983486 0.00066782383686334458 0 0.014039554242686112 8.9049970621052344e-05 0 0.014082453456703588 7.0186316313292855e-05 0 0.013892251620032676 -0.00017719914892240008 0 0.014087555275971738 -0.00033601236965202639 0 0.012438556589983486 0.00066782383686334458 0 0.009820403596620824 0.00091487790791833885 0 0.010018983775076063 0.00096645496947256879 0 0.0099423842545684291 0.00082931246698270285 0 0.012438556589983486 0.00066782383686334458 0 0.011313201368547887 0.000726043763853638 0 0.010018983775076063 0.00096645496947256879 0 0.0099423842545684291 0.00082931246698270285 0 0.010116318227797684 0.0008141928574483823 0 0.0099423842545684291 0.00082931246698270285 0 0.010051097996925046 0.00070418984001875272 0 0.010116318227797684 0.0008141928574483823 0 0.0099423842545684291 0.00082931246698270285 0 0.010051097996925046 0.00070418984001875272 0 0.0099188782576373549 0.00071432933578644594 0 0.0099423842545684291 0.00082931246698270285 0 0.0099188782576373549 0.00071432933578644594 0 0.0097793466968035207 0.00075483786740275678 0 0.0099188782576373549 0.00071432933578644594 0 0.0098232616389552115 0.00063154247982859354 0 0.0099516917023757361 0.00053615940269937832 0 0.010051097996925046 0.00070418984001875272 0 0.010095863297156013 0.00058976080982919019 0 0.0099516917023757361 0.00053615940269937832 0 0.010051097996925046 0.00070418984001875272 0 0.0099188782576373549 0.00071432933578644594 0 0.0099516917023757361 0.00053615940269937832 0 0.0097793466968035207 0.00075483786740275678 0 0.0096261211448563609 0.00070660479502015073 0 0.009632807594110766 0.000851108252895838 0 0.0097793466968035207 0.00075483786740275678 0 0.0097092127103427187 0.00061871161184604343 0 0.0096261211448563609 0.00070660479502015073 0 0.0099188782576373549 0.00071432933578644594 0 0.0097793466968035207 0.00075483786740275678 0 0.0098232616389552115 0.00063154247982859354 0 0.0097793466968035207 0.00075483786740275678 0 0.0098232616389552115 0.00063154247982859354 0 0.0097092127103427187 0.00061871161184604343 0 0.0098232616389552115 0.00063154247982859354 0 0.0097092127103427187 0.00061871161184604343 0 0.009767072277464154 0.00053043693290214162 0 0.0097092127103427187 0.00061871161184604343 0 0.0096261211448563609 0.00070660479502015073 0 0.0095968441433920484 0.00055729450029744232 0 0.0096261211448563609 0.00070660479502015073 0 0.0095015765178623045 0.00062712741656450435 0 0.0095968441433920484 0.00055729450029744232 0 0.0095589766004102496 0.00074422079903726189 0 0.0096261211448563609 0.00070660479502015073 0 0.0095015765178623045 0.00062712741656450435 0 0.0095589766004102496 0.00074422079903726189 0 0.0096261211448563609 0.00070660479502015073 0 0.009632807594110766 0.000851108252895838 0 0.0095135658418920681 0.00038061317127048745 0 0.011424710455875359 -3.2868827535771954e-05 0 0.0099973874823250149 2.5033199020819585e-05 0 0.010582753895832056 -0.00027908866458190175 0 0.010405125382814764 -0.00079311060219997812 0 0.0095589766004102496 0.00074422079903726189 0 0.0095015765178623045 0.00062712741656450435 0 0.0094775137903369191 0.00079260087214966409 0 0.0099973874823250149 2.5033199020819585e-05 0 0.010479103822652895 4.0307726692690163e-06 0 0.010582753895832056 -0.00027908866458190175 0 0.010479103822652895 4.0307726692690163e-06 0 0.011073755076614494 -4.0714691248693895e-05 0 0.010626602756500122 7.6427049457702763e-05 0 0.010479103822652895 4.0307726692690163e-06 0 0.011073755076614494 -4.0714691248693895e-05 0 0.010582753895832056 -0.00027908866458190175 0 0.011249981674170319 5.5131252052329083e-07 0 0.011073755076614494 -4.0714691248693895e-05 0 0.012040603081763718 -1.5972881747345576e-06 0 0.011249981674170319 5.5131252052329083e-07 0 0.011073755076614494 -4.0714691248693895e-05 0 0.010626602756500122 7.6427049457702763e-05 0 0.011073755076614494 -4.0714691248693895e-05 0 0.012040603081763718 -1.5972881747345576e-06 0 0.011023914711031844 -0.0006126356995453761 0 0.012041958885411853 -1.8380890357954457e-07 0 0.011828306093677615 -0.00028317281442413999 0 0.011023914711031844 -0.0006126356995453761 0 0.010582753895832056 -0.00027908866458190175 0 0.010405125382814764 -0.00079311060219997812 0 0.011073755076614494 -4.0714691248693895e-05 0 0.011023914711031844 -0.0006126356995453761 0 0.010582753895832056 -0.00027908866458190175 0 0.011828306093677615 -0.00028317281442413999 0 0.011424710455875359 -3.2868827535771954e-05 0 0.012954918739920478 -0.00023924863617198351 0 0.011424710455875359 -3.2868827535771954e-05 0 0.012758468256060491 1.8638896931799608e-05 0 0.012803149157193126 -2.3383719496573722e-05 0 0.012759831672582661 -2.2141337762875137e-05 0 0.01265162932010668 -4.7891272002083454e-05 0 0.012758468256060491 1.8638896931799608e-05 0 0.012759831672582661 -2.2141337762875137e-05 0 0.01265162932010668 -4.7891272002083454e-05 0 0.012758468256060491 1.8638896931799608e-05 0 0.012576584692953922 3.0032584666574313e-07 0 0.012042967006376422 -5.7143917688423809e-07 0 0.01265162932010668 -4.7891272002083454e-05 0 0.012576584692953922 3.0032584666574313e-07 0 0.012758468256060491 1.8638896931799608e-05 0 0.012576584692953922 3.0032584666574313e-07 0 0.013109508406641782 -9.5505750648848349e-08 0 0.012758468256060491 1.8638896931799608e-05 0 0.013109508406641782 -9.5505750648848349e-08 0 0.012803149157193126 -2.3383719496573722e-05 0 0.012854808789087839 5.3793015595091541e-05 0 0.013109508406641782 -9.5505750648848349e-08 0 0.012803149157193126 -2.3383719496573722e-05 0 0.012803149157193126 -2.3383719496573722e-05 0 0.013085783817922508 -0.00021436160365493893 0 0.013181802606148131 -5.1209479425959067e-05 0 0.012854808789087839 5.3793015595091541e-05 0 0.012803149157193126 -2.3383719496573722e-05 0 0.013181802606148131 -5.1209479425959067e-05 0 0.013566610600308431 -5.309603981739412e-05 0 0.013181802606148131 -5.1209479425959067e-05 0 0.013434089046538556 -0.00033518599216942582 0 0.013085783817922508 -0.00021436160365493893 0 0.013181802606148131 -5.1209479425959067e-05 0 0.013434089046538556 -0.00033518599216942582 0 0.013085783817922508 -0.00021436160365493893 0 0.013434089046538556 -0.00033518599216942582 0 0.012906582217195907 -0.00045185854984680499 0 0.011506037444438731 0.0002882377343044586 0 0.011424710455875359 -3.2868827535771954e-05 0 0.0095589766004102496 0.00074422079903726189 0 0.009632807594110766 0.000851108252895838 0 0.0094775137903369191 0.00079260087214966409 0 0.012803149157193126 -2.3383719496573722e-05 0 0.013085783817922508 -0.00021436160365493893 0 0.012906582217195907 -0.00045185854984680499 0 0.014880042930844595 -5.6438751324388748e-05 0 0.014896186217789953 -0.00014443348994138959 0 0.014941820335385096 -6.3975947704340713e-05 0 0.014807834032511546 -0.00012968529321052911 0 0.014880042930844595 -5.6438751324388748e-05 0 0.014896186217789953 -0.00014443348994138959 0 0.014971217059158153 -6.2596432816888227e-05 0 0.014967093677098904 -2.1670808670332917e-05 0 0.014995696277738314 -1.9048087542652941e-05 0 0.014879236476648091 -0.00010007014890290441 0 0.014938750211362931 -3.8396923543352894e-05 0 0.014967093677098904 -2.1670808670332917e-05 0 0.014990321903517295 -6.0792025405097955e-07 0 0.014961914128125281 -4.2123458401803813e-06 0 0.014967093677098904 -2.1670808670332917e-05 0 0.014995696277738314 -1.9048087542652941e-05 0 0.014990321903517295 -6.0792025405097955e-07 0 0.014938750211362931 -3.8396923543352894e-05 0 0.014974057029975689 -6.6639967316983339e-06 0 0.014995696277738314 -1.9048087542652941e-05 0 0.014990321903517295 -6.0792025405097955e-07 0 0.015001988888291271 -2.3773822820288764e-06 0 0.01499734093388979 4.7225941689675258e-07 0 0.014990321903517295 -6.0792025405097955e-07 0 0.015001988888291271 -2.3773822820288764e-06 0 0.01499734093388979 4.7225941689675258e-07 0 0.014999999766481342 -4.7406207726572851e-09 0 0.014999980801019532 7.9803027732752171e-09 0 0.01499734093388979 4.7225941689675258e-07 0 0.014999999766481342 -4.7406207726572851e-09 0 0.014999813317472745 -1.871506864969553e-08 0 0.01499734093388979 4.7225941689675258e-07 0 0.014999980801019532 7.9803027732752171e-09 0 0.014990321903517295 -6.0792025405097955e-07 0 0.014999980801019532 7.9803027732752171e-09 0 0.014990321903517295 -6.0792025405097955e-07 0 0.014983298363665704 2.4527213635132422e-06 0 0.014990321903517295 -6.0792025405097955e-07 0 0.014961914128125281 -4.2123458401803813e-06 0 0.014983298363665704 2.4527213635132422e-06 0 0.014961914128125281 -4.2123458401803813e-06 0 0.014983298363665704 2.4527213635132422e-06 0 0.014964398350901341 3.4557002086241372e-06 0 0.014999980801019532 7.9803027732752171e-09 0 0.014983298363665704 2.4527213635132422e-06 0 0.014999951134769537 5.7165697898818376e-09 0 0.014983298363665704 2.4527213635132422e-06 0 0.014999951134769537 5.7165697898818376e-09 0 0.014964398350901341 3.4557002086241372e-06 0 0.014999951134769537 5.7165697898818376e-09 0 0.014964398350901341 3.4557002086241372e-06 0 0.014999947280368029 -3.3606956032515482e-09 0 0.014961914128125281 -4.2123458401803813e-06 0 0.014964398350901341 3.4557002086241372e-06 0 0.014915315618981777 -1.719710566456643e-05 0 0.014964398350901341 3.4557002086241372e-06 0 0.014915315618981777 -1.719710566456643e-05 0 0.014949351492367029 6.8921703032121108e-06 0 0.014967093677098904 -2.1670808670332917e-05 0 0.014961914128125281 -4.2123458401803813e-06 0 0.014915315618981777 -1.719710566456643e-05 0 0.014967093677098904 -2.1670808670332917e-05 0 0.014915315618981777 -1.719710566456643e-05 0 0.014899315530296225 -5.7238353498472705e-05 0 0.014971217059158153 -6.2596432816888227e-05 0 0.014967093677098904 -2.1670808670332917e-05 0 0.014899315530296225 -5.7238353498472705e-05 0 0.014915315618981777 -1.719710566456643e-05 0 0.014899315530296225 -5.7238353498472705e-05 0 0.014841514560755909 -6.3676280454546446e-05 0 0.014841514560755909 -6.3676280454546446e-05 0 0.014857812228682581 -3.4807697561022244e-05 0 0.014796872235764664 -9.7943436445099022e-05 0 0.014915315618981777 -1.719710566456643e-05 0 0.014841514560755909 -6.3676280454546446e-05 0 0.014857812228682581 -3.4807697561022244e-05 0 0.014898629263460552 3.1676718501339179e-06 0 0.014871517745584498 -6.3662869238580211e-06 0 0.014936102846097622 4.8191855255401107e-05 0 0.014954282554720215 6.5428449410073349e-05 0 0.014963766848235591 3.3455094724735919e-05 0 0.014954282554720215 6.5428449410073349e-05 0 0.014963766848235591 3.3455094724735919e-05 0 0.014973341329667971 4.9904444949351535e-05 0 0.014936102846097622 4.8191855255401107e-05 0 0.014954282554720215 6.5428449410073349e-05 0 0.014925534032538788 8.999470903510616e-05 0 0.014915315618981777 -1.719710566456643e-05 0 0.014857812228682581 -3.4807697561022244e-05 0 0.014949351492367029 6.8921703032121108e-06 0 0.014936102846097622 4.8191855255401107e-05 0 0.014963766848235591 3.3455094724735919e-05 0 0.014949351492367029 6.8921703032121108e-06 0 0.014898629263460552 3.1676718501339179e-06 0 0.014938157004206826 3.1140755247516055e-06 0 0.014964398350901341 3.4557002086241372e-06 0 0.014949351492367029 6.8921703032121108e-06 0 0.014999947280368029 -3.3606956032515482e-09 0 0.014949351492367029 6.8921703032121108e-06 0 0.014999947280368029 -3.3606956032515482e-09 0 0.014981679925132406 6.8037710616607297e-06 0 0.014999947280368029 -3.3606956032515482e-09 0 0.014981679925132406 6.8037710616607297e-06 0 0.014999990367833135 1.5207203606979105e-09 0 0.014963766848235591 3.3455094724735919e-05 0 0.014981679925132406 6.8037710616607297e-06 0 0.014982425522123494 2.8100107792871697e-05 0 0.014963766848235591 3.3455094724735919e-05 0 0.014949351492367029 6.8921703032121108e-06 0 0.014981679925132406 6.8037710616607297e-06 0 0.014981679925132406 6.8037710616607297e-06 0 0.014991750901363943 1.0482238294094471e-05 0 0.014982425522123494 2.8100107792871697e-05 0 0.014991750901363943 1.0482238294094471e-05 0 0.014997308036569418 2.636288585147941e-05 0 0.014982425522123494 2.8100107792871697e-05 0 0.014991750901363943 1.0482238294094471e-05 0 0.014999990367833135 1.5207203606979105e-09 0 0.014999483579203859 5.0275935499904959e-06 0 0.014981679925132406 6.8037710616607297e-06 0 0.014991750901363943 1.0482238294094471e-05 0 0.014999990367833135 1.5207203606979105e-09 0 0.015000010044816742 6.3519708073999993e-09 0 0.014999990367833135 1.5207203606979105e-09 0 0.014999483579203859 5.0275935499904959e-06 0 0.015009412631708408 2.2404451521195874e-05 0 0.014999483579203859 5.0275935499904959e-06 0 0.014997308036569418 2.636288585147941e-05 0 0.014991750901363943 1.0482238294094471e-05 0 0.014999483579203859 5.0275935499904959e-06 0 0.014997308036569418 2.636288585147941e-05 0 0.015007586230497914 4.7558702955036304e-05 0 0.014997308036569418 2.636288585147941e-05 0 0.01499002924366037 4.7728999081318538e-05 0 0.015009412631708408 2.2404451521195874e-05 0 0.015007586230497914 4.7558702955036304e-05 0 0.014997308036569418 2.636288585147941e-05 0 0.014997308036569418 2.636288585147941e-05 0 0.014982425522123494 2.8100107792871697e-05 0 0.01499002924366037 4.7728999081318538e-05 0 0.014963766848235591 3.3455094724735919e-05 0 0.014982425522123494 2.8100107792871697e-05 0 0.014973341329667971 4.9904444949351535e-05 0 0.014982425522123494 2.8100107792871697e-05 0 0.014973341329667971 4.9904444949351535e-05 0 0.01499002924366037 4.7728999081318538e-05 0 0.014980101736079412 5.8270458938418514e-05 0 0.014973341329667971 4.9904444949351535e-05 0 0.01499002924366037 4.7728999081318538e-05 0 0.014980101736079412 5.8270458938418514e-05 0 0.014973341329667971 4.9904444949351535e-05 0 0.014969649199438651 6.5060204620545826e-05 0 0.014954282554720215 6.5428449410073349e-05 0 0.014969649199438651 6.5060204620545826e-05 0 0.014962734624738714 7.9978452290407599e-05 0 0.014969649199438651 6.5060204620545826e-05 0 0.014979165051198928 7.143665951160429e-05 0 0.014962734624738714 7.9978452290407599e-05 0 0.014954282554720215 6.5428449410073349e-05 0 0.014973341329667971 4.9904444949351535e-05 0 0.014969649199438651 6.5060204620545826e-05 0 0.014980101736079412 5.8270458938418514e-05 0 0.014969649199438651 6.5060204620545826e-05 0 0.014979165051198928 7.143665951160429e-05 0 0.014980101736079412 5.8270458938418514e-05 0 0.014979165051198928 7.143665951160429e-05 0 0.014988959457334134 7.2923518223995799e-05 0 0.014852036095868607 0.0003018103854758663 0 0.014246815014896521 0.00032402495191957253 0 0.014980101736079412 5.8270458938418514e-05 0 0.01499002924366037 4.7728999081318538e-05 0 0.014988959457334134 7.2923518223995799e-05 0 0.014637466258406459 1.7859591779889658e-05 0 0.014246815014896521 0.00032402495191957253 0 0.015007586230497914 4.7558702955036304e-05 0 0.01499002924366037 4.7728999081318538e-05 0 0.014988959457334134 7.2923518223995799e-05 0 0.012620842526315285 0.00090556174817307366 0 0.013123600156752624 0.0010336170895033101 0 0.012940112206732015 0.000454078494930633 0 0.014979165051198928 7.143665951160429e-05 0 0.014988378043956845 7.5253363402822719e-05 0 0.014961727851050632 0.00010829725697605446 0 0.014246815014896521 0.00032402495191957253 0 0.014150185463504604 0.00045917330097800104 0 0.014979165051198928 7.143665951160429e-05 0 0.014962734624738714 7.9978452290407599e-05 0 0.014961727851050632 0.00010829725697605446 0 0.013471650420124411 0.00067752780019197478 0 0.012940112206732015 0.000454078494930633 0 0.013290778641857799 0.00032241491851622329 0 0.013123600156752624 0.0010336170895033101 0 0.013471650420124411 0.00067752780019197478 0 0.012940112206732015 0.000454078494930633 0 0.011313201368547887 0.000726043763853638 0 0.011964058425571291 0.00039801983197621741 0 0.012940112206732015 0.000454078494930633 0 0.013262887245486087 -6.5246216479147901e-06 0 0.013290778641857799 0.00032241491851622329 0 0.010051097996925046 0.00070418984001875272 0 0.010116318227797684 0.0008141928574483823 0 0.010235747016473055 0.00065678034625944845 0 0.010051097996925046 0.00070418984001875272 0 0.010095863297156013 0.00058976080982919019 0 0.010235747016473055 0.00065678034625944845 0 0.0098673808725362154 0.00053261652826702406 0 0.011964058425571291 0.00039801983197621741 0 0.011964058425571291 0.00039801983197621741 0 0.012648415216993796 0.00028736204927222903 0 0.014449372962933351 0.0001684476191431972 0 0.014504038171259705 0.00019031209781899321 0 0.014549180259262388 0.00014616745322245005 0 0.014449372962933351 0.0001684476191431972 0 0.014549180259262388 0.00014616745322245005 0 0.014509397890984231 0.00012362937245057702 0 0.011964058425571291 0.00039801983197621741 0 0.014167707071171345 0.00029996173573195546 0 0.013471650420124411 0.00067752780019197478 0 0.013290778641857799 0.00032241491851622329 0 0.013548460399639412 0.00015277441254938858 0 0.013262887245486087 -6.5246216479147901e-06 0 0.013290778641857799 0.00032241491851622329 0 0.013548460399639412 0.00015277441254938858 0 0.013471650420124411 0.00067752780019197478 0 0.013830767352217757 0.00031368138385975399 0 0.013548460399639412 0.00015277441254938858 0 0.014564612057364477 0.00022682114303990776 0 0.014564645779360074 0.0001710569368249249 0 0.014504038171259705 0.00019031209781899321 0 0.014518840691093151 0.00014209160340162137 0 0.014167707071171345 0.00029996173573195546 0 0.014564645779360074 0.0001710569368249249 0 0.014504038171259705 0.00019031209781899321 0 0.014549180259262388 0.00014616745322245005 0 0.014549180259262388 0.00014616745322245005 0 0.014628310498860387 0.00014029476518408705 0 0.014571673222062542 0.0001399504292916573 0 0.014628310498860387 0.00014029476518408705 0 0.014577751201120859 0.00013550287152253816 0 0.014571673222062542 0.0001399504292916573 0 0.014564645779360074 0.0001710569368249249 0 0.014549180259262388 0.00014616745322245005 0 0.014628310498860387 0.00014029476518408705 0 0.014628310498860387 0.00014029476518408705 0 0.014695226029229203 4.8819643330563078e-05 0 0.014624517867117123 9.277804190776724e-05 0 0.014518840691093151 0.00014209160340162137 0 0.014664351411948747 0.00011452520805489501 0 0.014786167366442712 4.7878044516003295e-05 0 0.014628310498860387 0.00014029476518408705 0 0.014734443860684593 5.9741868880886466e-05 0 0.014628310498860387 0.00014029476518408705 0 0.014734443860684593 5.9741868880886466e-05 0 0.014695226029229203 4.8819643330563078e-05 0 0.014564612057364477 0.00022682114303990776 0 0.014564645779360074 0.0001710569368249249 0 0.014628310498860387 0.00014029476518408705 0 0.014786167366442712 4.7878044516003295e-05 0 0.014734443860684593 5.9741868880886466e-05 0 0.014733500875730741 1.2880002314423505e-05 0 0.014748176149864449 7.1821598739271462e-05 0 0.014751620211061165 9.688932197230384e-05 0 0.014734443860684593 5.9741868880886466e-05 0 0.014736710793263363 3.4269195223501102e-05 0 0.014695226029229203 4.8819643330563078e-05 0 0.014518840691093151 0.00014209160340162137 0 0.014751620211061165 9.688932197230384e-05 0 0.014695226029229203 4.8819643330563078e-05 0 0.014725209956181078 -4.8915452790830077e-06 0 0.01465804107398664 2.5880172245415647e-05 0 0.014736710793263363 3.4269195223501102e-05 0 0.014695226029229203 4.8819643330563078e-05 0 0.014725209956181078 -4.8915452790830077e-06 0 0.014751620211061165 9.688932197230384e-05 0 0.014871517745584498 -6.3662869238580211e-06 0 0.014725209956181078 -4.8915452790830077e-06 0 0.014796872235764664 -9.7943436445099022e-05 0 0.01472375096959953 -4.5603402611680774e-05 0 0.014768206523179389 2.1423876692637975e-05 0 0.014725209956181078 -4.8915452790830077e-06 0 0.014796872235764664 -9.7943436445099022e-05 0 0.014920181289670362 0.00013688803804285074 0 0.014936801669405697 0.00011348915915127085 0 0.014925534032538788 8.999470903510616e-05 0 0.014751620211061165 9.688932197230384e-05 0 0.014712385281916108 2.7432990350607383e-05 0 0.014928559754294312 0.00014234033477983509 0 0.014920181289670362 0.00013688803804285074 0 0.014936801669405697 0.00011348915915127085 0 0.014961727851050632 0.00010829725697605446 0 0.014928559754294312 0.00014234033477983509 0 0.014936801669405697 0.00011348915915127085 0 0.014150185463504604 0.00045917330097800104 0 0.014518840691093151 0.00014209160340162137 0 0.014961727851050632 0.00010829725697605446 0 0.014936801669405697 0.00011348915915127085 0 0.014948653272059406 9.1247865064549537e-05 0 0.014936801669405697 0.00011348915915127085 0 0.014948653272059406 9.1247865064549537e-05 0 0.014925534032538788 8.999470903510616e-05 0 0.014962734624738714 7.9978452290407599e-05 0 0.014961727851050632 0.00010829725697605446 0 0.014948653272059406 9.1247865064549537e-05 0 0.014954282554720215 6.5428449410073349e-05 0 0.014962734624738714 7.9978452290407599e-05 0 0.014948653272059406 9.1247865064549537e-05 0 0.014954282554720215 6.5428449410073349e-05 0 0.014948653272059406 9.1247865064549537e-05 0 0.014925534032538788 8.999470903510616e-05 0 0.014841514560755909 -6.3676280454546446e-05 0 0.014796872235764664 -9.7943436445099022e-05 0 0.01476606816687758 -0.00010079165230716086 0 0.014796872235764664 -9.7943436445099022e-05 0 0.01476606816687758 -0.00010079165230716086 0 0.01472375096959953 -4.5603402611680774e-05 0 0.014899315530296225 -5.7238353498472705e-05 0 0.01476606816687758 -0.00010079165230716086 0 0.014910332290086755 -0.00014417042405079813 0 0.014899315530296225 -5.7238353498472705e-05 0 0.014841514560755909 -6.3676280454546446e-05 0 0.01476606816687758 -0.00010079165230716086 0 0.014971217059158153 -6.2596432816888227e-05 0 0.014899315530296225 -5.7238353498472705e-05 0 0.014910332290086755 -0.00014417042405079813 0 0.014879236476648091 -0.00010007014890290441 0 0.014896214471826394 -0.00018110523212288876 0 0.014536929783155721 -6.3333648595604658e-05 0 0.014520552983910985 -5.0750849551193432e-05 0 0.014533797046257775 -2.2190936775338252e-05 0 0.014524706505207463 -7.900062531242613e-05 0 0.014536929783155721 -6.3333648595604658e-05 0 0.014520552983910985 -5.0750849551193432e-05 0 0.014896214471826394 -0.00018110523212288876 0 0.014845000112143243 -0.00019404326849900927 0 0.014524706505207463 -7.900062531242613e-05 0 0.014520552983910985 -5.0750849551193432e-05 0 0.014487491487306627 -3.6259992444324075e-05 0 0.014487491487306627 -3.6259992444324075e-05 0 0.014504916289103031 1.3274995919774521e-05 0 0.014447144448968588 2.3522921992580884e-05 0 0.014520552983910985 -5.0750849551193432e-05 0 0.014487491487306627 -3.6259992444324075e-05 0 0.014533797046257775 -2.2190936775338252e-05 0 0.014487491487306627 -3.6259992444324075e-05 0 0.014504916289103031 1.3274995919774521e-05 0 0.014533797046257775 -2.2190936775338252e-05 0 0.014536929783155721 -6.3333648595604658e-05 0 0.014533797046257775 -2.2190936775338252e-05 0 0.014605992987280481 -2.6767075028586574e-05 0 0.014504916289103031 1.3274995919774521e-05 0 0.014533797046257775 -2.2190936775338252e-05 0 0.014551780502413193 2.4927598345325435e-05 0 0.014533797046257775 -2.2190936775338252e-05 0 0.014605992987280481 -2.6767075028586574e-05 0 0.014551780502413193 2.4927598345325435e-05 0 0.014686618443567744 -8.8600102762234281e-05 0 0.014896214471826394 -0.00018110523212288876 0 0.01476606816687758 -0.00010079165230716086 0 0.014536929783155721 -6.3333648595604658e-05 0 0.014605992987280481 -2.6767075028586574e-05 0 0.01476606816687758 -0.00010079165230716086 0 0.014514621115011927 -9.4269661620438464e-05 0 0.014536929783155721 -6.3333648595604658e-05 0 0.014609776641036765 1.4185743212587658e-05 0 0.014605992987280481 -2.6767075028586574e-05 0 0.014551780502413193 2.4927598345325435e-05 0 0.014609776641036765 1.4185743212587658e-05 0 0.014605992987280481 -2.6767075028586574e-05 0 0.014667300025509219 -2.4936396959308336e-05 0 0.01476606816687758 -0.00010079165230716086 0 0.014605992987280481 -2.6767075028586574e-05 0 0.014667300025509219 -2.4936396959308336e-05 0 0.01476606816687758 -0.00010079165230716086 0 0.01472375096959953 -4.5603402611680774e-05 0 0.014667300025509219 -2.4936396959308336e-05 0 0.014725209956181078 -4.8915452790830077e-06 0 0.01472375096959953 -4.5603402611680774e-05 0 0.01465804107398664 2.5880172245415647e-05 0 0.01472375096959953 -4.5603402611680774e-05 0 0.014667300025509219 -2.4936396959308336e-05 0 0.01465804107398664 2.5880172245415647e-05 0 0.014609776641036765 1.4185743212587658e-05 0 0.014667300025509219 -2.4936396959308336e-05 0 0.01465804107398664 2.5880172245415647e-05 0 0.014695226029229203 4.8819643330563078e-05 0 0.01465804107398664 2.5880172245415647e-05 0 0.014624517867117123 9.277804190776724e-05 0 0.01465804107398664 2.5880172245415647e-05 0 0.014582816166081879 7.2562024785186762e-05 0 0.014624517867117123 9.277804190776724e-05 0 0.014609776641036765 1.4185743212587658e-05 0 0.01465804107398664 2.5880172245415647e-05 0 0.014582816166081879 7.2562024785186762e-05 0 0.014609776641036765 1.4185743212587658e-05 0 0.014582816166081879 7.2562024785186762e-05 0 0.014551780502413193 2.4927598345325435e-05 0 0.014582816166081879 7.2562024785186762e-05 0 0.014624517867117123 9.277804190776724e-05 0 0.014577751201120859 0.00013550287152253816 0 0.014628310498860387 0.00014029476518408705 0 0.014624517867117123 9.277804190776724e-05 0 0.014577751201120859 0.00013550287152253816 0 0.014577751201120859 0.00013550287152253816 0 0.014509295965808924 8.3170946747600596e-05 0 0.014476152661951229 0.00016919768873170855 0 0.014582816166081879 7.2562024785186762e-05 0 0.014577751201120859 0.00013550287152253816 0 0.014509295965808924 8.3170946747600596e-05 0 0.014582816166081879 7.2562024785186762e-05 0 0.014509295965808924 8.3170946747600596e-05 0 0.014551780502413193 2.4927598345325435e-05 0 0.014504916289103031 1.3274995919774521e-05 0 0.014509295965808924 8.3170946747600596e-05 0 0.014551780502413193 2.4927598345325435e-05 0 0.014504916289103031 1.3274995919774521e-05 0 0.014509295965808924 8.3170946747600596e-05 0 0.014447144448968588 2.3522921992580884e-05 0 0.014447144448968588 2.3522921992580884e-05 0 0.014408218324827235 8.8615816452458027e-05 0 0.014334731297135599 -3.6229041078164662e-05 0 0.012010926722268216 0.0003279915960387377 0 0.013477667552009015 5.384341181608629e-05 0 0.014509295965808924 8.3170946747600596e-05 0 0.014447144448968588 2.3522921992580884e-05 0 0.014408218324827235 8.8615816452458027e-05 0 0.012010926722268216 0.0003279915960387377 0 0.011563815378032577 0.00075234211567539648 0 0.014509295965808924 8.3170946747600596e-05 0 0.014408218324827235 8.8615816452458027e-05 0 0.014476152661951229 0.00016919768873170855 0 0.0097671052978425162 0.00068011240632967105 0 0.0097472193061109349 0.00062849861106335498 0 0.0097384572027317817 0.00062208054748189056 0 0.0097671052978425162 0.00068011240632967105 0 0.0097645452706721127 0.00062575294558131077 0 0.0097824902687945556 0.00065012495861245816 0 0.0097671052978425162 0.00068011240632967105 0 0.0097645452706721127 0.00062575294558131077 0 0.0097472193061109349 0.00062849861106335498 0 0.0097645452706721127 0.00062575294558131077 0 0.0097472193061109349 0.00062849861106335498 0 0.0097510568019372294 0.00061691797867784387 0 0.010741830154337837 0.00045438843909740987 0 0.011563815378032577 0.00075234211567539648 0 0.0097824902687945556 0.00065012495861245816 0 0.0097827345341401674 0.00061750268684689351 0 0.0098022641919835226 0.00064985127765017814 0 0.0097645452706721127 0.00062575294558131077 0 0.0097824902687945556 0.00065012495861245816 0 0.0097827345341401674 0.00061750268684689351 0 0.0097824902687945556 0.00065012495861245816 0 0.0097996765330627643 0.00068693978369099721 0 0.0098022641919835226 0.00064985127765017814 0 0.0097996765330627643 0.00068693978369099721 0 0.0098271183433753274 0.00069148083821904622 0 0.0098022641919835226 0.00064985127765017814 0 0.0097671052978425162 0.00068011240632967105 0 0.0097996765330627643 0.00068693978369099721 0 0.0098121012955651159 0.00073222819851617455 0 0.0097996765330627643 0.00068693978369099721 0 0.0098121012955651159 0.00073222819851617455 0 0.009848665018955715 0.00073473895662642778 0 0.0097671052978425162 0.00068011240632967105 0 0.0097824902687945556 0.00065012495861245816 0 0.0097996765330627643 0.00068693978369099721 0 0.015206344184677091 0.00056224334126132706 0 0.014911099087894224 0.00016284016134573349 0 0.01464259662390946 0.00074159717877907085 0 0.013477667552009015 5.384341181608629e-05 0 0.012056165624401828 0.00080655169086766621 0 0.014524706505207463 -7.900062531242613e-05 0 0.014487491487306627 -3.6259992444324075e-05 0 0.014334731297135599 -3.6229041078164662e-05 0 0.014487491487306627 -3.6259992444324075e-05 0 0.014447144448968588 2.3522921992580884e-05 0 0.014334731297135599 -3.6229041078164662e-05 0 0.014744218210871188 -0.00020752386985852967 0 0.014844829845702385 -0.00023040279007779542 0 0.014816769737774654 -0.00018197723321920707 0 0.014896214471826394 -0.00018110523212288876 0 0.013477667552009015 5.384341181608629e-05 0 0.014807834032511546 -0.00012968529321052911 0 0.014816769737774654 -0.00018197723321920707 0 0.014896186217789953 -0.00014443348994138959 0 0.014807834032511546 -0.00012968529321052911 0 0.014744218210871188 -0.00020752386985852967 0 0.014816769737774654 -0.00018197723321920707 0 0.013477667552009015 5.384341181608629e-05 0 0.01511595534130802 7.2210535594909042e-05 0 0.014844829845702385 -0.00023040279007779542 0 0.014816769737774654 -0.00018197723321920707 0 0.014896186217789953 -0.00014443348994138959 0 0.015206344184677091 0.00056224334126132706 0 0.014959160154675794 8.9496251929166478e-05 0 0.014911099087894224 0.00016284016134573349 0 0.0092234488941845671 0.00026542155207754026 0 0.0090890364301662863 0.00034169971882794681 0 0.0091830565997312041 9.4292525120669995e-05 0 0.0092234488941845671 0.00026542155207754026 0 0.0090890364301662863 0.00034169971882794681 0 0.0092998369399482621 0.00037385267404569018 0 0.0093273162238041302 0.00041338934367101662 0 0.0087683533756960415 4.5270403291799599e-05 0 0.0092234488941845671 0.00026542155207754026 0 0.0092998369399482621 0.00037385267404569018 0 0.0093477588869663453 0.00025007790968864676 0 0.0092234488941845671 0.00026542155207754026 0 0.0091830565997312041 9.4292525120669995e-05 0 0.0093477588869663453 0.00025007790968864676 0 0.0087683533756960415 4.5270403291799599e-05 0 0.0092531776796077707 0.00016095598408847245 0 0.0091280721405018351 -0.00011405651252211067 0 0.008913498549349072 -0.00015873218576283011 0 0.0091449335538172742 5.4979561280569863e-05 0 0.0087054471157457687 0.00015764622288796194 0 0.0087453972759502195 0.00023727826945901188 0 0.0087823190940975304 0.00013202266788856203 0 0.0087054471157457687 0.00015764622288796194 0 0.0087453972759502195 0.00023727826945901188 0 0.0086048532369266822 0.0002155177783397594 0 0.009749801210506847 0.00052902332271633477 0 0.0097590898148227183 0.00053990139218095575 0 0.0097418179508842687 0.00054824906776975606 0 0.009766835135944325 0.00047102265532956593 0 0.0097497386812991048 0.00052467043667079325 0 0.009725042438295986 0.00048366086885153918 0 0.0093273162238041302 0.00041338934367101662 0 0.0097460422617541894 0.00052401287836306243 0 0.0097497386812991048 0.00052467043667079325 0 0.0097191726105179121 0.00052510142491147378 0 0.009725042438295986 0.00048366086885153918 0 0.0093273162238041302 0.00041338934367101662 0 0.009565971750251135 0.00045829567230196822 0 0.009749801210506847 0.00052902332271633477 0 0.0097590898148227183 0.00053990139218095575 0 0.0097671172725534976 0.00053650686982585757 0 0.0097590898148227183 0.00053990139218095575 0 0.0097632343657603499 0.00055228656178974865 0 0.0097702122988491333 0.00053755596999221621 0 0.0097590898148227183 0.00053990139218095575 0 0.0097671172725534976 0.00053650686982585757 0 0.0097702122988491333 0.00053755596999221621 0 0.0097632343657603499 0.00055228656178974865 0 0.0097719085267087436 0.0005473430257125245 0 0.0097702122988491333 0.00053755596999221621 0 0.0097632343657603499 0.00055228656178974865 0 0.0097688346785281023 0.00056643006288674869 0 0.0097550625924477576 0.00057125411627207909 0 0.0097632343657603499 0.00055228656178974865 0 0.0097688346785281023 0.00056643006288674869 0 0.0097719085267087436 0.0005473430257125245 0 0.0097688346785281023 0.00056643006288674869 0 0.0097804312943157827 0.00057866669754017431 0 0.0097719085267087436 0.0005473430257125245 0 0.0097688346785281023 0.00056643006288674869 0 0.0097673011275787106 0.00059150926195787297 0 0.0097804312943157827 0.00057866669754017431 0 0.0097688346785281023 0.00056643006288674869 0 0.0097673011275787106 0.00059150926195787297 0 0.0097550625924477576 0.00057125411627207909 0 0.0097645452706721127 0.00062575294558131077 0 0.0097673011275787106 0.00059150926195787297 0 0.0097827345341401674 0.00061750268684689351 0 0.0097673011275787106 0.00059150926195787297 0 0.0097827345341401674 0.00061750268684689351 0 0.0097804312943157827 0.00057866669754017431 0 0.0097510568019372294 0.00061691797867784387 0 0.0097514859887672892 0.00059717067016914734 0 0.0097364898470569498 0.00062295262585978063 0 0.0097472193061109349 0.00062849861106335498 0 0.0097510568019372294 0.00061691797867784387 0 0.0097364898470569498 0.00062295262585978063 0 0.0097645452706721127 0.00062575294558131077 0 0.0097510568019372294 0.00061691797867784387 0 0.0097514859887672892 0.00059717067016914734 0 0.0097645452706721127 0.00062575294558131077 0 0.0097673011275787106 0.00059150926195787297 0 0.0097514859887672892 0.00059717067016914734 0 0.0097673011275787106 0.00059150926195787297 0 0.0097514859887672892 0.00059717067016914734 0 0.0097550625924477576 0.00057125411627207909 0 0.0097514859887672892 0.00059717067016914734 0 0.0097550625924477576 0.00057125411627207909 0 0.0097312470401621637 0.00057869174255909916 0 0.0097514859887672892 0.00059717067016914734 0 0.0097312470401621637 0.00057869174255909916 0 0.0097364898470569498 0.00062295262585978063 0 0.0097460422617541894 0.00052401287836306243 0 0.0097310217347627969 0.00057718933070009912 0 0.0097550625924477576 0.00057125411627207909 0 0.0097418179508842687 0.00054824906776975606 0 0.0097312470401621637 0.00057869174255909916 0 0.0097497386812991048 0.00052467043667079325 0 0.0097191726105179121 0.00052510142491147378 0 0.0097312470401621637 0.00057869174255909916 0 0.0097632343657603499 0.00055228656178974865 0 0.0097550625924477576 0.00057125411627207909 0 0.0097418179508842687 0.00054824906776975606 0 0.0097590898148227183 0.00053990139218095575 0 0.0097632343657603499 0.00055228656178974865 0 0.0097418179508842687 0.00054824906776975606 0 0.0097191726105179121 0.00052510142491147378 0 0.00969324194561824 0.0005415454394785506 0 0.0097312470401621637 0.00057869174255909916 0 0.011563815378032577 0.00075234211567539648 0 0.013077084504883337 0.00059421217980264965 0 0.010278861851361629 0.00057669382562566623 0 0.011563815378032577 0.00075234211567539648 0 0.00969324194561824 0.0005415454394785506 0 0.0097312470401621637 0.00057869174255909916 0 0.0097364898470569498 0.00062295262585978063 0 0.014577751201120859 0.00013550287152253816 0 0.014476152661951229 0.00016919768873170855 0 0.014562517264522835 0.00015411395485269503 0 0.011077722530666892 0.00058479818475901319 0 0.011358931410753106 0.0011787109975145472 0 0.010788235075653125 0.000872064152498765 0 0.014577751201120859 0.00013550287152253816 0 0.014562517264522835 0.00015411395485269503 0 0.014571673222062542 0.0001399504292916573 0 0.010788235075653125 0.000872064152498765 0 0.010806884588648466 0.0006024316749683623 0 0.010559324591194668 0.00051253443419970346 0 0.011077722530666892 0.00058479818475901319 0 0.010788235075653125 0.000872064152498765 0 0.010806884588648466 0.0006024316749683623 0 0.011077722530666892 0.00058479818475901319 0 0.010806884588648466 0.0006024316749683623 0 0.010726836643710184 0.0003622771759335101 0 0.010806884588648466 0.0006024316749683623 0 0.010726836643710184 0.0003622771759335101 0 0.010559324591194668 0.00051253443419970346 0 0.011077722530666892 0.00058479818475901319 0 0.010726836643710184 0.0003622771759335101 0 0.010786725794351618 -2.111367527312083e-05 0 0.010726836643710184 0.0003622771759335101 0 0.010630314818199994 0.00013729808058917449 0 0.010786725794351618 -2.111367527312083e-05 0 0.010278861851361629 0.00057669382562566623 0 0.0099882142469596528 0.00016774436078076437 0 0.010726836643710184 0.0003622771759335101 0 0.010630314818199994 0.00013729808058917449 0 0.010504809380566943 0.00029580261587285289 0 0.00969324194561824 0.0005415454394785506 0 0.0096953142266569779 0.00049491392544128712 0 0.0096486855910064319 0.00044768988752903088 0 0.009766835135944325 0.00047102265532956593 0 0.009725042438295986 0.00048366086885153918 0 0.0096840751177735881 0.00045566265405013958 0 0.0097191726105179121 0.00052510142491147378 0 0.00969324194561824 0.0005415454394785506 0 0.0096953142266569779 0.00049491392544128712 0 0.0097191726105179121 0.00052510142491147378 0 0.0096953142266569779 0.00049491392544128712 0 0.009725042438295986 0.00048366086885153918 0 0.009725042438295986 0.00048366086885153918 0 0.0096984007953646572 0.00047557676489322901 0 0.0096840751177735881 0.00045566265405013958 0 0.0096953142266569779 0.00049491392544128712 0 0.009725042438295986 0.00048366086885153918 0 0.0096984007953646572 0.00047557676489322901 0 0.0096953142266569779 0.00049491392544128712 0 0.009682945477442256 0.00046319140366696184 0 0.0096486855910064319 0.00044768988752903088 0 0.0096953142266569779 0.00049491392544128712 0 0.0096984007953646572 0.00047557676489322901 0 0.009682945477442256 0.00046319140366696184 0 0.0091062264444680355 0.00022385633424355062 0 0.0079953919061897475 6.512508312399053e-05 0 0.0088084290449000468 0.00012770510720255782 0 0.0087739426777838445 0.00012200617015868392 0 0.00881895194937613 4.8076977391923315e-05 0 0.0087054471157457687 0.00015764622288796194 0 0.0086048532369266822 0.0002155177783397594 0 0.0086270045089676256 8.7467758000881919e-05 0 0.0093273162238041302 0.00041338934367101662 0 0.0091062264444680355 0.00022385633424355062 0 0.0091062264444680355 0.00022385633424355062 0 0.009135122578506431 0.00025200134113713662 0 0.0096984007953646572 0.00047557676489322901 0 0.0096840751177735881 0.00045566265405013958 0 0.009682945477442256 0.00046319140366696184 0 0.010710392865160883 -3.289445817335152e-05 0 0.010784414879591473 -2.1302870725983981e-05 0 0.010514769754288616 -0.00058539242694247878 0 0.010630314818199994 0.00013729808058917449 0 0.010710392865160883 -3.289445817335152e-05 0 0.010518032538352045 -4.3452593809380731e-06 0 0.010212416342709295 0.00017304127172298466 0 0.0099882142469596528 0.00016774436078076437 0 0.010630314818199994 0.00013729808058917449 0 0.010710392865160883 -3.289445817335152e-05 0 0.010786725794351618 -2.111367527312083e-05 0 0.0096846095600355998 0.00045418217581147353 0 0.009682945477442256 0.00046319140366696184 0 0.0096486855910064319 0.00044768988752903088 0 0.0091062264444680355 0.00022385633424355062 0 0.0099882142469596528 0.00016774436078076437 0 0.010710392865160883 -3.289445817335152e-05 0 0.01044407514469922 -0.00018794349948219829 0 0.010514769754288616 -0.00058539242694247878 0 0.010363691517460805 -4.1686082630788151e-05 0 0.010173144761063745 0.0001643850057981103 0 0.010440995455697212 0.00010357198611667923 0 0.010363691517460805 -4.1686082630788151e-05 0 0.010210314366930215 -0.00013019286126037826 0 0.010173144761063745 0.0001643850057981103 0 0.010363691517460805 -4.1686082630788151e-05 0 0.010518032538352045 -4.3452593809380731e-06 0 0.010440995455697212 0.00010357198611667923 0 0.010710392865160883 -3.289445817335152e-05 0 0.010518032538352045 -4.3452593809380731e-06 0 0.01044407514469922 -0.00018794349948219829 0 0.010630314818199994 0.00013729808058917449 0 0.010518032538352045 -4.3452593809380731e-06 0 0.010440995455697212 0.00010357198611667923 0 0.010363691517460805 -4.1686082630788151e-05 0 0.010518032538352045 -4.3452593809380731e-06 0 0.01044407514469922 -0.00018794349948219829 0 0.010363691517460805 -4.1686082630788151e-05 0 0.01044407514469922 -0.00018794349948219829 0 0.010210314366930215 -0.00013019286126037826 0 0.01044407514469922 -0.00018794349948219829 0 0.010210314366930215 -0.00013019286126037826 0 0.01025658749421786 -0.00036071275280406215 0 0.010210314366930215 -0.00013019286126037826 0 0.010015926143872136 -0.00029226694857023859 0 0.01025658749421786 -0.00036071275280406215 0 0.010210314366930215 -0.00013019286126037826 0 0.0099367860644721581 -5.8875078374587427e-05 0 0.010015926143872136 -0.00029226694857023859 0 0.0099367860644721581 -5.8875078374587427e-05 0 0.009734605188445853 -0.00027787261445872904 0 0.010015926143872136 -0.00029226694857023859 0 0.010210314366930215 -0.00013019286126037826 0 0.0099367860644721581 -5.8875078374587427e-05 0 0.010173144761063745 0.0001643850057981103 0 0.010173144761063745 0.0001643850057981103 0 0.010195998742276951 0.00056205366588700121 0 0.0095896317348475903 0.0002272749306142778 0 0.0099367860644721581 -5.8875078374587427e-05 0 0.010173144761063745 0.0001643850057981103 0 0.0095896317348475903 0.0002272749306142778 0 0.011633118730112524 0.00022884952132714261 0 0.0096709178356268414 0.00022031099474952782 0 0.010173144761063745 0.0001643850057981103 0 0.01032332448580681 0.00038254323040038356 0 0.010195998742276951 0.00056205366588700121 0 0.01032332448580681 0.00038254323040038356 0 0.0103608523840847 0.00023673518000160519 0 0.010504809380566943 0.00029580261587285289 0 0.010173144761063745 0.0001643850057981103 0 0.01032332448580681 0.00038254323040038356 0 0.0103608523840847 0.00023673518000160519 0 0.010173144761063745 0.0001643850057981103 0 0.0103608523840847 0.00023673518000160519 0 0.010440995455697212 0.00010357198611667923 0 0.0103608523840847 0.00023673518000160519 0 0.010440995455697212 0.00010357198611667923 0 0.010504809380566943 0.00029580261587285289 0 0.010630314818199994 0.00013729808058917449 0 0.010440995455697212 0.00010357198611667923 0 0.010504809380566943 0.00029580261587285289 0 0.010726836643710184 0.0003622771759335101 0 0.010504809380566943 0.00029580261587285289 0 0.010559324591194668 0.00051253443419970346 0 0.01032332448580681 0.00038254323040038356 0 0.010504809380566943 0.00029580261587285289 0 0.010559324591194668 0.00051253443419970346 0 0.013077084504883337 0.00059421217980264965 0 0.011633118730112524 0.00022884952132714261 0 0.010788235075653125 0.000872064152498765 0 0.010559324591194668 0.00051253443419970346 0 0.010207005014637453 0.00055752530365427069 0 0.01032332448580681 0.00038254323040038356 0 0.010559324591194668 0.00051253443419970346 0 0.010207005014637453 0.00055752530365427069 0 0.010636373416211847 0.00073034209163653076 0 0.011633118730112524 0.00022884952132714261 0 0.014562517264522835 0.00015411395485269503 0 0.014571673222062542 0.0001399504292916573 0 0.014529235150161617 0.00011054634432481468 0 0.014549180259262388 0.00014616745322245005 0 0.014571673222062542 0.0001399504292916573 0 0.014509397890984231 0.00012362937245057702 0 0.014571673222062542 0.0001399504292916573 0 0.014509397890984231 0.00012362937245057702 0 0.014529235150161617 0.00011054634432481468 0 0.010608782729613563 0.00036934431186737082 0 0.010408825681018941 0.00041465427618924761 0 0.010318502638912824 0.00023544338954232261 0 0.012648415216993796 0.00028736204927222903 0 0.011633118730112524 0.00022884952132714261 0 0.010461360696260167 0.00057066808339046075 0 0.010608782729613563 0.00036934431186737082 0 0.010408825681018941 0.00041465427618924761 0 0.010461360696260167 0.00057066808339046075 0 0.010408825681018941 0.00041465427618924761 0 0.010249418111596471 0.00048363091459909365 0 0.010408825681018941 0.00041465427618924761 0 0.010249418111596471 0.00048363091459909365 0 0.010318502638912824 0.00023544338954232261 0 0.010321141576782985 0.00076487457192109753 0 0.010461360696260167 0.00057066808339046075 0 0.010249418111596471 0.00048363091459909365 0 0.010127012777792004 0.00065674273718149758 0 0.010321141576782985 0.00076487457192109753 0 0.010249418111596471 0.00048363091459909365 0 0.010127012777792004 0.00065674273718149758 0 0.010249418111596471 0.00048363091459909365 0 0.010025841114468935 0.00043209708521300348 0 0.010249418111596471 0.00048363091459909365 0 0.010146055561852056 0.00034563134123025217 0 0.010025841114468935 0.00043209708521300348 0 0.010249418111596471 0.00048363091459909365 0 0.010146055561852056 0.00034563134123025217 0 0.010318502638912824 0.00023544338954232261 0 0.010146055561852056 0.00034563134123025217 0 0.010318502638912824 0.00023544338954232261 0 0.010040626186400356 0.0002689028981210941 0 0.010318502638912824 0.00023544338954232261 0 0.010040626186400356 0.0002689028981210941 0 0.010048240449894403 0.00012350567049163795 0 0.0099367860644721581 -5.8875078374587427e-05 0 0.0095896317348475903 0.0002272749306142778 0 0.009734605188445853 -0.00027787261445872904 0 0.0095896317348475903 0.0002272749306142778 0 0.0094026799623220421 -0.00017173755827353386 0 0.009734605188445853 -0.00027787261445872904 0 0.0094026799623220421 -0.00017173755827353386 0 0.0092558446149519618 -0.00053848394542246251 0 0.0090339117374916324 -8.9671840174495814e-05 0 0.0095896317348475903 0.0002272749306142778 0 0.0094026799623220421 -0.00017173755827353386 0 0.0090339117374916324 -8.9671840174495814e-05 0 0.0096709178356268414 0.00022031099474952782 0 0.0098116039763443338 -1.8029560916423091e-05 0 0.0090426931073173938 -0.00042683173663319381 0 0.0098116039763443338 -1.8029560916423091e-05 0 0.0091518825941759984 -0.00058644781061657368 0 0.009734605188445853 -0.00027787261445872904 0 0.009217668440595312 -0.00071916160082460682 0 0.0094026799623220421 -0.00017173755827353386 0 0.0092558446149519618 -0.00053848394542246251 0 0.009734605188445853 -0.00027787261445872904 0 0.0090426931073173938 -0.00042683173663319381 0 0.0078157852694226513 -0.00085711574784636609 0 0.0090426931073173938 -0.00042683173663319381 0 0.007936824356847472 -0.00098070065054273073 0 0.009734605188445853 -0.00027787261445872904 0 0.009217668440595312 -0.00071916160082460682 0 0.0098973061713823023 -0.0006512545523840146 0 0.0090426931073173938 -0.00042683173663319381 0 0.0097487408469556884 -0.00031327313823348025 0 0.0075488258751661222 -0.0005566768529609834 0 0.0076545654133595813 -0.00078706368117782059 0 0.0077753826136838303 -0.00068542496510715252 0 0.0078157852694226513 -0.00085711574784636609 0 0.0091147662632674771 -0.00058700867926838392 0 0.0075488258751661222 -0.0005566768529609834 0 0.0077753826136838303 -0.00068542496510715252 0 0.0077817509449804511 -0.00052939601982132645 0 0.0078157852694226513 -0.00085711574784636609 0 0.0064583649811366271 -0.0013272665924307589 0 0.0058154541529438272 -0.0021427436895011648 0 0.0057431967417388517 -0.0018488625985928976 0 0.0055755174360549815 -0.001640422266949941 0 0.0058154541529438272 -0.0021427436895011648 0 0.0059366085180590422 -0.0019624670637338275 0 0.0061015695591521727 -0.0021285425964458838 0 0.0078157852694226513 -0.00085711574784636609 0 0.007936824356847472 -0.00098070065054273073 0 0.0083792357738832913 -0.00076975868328049734 0 0.0084482952782078957 -0.00091126855098568396 0 0.0080632944710608487 -0.00094836821390092692 0 0.0058154541529438272 -0.0021427436895011648 0 0.0059366085180590422 -0.0019624670637338275 0 0.0057431967417388517 -0.0018488625985928976 0 0.0059366085180590422 -0.0019624670637338275 0 0.0057431967417388517 -0.0018488625985928976 0 0.006063081392713404 -0.0017284392040871376 0 0.0057431967417388517 -0.0018488625985928976 0 0.0057809688452382631 -0.0015531296540439163 0 0.006063081392713404 -0.0017284392040871376 0 0.0057431967417388517 -0.0018488625985928976 0 0.0057809688452382631 -0.0015531296540439163 0 0.0054526264031946308 -0.0014418427198590758 0 0.0057809688452382631 -0.0015531296540439163 0 0.0059525909612429583 -0.0014101453808200834 0 0.006063081392713404 -0.0017284392040871376 0 0.0057809688452382631 -0.0015531296540439163 0 0.0059525909612429583 -0.0014101453808200834 0 0.0056761116692308012 -0.0013233523083408824 0 0.0057809688452382631 -0.0015531296540439163 0 0.0056761116692308012 -0.0013233523083408824 0 0.0054526264031946308 -0.0014418427198590758 0 0.0059525909612429583 -0.0014101453808200834 0 0.0056761116692308012 -0.0013233523083408824 0 0.0058716195582612625 -0.0011577270118680754 0 0.0054551503744890437 -0.0014431911789575653 0 0.0058647588239781456 -0.00092865501692786353 0 0.0064583649811366271 -0.0013272665924307589 0 0.0066279494597576358 -0.00082324899952638218 0 0.005565609940567099 -0.0014662173233135759 0 0.0055755174360549815 -0.001640422266949941 0 0.0053736359101867609 -0.0011403087607770224 0 0.0056761116692308012 -0.0013233523083408824 0 0.0054526264031946308 -0.0014418427198590758 0 0.0054540843697202081 -0.0011748987270283208 0 0.0057331043531506226 -0.0018260225927697381 0 0.0054551503744890437 -0.0014431911789575653 0 0.0057431967417388517 -0.0018488625985928976 0 0.005565609940567099 -0.0014662173233135759 0 0.0055755174360549815 -0.001640422266949941 0 0.0077753826136838303 -0.00068542496510715252 0 0.0078432392601056194 -0.00084878720953809872 0 0.0079331433467666346 -0.00067904103922075546 0 0.0076545654133595813 -0.00078706368117782059 0 0.0077753826136838303 -0.00068542496510715252 0 0.0078432392601056194 -0.00084878720953809872 0 0.0067472216848788857 -0.00042045333093534997 0 0.0067569828742675862 -0.00054440854676037918 0 0.0068232721378228183 -0.00056467895347237136 0 0.0067472216848788857 -0.00042045333093534997 0 0.0067076994439350373 -0.00055822944132565683 0 0.0067569828742675862 -0.00054440854676037918 0 0.0073578592270781822 -0.00057914465574820332 0 0.0066279494597576358 -0.00082324899952638218 0 0.0076545654133595813 -0.00078706368117782059 0 0.0078432392601056194 -0.00084878720953809872 0 0.0077557477263737471 -0.0010140220453773825 0 0.0067472216848788857 -0.00042045333093534997 0 0.0068831741931130522 -0.00044119735914299339 0 0.0068232721378228183 -0.00056467895347237136 0 0.0073578592270781822 -0.00057914465574820332 0 0.0072828559704056547 -0.00053451072630538333 0 0.0068831741931130522 -0.00044119735914299339 0 0.0068162867524392762 -0.0002487946628114291 0 0.0069981700592596811 -0.00033124068268295255 0 0.0067472216848788857 -0.00042045333093534997 0 0.0068831741931130522 -0.00044119735914299339 0 0.0068162867524392762 -0.0002487946628114291 0 0.0068162867524392762 -0.0002487946628114291 0 0.0069035796677083053 -7.2540254737848308e-05 0 0.0069540079265944625 -0.00021213019453259605 0 0.0079331433467666346 -0.00067904103922075546 0 0.0077817509449804511 -0.00052939601982132645 0 0.008021745701090998 -0.00050175923819249205 0 0.0072828559704056547 -0.00053451072630538333 0 0.008514479910645566 -0.00025056560414085655 0 0.0077753826136838303 -0.00068542496510715252 0 0.0079331433467666346 -0.00067904103922075546 0 0.0077817509449804511 -0.00052939601982132645 0 0.009734605188445853 -0.00027787261445872904 0 0.0098973061713823023 -0.0006512545523840146 0 0.010015926143872136 -0.00029226694857023859 0 0.0098973061713823023 -0.0006512545523840146 0 0.010015926143872136 -0.00029226694857023859 0 0.01025658749421786 -0.00036071275280406215 0 0.0091147662632674771 -0.00058700867926838392 0 0.008514479910645566 -0.00025056560414085655 0 0.0098973061713823023 -0.0006512545523840146 0 0.01025658749421786 -0.00036071275280406215 0 0.010514769754288616 -0.00058539242694247878 0 0.01044407514469922 -0.00018794349948219829 0 0.01025658749421786 -0.00036071275280406215 0 0.010514769754288616 -0.00058539242694247878 0 0.0087739426777838445 0.00012200617015868392 0 0.0087313522970302263 3.7672442460139255e-05 0 0.00881895194937613 4.8076977391923315e-05 0 0.008514479910645566 -0.00025056560414085655 0 0.0079953919061897475 6.512508312399053e-05 0 0.0069035796677083053 -7.2540254737848308e-05 0 0.0071355081807063792 -5.0145820098536459e-05 0 0.0070224462369901149 -0.00013970392136859481 0 0.0099882142469596528 0.00016774436078076437 0 0.008514479910645566 -0.00025056560414085655 0 0.0071355081807063792 -5.0145820098536459e-05 0 0.0071045851610409411 -0.00015943272977394848 0 0.0070224462369901149 -0.00013970392136859481 0 0.0071355081807063792 -5.0145820098536459e-05 0 0.0071045851610409411 -0.00015943272977394848 0 0.0071584971717665582 -0.00018244617331237439 0 0.0079953919061897475 6.512508312399053e-05 0 0.0073860815718505583 -0.00018591213814400304 0 0.0071045851610409411 -0.00015943272977394848 0 0.0071584971717665582 -0.00018244617331237439 0 0.0070567310194152898 -0.00023462282629976584 0 0.0071045851610409411 -0.00015943272977394848 0 0.0070567310194152898 -0.00023462282629976584 0 0.0070224462369901149 -0.00013970392136859481 0 0.0070567310194152898 -0.00023462282629976584 0 0.0070224462369901149 -0.00013970392136859481 0 0.0069540079265944625 -0.00021213019453259605 0 0.0069035796677083053 -7.2540254737848308e-05 0 0.0070224462369901149 -0.00013970392136859481 0 0.0069540079265944625 -0.00021213019453259605 0 0.0068162867524392762 -0.0002487946628114291 0 0.0069540079265944625 -0.00021213019453259605 0 0.0069981700592596811 -0.00033124068268295255 0 0.0070567310194152898 -0.00023462282629976584 0 0.0069540079265944625 -0.00021213019453259605 0 0.0069981700592596811 -0.00033124068268295255 0 0.0068831741931130522 -0.00044119735914299339 0 0.0070315985519121167 -0.00045444984968903712 0 0.0068952529383903274 -0.0005964824884222438 0 0.0068831741931130522 -0.00044119735914299339 0 0.0069981700592596811 -0.00033124068268295255 0 0.0070315985519121167 -0.00045444984968903712 0 0.0070315985519121167 -0.00045444984968903712 0 0.0071153448676520648 -0.00051712966258009546 0 0.0071968643351508939 -0.0003503282625968805 0 0.0071153448676520648 -0.00051712966258009546 0 0.0071968643351508939 -0.0003503282625968805 0 0.0072649223169733703 -0.00055215753354073498 0 0.0069981700592596811 -0.00033124068268295255 0 0.0070315985519121167 -0.00045444984968903712 0 0.0071968643351508939 -0.0003503282625968805 0 0.0073860815718505583 -0.00018591213814400304 0 0.0072094728403294707 -0.0003441678057132608 0 0.0070567310194152898 -0.00023462282629976584 0 0.0069981700592596811 -0.00033124068268295255 0 0.0071968643351508939 -0.0003503282625968805 0 0.0071584971717665582 -0.00018244617331237439 0 0.0070567310194152898 -0.00023462282629976584 0 0.0071968643351508939 -0.0003503282625968805 0 0.0072414647533682909 -0.00034844220722443859 0 0.0073084217222329478 -0.00022593127583888915 0 0.0074154302138137417 -0.00027437772681902193 0 0.0072032783871384233 -0.00014455407625783178 0 0.0072414647533682909 -0.00034844220722443859 0 0.0073084217222329478 -0.00022593127583888915 0 0.0072414647533682909 -0.00034844220722443859 0 0.0073735520966289768 -0.00041345495365995878 0 0.0074154302138137417 -0.00027437772681902193 0 0.0073084217222329478 -0.00022593127583888915 0 0.0074154302138137417 -0.00027437772681902193 0 0.0073737046924245847 -0.00013639794904533558 0 0.0072094728403294707 -0.0003441678057132608 0 0.0072629999703380981 -0.00054088346870782508 0 0.0072414647533682909 -0.00034844220722443859 0 0.0073735520966289768 -0.00041345495365995878 0 0.0072649223169733703 -0.00055215753354073498 0 0.0073735520966289768 -0.00041345495365995878 0 0.0074330148540002108 -0.00050668191677333383 0 0.0072649223169733703 -0.00055215753354073498 0 0.0075394610199830524 -0.00047206882230314595 0 0.00748106006873407 -0.00037802664606597638 0 0.0076073982859037551 -0.00028868536764492184 0 0.0075307007985471438 -0.00042231997569449568 0 0.0083131527682914069 -0.0006170728136257451 0 0.0075394610199830524 -0.00047206882230314595 0 0.0074330148540002108 -0.00050668191677333383 0 0.0074696004786542914 -0.00062632323468414487 0 0.0075394610199830524 -0.00047206882230314595 0 0.0074330148540002108 -0.00050668191677333383 0 0.00748106006873407 -0.00037802664606597638 0 0.0073735520966289768 -0.00041345495365995878 0 0.0074330148540002108 -0.00050668191677333383 0 0.00748106006873407 -0.00037802664606597638 0 0.0074154302138137417 -0.00027437772681902193 0 0.0075455842160870781 -0.00012458174974708141 0 0.0076073982859037551 -0.00028868536764492184 0 0.00748106006873407 -0.00037802664606597638 0 0.0074154302138137417 -0.00027437772681902193 0 0.0076073982859037551 -0.00028868536764492184 0 0.0073735520966289768 -0.00041345495365995878 0 0.00748106006873407 -0.00037802664606597638 0 0.0074154302138137417 -0.00027437772681902193 0 0.0075455842160870781 -0.00012458174974708141 0 0.007446001886907706 -5.783393863917678e-05 0 0.0073737046924245847 -0.00013639794904533558 0 0.0083037949642210361 -0.00032585783077129657 0 0.0083131527682914069 -0.0006170728136257451 0 0.0074154302138137417 -0.00027437772681902193 0 0.0075455842160870781 -0.00012458174974708141 0 0.0073737046924245847 -0.00013639794904533558 0 0.0075455842160870781 -0.00012458174974708141 0 0.007446001886907706 -5.783393863917678e-05 0 0.0074856824664401491 4.0518533867889276e-05 0 0.007446001886907706 -5.783393863917678e-05 0 0.0073737046924245847 -0.00013639794904533558 0 0.0073950424970293119 3.2983053105158779e-05 0 0.0072032783871384233 -0.00014455407625783178 0 0.0073084217222329478 -0.00022593127583888915 0 0.0073737046924245847 -0.00013639794904533558 0 0.0072032783871384233 -0.00014455407625783178 0 0.0073737046924245847 -0.00013639794904533558 0 0.0073950424970293119 3.2983053105158779e-05 0 0.0073860815718505583 -0.00018591213814400304 0 0.0081815974978695308 -1.7693339854444952e-05 0 0.0087054471157457687 0.00015764622288796194 0 0.0086270045089676256 8.7467758000881919e-05 0 0.0087452670629300858 9.7759333039899814e-05 0 0.0079953919061897475 6.512508312399053e-05 0 0.0081815974978695308 -1.7693339854444952e-05 0 0.0077310080866104429 2.8359673615654644e-05 0 0.00778026607790903 -0.00020142179181702205 0 0.0080534131521916505 5.7440959060057552e-05 0 0.0087054471157457687 0.00015764622288796194 0 0.0087452670629300858 9.7759333039899814e-05 0 0.0087823190940975304 0.00013202266788856203 0 0.0083796879977111275 -5.6483180728437398e-05 0 0.0085132783625050407 7.0482404743233958e-05 0 0.0085564612254284845 -4.0245153262100058e-05 0 0.0090625453574653576 -0.00053565891368396361 0 0.0090255292686730118 -0.00024992548337677455 0 0.0091593326551914368 -0.00035704419988414173 0 0.0090625453574653576 -0.00053565891368396361 0 0.0089529491259891427 -0.00025596562240814405 0 0.0090255292686730118 -0.00024992548337677455 0 0.0081815974978695308 -1.7693339854444952e-05 0 0.0087683533756960415 4.5270403291799599e-05 0 0.0087683533756960415 4.5270403291799599e-05 0 0.0084342394268417543 -8.286268705865467e-06 0 0.008913498549349072 -0.00015873218576283011 0 0.0089514861737281064 -0.00025628316689420614 0 0.0090255292686730118 -0.00024992548337677455 0 0.0091280721405018351 -0.00011405651252211067 0 0.008913498549349072 -0.00015873218576283011 0 0.0090255292686730118 -0.00024992548337677455 0 0.0091280721405018351 -0.00011405651252211067 0 0.0090255292686730118 -0.00024992548337677455 0 0.0091437921977056309 -0.0002347945110461432 0 0.0084342394268417543 -8.286268705865467e-06 0 0.0086800154903229673 -2.8506260343143342e-05 0 0.0083037949642210361 -0.00032585783077129657 0 0.0084342394268417543 -8.286268705865467e-06 0 0.0090255292686730118 -0.00024992548337677455 0 0.0091593326551914368 -0.00035704419988414173 0 0.0091437921977056309 -0.0002347945110461432 0 0.0081815974978695308 -1.7693339854444952e-05 0 0.0084342394268417543 -8.286268705865467e-06 0 0.007446001886907706 -5.783393863917678e-05 0 0.0073950424970293119 3.2983053105158779e-05 0 0.0074856824664401491 4.0518533867889276e-05 0 0.0093828571875947796 0.00035995834265385262 0 0.0093379269097929162 0.00039197054770813709 0 0.0095062613060112756 0.00043381758973299516 0 0.0094785885601333299 0.00040018568410727609 0 0.0094161051488713451 0.00027746369442771041 0 0.0095616464302390458 0.00035845647008610502 0 0.0093828571875947796 0.00035995834265385262 0 0.0094785885601333299 0.00040018568410727609 0 0.0094161051488713451 0.00027746369442771041 0 0.0093828571875947796 0.00035995834265385262 0 0.0095062613060112756 0.00043381758973299516 0 0.0094785885601333299 0.00040018568410727609 0 0.0093828571875947796 0.00035995834265385262 0 0.0094161051488713451 0.00027746369442771041 0 0.0092487731193323583 0.00024557834385171418 0 0.0094161051488713451 0.00027746369442771041 0 0.0092487731193323583 0.00024557834385171418 0 0.0092556389023388062 0.00011282616996181297 0 0.0094971346620904874 0.0002465684270871905 0 0.0090677207901030017 0.00010398052189963156 0 0.0093379269097929162 0.00039197054770813709 0 0.0092487731193323583 0.00024557834385171418 0 0.0089647402464320281 6.7603484960533926e-05 0 0.0096839700969188532 9.0056232612480987e-05 0 0.0094259720730534378 9.8360444936188032e-05 0 0.0089647402464320281 6.7603484960533926e-05 0 0.0093828571875947796 0.00035995834265385262 0 0.0093379269097929162 0.00039197054770813709 0 0.0092487731193323583 0.00024557834385171418 0 0.0096839700969188532 9.0056232612480987e-05 0 0.0094259720730534378 9.8360444936188032e-05 0 0.0097672118059353198 6.2134403448306066e-05 0 0.0094259720730534378 9.8360444936188032e-05 0 0.0097672118059353198 6.2134403448306066e-05 0 0.0093642436736867066 7.6288114745445105e-05 0 0.0096663476779974312 1.6795150752456968e-07 0 0.0097672118059353198 6.2134403448306066e-05 0 0.0093642436736867066 7.6288114745445105e-05 0 0.0096663476779974312 1.6795150752456968e-07 0 0.0097672118059353198 6.2134403448306066e-05 0 0.010457988342130287 6.0393585919092695e-08 0 0.0097672118059353198 6.2134403448306066e-05 0 0.010153735555364583 5.9389251576718987e-05 0 0.010457988342130287 6.0393585919092695e-08 0 0.0096839700969188532 9.0056232612480987e-05 0 0.0097672118059353198 6.2134403448306066e-05 0 0.010153735555364583 5.9389251576718987e-05 0 0.0096839700969188532 9.0056232612480987e-05 0 0.010260216240065383 7.8469506455362982e-05 0 0.010153735555364583 5.9389251576718987e-05 0 0.010260216240065383 7.8469506455362982e-05 0 0.010153735555364583 5.9389251576718987e-05 0 0.010626602756500122 7.6427049457702763e-05 0 0.010153735555364583 5.9389251576718987e-05 0 0.010457988342130287 6.0393585919092695e-08 0 0.010626602756500122 7.6427049457702763e-05 0 0.011249981674170319 5.5131252052329083e-07 0 0.010457988342130287 6.0393585919092695e-08 0 0.010626602756500122 7.6427049457702763e-05 0 0.010479103822652895 4.0307726692690163e-06 0 0.010260216240065383 7.8469506455362982e-05 0 0.010626602756500122 7.6427049457702763e-05 0 0.010409228163320719 -5.1604383418474072e-06 0 0.01005458762225617 0.0002384778550757877 0 0.0099973874823250149 2.5033199020819585e-05 0 0.010479103822652895 4.0307726692690163e-06 0 0.0098544362062549535 0.00043678210347795671 0 0.0099973874823250149 2.5033199020819585e-05 0 0.0098544362062549535 0.00043678210347795671 0 0.0095332725654560975 0.00043447968307760054 0 0.0095135658418920681 0.00038061317127048745 0 0.0096251970508564703 0.000417471109792095 0 0.0095062613060112756 0.00043381758973299516 0 0.0098544362062549535 0.00043678210347795671 0 0.0095332725654560975 0.00043447968307760054 0 0.0094971346620904874 0.0002465684270871905 0 0.01005458762225617 0.0002384778550757877 0 0.0093379269097929162 0.00039197054770813709 0 0.0095062613060112756 0.00043381758973299516 0 0.0098544362062549535 0.00043678210347795671 0 0.0094785885601333299 0.00040018568410727609 0 0.0095332725654560975 0.00043447968307760054 0 0.0095785849846131855 0.00044445163224997666 0 0.0095062613060112756 0.00043381758973299516 0 0.0094785885601333299 0.00040018568410727609 0 0.0095332725654560975 0.00043447968307760054 0 0.0095332725654560975 0.00043447968307760054 0 0.0095968441433920484 0.00055729450029744232 0 0.0095785849846131855 0.00044445163224997666 0 0.0095015765178623045 0.00062712741656450435 0 0.0095332725654560975 0.00043447968307760054 0 0.0095968441433920484 0.00055729450029744232 0 0.0097092127103427187 0.00061871161184604343 0 0.0095968441433920484 0.00055729450029744232 0 0.0096626713321495642 0.00051444439801906375 0 0.0095968441433920484 0.00055729450029744232 0 0.0096626713321495642 0.00051444439801906375 0 0.0095785849846131855 0.00044445163224997666 0 0.0097092127103427187 0.00061871161184604343 0 0.0096626713321495642 0.00051444439801906375 0 0.009767072277464154 0.00053043693290214162 0 0.0096626713321495642 0.00051444439801906375 0 0.009767072277464154 0.00053043693290214162 0 0.0096780049798792893 0.00043361673435805435 0 0.009767072277464154 0.00053043693290214162 0 0.0096780049798792893 0.00043361673435805435 0 0.009823073406378684 0.00043058643023029372 0 0.0096780049798792893 0.00043361673435805435 0 0.009823073406378684 0.00043058643023029372 0 0.0097315688957264525 0.00031915412346215645 0 0.0096780049798792893 0.00043361673435805435 0 0.0095785849846131855 0.00044445163224997666 0 0.0095616464302390458 0.00035845647008610502 0 0.0094785885601333299 0.00040018568410727609 0 0.0095785849846131855 0.00044445163224997666 0 0.0095616464302390458 0.00035845647008610502 0 0.0096626713321495642 0.00051444439801906375 0 0.0096780049798792893 0.00043361673435805435 0 0.0095785849846131855 0.00044445163224997666 0 0.0098673808725362154 0.00053261652826702406 0 0.01005258035482528 0.00058935439158920556 0 0.010127012777792004 0.00065674273718149758 0 0.0099516917023757361 0.00053615940269937832 0 0.010025841114468935 0.00043209708521300348 0 0.009767072277464154 0.00053043693290214162 0 0.0099516917023757361 0.00053615940269937832 0 0.009823073406378684 0.00043058643023029372 0 0.0098232616389552115 0.00063154247982859354 0 0.009767072277464154 0.00053043693290214162 0 0.0099516917023757361 0.00053615940269937832 0 0.009823073406378684 0.00043058643023029372 0 0.010025841114468935 0.00043209708521300348 0 0.0098910262264365993 0.00033440384271448 0 0.0099516917023757361 0.00053615940269937832 0 0.009823073406378684 0.00043058643023029372 0 0.010025841114468935 0.00043209708521300348 0 0.010146055561852056 0.00034563134123025217 0 0.010025841114468935 0.00043209708521300348 0 0.010040626186400356 0.0002689028981210941 0 0.010025841114468935 0.00043209708521300348 0 0.010040626186400356 0.0002689028981210941 0 0.0098910262264365993 0.00033440384271448 0 0.010040626186400356 0.0002689028981210941 0 0.0099101404543264302 0.00021437497240842996 0 0.0099807243047276301 0.00017233281855235616 0 0.010040626186400356 0.0002689028981210941 0 0.0098910262264365993 0.00033440384271448 0 0.0099101404543264302 0.00021437497240842996 0 0.0098910262264365993 0.00033440384271448 0 0.0099101404543264302 0.00021437497240842996 0 0.0097315688957264525 0.00031915412346215645 0 0.0099101404543264302 0.00021437497240842996 0 0.0097315688957264525 0.00031915412346215645 0 0.0097192618823506143 0.00017083305099818089 0 0.009823073406378684 0.00043058643023029372 0 0.0098910262264365993 0.00033440384271448 0 0.0097315688957264525 0.00031915412346215645 0 0.0099101404543264302 0.00021437497240842996 0 0.0099236814169927044 6.743098504725665e-05 0 0.0097192618823506143 0.00017083305099818089 0 0.0099101404543264302 0.00021437497240842996 0 0.0099807243047276301 0.00017233281855235616 0 0.0099236814169927044 6.743098504725665e-05 0 0.0099236814169927044 6.743098504725665e-05 0 0.010032846415609363 0.00012353227033918223 0 0.010004456472671532 -3.1395977151758061e-05 0 0.0099807243047276301 0.00017233281855235616 0 0.0099236814169927044 6.743098504725665e-05 0 0.010048240449894403 0.00012350567049163795 0 0.0099996921523791537 0.00010175790178501351 0 0.0098116039763443338 -1.8029560916423091e-05 0 0.010040626186400356 0.0002689028981210941 0 0.0099807243047276301 0.00017233281855235616 0 0.010048240449894403 0.00012350567049163795 0 0.0094161051488713451 0.00027746369442771041 0 0.0095616464302390458 0.00035845647008610502 0 0.0095973949113371641 0.00025213035037072309 0 0.0096780049798792893 0.00043361673435805435 0 0.0095616464302390458 0.00035845647008610502 0 0.0097315688957264525 0.00031915412346215645 0 0.0095616464302390458 0.00035845647008610502 0 0.0097315688957264525 0.00031915412346215645 0 0.0095973949113371641 0.00025213035037072309 0 0.0097315688957264525 0.00031915412346215645 0 0.0097192618823506143 0.00017083305099818089 0 0.0095973949113371641 0.00025213035037072309 0 0.0097192618823506143 0.00017083305099818089 0 0.0095324991499924593 0.00012062863281712856 0 0.0095973949113371641 0.00025213035037072309 0 0.0094161051488713451 0.00027746369442771041 0 0.0095324991499924593 0.00012062863281712856 0 0.0092556389023388062 0.00011282616996181297 0 0.0094161051488713451 0.00027746369442771041 0 0.0095324991499924593 0.00012062863281712856 0 0.0095973949113371641 0.00025213035037072309 0 0.0095324991499924593 0.00012062863281712856 0 0.0093554693238905827 -6.620267218347605e-05 0 0.0097269156935343177 -8.0566895185013736e-05 0 0.0095324991499924593 0.00012062863281712856 0 0.0093554693238905827 -6.620267218347605e-05 0 0.0092556389023388062 0.00011282616996181297 0 0.0097192618823506143 0.00017083305099818089 0 0.0095324991499924593 0.00012062863281712856 0 0.0097269156935343177 -8.0566895185013736e-05 0 0.0097055049771891666 0.00010453198594784984 0 0.0097555859999158591 8.6063663012452482e-06 0 0.0097555859999158591 8.6063663012452482e-06 0 0.0089562786225880434 -0.00096322067092827408 0 0.0096655990284530095 -0.00011602065970782095 0 0.0098389273728066631 -0.00028496936393381943 0 0.0096372150509701493 -0.00040391096052967381 0 0.0097269156935343177 -8.0566895185013736e-05 0 0.0094594765569409132 -0.00032688907930622789 0 0.0097330169390478487 -0.00052503338266037328 0 0.0093554693238905827 -6.620267218347605e-05 0 0.0097269156935343177 -8.0566895185013736e-05 0 0.0094594765569409132 -0.00032688907930622789 0 0.0094594765569409132 -0.00032688907930622789 0 0.0091787565922766823 -0.0004813572246113333 0 0.0091718788382325941 -0.00024897569388315012 0 0.0093554693238905827 -6.620267218347605e-05 0 0.0094594765569409132 -0.00032688907930622789 0 0.0091718788382325941 -0.00024897569388315012 0 0.010131639904987668 -9.4570800484309911e-05 0 0.010032846415609363 0.00012353227033918223 0 0.010004456472671532 -3.1395977151758061e-05 0 0.010131639904987668 -9.4570800484309911e-05 0 0.010019869441468729 -0.00011955697692337042 0 0.010004456472671532 -3.1395977151758061e-05 0 0.010131639904987668 -9.4570800484309911e-05 0 0.010019869441468729 -0.00011955697692337042 0 0.010015471074734184 -0.00016724119104379138 0 0.0099236814169927044 6.743098504725665e-05 0 0.010004456472671532 -3.1395977151758061e-05 0 0.0098558668735348326 -6.9308889877886651e-05 0 0.010019869441468729 -0.00011955697692337042 0 0.010004456472671532 -3.1395977151758061e-05 0 0.0099386549883842597 -0.00013667681055579917 0 0.010004456472671532 -3.1395977151758061e-05 0 0.0098558668735348326 -6.9308889877886651e-05 0 0.0099386549883842597 -0.00013667681055579917 0 0.0099236814169927044 6.743098504725665e-05 0 0.0097192618823506143 0.00017083305099818089 0 0.0098558668735348326 -6.9308889877886651e-05 0 0.0097192618823506143 0.00017083305099818089 0 0.0096655990284530095 -0.00011602065970782095 0 0.0098558668735348326 -6.9308889877886651e-05 0 0.0098558668735348326 -6.9308889877886651e-05 0 0.0098389273728066631 -0.00028496936393381943 0 0.0099386549883842597 -0.00013667681055579917 0 0.0096655990284530095 -0.00011602065970782095 0 0.0098558668735348326 -6.9308889877886651e-05 0 0.0098389273728066631 -0.00028496936393381943 0 0.0064368442438383373 -0.0019533875561100803 0 0.0061336501406788436 -0.0019433053979142282 0 0.0061015695591521727 -0.0021285425964458838 0 0.0080331723411486752 -0.00117562250610408 0 0.007936824356847472 -0.00098070065054273073 0 0.0098389273728066631 -0.00028496936393381943 0 0.0099386549883842597 -0.00013667681055579917 0 0.010015471074734184 -0.00016724119104379138 0 0.0064368442438383373 -0.0019533875561100803 0 0.0061336501406788436 -0.0019433053979142282 0 0.006063081392713404 -0.0017284392040871376 0 0.0059366085180590422 -0.0019624670637338275 0 0.0061336501406788436 -0.0019433053979142282 0 0.006063081392713404 -0.0017284392040871376 0 0.0059366085180590422 -0.0019624670637338275 0 0.0061336501406788436 -0.0019433053979142282 0 0.0061015695591521727 -0.0021285425964458838 0 0.010019869441468729 -0.00011955697692337042 0 0.0099386549883842597 -0.00013667681055579917 0 0.010015471074734184 -0.00016724119104379138 0 0.0064368442438383373 -0.0019533875561100803 0 0.006063081392713404 -0.0017284392040871376 0 0.0064248505502056737 -0.0015840484343520209 0 0.006063081392713404 -0.0017284392040871376 0 0.0064248505502056737 -0.0015840484343520209 0 0.0061869595397389269 -0.0014857190074459797 0 0.0080331723411486752 -0.00117562250610408 0 0.0089562786225880434 -0.00096322067092827408 0 0.0064368442438383373 -0.0019533875561100803 0 0.0064248505502056737 -0.0015840484343520209 0 0.0067813811886289835 -0.0017674251235791157 0 0.0064248505502056737 -0.0015840484343520209 0 0.0063081557227489694 -0.0012168849313879103 0 0.0067917782749448222 -0.0013118792230431603 0 0.0064248505502056737 -0.0015840484343520209 0 0.0063081557227489694 -0.0012168849313879103 0 0.0061869595397389269 -0.0014857190074459797 0 0.0059525909612429583 -0.0014101453808200834 0 0.0063081557227489694 -0.0012168849313879103 0 0.0061869595397389269 -0.0014857190074459797 0 0.0059525909612429583 -0.0014101453808200834 0 0.0063081557227489694 -0.0012168849313879103 0 0.0058716195582612625 -0.0011577270118680754 0 0.0059525909612429583 -0.0014101453808200834 0 0.006063081392713404 -0.0017284392040871376 0 0.0061869595397389269 -0.0014857190074459797 0 0.0094424811213206106 -0.00070733779560824817 0 0.0091787565922766823 -0.0004813572246113333 0 0.0089496901732496349 -0.00078119622087108635 0 0.0094594765569409132 -0.00032688907930622789 0 0.0094424811213206106 -0.00070733779560824817 0 0.0091787565922766823 -0.0004813572246113333 0 0.0089562786225880434 -0.00096322067092827408 0 0.0082441471982108612 -0.0012422764525916021 0 0.0094594765569409132 -0.00032688907930622789 0 0.0094424811213206106 -0.00070733779560824817 0 0.0097330169390478487 -0.00052503338266037328 0 0.0094424811213206106 -0.00070733779560824817 0 0.0098156319319098861 -0.00049913136436486596 0 0.0098031540774353235 -0.0011318347323798054 0 0.0064248505502056737 -0.0015840484343520209 0 0.0067813811886289835 -0.0017674251235791157 0 0.0067917782749448222 -0.0013118792230431603 0 0.0097176302168176347 -0.00054852375556190642 0 0.0089562786225880434 -0.00096322067092827408 0 0.0094424811213206106 -0.00070733779560824817 0 0.0092468326080601473 -0.0010014177945834001 0 0.0089496901732496349 -0.00078119622087108635 0 0.0098031540774353235 -0.0011318347323798054 0 0.0092468326080601473 -0.0010014177945834001 0 0.0092367182060015228 -0.0013880229085060578 0 0.0094424811213206106 -0.00070733779560824817 0 0.0098031540774353235 -0.0011318347323798054 0 0.0092468326080601473 -0.0010014177945834001 0 0.0092468326080601473 -0.0010014177945834001 0 0.0089153536500376079 -0.0011323011583118455 0 0.0092367182060015228 -0.0013880229085060578 0 0.0089153536500376079 -0.0011323011583118455 0 0.0084781801466983792 -0.0011497978918334616 0 0.0087234052265190033 -0.0014254686980321619 0 0.0089153536500376079 -0.0011323011583118455 0 0.0084781801466983792 -0.0011497978918334616 0 0.0089496901732496349 -0.00078119622087108635 0 0.0084781801466983792 -0.0011497978918334616 0 0.0085603843654370199 -0.00076192710434323265 0 0.0089496901732496349 -0.00078119622087108635 0 0.0092468326080601473 -0.0010014177945834001 0 0.0089153536500376079 -0.0011323011583118455 0 0.0089496901732496349 -0.00078119622087108635 0 0.0080960992140925881 -0.0012803557844631892 0 0.0084781801466983792 -0.0011497978918334616 0 0.0080671841315530669 -0.0010109303436077947 0 0.0084781801466983792 -0.0011497978918334616 0 0.0085603843654370199 -0.00076192710434323265 0 0.0080671841315530669 -0.0010109303436077947 0 0.0083970076872276218 -0.00050510305344513473 0 0.0085603843654370199 -0.00076192710434323265 0 0.0080671841315530669 -0.0010109303436077947 0 0.0083970076872276218 -0.00050510305344513473 0 0.0085603843654370199 -0.00076192710434323265 0 0.0088840126305671629 -0.00040547007468086176 0 0.0085603843654370199 -0.00076192710434323265 0 0.0089496901732496349 -0.00078119622087108635 0 0.0088840126305671629 -0.00040547007468086176 0 0.0091787565922766823 -0.0004813572246113333 0 0.0089496901732496349 -0.00078119622087108635 0 0.0088840126305671629 -0.00040547007468086176 0 0.0093554693238905827 -6.620267218347605e-05 0 0.0091718788382325941 -0.00024897569388315012 0 0.0090568226483521454 -8.1333220857686661e-05 0 0.0091787565922766823 -0.0004813572246113333 0 0.0091718788382325941 -0.00024897569388315012 0 0.0088840126305671629 -0.00040547007468086176 0 0.0091718788382325941 -0.00024897569388315012 0 0.0088840126305671629 -0.00040547007468086176 0 0.0090568226483521454 -8.1333220857686661e-05 0 0.0083970076872276218 -0.00050510305344513473 0 0.0087530823069461947 -0.00017362862461540562 0 0.0084022765342201093 -4.7236025487047348e-05 0 0.0083970076872276218 -0.00050510305344513473 0 0.0088840126305671629 -0.00040547007468086176 0 0.0087530823069461947 -0.00017362862461540562 0 0.0088840126305671629 -0.00040547007468086176 0 0.0087530823069461947 -0.00017362862461540562 0 0.0090568226483521454 -8.1333220857686661e-05 0 0.0087530823069461947 -0.00017362862461540562 0 0.0089647402464320281 6.7603484960533926e-05 0 0.0090568226483521454 -8.1333220857686661e-05 0 0.0092487731193323583 0.00024557834385171418 0 0.0089647402464320281 6.7603484960533926e-05 0 0.0092556389023388062 0.00011282616996181297 0 0.0087530823069461947 -0.00017362862461540562 0 0.0089647402464320281 6.7603484960533926e-05 0 0.0084022765342201093 -4.7236025487047348e-05 0 0.0093554693238905827 -6.620267218347605e-05 0 0.0092556389023388062 0.00011282616996181297 0 0.0090568226483521454 -8.1333220857686661e-05 0 0.0089647402464320281 6.7603484960533926e-05 0 0.0092556389023388062 0.00011282616996181297 0 0.0090568226483521454 -8.1333220857686661e-05 0 0.0093642436736867066 7.6288114745445105e-05 0 0.0090685270906640247 5.0856441375487404e-05 0 0.0088745321982733605 1.3473171813111893e-07 0 0.0096663476779974312 1.6795150752456968e-07 0 0.0093642436736867066 7.6288114745445105e-05 0 0.0088745321982733605 1.3473171813111893e-07 0 0.0094259720730534378 9.8360444936188032e-05 0 0.0089647402464320281 6.7603484960533926e-05 0 0.0084022765342201093 -4.7236025487047348e-05 0 0.0093078598409133111 8.5811934622658233e-05 0 0.0087399020974311594 -1.9109777317976793e-05 0 0.0094259720730534378 9.8360444936188032e-05 0 0.0093642436736867066 7.6288114745445105e-05 0 0.0090685270906640247 5.0856441375487404e-05 0 0.0087399020974311594 -1.9109777317976793e-05 0 0.0080547432966166961 -0.00037505343581561632 0 0.0090685270906640247 5.0856441375487404e-05 0 0.0086655393512963981 2.1451688791453038e-05 0 0.0083266700242010001 -1.6439252813086976e-05 0 0.0090685270906640247 5.0856441375487404e-05 0 0.0086655393512963981 2.1451688791453038e-05 0 0.0088745321982733605 1.3473171813111893e-07 0 0.0086655393512963981 2.1451688791453038e-05 0 0.0088745321982733605 1.3473171813111893e-07 0 0.0080828075613813451 -6.3770950022048238e-09 0 0.0086655393512963981 2.1451688791453038e-05 0 0.0080828075613813451 -6.3770950022048238e-09 0 0.0083266700242010001 -1.6439252813086976e-05 0 0.0083970076872276218 -0.00050510305344513473 0 0.0084022765342201093 -4.7236025487047348e-05 0 0.0076628377798078845 -0.00077183356394499452 0 0.0083970076872276218 -0.00050510305344513473 0 0.0076628377798078845 -0.00077183356394499452 0 0.0080671841315530669 -0.0010109303436077947 0 0.0076628377798078845 -0.00077183356394499452 0 0.0080671841315530669 -0.0010109303436077947 0 0.0075917313853488995 -0.0012553964346092448 0 0.0080671841315530669 -0.0010109303436077947 0 0.0075917313853488995 -0.0012553964346092448 0 0.0077832155836507983 -0.0013234110016095116 0 0.0080960992140925881 -0.0012803557844631892 0 0.0080671841315530669 -0.0010109303436077947 0 0.0077832155836507983 -0.0013234110016095116 0 0.0080828075613813451 -6.3770950022048238e-09 0 0.0083266700242010001 -1.6439252813086976e-05 0 0.0077440542728881984 -1.7470882503921083e-05 0 0.0080828075613813451 -6.3770950022048238e-09 0 0.0077440542728881984 -1.7470882503921083e-05 0 0.0072909056877400527 -1.2852697209327135e-07 0 0.0083266700242010001 -1.6439252813086976e-05 0 0.0077440542728881984 -1.7470882503921083e-05 0 0.007500121187636522 -6.1976598473409032e-05 0 0.0076628377798078845 -0.00077183356394499452 0 0.0075917313853488995 -0.0012553964346092448 0 0.0072387205087411817 -0.0016180168689846907 0 0.0080547432966166961 -0.00037505343581561632 0 0.0070310832728794417 -0.00076431270155176119 0 0.0077440542728881984 -1.7470882503921083e-05 0 0.0072909056877400527 -1.2852697209327135e-07 0 0.0075528475408578799 -3.3955135268099194e-05 0 0.0077440542728881984 -1.7470882503921083e-05 0 0.0075528475408578799 -3.3955135268099194e-05 0 0.007500121187636522 -6.1976598473409032e-05 0 0.0072909056877400527 -1.2852697209327135e-07 0 0.0075528475408578799 -3.3955135268099194e-05 0 0.007390768346555404 -1.4711491892347103e-05 0 0.0070668690891856041 -0.00039979350308160525 0 0.0070310832728794417 -0.00076431270155176119 0 0.0072387205087411817 -0.0016180168689846907 0 0.0074880791489720985 -0.0015466056850609667 0 0.0074660544476305149 -0.0017962135058507383 0 0.0075917313853488995 -0.0012553964346092448 0 0.0072387205087411817 -0.0016180168689846907 0 0.0074880791489720985 -0.0015466056850609667 0 0.0075917313853488995 -0.0012553964346092448 0 0.0077832155836507983 -0.0013234110016095116 0 0.0074880791489720985 -0.0015466056850609667 0 0.0074880791489720985 -0.0015466056850609667 0 0.0077265319176830884 -0.0015058022508466385 0 0.0075600339062921141 -0.0016671905140300501 0 0.0080960992140925881 -0.0012803557844631892 0 0.0077832155836507983 -0.0013234110016095116 0 0.0077265319176830884 -0.0015058022508466385 0 0.0077832155836507983 -0.0013234110016095116 0 0.0074880791489720985 -0.0015466056850609667 0 0.0077265319176830884 -0.0015058022508466385 0 0.0077265319176830884 -0.0015058022508466385 0 0.0075600339062921141 -0.0016671905140300501 0 0.0075393219087068909 -0.0017828488186157584 0 0.0075600339062921141 -0.0016671905140300501 0 0.0075393219087068909 -0.0017828488186157584 0 0.0074660544476305149 -0.0017962135058507383 0 0.0074880791489720985 -0.0015466056850609667 0 0.0075600339062921141 -0.0016671905140300501 0 0.0074660544476305149 -0.0017962135058507383 0 0.0074660544476305149 -0.0017962135058507383 0 0.0072374805534829011 -0.0020688841421154453 0 0.0075098732981674432 -0.0019042175900302438 0 0.0072387205087411817 -0.0016180168689846907 0 0.0074660544476305149 -0.0017962135058507383 0 0.0075098732981674432 -0.0019042175900302438 0 0.0075393219087068909 -0.0017828488186157584 0 0.0074660544476305149 -0.0017962135058507383 0 0.0072374805534829011 -0.0020688841421154453 0 0.0072909056877400527 -1.2852697209327135e-07 0 0.007390768346555404 -1.4711491892347103e-05 0 0.0064990497036090441 -1.8604387921585306e-08 0 0.0070310832728794417 -0.00076431270155176119 0 0.00649888459611353 2.5925053119419116e-07 0 0.0070310832728794417 -0.00076431270155176119 0 0.0065771961113889141 -0.0011739629749236357 0 0.0061828613630386343 -0.0011666638660983268 0 0.005737240966355946 -0.00023850715988920344 0 0.0064975316381688268 -9.4484305355461806e-07 0 0.0087234052265190033 -0.0014254686980321619 0 0.0081549933461809165 -0.0016599771423335683 0 0.0090916373565924444 -0.0018847637310872814 0 0.0084781801466983792 -0.0011497978918334616 0 0.0087234052265190033 -0.0014254686980321619 0 0.0081549933461809165 -0.0016599771423335683 0 0.0089153536500376079 -0.0011323011583118455 0 0.0087234052265190033 -0.0014254686980321619 0 0.0092367182060015228 -0.0013880229085060578 0 0.0080960992140925881 -0.0012803557844631892 0 0.0084781801466983792 -0.0011497978918334616 0 0.0081549933461809165 -0.0016599771423335683 0 0.0080960992140925881 -0.0012803557844631892 0 0.0077265319176830884 -0.0015058022508466385 0 0.0081549933461809165 -0.0016599771423335683 0 0.0077265319176830884 -0.0015058022508466385 0 0.0075393219087068909 -0.0017828488186157584 0 0.0081549933461809165 -0.0016599771423335683 0 0.0071280220836533389 -0.0020259588532969071 0 0.007171867571111018 -0.002227765272152404 0 0.0072374805534829011 -0.0020688841421154453 0 0.0081549933461809165 -0.0016599771423335683 0 0.0087690717233028792 -0.0024489766676588794 0 0.0075393219087068909 -0.0017828488186157584 0 0.0072374805534829011 -0.0020688841421154453 0 0.0081549933461809165 -0.0016599771423335683 0 0.0081549933461809165 -0.0016599771423335683 0 0.0087690717233028792 -0.0024489766676588794 0 0.0090916373565924444 -0.0018847637310872814 0 0.0051777201277569884 -0.0017054285587197607 0 0.006337423760314694 -0.0013163518675691523 0 0.0050384825201166663 -0.00042220879695989107 0 0.0072374805534829011 -0.0020688841421154453 0 0.0051777201277569884 -0.0017054285587197607 0 0.006337423760314694 -0.0013163518675691523 0 0.006337423760314694 -0.0013163518675691523 0 0.0050384825201166663 -0.00042220879695989107 0 0.0065645844321983535 -0.00073593122528949854 0 0.0050384825201166663 -0.00042220879695989107 0 0.0065645844321983535 -0.00073593122528949854 0 0.0052983116014391155 5.2327392037838325e-05 0 0.0058041411551538252 3.6662560725391712e-05 0 0.0064975316381688268 -9.4484305355461806e-07 0 0.0057355847490039207 4.4804242305387901e-07 0 0.005737240966355946 -0.00023850715988920344 0 0.0058041411551538252 3.6662560725391712e-05 0 0.0064975316381688268 -9.4484305355461806e-07 0 0.0072374805534829011 -0.0020688841421154453 0 0.0075098732981674432 -0.0019042175900302438 0 0.006337423760314694 -0.0013163518675691523 0 0.005737240966355946 -0.00023850715988920344 0 0.0058041411551538252 3.6662560725391712e-05 0 0.0054329480815174863 7.4709571399315348e-05 0 0.0065771961113889141 -0.0011739629749236357 0 0.0059816485780287438 -0.00034810775629605346 0 0.0075098732981674432 -0.0019042175900302438 0 0.006337423760314694 -0.0013163518675691523 0 0.0065645844321983535 -0.00073593122528949854 0 0.0058041411551538252 3.6662560725391712e-05 0 0.0054329480815174863 7.4709571399315348e-05 0 0.0053133562042118037 7.8496210103993342e-05 0 0.0058041411551538252 3.6662560725391712e-05 0 0.0057355847490039207 4.4804242305387901e-07 0 0.0053133562042118037 7.8496210103993342e-05 0 0.0057355847490039207 4.4804242305387901e-07 0 0.0049722108573426018 1.1460594003818744e-07 0 0.0053133562042118037 7.8496210103993342e-05 0 0.0049722108573426018 1.1460594003818744e-07 0 0.0053133562042118037 7.8496210103993342e-05 0 0.0047940875877872111 8.6394258095948625e-05 0 0.0053133562042118037 7.8496210103993342e-05 0 0.0052983116014391155 5.2327392037838325e-05 0 0.0047940875877872111 8.6394258095948625e-05 0 0.0054329480815174863 7.4709571399315348e-05 0 0.0053133562042118037 7.8496210103993342e-05 0 0.0052983116014391155 5.2327392037838325e-05 0 0.0059816485780287438 -0.00034810775629605346 0 0.0054221573239301504 1.8566449885468514e-05 0 0.0050384825201166663 -0.00042220879695989107 0 0.0052983116014391155 5.2327392037838325e-05 0 0.0047252008553290209 0.00010744349888140791 0 0.0052983116014391155 5.2327392037838325e-05 0 0.004869055759969064 0.00013743079038434905 0 0.0047252008553290209 0.00010744349888140791 0 0.0052983116014391155 5.2327392037838325e-05 0 0.004869055759969064 0.00013743079038434905 0 0.0047940875877872111 8.6394258095948625e-05 0 0.004869055759969064 0.00013743079038434905 0 0.0045989073307904473 0.00012971430619393033 0 0.0047940875877872111 8.6394258095948625e-05 0 0.004869055759969064 0.00013743079038434905 0 0.0045989073307904473 0.00012971430619393033 0 0.0046215830049192528 0.0001433485484889894 0 0.004869055759969064 0.00013743079038434905 0 0.0046215830049192528 0.0001433485484889894 0 0.0047252008553290209 0.00010744349888140791 0 0.0045989073307904473 0.00012971430619393033 0 0.0044770202148094393 0.00011349631637702358 0 0.0046215830049192528 0.0001433485484889894 0 0.0044770202148094393 0.00011349631637702358 0 0.0046215830049192528 0.0001433485484889894 0 0.0045020453047400202 6.9572684137685458e-05 0 0.0045989073307904473 0.00012971430619393033 0 0.0044770202148094393 0.00011349631637702358 0 0.0043243740389353668 8.9495816750902245e-05 0 0.0045989073307904473 0.00012971430619393033 0 0.0043243740389353668 8.9495816750902245e-05 0 0.0041888410985445835 8.0327181970107716e-05 0 0.0041888410985445835 8.0327181970107716e-05 0 0.0042093620342894692 8.3782682463025903e-08 0 0.0034457453075265811 4.4918350871040873e-07 0 0.0049722108573426018 1.1460594003818744e-07 0 0.0042093620342894692 8.3782682463025903e-08 0 0.0047940875877872111 8.6394258095948625e-05 0 0.0041888410985445835 8.0327181970107716e-05 0 0.0042093620342894692 8.3782682463025903e-08 0 0.0047940875877872111 8.6394258095948625e-05 0 0.0045989073307904473 0.00012971430619393033 0 0.0041888410985445835 8.0327181970107716e-05 0 0.0047940875877872111 8.6394258095948625e-05 0 0.0046756714586398476 5.5223271289331999e-05 0 0.0046458272376935028 6.091796588688275e-05 0 0.0046513028483497485 7.236034569514107e-05 0 0.0046458272376935028 6.091796588688275e-05 0 0.0046327135521890914 9.3907501797626963e-05 0 0.0046513028483497485 7.236034569514107e-05 0 0.0046756714586398476 5.5223271289331999e-05 0 0.0046513028483497485 7.236034569514107e-05 0 0.0046746566927969536 4.1538498651587342e-05 0 0.0046531246232891909 6.8475711299829005e-06 0 0.0046329227526304695 -6.7695026698607993e-06 0 0.0046756714586398476 5.5223271289331999e-05 0 0.0046458272376935028 6.091796588688275e-05 0 0.0046331962581191259 -5.6534481782162839e-06 0 0.0046458272376935028 6.091796588688275e-05 0 0.0045919622876777148 5.547296701893212e-05 0 0.0046327135521890914 9.3907501797626963e-05 0 0.0046458272376935028 6.091796588688275e-05 0 0.0045919622876777148 5.547296701893212e-05 0 0.0046331962581191259 -5.6534481782162839e-06 0 0.0045919622876777148 5.547296701893212e-05 0 0.0046215830049192528 0.0001433485484889894 0 0.0045020453047400202 6.9572684137685458e-05 0 0.0045919622876777148 5.547296701893212e-05 0 0.0046215830049192528 0.0001433485484889894 0 0.0046327135521890914 9.3907501797626963e-05 0 0.0046215830049192528 0.0001433485484889894 0 0.0047252008553290209 0.00010744349888140791 0 0.0046536798917943215 0.00010606407904179132 0 0.0046215830049192528 0.0001433485484889894 0 0.0046327135521890914 9.3907501797626963e-05 0 0.0046536798917943215 0.00010606407904179132 0 0.0046327135521890914 9.3907501797626963e-05 0 0.0046536798917943215 0.00010606407904179132 0 0.0046513028483497485 7.236034569514107e-05 0 0.0046466665794594308 7.1559415953658138e-05 0 0.0046536798917943215 0.00010606407904179132 0 0.0046513028483497485 7.236034569514107e-05 0 0.0046466665794594308 7.1559415953658138e-05 0 0.0047252008553290209 0.00010744349888140791 0 0.0046536798917943215 0.00010606407904179132 0 0.0044991683326571262 -1.867062435595678e-05 0 0.0047091567168062783 9.1314392648520496e-05 0 0.0050384825201166663 -0.00042220879695989107 0 0.0047252008553290209 0.00010744349888140791 0 0.0045800345475131244 -0.00019860265665383665 0 0.0043125102007085022 -0.00011527238897915175 0 0.0047252008553290209 0.00010744349888140791 0 0.0045800345475131244 -0.00019860265665383665 0 0.0043125102007085022 -0.00011527238897915175 0 0.0042605499684267318 -0.00028564039139943043 0 0.0043352432789985195 -0.00024891313665300897 0 0.0043125102007085022 -0.00011527238897915175 0 0.0045800345475131244 -0.00019860265665383665 0 0.0042605499684267318 -0.00028564039139943043 0 0.0042605499684267318 -0.00028564039139943043 0 0.0043352432789985195 -0.00024891313665300897 0 0.004323092650076057 -0.00018123058207673016 0 0.0044991683326571262 -1.867062435595678e-05 0 0.004499968825617034 -8.9661262459526735e-05 0 0.0046466665794594308 7.1559415953658138e-05 0 0.0046624365104202693 5.4259955930750325e-05 0 0.0046513028483497485 7.236034569514107e-05 0 0.0046624365104202693 5.4259955930750325e-05 0 0.0046513028483497485 7.236034569514107e-05 0 0.0046746566927969536 4.1538498651587342e-05 0 0.0046624365104202693 5.4259955930750325e-05 0 0.0046746566927969536 4.1538498651587342e-05 0 0.0046819349560135422 2.1045341392700878e-05 0 0.004499968825617034 -8.9661262459526735e-05 0 0.0045970770581005311 -7.738006482555769e-05 0 0.0043352432789985195 -0.00024891313665300897 0 0.0044172419727173812 -9.0009336981866062e-05 0 0.0045249986528355414 -0.00017993351174495464 0 0.0043352432789985195 -0.00024891313665300897 0 0.004323092650076057 -0.00018123058207673016 0 0.0044172419727173812 -9.0009336981866062e-05 0 0.0061786637748130115 -0.00019790819609697568 0 0.0068189395152425487 -0.00035594037989354361 0 0.0063739670679214414 -0.00072530227511335152 0 0.004323092650076057 -0.00018123058207673016 0 0.0044172419727173812 -9.0009336981866062e-05 0 0.0042607857487310958 -9.1920199156591406e-05 0 0.0051391759357135563 -3.0110523794087092e-05 0 0.0062041953191647519 -0.00091661947789789674 0 0.0061786637748130115 -0.00019790819609697568 0 0.0059132623995957834 -0.00058494808923521607 0 0.0057193027859153422 -0.00034890749472543317 0 0.0061786637748130115 -0.00019790819609697568 0 0.0063739670679214414 -0.00072530227511335152 0 0.0059132623995957834 -0.00058494808923521607 0 0.0045800345475131244 -0.00019860265665383665 0 0.0042605499684267318 -0.00028564039139943043 0 0.0045537601621361236 -0.00075504796195226492 0 0.0050384825201166663 -0.00042220879695989107 0 0.0045800345475131244 -0.00019860265665383665 0 0.0045537601621361236 -0.00075504796195226492 0 0.0051777201277569884 -0.0017054285587197607 0 0.0050384825201166663 -0.00042220879695989107 0 0.0045537601621361236 -0.00075504796195226492 0 0.0042605499684267318 -0.00028564039139943043 0 0.004323092650076057 -0.00018123058207673016 0 0.0042607857487310958 -9.1920199156591406e-05 0 0.0042605499684267318 -0.00028564039139943043 0 0.0045537601621361236 -0.00075504796195226492 0 0.0040571031154005045 -0.0012699683655299407 0 0.0038128536940545514 -0.00023603412751361594 0 0.0062041953191647519 -0.00091661947789789674 0 0.0051777201277569884 -0.0017054285587197607 0 0.0045537601621361236 -0.00075504796195226492 0 0.0040571031154005045 -0.0012699683655299407 0 0.007171867571111018 -0.002227765272152404 0 0.0062041953191647519 -0.00091661947789789674 0 0.0087690717233028792 -0.0024489766676588794 0 0.0097482002892244849 -0.0026141769802383022 0 0.0090916373565924444 -0.0018847637310872814 0 0.0068189395152425487 -0.00035594037989354361 0 0.0068067646866348547 -0.00084362125494932144 0 0.0063739670679214414 -0.00072530227511335152 0 0.0062041953191647519 -0.00091661947789789674 0 0.0084354260236581408 -0.0014467927977847024 0 0.0097482002892244849 -0.0026141769802383022 0 0.0090916373565924444 -0.0018847637310872814 0 0.0097874947609410037 -0.0018562208201289877 0 0.0082441471982108612 -0.0012422764525916021 0 0.0084354260236581408 -0.0014467927977847024 0 0.0067917782749448222 -0.0013118792230431603 0 0.0068067646866348547 -0.00084362125494932144 0 0.0065709372532013512 -0.0010255966224532475 0 0.0098031540774353235 -0.0011318347323798054 0 0.0097874947609410037 -0.0018562208201289877 0 0.0092367182060015228 -0.0013880229085060578 0 0.0090916373565924444 -0.0018847637310872814 0 0.0097874947609410037 -0.0018562208201289877 0 0.0092367182060015228 -0.0013880229085060578 0 0.0087234052265190033 -0.0014254686980321619 0 0.0090916373565924444 -0.0018847637310872814 0 0.0092367182060015228 -0.0013880229085060578 0 0.0063739670679214414 -0.00072530227511335152 0 0.0059798698955256377 -0.00090080502171981894 0 0.0059132623995957834 -0.00058494808923521607 0 0.0063081557227489694 -0.0012168849313879103 0 0.0063739670679214414 -0.00072530227511335152 0 0.0065709372532013512 -0.0010255966224532475 0 0.0063081557227489694 -0.0012168849313879103 0 0.0067917782749448222 -0.0013118792230431603 0 0.0065709372532013512 -0.0010255966224532475 0 0.0068067646866348547 -0.00084362125494932144 0 0.0063739670679214414 -0.00072530227511335152 0 0.0065709372532013512 -0.0010255966224532475 0 0.0063081557227489694 -0.0012168849313879103 0 0.0059798698955256377 -0.00090080502171981894 0 0.0058716195582612625 -0.0011577270118680754 0 0.0063081557227489694 -0.0012168849313879103 0 0.0063739670679214414 -0.00072530227511335152 0 0.0059798698955256377 -0.00090080502171981894 0 0.0056761116692308012 -0.0013233523083408824 0 0.0058716195582612625 -0.0011577270118680754 0 0.0055864507374622238 -0.0011099462395560888 0 0.0058716195582612625 -0.0011577270118680754 0 0.0055864507374622238 -0.0011099462395560888 0 0.0057192434724857421 -0.00097957176620323068 0 0.0057192434724857421 -0.00097957176620323068 0 0.0056659763439879463 -0.00077468865221237226 0 0.0055513096455567104 -0.00094098864809284688 0 0.0055864507374622238 -0.0011099462395560888 0 0.0057192434724857421 -0.00097957176620323068 0 0.0055513096455567104 -0.00094098864809284688 0 0.0059798698955256377 -0.00090080502171981894 0 0.0057192434724857421 -0.00097957176620323068 0 0.0056659763439879463 -0.00077468865221237226 0 0.0059798698955256377 -0.00090080502171981894 0 0.0058716195582612625 -0.0011577270118680754 0 0.0057192434724857421 -0.00097957176620323068 0 0.0059798698955256377 -0.00090080502171981894 0 0.0056659763439879463 -0.00077468865221237226 0 0.0059132623995957834 -0.00058494808923521607 0 0.0056659763439879463 -0.00077468865221237226 0 0.0055692675029158801 -0.00057332764382654567 0 0.0054449492004086161 -0.00079456727004948065 0 0.0056659763439879463 -0.00077468865221237226 0 0.0055692675029158801 -0.00057332764382654567 0 0.0059132623995957834 -0.00058494808923521607 0 0.0055692675029158801 -0.00057332764382654567 0 0.0052136625600637809 -0.00061655411161425078 0 0.0054449492004086161 -0.00079456727004948065 0 0.0056659763439879463 -0.00077468865221237226 0 0.0054449492004086161 -0.00079456727004948065 0 0.0055513096455567104 -0.00094098864809284688 0 0.0052136625600637809 -0.00061655411161425078 0 0.0053213766051923746 -0.00085522763705394038 0 0.0051982683198248348 -0.00093400697972232315 0 0.0052136625600637809 -0.00061655411161425078 0 0.0054449492004086161 -0.00079456727004948065 0 0.0053213766051923746 -0.00085522763705394038 0 0.0054526264031946308 -0.0014418427198590758 0 0.0054540843697202081 -0.0011748987270283208 0 0.0051700818927995357 -0.0010083696654617218 0 0.0054449492004086161 -0.00079456727004948065 0 0.0053213766051923746 -0.00085522763705394038 0 0.0053823811427510752 -0.00098946343663763132 0 0.005565609940567099 -0.0014662173233135759 0 0.0053736359101867609 -0.0011403087607770224 0 0.0053993518050482574 -0.001086960765511964 0 0.0053823811427510752 -0.00098946343663763132 0 0.0051982683198248348 -0.00093400697972232315 0 0.0051700818927995357 -0.0010083696654617218 0 0.0053213766051923746 -0.00085522763705394038 0 0.0053823811427510752 -0.00098946343663763132 0 0.0051982683198248348 -0.00093400697972232315 0 0.0054449492004086161 -0.00079456727004948065 0 0.0053823811427510752 -0.00098946343663763132 0 0.0055513096455567104 -0.00094098864809284688 0 0.0055864507374622238 -0.0011099462395560888 0 0.0053823811427510752 -0.00098946343663763132 0 0.0055513096455567104 -0.00094098864809284688 0 0.0055864507374622238 -0.0011099462395560888 0 0.0053823811427510752 -0.00098946343663763132 0 0.0054540843697202081 -0.0011748987270283208 0 0.0056761116692308012 -0.0013233523083408824 0 0.0055864507374622238 -0.0011099462395560888 0 0.0054540843697202081 -0.0011748987270283208 0 0.0053823811427510752 -0.00098946343663763132 0 0.0054540843697202081 -0.0011748987270283208 0 0.0051700818927995357 -0.0010083696654617218 0 0.0067076994439350373 -0.00055822944132565683 0 0.0067569828742675862 -0.00054440854676037918 0 0.0067242757722278416 -0.00057893782382315918 0 0.0067569828742675862 -0.00054440854676037918 0 0.006779746494861791 -0.00059557841319566966 0 0.0067242757722278416 -0.00057893782382315918 0 0.0057472629914608357 -0.0010082499867727747 0 0.0058647588239781456 -0.00092865501692786353 0 0.0067145586297882223 -0.00056373642963771008 0 0.0067080445650654803 -0.0005768672193029662 0 0.0067242757722278416 -0.00057893782382315918 0 0.0066279494597576358 -0.00082324899952638218 0 0.0058647588239781456 -0.00092865501692786353 0 0.0066279494597576358 -0.00082324899952638218 0 0.0066161127384862075 -0.000733871939900503 0 0.0068831741931130522 -0.00044119735914299339 0 0.0068232721378228183 -0.00056467895347237136 0 0.0068952529383903274 -0.0005964824884222438 0 0.0067569828742675862 -0.00054440854676037918 0 0.006779746494861791 -0.00059557841319566966 0 0.0068232721378228183 -0.00056467895347237136 0 0.006779746494861791 -0.00059557841319566966 0 0.0068232721378228183 -0.00056467895347237136 0 0.0068135797023743836 -0.00062201181679341026 0 0.0068232721378228183 -0.00056467895347237136 0 0.0068135797023743836 -0.00062201181679341026 0 0.0068554265164648652 -0.00061795476653891642 0 0.0068232721378228183 -0.00056467895347237136 0 0.0068952529383903274 -0.0005964824884222438 0 0.0068554265164648652 -0.00061795476653891642 0 0.0068135797023743836 -0.00062201181679341026 0 0.0068554265164648652 -0.00061795476653891642 0 0.0068325704099351375 -0.00064314990914421291 0 0.006779746494861791 -0.00059557841319566966 0 0.0068135797023743836 -0.00062201181679341026 0 0.0067847896511509425 -0.00064283018576133887 0 0.0068135797023743836 -0.00062201181679341026 0 0.0067847896511509425 -0.00064283018576133887 0 0.0068199022710725889 -0.00063868528177294954 0 0.0068135797023743836 -0.00062201181679341026 0 0.0068199022710725889 -0.00063868528177294954 0 0.0068325704099351375 -0.00064314990914421291 0 0.0052136625600637809 -0.00061655411161425078 0 0.0051982683198248348 -0.00093400697972232315 0 0.0048845905746072917 -0.00055237567050802998 0 0.006779746494861791 -0.00059557841319566966 0 0.0067242757722278416 -0.00057893782382315918 0 0.0067847896511509425 -0.00064283018576133887 0 0.0058647588239781456 -0.00092865501692786353 0 0.0058418347328365768 -0.00057820764375082832 0 0.0067080445650654803 -0.0005768672193029662 0 0.0067242757722278416 -0.00057893782382315918 0 0.0067847896511509425 -0.00064283018576133887 0 0.0051982683198248348 -0.00093400697972232315 0 0.0051646337708231476 -0.0010134472931523631 0 0.0048845905746072917 -0.00055237567050802998 0 0.0052136625600637809 -0.00061655411161425078 0 0.0048845905746072917 -0.00055237567050802998 0 0.0050818881021803299 -0.0002723450968091074 0 0.0048845905746072917 -0.00055237567050802998 0 0.0048624747008959085 -0.00018416624794790094 0 0.0050818881021803299 -0.0002723450968091074 0 0.0068199022710725889 -0.00063868528177294954 0 0.0067861575999961492 -0.00062517561230740818 0 0.0068053473394203813 -0.00063114716529137638 0 0.0067847896511509425 -0.00064283018576133887 0 0.0068199022710725889 -0.00063868528177294954 0 0.0068053473394203813 -0.00063114716529137638 0 0.0048845905746072917 -0.00055237567050802998 0 0.0048624747008959085 -0.00018416624794790094 0 0.0046933326263274913 -0.00011456723583410079 0 0.0058418347328365768 -0.00057820764375082832 0 0.0057047274494499579 -0.0003652074226678741 0 0.0068199022710725889 -0.00063868528177294954 0 0.0068055190278605727 -0.00050434031464690601 0 0.00677758641536059 -0.0005751370133911817 0 0.0068112348509468826 -0.00061060402821611309 0 0.0068147869614101257 -0.00061387271034988135 0 0.0067861575999961492 -0.00062517561230740818 0 0.0068053473394203813 -0.00063114716529137638 0 0.0067691531274707492 -0.00055398705274110698 0 0.0057047274494499579 -0.0003652074226678741 0 0.0062248831555515713 -0.00023391161488167398 0 0.0046933326263274913 -0.00011456723583410079 0 0.004772147635193665 -8.9318595073907769e-07 0 0.0046959586182076353 -9.4281309875701237e-07 0 0.0048624747008959085 -0.00018416624794790094 0 0.0046933326263274913 -0.00011456723583410079 0 0.004772147635193665 -8.9318595073907769e-07 0 0.0048624747008959085 -0.00018416624794790094 0 0.0050818881021803299 -0.0002723450968091074 0 0.004772147635193665 -8.9318595073907769e-07 0 0.0050818881021803299 -0.0002723450968091074 0 0.004772147635193665 -8.9318595073907769e-07 0 0.0051892760075699157 -0.0001574929961721011 0 0.004772147635193665 -8.9318595073907769e-07 0 0.0046834566057395235 -3.1537903269643706e-05 0 0.0047116907629759994 -1.5772683714977298e-05 0 0.004772147635193665 -8.9318595073907769e-07 0 0.0046834566057395235 -3.1537903269643706e-05 0 0.0046309656708739926 -3.637482554379538e-05 0 0.0047795292091759442 7.257097104292677e-06 0 0.0051107840689628243 -6.6212713702050999e-05 0 0.004772147635193665 -8.9318595073907769e-07 0 0.0051892760075699157 -0.0001574929961721011 0 0.0055085182724253093 -4.0534730799427235e-05 0 0.0046708624899486862 -4.1239217854679442e-05 0 0.0045970770581005311 -7.738006482555769e-05 0 0.0051391759357135563 -3.0110523794087092e-05 0 0.0051107840689628243 -6.6212713702050999e-05 0 0.0044172419727173812 -9.0009336981866062e-05 0 0.0046309656708739926 -3.637482554379538e-05 0 0.0045249986528355414 -0.00017993351174495464 0 0.0046834566057395235 -3.1537903269643706e-05 0 0.0046309656708739926 -3.637482554379538e-05 0 0.0045249986528355414 -0.00017993351174495464 0 0.0061786637748130115 -0.00019790819609697568 0 0.0055085182724253093 -4.0534730799427235e-05 0 0.0057193027859153422 -0.00034890749472543317 0 0.0055085182724253093 -4.0534730799427235e-05 0 0.0057193027859153422 -0.00034890749472543317 0 0.0053993103331535413 -0.00033191414832438955 0 0.0055692675029158801 -0.00057332764382654567 0 0.0059132623995957834 -0.00058494808923521607 0 0.0057193027859153422 -0.00034890749472543317 0 0.0055692675029158801 -0.00057332764382654567 0 0.0057193027859153422 -0.00034890749472543317 0 0.0053993103331535413 -0.00033191414832438955 0 0.0055692675029158801 -0.00057332764382654567 0 0.0052136625600637809 -0.00061655411161425078 0 0.0053993103331535413 -0.00033191414832438955 0 0.0052136625600637809 -0.00061655411161425078 0 0.0050818881021803299 -0.0002723450968091074 0 0.0053993103331535413 -0.00033191414832438955 0 0.0050818881021803299 -0.0002723450968091074 0 0.0051892760075699157 -0.0001574929961721011 0 0.0053993103331535413 -0.00033191414832438955 0 0.0051892760075699157 -0.0001574929961721011 0 0.0055085182724253093 -4.0534730799427235e-05 0 0.0053993103331535413 -0.00033191414832438955 0 0.0069330205493032052 -0.00062756197990260795 0 0.0069284951530013631 -0.00064211724579195514 0 0.0069481022303160399 -0.00063885402119653585 0 0.0069330205493032052 -0.00062756197990260795 0 0.0069177572032053892 -0.00063341698058070489 0 0.0069284951530013631 -0.00064211724579195514 0 0.0069330205493032052 -0.00062756197990260795 0 0.0069500642336408252 -0.00061993743935392714 0 0.0069481022303160399 -0.00063885402119653585 0 0.0069330205493032052 -0.00062756197990260795 0 0.0069342672421717037 -0.00060963758360590959 0 0.0069500642336408252 -0.00061993743935392714 0 0.0075394610199830524 -0.00047206882230314595 0 0.0074696004786542914 -0.00062632323468414487 0 0.0076002843173386368 -0.00054082223078131088 0 0.0069330205493032052 -0.00062756197990260795 0 0.0069342672421717037 -0.00060963758360590959 0 0.0069184453737492005 -0.00062119822279956894 0 0.0069342672421717037 -0.00060963758360590959 0 0.0069184453737492005 -0.00062119822279956894 0 0.0069022428204350275 -0.00061178889667659652 0 0.007207790091496376 -0.00062399249159512211 0 0.0070408338254532741 -0.00061732932498551052 0 0.0074696004786542914 -0.00062632323468414487 0 0.0072649223169733703 -0.00055215753354073498 0 0.0071833772883169887 -0.00063097270734087331 0 0.0074330148540002108 -0.00050668191677333383 0 0.0074696004786542914 -0.00062632323468414487 0 0.0072649223169733703 -0.00055215753354073498 0 0.0069184453737492005 -0.00062119822279956894 0 0.0069056333948515434 -0.00062376881986511235 0 0.0069022428204350275 -0.00061178889667659652 0 0.0069184453737492005 -0.00062119822279956894 0 0.0069177572032053892 -0.00063341698058070489 0 0.0069056333948515434 -0.00062376881986511235 0 0.0069330205493032052 -0.00062756197990260795 0 0.0069184453737492005 -0.00062119822279956894 0 0.0069177572032053892 -0.00063341698058070489 0 0.0069177572032053892 -0.00063341698058070489 0 0.0069050162876307507 -0.00063953648538094953 0 0.0069056333948515434 -0.00062376881986511235 0 0.0069050162876307507 -0.00063953648538094953 0 0.0068953474517390173 -0.00062886375038920066 0 0.0069056333948515434 -0.00062376881986511235 0 0.0069050162876307507 -0.00063953648538094953 0 0.0068953474517390173 -0.00062886375038920066 0 0.0068902714086881206 -0.000646949472636446 0 0.0068953474517390173 -0.00062886375038920066 0 0.0068832358907686859 -0.00063091688883258785 0 0.0068902714086881206 -0.000646949472636446 0 0.0068953474517390173 -0.00062886375038920066 0 0.0068977425458911995 -0.00061574392327405777 0 0.0068888728028860284 -0.00061727903714637125 0 0.0068953474517390173 -0.00062886375038920066 0 0.0068888728028860284 -0.00061727903714637125 0 0.0068832358907686859 -0.00063091688883258785 0 0.0068953474517390173 -0.00062886375038920066 0 0.0068977425458911995 -0.00061574392327405777 0 0.0069056333948515434 -0.00062376881986511235 0 0.0071153448676520648 -0.00051712966258009546 0 0.0071833772883169887 -0.00063097270734087331 0 0.0068952529383903274 -0.0005964824884222438 0 0.0068977425458911995 -0.00061574392327405777 0 0.0069022428204350275 -0.00061178889667659652 0 0.0068952529383903274 -0.0005964824884222438 0 0.0070408338254532741 -0.00061732932498551052 0 0.0069072544379047531 -0.00060305561116547448 0 0.0068977425458911995 -0.00061574392327405777 0 0.0069056333948515434 -0.00062376881986511235 0 0.0069022428204350275 -0.00061178889667659652 0 0.0071153448676520648 -0.00051712966258009546 0 0.0072649223169733703 -0.00055215753354073498 0 0.0071833772883169887 -0.00063097270734087331 0 0.0070315985519121167 -0.00045444984968903712 0 0.0071153448676520648 -0.00051712966258009546 0 0.0068952529383903274 -0.0005964824884222438 0 0.0068977425458911995 -0.00061574392327405777 0 0.0068952529383903274 -0.0005964824884222438 0 0.0068888728028860284 -0.00061727903714637125 0 0.0068952529383903274 -0.0005964824884222438 0 0.0068554265164648652 -0.00061795476653891642 0 0.006877632891535394 -0.00061849852821861022 0 0.0068554265164648652 -0.00061795476653891642 0 0.006877632891535394 -0.00061849852821861022 0 0.0068640018846537502 -0.00063152935576141287 0 0.0068952529383903274 -0.0005964824884222438 0 0.0068888728028860284 -0.00061727903714637125 0 0.006877632891535394 -0.00061849852821861022 0 0.0068888728028860284 -0.00061727903714637125 0 0.006877632891535394 -0.00061849852821861022 0 0.0068832358907686859 -0.00063091688883258785 0 0.006877632891535394 -0.00061849852821861022 0 0.0068832358907686859 -0.00063091688883258785 0 0.0068640018846537502 -0.00063152935576141287 0 0.0068832358907686859 -0.00063091688883258785 0 0.0068640018846537502 -0.00063152935576141287 0 0.0068734522731716506 -0.00064417900416571089 0 0.0068832358907686859 -0.00063091688883258785 0 0.0068734522731716506 -0.00064417900416571089 0 0.0068902714086881206 -0.000646949472636446 0 0.0068325704099351375 -0.00064314990914421291 0 0.0068640018846537502 -0.00063152935576141287 0 0.0068734522731716506 -0.00064417900416571089 0 0.0068554265164648652 -0.00061795476653891642 0 0.0068325704099351375 -0.00064314990914421291 0 0.0068640018846537502 -0.00063152935576141287 0 0.0068180479189209444 -0.00063582450613619947 0 0.0067910662669454598 -0.0006186796000264875 0 0.0068199022710725889 -0.00063868528177294954 0 0.0067865026275027605 -0.00060851552651002851 0 0.00677758641536059 -0.0005751370133911817 0 0.0068325704099351375 -0.00064314990914421291 0 0.0067865026275027605 -0.00060851552651002851 0 0.006692332267591041 -0.00057658166416161693 0 0.0068199022710725889 -0.00063868528177294954 0 0.0068325704099351375 -0.00064314990914421291 0 0.0067865026275027605 -0.00060851552651002851 0 0.0068734522731716506 -0.00064417900416571089 0 0.0068800577585484734 -0.00066157450421436715 0 0.0068902714086881206 -0.000646949472636446 0 0.0068325704099351375 -0.00064314990914421291 0 0.0068734522731716506 -0.00064417900416571089 0 0.0068800577585484734 -0.00066157450421436715 0 0.006692332267591041 -0.00057658166416161693 0 0.006749456844936122 -0.00052903648820990022 0 0.0066899877134553171 -0.00050830208541738939 0 0.0068055190278605727 -0.00050434031464690601 0 0.00677758641536059 -0.0005751370133911817 0 0.006749456844936122 -0.00052903648820990022 0 0.0067865026275027605 -0.00060851552651002851 0 0.006692332267591041 -0.00057658166416161693 0 0.00677758641536059 -0.0005751370133911817 0 0.006692332267591041 -0.00057658166416161693 0 0.00677758641536059 -0.0005751370133911817 0 0.006749456844936122 -0.00052903648820990022 0 0.0068147869614101257 -0.00061387271034988135 0 0.0062248831555515713 -0.00023391161488167398 0 0.0068055190278605727 -0.00050434031464690601 0 0.006749456844936122 -0.00052903648820990022 0 0.0067252050344244543 -0.00043943406777795165 0 0.0068055190278605727 -0.00050434031464690601 0 0.0067252050344244543 -0.00043943406777795165 0 0.0067656840273925389 -0.00032662527584959884 0 0.0067252050344244543 -0.00043943406777795165 0 0.0066544288209198612 -0.00040837580803431572 0 0.0066874012897925631 -0.00032908987534664908 0 0.0067252050344244543 -0.00043943406777795165 0 0.0066544288209198612 -0.00040837580803431572 0 0.0066899877134553171 -0.00050830208541738939 0 0.006749456844936122 -0.00052903648820990022 0 0.0067252050344244543 -0.00043943406777795165 0 0.0066899877134553171 -0.00050830208541738939 0 0.0067910662669454598 -0.0006186796000264875 0 0.0066716974124931298 -0.00056859740558523012 0 0.0066336118719465898 -0.00049185972398705941 0 0.0066716974124931298 -0.00056859740558523012 0 0.006692332267591041 -0.00057658166416161693 0 0.0066899877134553171 -0.00050830208541738939 0 0.0065868988148149238 -0.00045400662086038943 0 0.0068800577585484734 -0.00066157450421436715 0 0.0068930557880766737 -0.00067134408786224432 0 0.0068931324390113175 -0.00066125045462467834 0 0.0066544288209198612 -0.00040837580803431572 0 0.0065611816076793393 -0.00044670196638532303 0 0.0066088655335127342 -0.00031903305846955822 0 0.0066544288209198612 -0.00040837580803431572 0 0.0066899877134553171 -0.00050830208541738939 0 0.0065611816076793393 -0.00044670196638532303 0 0.0066716974124931298 -0.00056859740558523012 0 0.0064113429806934045 -0.00036408736782131027 0 0.0066716974124931298 -0.00056859740558523012 0 0.0059753718578319324 -0.00024284339285796826 0 0.0068930557880766737 -0.00067134408786224432 0 0.0068931324390113175 -0.00066125045462467834 0 0.0069061873416274028 -0.00066295607589689004 0 0.0069016464778197473 -0.00065349066391677698 0 0.0068931324390113175 -0.00066125045462467834 0 0.0069061873416274028 -0.00066295607589689004 0 0.0069016464778197473 -0.00065349066391677698 0 0.0068931324390113175 -0.00066125045462467834 0 0.0068902714086881206 -0.000646949472636446 0 0.0068800577585484734 -0.00066157450421436715 0 0.0068931324390113175 -0.00066125045462467834 0 0.0068902714086881206 -0.000646949472636446 0 0.0069050162876307507 -0.00063953648538094953 0 0.0069016464778197473 -0.00065349066391677698 0 0.0068902714086881206 -0.000646949472636446 0 0.0069161388817771136 -0.00064994111145002132 0 0.0069061873416274028 -0.00066295607589689004 0 0.0069276089743832937 -0.00066050861001627455 0 0.0069177572032053892 -0.00063341698058070489 0 0.0069050162876307507 -0.00063953648538094953 0 0.0069161388817771136 -0.00064994111145002132 0 0.0069050162876307507 -0.00063953648538094953 0 0.0069016464778197473 -0.00065349066391677698 0 0.0069161388817771136 -0.00064994111145002132 0 0.0069177572032053892 -0.00063341698058070489 0 0.0069161388817771136 -0.00064994111145002132 0 0.0069284951530013631 -0.00064211724579195514 0 0.0069016464778197473 -0.00065349066391677698 0 0.0069161388817771136 -0.00064994111145002132 0 0.0069061873416274028 -0.00066295607589689004 0 0.0069061873416274028 -0.00066295607589689004 0 0.0069276089743832937 -0.00066050861001627455 0 0.0069067945173516363 -0.00067900716436020267 0 0.0067220504832390003 -0.00059171623137025742 0 0.0064113429806934045 -0.00036408736782131027 0 0.0064573692258274385 -0.00043616507365429877 0 0.0064607167992813165 -0.0005122001754007435 0 0.0065334358058192783 -0.00042110757332505929 0 0.0068930557880766737 -0.00067134408786224432 0 0.0069061873416274028 -0.00066295607589689004 0 0.0069067945173516363 -0.00067900716436020267 0 0.0064573692258274385 -0.00043616507365429877 0 0.0064607167992813165 -0.0005122001754007435 0 0.00639034757173341 -0.000478475675924562 0 0.0069276089743832937 -0.00066050861001627455 0 0.0069284951530013631 -0.00064211724579195514 0 0.0069481022303160399 -0.00063885402119653585 0 0.0067220504832390003 -0.00059171623137025742 0 0.006663901454679641 -0.0006399043388427032 0 0.0064607167992813165 -0.0005122001754007435 0 0.00639034757173341 -0.000478475675924562 0 0.0063820275612611055 -0.00060524208483145651 0 0.0069161388817771136 -0.00064994111145002132 0 0.0069276089743832937 -0.00066050861001627455 0 0.0069284951530013631 -0.00064211724579195514 0 0.0059784316649385437 -3.224048457023841e-05 0 0.0059740500233797771 -5.4061224423394442e-05 0 0.0060121474604868047 -6.7076841943445104e-05 0 0.0059784316649385437 -3.224048457023841e-05 0 0.0059740500233797771 -5.4061224423394442e-05 0 0.0059646587989818358 -3.1187019285569159e-05 0 0.0064573692258274385 -0.00043616507365429877 0 0.0064295483008186098 -0.0003629185165968643 0 0.00639034757173341 -0.000478475675924562 0 0.0064573692258274385 -0.00043616507365429877 0 0.0064295483008186098 -0.0003629185165968643 0 0.0065334358058192783 -0.00042110757332505929 0 0.0061710308188980718 -0.00018714571488068964 0 0.0064113429806934045 -0.00036408736782131027 0 0.0059740500233797771 -5.4061224423394442e-05 0 0.0060065485212485439 -7.5270199612582325e-05 0 0.0060121474604868047 -6.7076841943445104e-05 0 0.0065458394069919665 -0.00058544974467166801 0 0.0061714789630988665 -0.00038026351407841768 0 0.00628177345839464 -0.00024748975397379072 0 0.0064113429806934045 -0.00036408736782131027 0 0.0059753718578319324 -0.00024284339285796826 0 0.0053036391814912228 -0.00011686810015068032 0 0.0054001702786003721 -0.00023086329129905827 0 0.0053834251533665754 -0.0001276564950298637 0 0.0056637850488820236 -3.9096025787115715e-05 0 0.0059753718578319324 -0.00024284339285796826 0 0.0053834251533665754 -0.0001276564950298637 0 0.0054575946347693409 -0.00015671344863874009 0 0.0054142937059270067 -5.6619627725084763e-05 0 0.0054001702786003721 -0.00023086329129905827 0 0.0053834251533665754 -0.0001276564950298637 0 0.0054575946347693409 -0.00015671344863874009 0 0.0065836166572636389 -0.00019182057764020302 0 0.0066088655335127342 -0.00031903305846955822 0 0.0066646004064750486 -0.00020495798588857279 0 0.0059753718578319324 -0.00024284339285796826 0 0.0060913682693701449 -0.00012388923373765631 0 0.0064675682058092506 -0.00032798856689119689 0 0.0065836166572636389 -0.00019182057764020302 0 0.0066088655335127342 -0.00031903305846955822 0 0.0065611816076793393 -0.00044670196638532303 0 0.0064675682058092506 -0.00032798856689119689 0 0.0066088655335127342 -0.00031903305846955822 0 0.0066088655335127342 -0.00031903305846955822 0 0.0066874012897925631 -0.00032908987534664908 0 0.0066646004064750486 -0.00020495798588857279 0 0.0066874012897925631 -0.00032908987534664908 0 0.0067251357576649613 -0.00026899551459871472 0 0.0066646004064750486 -0.00020495798588857279 0 0.0066544288209198612 -0.00040837580803431572 0 0.0066088655335127342 -0.00031903305846955822 0 0.0066874012897925631 -0.00032908987534664908 0 0.0067252050344244543 -0.00043943406777795165 0 0.0066874012897925631 -0.00032908987534664908 0 0.0067656840273925389 -0.00032662527584959884 0 0.0066874012897925631 -0.00032908987534664908 0 0.0067656840273925389 -0.00032662527584959884 0 0.0067251357576649613 -0.00026899551459871472 0 0.0062248831555515713 -0.00023391161488167398 0 0.0064746601294170666 -0.00037535602365128289 0 0.0067563036395778308 -0.00032142502535268042 0 0.0067251357576649613 -0.00026899551459871472 0 0.0066975258331831095 -6.793629295258833e-05 0 0.0065836166572636389 -0.00019182057764020302 0 0.0066646004064750486 -0.00020495798588857279 0 0.0066819899800116432 -6.3821652810541082e-05 0 0.0067251357576649613 -0.00026899551459871472 0 0.0066646004064750486 -0.00020495798588857279 0 0.0066975258331831095 -6.793629295258833e-05 0 0.0066646004064750486 -0.00020495798588857279 0 0.0066975258331831095 -6.793629295258833e-05 0 0.0066819899800116432 -6.3821652810541082e-05 0 0.0062248831555515713 -0.00023391161488167398 0 0.0051637349841357136 -0.00012182878012501568 0 0.0060913682693701449 -0.00012388923373765631 0 0.005303918871686247 -8.4544450667649787e-05 0 0.0046743691157155858 -3.4489088282079327e-05 0 0.0046721798795272993 -3.534013519761158e-05 0 0.0046614470984224681 -4.2477446751440197e-05 0 0.0045070342286421807 -0.00032404713929645821 0 0.0044852374290875376 -0.00022849556043881526 0 0.0044510613378899088 -0.00028288576542407387 0 0.0051637349841357136 -0.00012182878012501568 0 0.0045954668969690905 5.3948460765430263e-06 0 0.0046736850314751006 -3.6101342332986074e-05 0 0.0046721798795272993 -3.534013519761158e-05 0 0.0046757883358843205 -3.3836495358945621e-05 0 0.0046736850314751006 -3.6101342332986074e-05 0 0.0046732556060575716 -3.5858659485711986e-05 0 0.0046721798795272993 -3.534013519761158e-05 0 0.0051591748866421086 -0.00020967492703019271 0 0.005126825792187698 2.9683230834205082e-06 0 0.0049885274888178165 -0.00016287528613411137 0 0.0051637349841357136 -0.00012182878012501568 0 0.00506255022136944 -0.00017175342756868843 0 0.0051637349841357136 -0.00012182878012501568 0 0.005303918871686247 -8.4544450667649787e-05 0 0.00506255022136944 -0.00017175342756868843 0 0.005303918871686247 -8.4544450667649787e-05 0 0.00506255022136944 -0.00017175342756868843 0 0.0049976374453284313 -0.00018452732506091477 0 0.0045070342286421807 -0.00032404713929645821 0 0.0044994379553420635 -0.00033362545972594724 0 0.0044510613378899088 -0.00028288576542407387 0 0.0046721798795272993 -3.534013519761158e-05 0 0.004662636377903674 -4.0078048360942886e-05 0 0.0046757883358843205 -3.3836495358945621e-05 0 0.00506255022136944 -0.00017175342756868843 0 0.0045640189207387704 -0.00011730486479081047 0 0.0046721798795272993 -3.534013519761158e-05 0 0.004662636377903674 -4.0078048360942886e-05 0 0.0046614470984224681 -4.2477446751440197e-05 0 0.0044852374290875376 -0.00022849556043881526 0 0.0044510613378899088 -0.00028288576542407387 0 0.0044268305738119993 -0.00018933988695527877 0 0.004662636377903674 -4.0078048360942886e-05 0 0.0046614470984224681 -4.2477446751440197e-05 0 0.0046502142415750722 -4.9659372926111412e-05 0 0.0043879037052487364 -0.00030464950959437087 0 0.0044510613378899088 -0.00028288576542407387 0 0.0043657880288200017 -0.00023827341381704021 0 0.0044510613378899088 -0.00028288576542407387 0 0.0043657880288200017 -0.00023827341381704021 0 0.0044268305738119993 -0.00018933988695527877 0 0.0043657880288200017 -0.00023827341381704021 0 0.0043544721767946196 -0.00017811761593167468 0 0.0044268305738119993 -0.00018933988695527877 0 0.0054575946347693409 -0.00015671344863874009 0 0.0055147411565811197 -8.4213757778971328e-05 0 0.0054142937059270067 -5.6619627725084763e-05 0 0.0044994379553420635 -0.00033362545972594724 0 0.0043879037052487364 -0.00030464950959437087 0 0.0044510613378899088 -0.00028288576542407387 0 0.005303918871686247 -8.4544450667649787e-05 0 0.0048648883378757651 -0.00018312668233088053 0 0.0048648883378757651 -0.00018312668233088053 0 0.0047226360995219234 -0.00013582576279374254 0 0.0053834251533665754 -0.0001276564950298637 0 0.0054142937059270067 -5.6619627725084763e-05 0 0.0053115439887920432 -2.8696875251575268e-05 0 0.0053036391814912228 -0.00011686810015068032 0 0.0053834251533665754 -0.0001276564950298637 0 0.0053115439887920432 -2.8696875251575268e-05 0 0.0043657880288200017 -0.00023827341381704021 0 0.0042965378953431438 -0.00020170739365367799 0 0.0042810352839674189 -0.00027376841753233469 0 0.0043879037052487364 -0.00030464950959437087 0 0.0043657880288200017 -0.00023827341381704021 0 0.0042810352839674189 -0.00027376841753233469 0 0.0043657880288200017 -0.00023827341381704021 0 0.0042965378953431438 -0.00020170739365367799 0 0.0043544721767946196 -0.00017811761593167468 0 0.0042810352839674189 -0.00027376841753233469 0 0.0042199304279204571 -0.00021123284935599507 0 0.0041800691733544539 -0.00023824616277017257 0 0.0047226360995219234 -0.00013582576279374254 0 0.0051301007372125187 -0.0001457486236446965 0 0.0042965378953431438 -0.00020170739365367799 0 0.0042810352839674189 -0.00027376841753233469 0 0.0042199304279204571 -0.00021123284935599507 0 0.0056637850488820236 -3.9096025787115715e-05 0 0.0051301007372125187 -0.0001457486236446965 0 0.0053036391814912228 -0.00011686810015068032 0 0.0053115439887920432 -2.8696875251575268e-05 0 0.0052081041014796726 -1.6336405508551344e-06 0 0.0046836655715851907 6.8707588449325601e-06 0 0.0046950832281212711 -1.1089108443024397e-05 0 0.0046756695997740684 3.2911227033801891e-05 0 0.0046950832281212711 -1.1089108443024397e-05 0 0.0046654975883787791 -3.187492741925214e-05 0 0.0046404581284104568 -3.0357451859644236e-05 0 0.0046909617185114019 -6.8310088624600029e-06 0 0.0046616225266366308 5.9833359421225857e-07 0 0.0046746566927969536 4.1538498651587342e-05 0 0.0046836655715851907 6.8707588449325601e-06 0 0.0046756695997740684 3.2911227033801891e-05 0 0.0046746566927969536 4.1538498651587342e-05 0 0.0046819349560135422 2.1045341392700878e-05 0 0.0046836655715851907 6.8707588449325601e-06 0 0.0046834566057395235 -3.1537903269643706e-05 0 0.0046819349560135422 2.1045341392700878e-05 0 0.0046836655715851907 6.8707588449325601e-06 0 0.0046836655715851907 6.8707588449325601e-06 0 0.0046950832281212711 -1.1089108443024397e-05 0 0.0047116907629759994 -1.5772683714977298e-05 0 0.0046834566057395235 -3.1537903269643706e-05 0 0.0046836655715851907 6.8707588449325601e-06 0 0.0047116907629759994 -1.5772683714977298e-05 0 0.004772147635193665 -8.9318595073907769e-07 0 0.0046950832281212711 -1.1089108443024397e-05 0 0.0047116907629759994 -1.5772683714977298e-05 0 0.004772147635193665 -8.9318595073907769e-07 0 0.0046950832281212711 -1.1089108443024397e-05 0 0.0047001119664676957 -7.3243025019386794e-06 0 0.004772147635193665 -8.9318595073907769e-07 0 0.0046959586182076353 -9.4281309875701237e-07 0 0.0047001119664676957 -7.3243025019386794e-06 0 0.0046959586182076353 -9.4281309875701237e-07 0 0.0047033383817424654 -2.7546646273679602e-05 0 0.0047001119664676957 -7.3243025019386794e-06 0 0.0047033383817424654 -2.7546646273679602e-05 0 0.0047001119664676957 -7.3243025019386794e-06 0 0.0046868448250835014 -2.8160703763798307e-05 0 0.0047001119664676957 -7.3243025019386794e-06 0 0.0046868448250835014 -2.8160703763798307e-05 0 0.0046717820679465366 -3.3359035097363381e-05 0 0.0046950832281212711 -1.1089108443024397e-05 0 0.0047001119664676957 -7.3243025019386794e-06 0 0.0046654975883787791 -3.187492741925214e-05 0 0.0047001119664676957 -7.3243025019386794e-06 0 0.0046654975883787791 -3.187492741925214e-05 0 0.0046717820679465366 -3.3359035097363381e-05 0 0.0046654975883787791 -3.187492741925214e-05 0 0.0046717820679465366 -3.3359035097363381e-05 0 0.004649305616344775 -4.5264767404868132e-05 0 0.0046717820679465366 -3.3359035097363381e-05 0 0.0046627953998664255 -3.947209833954908e-05 0 0.004649305616344775 -4.5264767404868132e-05 0 0.0046868448250835014 -2.8160703763798307e-05 0 0.0046717820679465366 -3.3359035097363381e-05 0 0.0046757883358843205 -3.3836495358945621e-05 0 0.0046736850314751006 -3.6101342332986074e-05 0 0.0046868448250835014 -2.8160703763798307e-05 0 0.0046757883358843205 -3.3836495358945621e-05 0 0.0046717820679465366 -3.3359035097363381e-05 0 0.0046757883358843205 -3.3836495358945621e-05 0 0.0046627953998664255 -3.947209833954908e-05 0 0.004662636377903674 -4.0078048360942886e-05 0 0.0046757883358843205 -3.3836495358945621e-05 0 0.0046627953998664255 -3.947209833954908e-05 0 0.004662636377903674 -4.0078048360942886e-05 0 0.0046627953998664255 -3.947209833954908e-05 0 0.0046481382854520739 -4.7045908760261034e-05 0 0.0046627953998664255 -3.947209833954908e-05 0 0.0046481382854520739 -4.7045908760261034e-05 0 0.004649305616344775 -4.5264767404868132e-05 0 0.0046481382854520739 -4.7045908760261034e-05 0 0.004649305616344775 -4.5264767404868132e-05 0 0.0046375436205409173 -5.2707897406813556e-05 0 0.004662636377903674 -4.0078048360942886e-05 0 0.0046481382854520739 -4.7045908760261034e-05 0 0.0046502142415750722 -4.9659372926111412e-05 0 0.004649305616344775 -4.5264767404868132e-05 0 0.0046386605638553116 -4.7511031409000529e-05 0 0.0046263259818996438 -5.9320527581441074e-05 0 0.0046654975883787791 -3.187492741925214e-05 0 0.004649305616344775 -4.5264767404868132e-05 0 0.0046386605638553116 -4.7511031409000529e-05 0 0.0046654975883787791 -3.187492741925214e-05 0 0.0046386605638553116 -4.7511031409000529e-05 0 0.0046404581284104568 -3.0357451859644236e-05 0 0.0046333000979287432 -3.9743191926178877e-05 0 0.0046386605638553116 -4.7511031409000529e-05 0 0.0046404581284104568 -3.0357451859644236e-05 0 0.0046756714586398476 5.5223271289331999e-05 0 0.0046746566927969536 4.1538498651587342e-05 0 0.0046756695997740684 3.2911227033801891e-05 0 0.0046531246232891909 6.8475711299829005e-06 0 0.0046616225266366308 5.9833359421225857e-07 0 0.0046333000979287432 -3.9743191926178877e-05 0 0.0046386605638553116 -4.7511031409000529e-05 0 0.0046342359316859814 -4.8627268022815822e-05 0 0.0046342359316859814 -4.8627268022815822e-05 0 0.0046331511564700273 -5.4646605034903558e-05 0 0.0046384526587958056 -4.2117464811042483e-05 0 0.0046342359316859814 -4.8627268022815822e-05 0 0.0046331511564700273 -5.4646605034903558e-05 0 0.0046289983318117331 -5.5915311130981611e-05 0 0.0046331511564700273 -5.4646605034903558e-05 0 0.0046295703929253532 -5.8657979365312885e-05 0 0.0046275869991877988 -5.5192106505418155e-05 0 0.0046331511564700273 -5.4646605034903558e-05 0 0.004624593340840347 -5.1602909381400001e-05 0 0.0046275869991877988 -5.5192106505418155e-05 0 0.0046331511564700273 -5.4646605034903558e-05 0 0.0046295703929253532 -5.8657979365312885e-05 0 0.004634861436856195 -6.7730126452577891e-05 0 0.004624593340840347 -5.1602909381400001e-05 0 0.0046289983318117331 -5.5915311130981611e-05 0 0.0046133978690305324 -5.8837246252284683e-05 0 0.0046331511564700273 -5.4646605034903558e-05 0 0.004624593340840347 -5.1602909381400001e-05 0 0.0046289983318117331 -5.5915311130981611e-05 0 0.0046386605638553116 -4.7511031409000529e-05 0 0.0046289983318117331 -5.5915311130981611e-05 0 0.0046263259818996438 -5.9320527581441074e-05 0 0.0046386605638553116 -4.7511031409000529e-05 0 0.0046342359316859814 -4.8627268022815822e-05 0 0.0046289983318117331 -5.5915311130981611e-05 0 0.004649305616344775 -4.5264767404868132e-05 0 0.0046263259818996438 -5.9320527581441074e-05 0 0.0046375436205409173 -5.2707897406813556e-05 0 0.0046263259818996438 -5.9320527581441074e-05 0 0.0046291846939498235 -5.6540349082344137e-05 0 0.0045849860188203343 -7.4280408755104593e-05 0 0.0046263259818996438 -5.9320527581441074e-05 0 0.0046375436205409173 -5.2707897406813556e-05 0 0.0046291846939498235 -5.6540349082344137e-05 0 0.0046481382854520739 -4.7045908760261034e-05 0 0.0046291846939498235 -5.6540349082344137e-05 0 0.0046502142415750722 -4.9659372926111412e-05 0 0.0046481382854520739 -4.7045908760261034e-05 0 0.0046375436205409173 -5.2707897406813556e-05 0 0.0046291846939498235 -5.6540349082344137e-05 0 0.0046291846939498235 -5.6540349082344137e-05 0 0.0046452370278896428 -5.8143310035775938e-05 0 0.0046366937090507277 -6.5204190891532014e-05 0 0.0046291846939498235 -5.6540349082344137e-05 0 0.0046502142415750722 -4.9659372926111412e-05 0 0.0046452370278896428 -5.8143310035775938e-05 0 0.0046291846939498235 -5.6540349082344137e-05 0 0.0045849860188203343 -7.4280408755104593e-05 0 0.0046366937090507277 -6.5204190891532014e-05 0 0.0046263259818996438 -5.9320527581441074e-05 0 0.0045849860188203343 -7.4280408755104593e-05 0 0.0046133978690305324 -5.8837246252284683e-05 0 0.0046289983318117331 -5.5915311130981611e-05 0 0.0046263259818996438 -5.9320527581441074e-05 0 0.0046133978690305324 -5.8837246252284683e-05 0 0.0003381002907214026 -0.00032766200425621679 0 0.00048398538028919199 -0.00027601247929738614 0 0.000638017012223824 -0.00040825926594257938 0 0.0024312815274274394 -0.00016568174089264236 0 0.0025813647339437977 -0.00020389247994533318 0 0.0046133978690305324 -5.8837246252284683e-05 0 0.0045189648344350023 2.9437884750853411e-05 0 0.0046122733172788283 -2.379911245759367e-05 0 0.0045849860188203343 -7.4280408755104593e-05 0 0.0046133978690305324 -5.8837246252284683e-05 0 0.0045189648344350023 2.9437884750853411e-05 0 0.0045849860188203343 -7.4280408755104593e-05 0 0.0045189648344350023 2.9437884750853411e-05 0 0.0044018761288490199 -1.6514564497779831e-05 0 0.0003381002907214026 -0.00032766200425621679 0 0.00030186306395627878 -0.00020332328887091923 0 0.00048398538028919199 -0.00027601247929738614 0 0.0003381002907214026 -0.00032766200425621679 0 0.00030186306395627878 -0.00020332328887091923 0 0.0003154264803824511 -0.00026205321937582896 0 0.00030186306395627878 -0.00020332328887091923 0 0.00048398538028919199 -0.00027601247929738614 0 0.00053786911682973529 -0.00016664582887374271 0 0.00048398538028919199 -0.00027601247929738614 0 0.00063524443596396369 -0.00028177490605942068 0 0.000638017012223824 -0.00040825926594257938 0 0.00048398538028919199 -0.00027601247929738614 0 0.00053786911682973529 -0.00016664582887374271 0 0.00063524443596396369 -0.00028177490605942068 0 0.00053786911682973529 -0.00016664582887374271 0 0.00063524443596396369 -0.00028177490605942068 0 0.00078526991270848443 -0.00010305413363240806 0 0.00075668971576843764 -0.00038743779165245233 0 0.00078706497227972599 -0.00019831429880360268 0 0.00084320893713018261 -0.00034718743432828975 0 0.00074616471924581233 -0.00040234194107604941 0 0.00082262355181053279 -0.00026461852081898694 0 0.00063524443596396369 -0.00028177490605942068 0 0.00074616471924581233 -0.00040234194107604941 0 0.00078526991270848443 -0.00010305413363240806 0 0.00090575368469888735 -0.00031493412070023199 0 0.00084320893713018261 -0.00034718743432828975 0 0.00082262355181053279 -0.00026461852081898694 0 0.00090575368469888735 -0.00031493412070023199 0 0.00084320893713018261 -0.00034718743432828975 0 0.0009004092813593937 -0.00043089476391578618 0 0.00084320893713018261 -0.00034718743432828975 0 0.0009004092813593937 -0.00043089476391578618 0 0.00074616471924581233 -0.00040234194107604941 0 0.0046230617979692865 -5.3220907127019295e-05 0 0.0046229081920454596 -5.7484477527577892e-05 0 0.0046122733172788283 -2.379911245759367e-05 0 0.0037235416807868023 -3.7989466153855986e-05 0 0.0029598992217502269 -0.00029999696080809023 0 0.0046266965339573562 -5.6663246546083512e-05 0 0.0046295703929253532 -5.8657979365312885e-05 0 0.004634861436856195 -6.7730126452577891e-05 0 0.0046230617979692865 -5.3220907127019295e-05 0 0.0046266965339573562 -5.6663246546083512e-05 0 0.0046295703929253532 -5.8657979365312885e-05 0 0.004624593340840347 -5.1602909381400001e-05 0 0.0046230617979692865 -5.3220907127019295e-05 0 0.0046275869991877988 -5.5192106505418155e-05 0 0.0046230617979692865 -5.3220907127019295e-05 0 0.0046295703929253532 -5.8657979365312885e-05 0 0.0046275869991877988 -5.5192106505418155e-05 0 0.004624593340840347 -5.1602909381400001e-05 0 0.0046230617979692865 -5.3220907127019295e-05 0 0.0046122733172788283 -2.379911245759367e-05 0 0.0029598992217502269 -0.00029999696080809023 0 0.0025813647339437977 -0.00020389247994533318 0 0.0009004092813593937 -0.00043089476391578618 0 0.000638017012223824 -0.00040825926594257938 0 0.00074616471924581233 -0.00040234194107604941 0 0.004624593340840347 -5.1602909381400001e-05 0 0.0046133978690305324 -5.8837246252284683e-05 0 0.0046122733172788283 -2.379911245759367e-05 0 0.00063524443596396369 -0.00028177490605942068 0 0.000638017012223824 -0.00040825926594257938 0 0.00074616471924581233 -0.00040234194107604941 0 0.0033916513438054735 -0.00011604204182798026 0 0.0035985663002818546 -0.00020690446055375049 0 0.0037346980119693238 -8.1476791557806596e-05 0 0.0042442660190524029 -0.00012520614325420819 0 0.0042982040151803153 -8.1351669437332934e-05 0 0.004178780312557728 -9.572603890980917e-05 0 0.0038530675870543842 -8.670497651666808e-05 0 0.0039570337350845189 -9.5516260880504223e-05 0 0.0033916513438054735 -0.00011604204182798026 0 0.0034461005705955501 -0.00022447320482499726 0 0.0035985663002818546 -0.00020690446055375049 0 0.0042442660190524029 -0.00012520614325420819 0 0.0043015208642283621 -0.00014440730406905887 0 0.0042982040151803153 -8.1351669437332934e-05 0 0.0042442660190524029 -0.00012520614325420819 0 0.0042421200059157222 -0.00016596863274319064 0 0.0042025725712963435 -0.00013898946000196841 0 0.0042199304279204571 -0.00021123284935599507 0 0.0042421200059157222 -0.00016596863274319064 0 0.0041775173404116428 -0.00017407024980270025 0 0.0042965378953431438 -0.00020170739365367799 0 0.0042421200059157222 -0.00016596863274319064 0 0.0043015208642283621 -0.00014440730406905887 0 0.0042965378953431438 -0.00020170739365367799 0 0.0042199304279204571 -0.00021123284935599507 0 0.0042421200059157222 -0.00016596863274319064 0 0.0042442660190524029 -0.00012520614325420819 0 0.0042421200059157222 -0.00016596863274319064 0 0.0043015208642283621 -0.00014440730406905887 0 0.0042965378953431438 -0.00020170739365367799 0 0.0043015208642283621 -0.00014440730406905887 0 0.0043544721767946196 -0.00017811761593167468 0 0.0043015208642283621 -0.00014440730406905887 0 0.0043544721767946196 -0.00017811761593167468 0 0.0043774656116710156 -0.00013352065104402005 0 0.0033916513438054735 -0.00011604204182798026 0 0.0031458276437004843 -0.00013873808747485972 0 0.003361688992292825 -0.00025064157665460613 0 0.0038530675870543842 -8.670497651666808e-05 0 0.0037610027470457983 -0.00021948977003576018 0 0.0043015208642283621 -0.00014440730406905887 0 0.0042982040151803153 -8.1351669437332934e-05 0 0.0043774656116710156 -0.00013352065104402005 0 0.0033916513438054735 -0.00011604204182798026 0 0.003361688992292825 -0.00025064157665460613 0 0.0034461005705955501 -0.00022447320482499726 0 0.0044208063022303842 -7.3410522151150419e-05 0 0.0043774656116710156 -0.00013352065104402005 0 0.0044644787272970429 -0.00013582505560520797 0 0.0042982040151803153 -8.1351669437332934e-05 0 0.0044208063022303842 -7.3410522151150419e-05 0 0.0043774656116710156 -0.00013352065104402005 0 0.0037610027470457983 -0.00021948977003576018 0 0.0041586265942446972 -0.00024324122722382802 0 0.0037610027470457983 -0.00021948977003576018 0 0.0043915140916390679 -0.00016973279084865102 0 0.0043774656116710156 -0.00013352065104402005 0 0.0044268305738119993 -0.00018933988695527877 0 0.0044644787272970429 -0.00013582505560520797 0 0.0043544721767946196 -0.00017811761593167468 0 0.0043774656116710156 -0.00013352065104402005 0 0.0044268305738119993 -0.00018933988695527877 0 0.0045640189207387704 -0.00011730486479081047 0 0.0043915140916390679 -0.00016973279084865102 0 0.0046614470984224681 -4.2477446751440197e-05 0 0.0046582293222147443 -5.862206605803994e-05 0 0.0046502142415750722 -4.9659372926111412e-05 0 0.0044852374290875376 -0.00022849556043881526 0 0.0044268305738119993 -0.00018933988695527877 0 0.0044644787272970429 -0.00013582505560520797 0 0.0046582293222147443 -5.862206605803994e-05 0 0.0046452370278896428 -5.8143310035775938e-05 0 0.0046366937090507277 -6.5204190891532014e-05 0 0.0046582293222147443 -5.862206605803994e-05 0 0.0046502142415750722 -4.9659372926111412e-05 0 0.0046452370278896428 -5.8143310035775938e-05 0 0.00472365595684268 -4.192081567507412e-05 0 0.0041586265942446972 -0.00024324122722382802 0 0.0045849860188203343 -7.4280408755104593e-05 0 0.0043155070390128811 -0.0001281482876267259 0 0.0044018761288490199 -1.6514564497779831e-05 0 0.0045849860188203343 -7.4280408755104593e-05 0 0.0046366937090507277 -6.5204190891532014e-05 0 0.0046662326392376066 -8.9230092367270853e-05 0 0.0043915140916390679 -0.00016973279084865102 0 0.0041586265942446972 -0.00024324122722382802 0 0.0041088680041221045 -0.00019514281907356628 0 0.0041518183838295374 -0.00025888815621709225 0 0.004139908036167381 -0.00019371769485174926 0 0.0046582293222147443 -5.862206605803994e-05 0 0.0046366937090507277 -6.5204190891532014e-05 0 0.0046662326392376066 -8.9230092367270853e-05 0 0.0003381002907214026 -0.00032766200425621679 0 0.00032684180265582312 -0.00026158693884310196 0 0.00033922692207883899 -0.00023830805121609997 0 0.0045189648344350023 2.9437884750853411e-05 0 0.0044018761288490199 -1.6514564497779831e-05 0 0.0042759942318318584 6.8730962376831466e-05 0 0.0043155070390128811 -0.0001281482876267259 0 0.0044018761288490199 -1.6514564497779831e-05 0 0.0042759942318318584 6.8730962376831466e-05 0 0.0024312815274274394 -0.00016568174089264236 0 0.002366205268254048 6.229877301775768e-05 0 0.00034466560157850665 -0.00020102283900933252 0 1.8105367751709151e-05 -0.00028290325929694051 0 0.00030186306395627878 -0.00020332328887091923 0 -7.1588877699469276e-05 -0.00023758579927947679 0 5.6922689936276318e-05 -9.3577204869954038e-05 0 0.0003381002907214026 -0.00032766200425621679 0 0.0003154264803824511 -0.00026205321937582896 0 0.00032684180265582312 -0.00026158693884310196 0 0.00030186306395627878 -0.00020332328887091923 0 0.0003154264803824511 -0.00026205321937582896 0 0.00032821017836738776 -0.00028933349182230892 0 0.00032821017836738776 -0.00028933349182230892 0 0.00032684180265582312 -0.00026158693884310196 0 0.00033841783463836865 -0.0002616192675861017 0 0.0003154264803824511 -0.00026205321937582896 0 0.00032821017836738776 -0.00028933349182230892 0 0.00032684180265582312 -0.00026158693884310196 0 0.00032684180265582312 -0.00026158693884310196 0 0.00033841783463836865 -0.0002616192675861017 0 0.00033922692207883899 -0.00023830805121609997 0 1.8105367751709151e-05 -0.00028290325929694051 0 0.00063693983738269584 -0.00012797980262842039 0 0.00033841783463836865 -0.0002616192675861017 0 0.00036427627646951733 -0.00025540092200628862 0 0.00033922692207883899 -0.00023830805121609997 0 -7.1588877699469276e-05 -0.00023758579927947679 0 -0.00019825317010954026 -0.00016739140335900144 0 -0.00032617531062895246 -0.00024699142359825544 0 0.00032821017836738776 -0.00028933349182230892 0 0.00039632436538955036 -0.00025857353515388112 0 0.00048172722081168468 -0.00028102774735215086 0 0.00036427627646951733 -0.00025540092200628862 0 0.00039632436538955036 -0.00025857353515388112 0 0.00033922692207883899 -0.00023830805121609997 0 0.00032821017836738776 -0.00028933349182230892 0 0.00036427627646951733 -0.00025540092200628862 0 0.00039632436538955036 -0.00025857353515388112 0 0.00032821017836738776 -0.00028933349182230892 0 0.00033841783463836865 -0.0002616192675861017 0 0.00036427627646951733 -0.00025540092200628862 0 -7.1588877699469276e-05 -0.00023758579927947679 0 -0.00019825317010954026 -0.00016739140335900144 0 -0.00010761288306134325 -8.8299942222828354e-05 0 0.0037610027470457983 -0.00021948977003576018 0 0.0018907946585133382 -0.00016351776659159412 0 0.0041586265942446972 -0.00024324122722382802 0 0.002366205268254048 6.229877301775768e-05 0 0.00039632436538955036 -0.00025857353515388112 0 0.00033922692207883899 -0.00023830805121609997 0 0.00045604356564902951 -0.00022873551321064294 0 0.0029372122471806846 -0.0005029677944614569 0 0.0030231899905097583 0.00016956341649661862 0 0.002488669915116769 0.00019524001839266373 0 0.0029372122471806846 -0.0005029677944614569 0 0.0031324130517763438 -0.00049401804250578333 0 0.0030231899905097583 0.00016956341649661862 0 0.002366205268254048 6.229877301775768e-05 0 0.0018907946585133382 -0.00016351776659159412 0 0.0031458276437004843 -0.00013873808747485972 0 0.003361688992292825 -0.00025064157665460613 0 0.0032811140849188739 -0.00034971576626645898 0 0.003361688992292825 -0.00025064157665460613 0 0.003449680371539443 -0.00031854567450303952 0 0.0034461005705955501 -0.00022447320482499726 0 0.003361688992292825 -0.00025064157665460613 0 0.0034390095258143411 -0.00033823536241562886 0 0.003449680371539443 -0.00031854567450303952 0 0.0018907946585133382 -0.00016351776659159412 0 0.0028092297792963708 -0.00022315728908871933 0 0.003361688992292825 -0.00025064157665460613 0 0.0032811140849188739 -0.00034971576626645898 0 0.0034390095258143411 -0.00033823536241562886 0 0.00039632436538955036 -0.00025857353515388112 0 0.00045604356564902951 -0.00022873551321064294 0 0.00048172722081168468 -0.00028102774735215086 0 0.00063693983738269584 -0.00012797980262842039 0 0.00018470696019575697 -0.00010373299226699832 0 -0.00032617531062895246 -0.00024699142359825544 0 -0.00033645600671903441 -0.00019158489991686527 0 -0.00040656016609380774 -9.423768708053457e-05 0 0.0018907946585133382 -0.00016351776659159412 0 0.00063693983738269584 -0.00012797980262842039 0 -0.00032617531062895246 -0.00024699142359825544 0 -0.00033645600671903441 -0.00019158489991686527 0 -0.00027170141462187075 -0.00014384470332480564 0 -0.00019825317010954026 -0.00016739140335900144 0 -0.00032617531062895246 -0.00024699142359825544 0 -0.00027170141462187075 -0.00014384470332480564 0 0.0014699567765750852 -8.2398504049169624e-05 0 0.0015736346130089864 -0.00025001788771043571 0 0.001853514665413628 -9.8834235409848769e-05 0 0.00063693983738269584 -0.00012797980262842039 0 0.0021352527925118767 -0.0001581647852002432 0 0.0015736346130089864 -0.00025001788771043571 0 0.001853514665413628 -9.8834235409848769e-05 0 0.0022373489066580764 -0.00011553209258295693 0 0.0008050169781051678 -8.831746593378056e-05 0 0.00083279482712372442 -0.000137376638104567 0 0.000877975210524683 -7.5638341858797641e-05 0 0.0028092297792963708 -0.00022315728908871933 0 0.0021352527925118767 -0.0001581647852002432 0 0.0034635439173527106 -0.00032349603722720292 0 0.0035387910463398112 -0.00032406485443491154 0 0.003449680371539443 -0.00031854567450303952 0 0.0035985663002818546 -0.00020690446055375049 0 0.0037722443044822139 -0.00029368378292986649 0 0.003449680371539443 -0.00031854567450303952 0 0.0033322567120547091 -0.00036142685741391751 0 0.003376223298322979 -0.00029351945733754355 0 0.0034390095258143411 -0.00033823536241562886 0 0.003449680371539443 -0.00031854567450303952 0 0.003376223298322979 -0.00029351945733754355 0 0.003449680371539443 -0.00031854567450303952 0 0.0034461005705955501 -0.00022447320482499726 0 0.0035985663002818546 -0.00020690446055375049 0 0.00085807273356542269 -0.0001862249402298306 0 0.00083279482712372442 -0.000137376638104567 0 0.0008809185364486526 -0.00014184644323955359 0 -0.00048196483316151589 3.0288418843698245e-05 0 -0.00040656016609380774 -9.423768708053457e-05 0 -0.00044291702612444709 4.3949336485989553e-05 0 2.5941470761241727e-05 -0.00012586194933821132 0 0.00018470696019575697 -0.00010373299226699832 0 -0.00040656016609380774 -9.423768708053457e-05 0 -0.0003139312718974711 -6.9883248288676438e-05 0 -0.00044291702612444709 4.3949336485989553e-05 0 2.5941470761241727e-05 -0.00012586194933821132 0 -0.00085109510431260007 -6.816239646655894e-05 0 0.00083279482712372442 -0.000137376638104567 0 0.0008809185364486526 -0.00014184644323955359 0 0.000877975210524683 -7.5638341858797641e-05 0 -0.00033585998490235979 -0.00016760584401392795 0 -0.00035686986644015866 -3.1430567651414652e-05 0 -0.00033645600671903441 -0.00019158489991686527 0 -0.00040656016609380774 -9.423768708053457e-05 0 -0.0003139312718974711 -6.9883248288676438e-05 0 -0.00033645600671903441 -0.00019158489991686527 0 -0.00027170141462187075 -0.00014384470332480564 0 -0.0003160868421884418 1.0508957552132331e-05 0 -0.00027170141462187075 -0.00014384470332480564 0 -0.0003160868421884418 1.0508957552132331e-05 0 -0.00024285206471393831 -5.1870255097564373e-05 0 -0.00035686986644015866 -3.1430567651414652e-05 0 -0.00028814123354935434 -5.2594757686754468e-05 0 -0.00035686986644015866 -3.1430567651414652e-05 0 -0.00085109510431260007 -6.816239646655894e-05 0 -0.00058729754756812655 -9.0811804994813005e-05 0 -0.00055182555837637089 8.9984848622038524e-05 0 -0.0007255994772274063 3.2277878092186537e-05 0 -0.00035686986644015866 -3.1430567651414652e-05 0 -0.00064319721620836336 0.00013295162437083926 0 -0.00031328717805882586 3.662340724079489e-05 0 -0.00017320210465790258 0.00012766366017820342 0 -0.00020255041206855386 0.00029571264926232192 0 -0.00017320210465790258 0.00012766366017820342 0 -8.1386893725125234e-05 0.00018090779276932358 0 -0.00013537712512685056 0.00025628142975586948 0 -0.00017320210465790258 0.00012766366017820342 0 -0.00017248568370991298 1.2842780625806326e-05 0 -2.054864271585452e-05 4.3221870320173614e-05 0 -0.00031328717805882586 3.662340724079489e-05 0 -0.00017320210465790258 0.00012766366017820342 0 -0.00017248568370991298 1.2842780625806326e-05 0 -0.00031328717805882586 3.662340724079489e-05 0 -0.00017248568370991298 1.2842780625806326e-05 0 -0.00024285206471393831 -5.1870255097564373e-05 0 -0.00017248568370991298 1.2842780625806326e-05 0 -0.00024285206471393831 -5.1870255097564373e-05 0 -0.00010761288306134325 -8.8299942222828354e-05 0 -0.00019825317010954026 -0.00016739140335900144 0 -0.00024285206471393831 -5.1870255097564373e-05 0 -0.00010761288306134325 -8.8299942222828354e-05 0 -0.00019825317010954026 -0.00016739140335900144 0 -0.00027170141462187075 -0.00014384470332480564 0 -0.00024285206471393831 -5.1870255097564373e-05 0 -0.00017248568370991298 1.2842780625806326e-05 0 -0.00010761288306134325 -8.8299942222828354e-05 0 -2.054864271585452e-05 4.3221870320173614e-05 0 -0.00010761288306134325 -8.8299942222828354e-05 0 -2.054864271585452e-05 4.3221870320173614e-05 0 5.6922689936276318e-05 -9.3577204869954038e-05 0 -7.1588877699469276e-05 -0.00023758579927947679 0 -0.00010761288306134325 -8.8299942222828354e-05 0 5.6922689936276318e-05 -9.3577204869954038e-05 0 -2.054864271585452e-05 4.3221870320173614e-05 0 5.6922689936276318e-05 -9.3577204869954038e-05 0 0.00020597613213482768 3.9503654441365933e-06 0 -2.054864271585452e-05 4.3221870320173614e-05 0 0.00020597613213482768 3.9503654441365933e-06 0 0.00014479205550912416 0.00018174068570018801 0 -2.054864271585452e-05 4.3221870320173614e-05 0 -8.1386893725125234e-05 0.00018090779276932358 0 0.00014479205550912416 0.00018174068570018801 0 -0.00017320210465790258 0.00012766366017820342 0 -2.054864271585452e-05 4.3221870320173614e-05 0 -8.1386893725125234e-05 0.00018090779276932358 0 -8.1386893725125234e-05 0.00018090779276932358 0 -0.00013276542349956652 0.00032558264477234509 0 0.00014479205550912416 0.00018174068570018801 0 -0.00014984898425946113 0.00033971451451917886 0 -0.00021158276841460745 0.00036845981920504664 0 -0.00013276542349956652 0.00032558264477234509 0 0.00014479205550912416 0.00018174068570018801 0 0.00027432655559222747 0.00041583978399200921 0 -0.00013276542349956652 0.00032558264477234509 0 -0.00025983226889148714 0.0001920166916296263 0 -0.00068151058796178643 0.00034414538929383932 0 -8.1386893725125234e-05 0.00018090779276932358 0 -0.00013276542349956652 0.00032558264477234509 0 -0.00013537712512685056 0.00025628142975586948 0 -0.00013276542349956652 0.00032558264477234509 0 -0.00025983226889148714 0.0001920166916296263 0 -0.00010380871882180243 0.00026878781372950569 0 -0.0004380297579131959 4.139682884989457e-06 0 -0.00014010851351210432 3.6058751943933232e-05 0 -0.00040451521680308263 -0.00040595168415116534 0 -0.00025983226889148714 0.0001920166916296263 0 -0.0004380297579131959 4.139682884989457e-06 0 -0.00068151058796178643 0.00034414538929383932 0 -0.00025983226889148714 0.0001920166916296263 0 -0.0004380297579131959 4.139682884989457e-06 0 -0.00014010851351210432 3.6058751943933232e-05 0 -0.00064319721620836336 0.00013295162437083926 0 -0.0022563609156716299 -0.00013145349818018253 0 -0.0016886255014260556 -5.9344797140147883e-05 0 -0.0016894126782878683 0.0001064559492956973 0 -0.0017740953862674319 -0.00025003820102323528 0 -0.00014010851351210432 3.6058751943933232e-05 0 5.8760390901022766e-05 0.00032094939310243635 0 -4.131253588104431e-06 -0.00016621065034484655 0 -0.00025983226889148714 0.0001920166916296263 0 -0.00014010851351210432 3.6058751943933232e-05 0 -0.00010380871882180243 0.00026878781372950569 0 -0.0016886255014260556 -5.9344797140147883e-05 0 -0.0016431695267349045 -0.00018606032244635677 0 -0.0017740953862674319 -0.00025003820102323528 0 -0.00017320210465790258 0.00012766366017820342 0 -0.00020255041206855386 0.00029571264926232192 0 -0.00013537712512685056 0.00025628142975586948 0 -0.00064319721620836336 0.00013295162437083926 0 -7.9640633019068156e-05 0.00030078850820914173 0 -0.00014010851351210432 3.6058751943933232e-05 0 5.8760390901022766e-05 0.00032094939310243635 0 -0.00010380871882180243 0.00026878781372950569 0 -0.00013276542349956652 0.00032558264477234509 0 -0.00010380871882180243 0.00026878781372950569 0 -0.00013537712512685056 0.00025628142975586948 0 -0.00020255041206855386 0.00029571264926232192 0 -0.00010380871882180243 0.00026878781372950569 0 -0.00013537712512685056 0.00025628142975586948 0 -0.00064319721620836336 0.00013295162437083926 0 -0.00085109510431260007 -6.816239646655894e-05 0 -0.0016894126782878683 0.0001064559492956973 0 -0.0015475661652454412 3.1488482739023378e-06 0 -0.0013304748545235989 0.00022167632921642945 0 -0.0016886255014260556 -5.9344797140147883e-05 0 -0.0016894126782878683 0.0001064559492956973 0 -0.0015475661652454412 3.1488482739023378e-06 0 -0.0025152500422310504 -3.6704442019991802e-05 0 -0.0023695443403354581 3.3410208817486035e-05 0 -0.0023855870303959373 -9.8168081241681716e-05 0 -0.00164031371129521 -0.00018809846840794168 0 -0.0015475661652454412 3.1488482739023378e-06 0 -0.0013908836633612566 -6.8037402547416366e-05 0 -0.0024649451210260079 -6.7993402518363988e-05 0 -0.001893598554664215 -1.6576684964091542e-05 0 -0.0016886255014260556 -5.9344797140147883e-05 0 -0.00164031371129521 -0.00018809846840794168 0 -0.0015475661652454412 3.1488482739023378e-06 0 -0.0019484284100907219 -0.00023622461654210989 0 -0.0024649451210260079 -6.7993402518363988e-05 0 -0.0023695443403354581 3.3410208817486035e-05 0 -0.0023855870303959373 -9.8168081241681716e-05 0 -0.0022794712279452095 -7.2328838863304547e-05 0 -0.001893598554664215 -1.6576684964091542e-05 0 -0.0011503311930054229 -0.00011812807294461049 0 -0.0023695443403354581 3.3410208817486035e-05 0 -0.00222095624628014 0.00010204909030033757 0 -0.0022794712279452095 -7.2328838863304547e-05 0 -0.0013908836633612566 -6.8037402547416366e-05 0 -0.0013304748545235989 0.00022167632921642945 0 -0.0011444580001187257 5.0509857341697615e-05 0 -0.0015475661652454412 3.1488482739023378e-06 0 -0.0013908836633612566 -6.8037402547416366e-05 0 -0.0013304748545235989 0.00022167632921642945 0 -0.00043552816641538941 -0.00012380529334418637 0 -0.00052519313065236346 -0.00015298811750422801 0 -0.00038413645403628262 -0.00020627011128113233 0 -0.00085109510431260007 -6.816239646655894e-05 0 -0.0011503311930054229 -0.00011812807294461049 0 0.00082050928786201339 0.00021923741012680294 0 0.00078526991270848443 -0.00010305413363240806 0 0.00046832623707580433 7.0630192266173407e-05 0 0.00082050928786201339 0.00021923741012680294 0 0.00046832623707580433 7.0630192266173407e-05 0 0.00058850582505110059 0.00028091728619298483 0 0.00096230681968991177 4.6400041184929534e-05 0 0.00078706497227972599 -0.00019831429880360268 0 0.00085030854470334745 -0.00018559800021088077 0 0.00089287869876233743 -0.00018505434767365688 0 0.00091369138544560415 -0.00022187204439234477 0 0.00085030854470334745 -0.00018559800021088077 0 0.00082262355181053279 -0.00026461852081898694 0 0.00091369138544560415 -0.00022187204439234477 0 0.00090575368469888735 -0.00031493412070023199 0 0.00082262355181053279 -0.00026461852081898694 0 0.00091369138544560415 -0.00022187204439234477 0 0.00053786911682973529 -0.00016664582887374271 0 0.00078526991270848443 -0.00010305413363240806 0 0.00046832623707580433 7.0630192266173407e-05 0 0.00030186306395627878 -0.00020332328887091923 0 0.00053786911682973529 -0.00016664582887374271 0 0.00046832623707580433 7.0630192266173407e-05 0 0.00030186306395627878 -0.00020332328887091923 0 0.00020597613213482768 3.9503654441365933e-06 0 0.00046832623707580433 7.0630192266173407e-05 0 0.00030186306395627878 -0.00020332328887091923 0 5.6922689936276318e-05 -9.3577204869954038e-05 0 0.00020597613213482768 3.9503654441365933e-06 0 0.00020597613213482768 3.9503654441365933e-06 0 0.00014479205550912416 0.00018174068570018801 0 0.00046832623707580433 7.0630192266173407e-05 0 0.00014479205550912416 0.00018174068570018801 0 0.00046832623707580433 7.0630192266173407e-05 0 0.00027432655559222747 0.00041583978399200921 0 0.00046832623707580433 7.0630192266173407e-05 0 0.00027432655559222747 0.00041583978399200921 0 0.00058850582505110059 0.00028091728619298483 0 0.00057390837856822021 0.00046820035006514592 0 0.00027432655559222747 0.00041583978399200921 0 0.00058850582505110059 0.00028091728619298483 0 -0.00031472080878751471 0.0003768786227672292 0 -0.00021158276841460745 0.00036845981920504664 0 -0.0004380297579131959 4.139682884989457e-06 0 -0.00068151058796178643 0.00034414538929383932 0 -0.00084537879258425727 -0.00012478854062292918 0 -0.0012123005997834923 0.00025640600842400312 0 -0.001404512746335031 -0.00010616165072919743 0 -0.00084537879258425727 -0.00012478854062292918 0 -0.0012123005997834923 0.00025640600842400312 0 -0.00068151058796178643 0.00034414538929383932 0 -0.00084537879258425727 -0.00012478854062292918 0 -0.0012123005997834923 0.00025640600842400312 0 -0.001404512746335031 -0.00010616165072919743 0 -0.0017359031540839307 0.00014124204662893116 0 -0.00031472080878751471 0.0003768786227672292 0 -0.00044976882460283244 0.00014882428133842666 0 0.00057390837856822021 0.00046820035006514592 0 0.00071027284666952699 0.00037122541325884109 0 0.00058850582505110059 0.00028091728619298483 0 0.00057390837856822021 0.00046820035006514592 0 0.00071027284666952699 0.00037122541325884109 0 0.00084714731039814721 0.00052973115758382194 0 0.00082050928786201339 0.00021923741012680294 0 0.00071027284666952699 0.00037122541325884109 0 0.00058850582505110059 0.00028091728619298483 0 0.00085030854470334745 -0.00018559800021088077 0 0.00087551042168239909 -0.00016454764801200427 0 0.00085976847619719204 -0.00014206722216132244 0 0.00096230681968991177 4.6400041184929534e-05 0 -0.00044976882460283244 0.00014882428133842666 0 0.00082050928786201339 0.00021923741012680294 0 0.00071027284666952699 0.00037122541325884109 0 0.00084714731039814721 0.00052973115758382194 0 0.00085030854470334745 -0.00018559800021088077 0 0.00087551042168239909 -0.00016454764801200427 0 0.00089287869876233743 -0.00018505434767365688 0 0.00087551042168239909 -0.00016454764801200427 0 0.00088123994267992275 -0.00015557949795971956 0 0.00087470129964107386 -0.00015033814368495998 0 0.00087470129964107386 -0.00015033814368495998 0 0.00087960244475925921 -0.00014387440847650934 0 0.00088530713932499327 -0.00015029944250038167 0 0.0008810759017655709 -0.00014113203564819357 0 0.00087960244475925921 -0.00014387440847650934 0 0.00085976847619719204 -0.00014206722216132244 0 0.00087551042168239909 -0.00016454764801200427 0 0.00087470129964107386 -0.00015033814368495998 0 0.00085976847619719204 -0.00014206722216132244 0 -0.00044976882460283244 0.00014882428133842666 0 -0.0018042410688531223 -0.00027136989333188837 0 0.00088123994267992275 -0.00015557949795971956 0 0.00087470129964107386 -0.00015033814368495998 0 0.00088530713932499327 -0.00015029944250038167 0 -0.001404512746335031 -0.00010616165072919743 0 -0.0017359031540839307 0.00014124204662893116 0 -0.0018084574407419647 -0.00024087198007523265 0 -0.0020174737149705594 0.0001209656266711336 0 -0.001761765667157322 0.000186662953300335 0 -0.0018349546325013169 -0.0002243258702599525 0 1.1600709260190671e-05 -0.00020356580684473244 0 -0.00044976882460283244 0.00014882428133842666 0 0.00087470129964107386 -0.00015033814368495998 0 0.00087960244475925921 -0.00014387440847650934 0 0.00085976847619719204 -0.00014206722216132244 0 1.1600709260190671e-05 -0.00020356580684473244 0 6.6073877152833944e-05 -0.00016119486800031426 0 1.1600709260190671e-05 -0.00020356580684473244 0 0.0012200528994662954 -8.6522913333992525e-05 0 0.00088369845467234798 -0.00014296788201476009 0 0.00089355298688554576 -0.00014858536684059248 0 0.00090450997181053597 -0.00014355471644446848 0 0.00089355298688554576 -0.00014858536684059248 0 0.00090450997181053597 -0.00014355471644446848 0 0.00090526474523778871 -0.00015632482425423225 0 0.00089355298688554576 -0.00014858536684059248 0 0.00089282879869023062 -0.00015563985182991225 0 0.00090526474523778871 -0.00015632482425423225 0 0.00088530713932499327 -0.00015029944250038167 0 0.00089355298688554576 -0.00014858536684059248 0 0.00089282879869023062 -0.00015563985182991225 0 0.00088123994267992275 -0.00015557949795971956 0 0.00088530713932499327 -0.00015029944250038167 0 0.00089282879869023062 -0.00015563985182991225 0 0.00088530713932499327 -0.00015029944250038167 0 0.00088602075348210294 -0.000146379492006878 0 0.00089355298688554576 -0.00014858536684059248 0 0.00088369845467234798 -0.00014296788201476009 0 0.00088602075348210294 -0.000146379492006878 0 0.00089355298688554576 -0.00014858536684059248 0 0.00087960244475925921 -0.00014387440847650934 0 0.00088530713932499327 -0.00015029944250038167 0 0.00088602075348210294 -0.000146379492006878 0 0.00088369845467234798 -0.00014296788201476009 0 0.00087960244475925921 -0.00014387440847650934 0 0.00088602075348210294 -0.000146379492006878 0 0.00090450997181053597 -0.00014355471644446848 0 0.0009213158421305063 -0.00015981142572835921 0 0.00090526474523778871 -0.00015632482425423225 0 0.00090450997181053597 -0.00014355471644446848 0 0.0009213158421305063 -0.00015981142572835921 0 0.00093848370335246161 -0.00015235297342200421 0 0.0009213158421305063 -0.00015981142572835921 0 0.00091777220966057012 -0.00016951136760159184 0 0.00095147442837678284 -0.00018226849798761279 0 0.0009213158421305063 -0.00015981142572835921 0 0.00091777220966057012 -0.00016951136760159184 0 0.00090526474523778871 -0.00015632482425423225 0 0.00091777220966057012 -0.00016951136760159184 0 0.00095147442837678284 -0.00018226849798761279 0 0.00092091653371824704 -0.00018948588147197658 0 0.00087551042168239909 -0.00016454764801200427 0 0.00088123994267992275 -0.00015557949795971956 0 0.00089760433076599715 -0.00016885138476350253 0 0.00088123994267992275 -0.00015557949795971956 0 0.00089282879869023062 -0.00015563985182991225 0 0.00089760433076599715 -0.00016885138476350253 0 0.00089282879869023062 -0.00015563985182991225 0 0.00090526474523778871 -0.00015632482425423225 0 0.00089760433076599715 -0.00016885138476350253 0 0.00091777220966057012 -0.00016951136760159184 0 0.00090526474523778871 -0.00015632482425423225 0 0.00089760433076599715 -0.00016885138476350253 0 0.00091777220966057012 -0.00016951136760159184 0 0.00089760433076599715 -0.00016885138476350253 0 0.00092091653371824704 -0.00018948588147197658 0 0.00089760433076599715 -0.00016885138476350253 0 0.00089287869876233743 -0.00018505434767365688 0 0.00092091653371824704 -0.00018948588147197658 0 0.00087551042168239909 -0.00016454764801200427 0 0.00089760433076599715 -0.00016885138476350253 0 0.00089287869876233743 -0.00018505434767365688 0 0.00089287869876233743 -0.00018505434767365688 0 0.00091369138544560415 -0.00022187204439234477 0 0.00092091653371824704 -0.00018948588147197658 0 0.00091369138544560415 -0.00022187204439234477 0 0.00092091653371824704 -0.00018948588147197658 0 0.00093482141796218609 -0.00022331224735379644 0 0.00092091653371824704 -0.00018948588147197658 0 0.00097738775408358109 -0.00021558959923820452 0 0.00093482141796218609 -0.00022331224735379644 0 0.00095147442837678284 -0.00018226849798761279 0 0.00092091653371824704 -0.00018948588147197658 0 0.00097738775408358109 -0.00021558959923820452 0 0.000943572871373616 -0.00026544782633587595 0 0.0010172642527673699 -0.00025613154878324713 0 0.0010094883715478014 -0.00031440876704039893 0 0.00097738775408358109 -0.00021558959923820452 0 0.000943572871373616 -0.00026544782633587595 0 0.0010172642527673699 -0.00025613154878324713 0 0.00097738775408358109 -0.00021558959923820452 0 0.00093482141796218609 -0.00022331224735379644 0 0.000943572871373616 -0.00026544782633587595 0 0.00085184375870906012 -0.00018880800717053505 0 0.0021422443585952826 -0.00020051543879532417 0 0.00090575368469888735 -0.00031493412070023199 0 0.00091369138544560415 -0.00022187204439234477 0 0.0010247215403867524 -0.00026175592036053314 0 0.00091369138544560415 -0.00022187204439234477 0 0.00093482141796218609 -0.00022331224735379644 0 0.000943572871373616 -0.00026544782633587595 0 0.00096911179362194706 -0.00025572583061811839 0 0.00085184375870906012 -0.00018880800717053505 0 0.0021086455047886104 -0.00017549213176944436 0 0.0018459157055993529 -0.00020243846352471735 0 0.0010895466237018881 -0.00028628206627698001 0 0.0010172642527673699 -0.00025613154878324713 0 0.0010094883715478014 -0.00031440876704039893 0 0.0021086455047886104 -0.00017549213176944436 0 0.0021422443585952826 -0.00020051543879532417 0 0.0010895466237018881 -0.00028628206627698001 0 0.0010172642527673699 -0.00025613154878324713 0 0.0010481594515820798 -0.00017732860590364598 0 0.00095147442837678284 -0.00018226849798761279 0 0.00097738775408358109 -0.00021558959923820452 0 0.0010481594515820798 -0.00017732860590364598 0 0.00097738775408358109 -0.00021558959923820452 0 0.0010172642527673699 -0.00025613154878324713 0 0.0010481594515820798 -0.00017732860590364598 0 0.00096955637568508287 -0.00023053843533112035 0 0.0010215149345601106 -0.00020375171036687953 0 0.0010707016835519432 -0.00030568656018264138 0 0.00086363655859194438 -0.00018554580573178548 0 0.0018459157055993529 -0.00020243846352471735 0 0.0010895466237018881 -0.00028628206627698001 0 0.0010481594515820798 -0.00017732860590364598 0 0.0011826915639834253 -0.00024828118920716783 0 0.00096955637568508287 -0.00023053843533112035 0 0.0010215149345601106 -0.00020375171036687953 0 0.0009815462655577735 -0.00016248062914050733 0 0.00098747148455447984 -0.00018066750251448827 0 0.00086363655859194438 -0.00018554580573178548 0 0.00096955637568508287 -0.00023053843533112035 0 0.00093848370335246161 -0.00015235297342200421 0 0.0009815462655577735 -0.00016248062914050733 0 0.0009213158421305063 -0.00015981142572835921 0 0.00095147442837678284 -0.00018226849798761279 0 0.0010481594515820798 -0.00017732860590364598 0 0.0009213158421305063 -0.00015981142572835921 0 0.00096955637568508287 -0.00023053843533112035 0 0.00093848370335246161 -0.00015235297342200421 0 0.00093848370335246161 -0.00015235297342200421 0 0.0009815462655577735 -0.00016248062914050733 0 0.00095087524143943345 -0.00012684676835397101 0 0.0010215149345601106 -0.00020375171036687953 0 0.0009815462655577735 -0.00016248062914050733 0 0.0010584794462682469 -0.00016151396856272979 0 0.0009815462655577735 -0.00016248062914050733 0 0.0010584794462682469 -0.00016151396856272979 0 0.00099284227713692264 -0.00012466102821118968 0 0.0009815462655577735 -0.00016248062914050733 0 0.00095087524143943345 -0.00012684676835397101 0 0.00099284227713692264 -0.00012466102821118968 0 0.0010584794462682469 -0.00016151396856272979 0 0.0011373143601834525 -0.00016255947234621103 0 0.0010991884848984758 -0.00013085401411991047 0 0.0010584794462682469 -0.00016151396856272979 0 0.0011373143601834525 -0.00016255947234621103 0 0.0011277517732001107 -0.00018862967140839652 0 0.0011373143601834525 -0.00016255947234621103 0 0.001153023677447214 -0.00015436291702190661 0 0.0010991884848984758 -0.00013085401411991047 0 0.0011277517732001107 -0.00018862967140839652 0 0.0010839290358086251 -0.00022068639121638773 0 0.0011622080430521134 -0.00026999094927631007 0 0.0011277517732001107 -0.00018862967140839652 0 0.0012039540094935281 -0.00016344411012034519 0 0.0011622080430521134 -0.00026999094927631007 0 0.0011373143601834525 -0.00016255947234621103 0 0.0011277517732001107 -0.00018862967140839652 0 0.0012039540094935281 -0.00016344411012034519 0 0.0010215149345601106 -0.00020375171036687953 0 0.0010584794462682469 -0.00016151396856272979 0 0.0010839290358086251 -0.00022068639121638773 0 0.0010584794462682469 -0.00016151396856272979 0 0.0011277517732001107 -0.00018862967140839652 0 0.0010839290358086251 -0.00022068639121638773 0 6.9495399391001389e-05 6.2983537239525834e-10 0 -5.2844633928327928e-06 -1.850501155659154e-05 0 0.00088460492182949923 -2.2958082060202095e-05 0 0.0011977779220922616 -0.00022912511373647502 0 0.001182861456224004 -0.00018146802632670547 0 0.0011702606893250948 -0.00015434893548489962 0 0.0011977779220922616 -0.00022912511373647502 0 0.0011957218191543072 -0.00018575150375027021 0 0.001182861456224004 -0.00018146802632670547 0 0.0011977779220922616 -0.00022912511373647502 0 0.0011957218191543072 -0.00018575150375027021 0 0.0011573992569453117 -0.00014780261973607706 0 0.0011957218191543072 -0.00018575150375027021 0 0.0011882982929093012 -0.00016943581555685125 0 0.001227389107449923 -0.00014925024934498235 0 0.0011957218191543072 -0.00018575150375027021 0 0.001182861456224004 -0.00018146802632670547 0 0.0011882982929093012 -0.00016943581555685125 0 0.0011373143601834525 -0.00016255947234621103 0 0.001153023677447214 -0.00015436291702190661 0 0.0011882982929093012 -0.00016943581555685125 0 0.001182861456224004 -0.00018146802632670547 0 0.001153023677447214 -0.00015436291702190661 0 0.0011882982929093012 -0.00016943581555685125 0 0.0011373143601834525 -0.00016255947234621103 0 0.0011882982929093012 -0.00016943581555685125 0 0.0012039540094935281 -0.00016344411012034519 0 0.0012039540094935281 -0.00016344411012034519 0 0.001227389107449923 -0.00014925024934498235 0 0.0013417961156184926 -0.00014999587607601709 0 0.0011882982929093012 -0.00016943581555685125 0 0.0012039540094935281 -0.00016344411012034519 0 0.001227389107449923 -0.00014925024934498235 0 6.9495399391001389e-05 6.2983537239525834e-10 0 0.00088460492182949923 -2.2958082060202095e-05 0 0.00094143250860356559 -4.8845155114705124e-07 0 0.0011977779220922616 -0.00022912511373647502 0 0.0011573992569453117 -0.00014780261973607706 0 0.00088460492182949923 -2.2958082060202095e-05 0 0.00057236551997768973 -6.8025579683918258e-05 0 0.00081382636511631438 1.1019281794605221e-05 0 0.0011957218191543072 -0.00018575150375027021 0 0.001227389107449923 -0.00014925024934498235 0 0.0011573992569453117 -0.00014780261973607706 0 0.001227389107449923 -0.00014925024934498235 0 0.0011573992569453117 -0.00014780261973607706 0 0.0011325717831515291 -9.981796878973097e-05 0 0.001227389107449923 -0.00014925024934498235 0 0.0013417961156184926 -0.00014999587607601709 0 0.0011325717831515291 -9.981796878973097e-05 0 0.0011325717831515291 -9.981796878973097e-05 0 0.00088460492182949923 -2.2958082060202095e-05 0 0.00094143250860356559 -4.8845155114705124e-07 0 0.0013417961156184926 -0.00014999587607601709 0 0.0011325717831515291 -9.981796878973097e-05 0 0.00094143250860356559 -4.8845155114705124e-07 0 0.0011573992569453117 -0.00014780261973607706 0 0.0011325717831515291 -9.981796878973097e-05 0 0.00088460492182949923 -2.2958082060202095e-05 0 0.00094143250860356559 -4.8845155114705124e-07 0 0.001738164995356512 -1.1053064616733113e-05 0 0.0018119416620962486 4.6632178409538017e-07 0 0.0013417961156184926 -0.00014999587607601709 0 0.00094143250860356559 -4.8845155114705124e-07 0 0.001738164995356512 -1.1053064616733113e-05 0 0.0014097161395108669 -0.00017352992352231554 0 0.0015969144251999686 -0.00021737801061955315 0 0.0013417961156184926 -0.00014999587607601709 0 0.001738164995356512 -1.1053064616733113e-05 0 0.0021047317335188315 -0.00019301246225828189 0 0.0012039540094935281 -0.00016344411012034519 0 0.0013417961156184926 -0.00014999587607601709 0 0.0011622080430521134 -0.00026999094927631007 0 0.001738164995356512 -1.1053064616733113e-05 0 0.0021047317335188315 -0.00019301246225828189 0 0.0022765545048652686 -2.9449226246381336e-05 0 0.001738164995356512 -1.1053064616733113e-05 0 0.0022765545048652686 -2.9449226246381336e-05 0 0.0019866499571141046 0.00011740096357333722 0 0.001738164995356512 -1.1053064616733113e-05 0 0.0018119416620962486 4.6632178409538017e-07 0 0.0019866499571141046 0.00011740096357333722 0 0.0010215149345601106 -0.00020375171036687953 0 0.0010839290358086251 -0.00022068639121638773 0 0.0010707016835519432 -0.00030568656018264138 0 0.0010839290358086251 -0.00022068639121638773 0 0.0011622080430521134 -0.00026999094927631007 0 0.0010707016835519432 -0.00030568656018264138 0 0.0015969144251999686 -0.00021737801061955315 0 0.0018459157055993529 -0.00020243846352471735 0 0.0021047317335188315 -0.00019301246225828189 0 0.0022765545048652686 -2.9449226246381336e-05 0 0.0023454359175000754 -0.00012452667568582936 0 0.0025527780651627089 -0.00012173435931600539 0 0.0018459157055993529 -0.00020243846352471735 0 0.0031104149295324616 -3.8997643886112905e-05 0 0.0029928847212584812 -0.00029907870320897801 0 0.0030925932262216246 8.8981067124502633e-05 0 0.0022765545048652686 -2.9449226246381336e-05 0 0.0029928847212584812 -0.00029907870320897801 0 0.0030925932262216246 8.8981067124502633e-05 0 0.0030925932262216246 8.8981067124502633e-05 0 0.0032343088166962059 -0.00033946352904788235 0 0.0030332191471680444 -5.3174241978063478e-05 0 0.0030880240973650817 5.1350911281331375e-05 0 0.0029528622509231548 -6.7694862852817333e-05 0 0.0030925932262216246 8.8981067124502633e-05 0 0.003541585816293295 -0.00022385330317306891 0 0.0038876824636150087 -0.00037060576937064801 0 0.0022765545048652686 -2.9449226246381336e-05 0 0.0030925932262216246 8.8981067124502633e-05 0 0.0020155805273257246 0.00019422065174550985 0 0.003783703354965905 -0.00036715553122497371 0 0.0038876824636150087 -0.00037060576937064801 0 0.0038740320538843236 -0.00020308227988813783 0 0.003541585816293295 -0.00022385330317306891 0 0.003783703354965905 -0.00036715553122497371 0 0.0038876824636150087 -0.00037060576937064801 0 0.003783703354965905 -0.00036715553122497371 0 0.0041261208567203106 -0.00023120352799016494 0 0.0039767062686194123 -0.00017853712082236379 0 0.003783703354965905 -0.00036715553122497371 0 0.0039767062686194123 -0.00017853712082236379 0 0.0038740320538843236 -0.00020308227988813783 0 0.0030925932262216246 8.8981067124502633e-05 0 0.003541585816293295 -0.00022385330317306891 0 0.0032343088166962059 -0.00033946352904788235 0 0.0038197146147773693 -0.00037371966849196312 0 0.0038430838901728596 -0.00033612102430701705 0 0.003783703354965905 -0.00036715553122497371 0 0.0041261208567203106 -0.00023120352799016494 0 0.0045165900395151334 -0.00049519983213793417 0 0.0041391024585227679 -0.00038225007565365608 0 0.0038430838901728596 -0.00033612102430701705 0 0.003541585816293295 -0.00022385330317306891 0 0.003783703354965905 -0.00036715553122497371 0 0.0032343088166962059 -0.00033946352904788235 0 0.0018119416620962486 4.6632178409538017e-07 0 0.0019866499571141046 0.00011740096357333722 0 0.0026812850457561131 -2.1432968912680986e-07 0 0.0022765545048652686 -2.9449226246381336e-05 0 0.0019866499571141046 0.00011740096357333722 0 0.0020155805273257246 0.00019422065174550985 0 0.0038876824636150087 -0.00037060576937064801 0 0.0035260731957109069 -1.5062919321919837e-05 0 0.0038740320538843236 -0.00020308227988813783 0 0.0019866499571141046 0.00011740096357333722 0 0.0020155805273257246 0.00019422065174550985 0 0.0026812850457561131 -2.1432968912680986e-07 0 0.0029528622509231548 -6.7694862852817333e-05 0 0.0026826287857648124 -1.6021120823893255e-08 0 0.0038876824636150087 -0.00037060576937064801 0 0.0026844261288008677 -1.1669860921751215e-06 0 0.0035260731957109069 -1.5062919321919837e-05 0 0.0035260731957109069 -1.5062919321919837e-05 0 0.0038131449404331828 1.190673300654383e-05 0 0.0034457453075265811 4.4918350871040873e-07 0 0.0026844261288008677 -1.1669860921751215e-06 0 0.0035260731957109069 -1.5062919321919837e-05 0 0.0034457453075265811 4.4918350871040873e-07 0 0.0035260731957109069 -1.5062919321919837e-05 0 0.0038554544109479926 -3.1130076649150699e-05 0 0.0038131449404331828 1.190673300654383e-05 0 0.0035260731957109069 -1.5062919321919837e-05 0 0.0038554544109479926 -3.1130076649150699e-05 0 0.0038740320538843236 -0.00020308227988813783 0 0.0043243740389353668 8.9495816750902245e-05 0 0.0041888410985445835 8.0327181970107716e-05 0 0.004059879033668023 3.5038349086521529e-05 0 0.0041888410985445835 8.0327181970107716e-05 0 0.004059879033668023 3.5038349086521529e-05 0 0.0038131449404331828 1.190673300654383e-05 0 0.0038554544109479926 -3.1130076649150699e-05 0 0.004059879033668023 3.5038349086521529e-05 0 0.0038131449404331828 1.190673300654383e-05 0 0.0041888410985445835 8.0327181970107716e-05 0 0.0038131449404331828 1.190673300654383e-05 0 0.0034457453075265811 4.4918350871040873e-07 0 0.0041831110968865619 -8.9285383269802705e-05 0 0.0043880101722475534 -8.4203543219143109e-05 0 0.0042909849782167388 3.3112508123614877e-05 0 0.0041261208567203106 -0.00023120352799016494 0 0.0042856134337589079 -0.00027632109705299016 0 0.0043880101722475534 -8.4203543219143109e-05 0 0.0041261208567203106 -0.00023120352799016494 0 0.0041831110968865619 -8.9285383269802705e-05 0 0.0043880101722475534 -8.4203543219143109e-05 0 0.0041831110968865619 -8.9285383269802705e-05 0 0.0039767062686194123 -0.00017853712082236379 0 0.0040320049754143097 -6.8573801372112192e-05 0 0.0041261208567203106 -0.00023120352799016494 0 0.0041831110968865619 -8.9285383269802705e-05 0 0.0039767062686194123 -0.00017853712082236379 0 0.0038554544109479926 -3.1130076649150699e-05 0 0.0038740320538843236 -0.00020308227988813783 0 0.0040320049754143097 -6.8573801372112192e-05 0 0.0039767062686194123 -0.00017853712082236379 0 0.0038740320538843236 -0.00020308227988813783 0 0.0040320049754143097 -6.8573801372112192e-05 0 0.0038554544109479926 -3.1130076649150699e-05 0 0.004059879033668023 3.5038349086521529e-05 0 0.0040320049754143097 -6.8573801372112192e-05 0 0.0041831110968865619 -8.9285383269802705e-05 0 0.0040320049754143097 -6.8573801372112192e-05 0 0.0042909849782167388 3.3112508123614877e-05 0 0.0043243740389353668 8.9495816750902245e-05 0 0.004059879033668023 3.5038349086521529e-05 0 0.0042909849782167388 3.3112508123614877e-05 0 0.004059879033668023 3.5038349086521529e-05 0 0.0040320049754143097 -6.8573801372112192e-05 0 0.0042909849782167388 3.3112508123614877e-05 0 0.0044770202148094393 0.00011349631637702358 0 0.0043243740389353668 8.9495816750902245e-05 0 0.0042909849782167388 3.3112508123614877e-05 0 0.0044770202148094393 0.00011349631637702358 0 0.0042909849782167388 3.3112508123614877e-05 0 0.0045020453047400202 6.9572684137685458e-05 0 0.0043880101722475534 -8.4203543219143109e-05 0 0.0042909849782167388 3.3112508123614877e-05 0 0.0045020453047400202 6.9572684137685458e-05 0 0.0043880101722475534 -8.4203543219143109e-05 0 0.0045020453047400202 6.9572684137685458e-05 0 0.0045690942010725563 -4.117408979594639e-05 0 0.0045919622876777148 5.547296701893212e-05 0 0.0045020453047400202 6.9572684137685458e-05 0 0.0045690942010725563 -4.117408979594639e-05 0 0.0043880101722475534 -8.4203543219143109e-05 0 0.0045690942010725563 -4.117408979594639e-05 0 0.0045601944413003938 -0.00018023717579949635 0 0.0045690942010725563 -4.117408979594639e-05 0 0.0046301876475048883 -6.6989910235111641e-05 0 0.0045601944413003938 -0.00018023717579949635 0 0.0045690942010725563 -4.117408979594639e-05 0 0.0046331962581191259 -5.6534481782162839e-06 0 0.0046301876475048883 -6.6989910235111641e-05 0 0.0045919622876777148 5.547296701893212e-05 0 0.0045690942010725563 -4.117408979594639e-05 0 0.0046331962581191259 -5.6534481782162839e-06 0 0.0046331962581191259 -5.6534481782162839e-06 0 0.0046384526587958056 -4.2117464811042483e-05 0 0.0046301876475048883 -6.6989910235111641e-05 0 0.0046333000979287432 -3.9743191926178877e-05 0 0.0046342359316859814 -4.8627268022815822e-05 0 0.0046384526587958056 -4.2117464811042483e-05 0 0.0046333000979287432 -3.9743191926178877e-05 0 0.0046331962581191259 -5.6534481782162839e-06 0 0.0046384526587958056 -4.2117464811042483e-05 0 0.0046384526587958056 -4.2117464811042483e-05 0 0.004634861436856195 -6.7730126452577891e-05 0 0.0046301876475048883 -6.6989910235111641e-05 0 0.0046331511564700273 -5.4646605034903558e-05 0 0.0046384526587958056 -4.2117464811042483e-05 0 0.004634861436856195 -6.7730126452577891e-05 0 0.004634861436856195 -6.7730126452577891e-05 0 0.0046301876475048883 -6.6989910235111641e-05 0 0.0046310682102777391 -9.8933581398278828e-05 0 0.0029854926040363541 -0.00040045623784616625 0 0.0029157461495440086 -0.00026208927371116172 0 0.0031715645015267489 -0.00030040553504695662 0 0.0046301876475048883 -6.6989910235111641e-05 0 0.0046310682102777391 -9.8933581398278828e-05 0 0.0045601944413003938 -0.00018023717579949635 0 0.0046266965339573562 -5.6663246546083512e-05 0 0.004634861436856195 -6.7730126452577891e-05 0 0.0046310682102777391 -9.8933581398278828e-05 0 0.0026578429321615234 -0.00037753984059681105 0 0.0029854926040363541 -0.00040045623784616625 0 0.0029157461495440086 -0.00026208927371116172 0 0.0029598992217502269 -0.00029999696080809023 0 0.0039453453554597782 -0.0002461563321900002 0 0.0029598992217502269 -0.00029999696080809023 0 0.001752850228843189 -0.00038365406401314053 0 0.00090575368469888735 -0.00031493412070023199 0 0.0009004092813593937 -0.00043089476391578618 0 0.0010049764396424662 -0.00037189244646458153 0 0.00090575368469888735 -0.00031493412070023199 0 0.0010247215403867524 -0.00026175592036053314 0 0.0010049764396424662 -0.00037189244646458153 0 0.001752850228843189 -0.00038365406401314053 0 0.0021422443585952826 -0.00020051543879532417 0 0.0010247215403867524 -0.00026175592036053314 0 0.0010049764396424662 -0.00037189244646458153 0 0.0011329195058027864 -0.00031926843429962409 0 0.0029157461495440086 -0.00026208927371116172 0 0.0031715645015267489 -0.00030040553504695662 0 0.0031889928119278577 -0.0001325252780592554 0 0.0031104149295324616 -3.8997643886112905e-05 0 0.0030428825447891892 -4.5752254591857638e-05 0 0.0030332191471680444 -5.3174241978063478e-05 0 0.0021422443585952826 -0.00020051543879532417 0 0.003331484589415156 -0.00021439098611680856 0 0.0031715645015267489 -0.00030040553504695662 0 0.0031889928119278577 -0.0001325252780592554 0 0.0034437882053574829 -0.00028361965636226612 0 0.0031104149295324616 -3.8997643886112905e-05 0 0.0030925932262216246 8.8981067124502633e-05 0 0.0030332191471680444 -5.3174241978063478e-05 0 0.0042856134337589079 -0.00027632109705299016 0 0.0043880101722475534 -8.4203543219143109e-05 0 0.0045601944413003938 -0.00018023717579949635 0 0.0038430838901728596 -0.00033612102430701705 0 0.003331484589415156 -0.00021439098611680856 0 0.0038430838901728596 -0.00033612102430701705 0 0.0039416801986713488 -0.0003052139057707172 0 0.0037014300127970168 -0.00044244356004744553 0 0.0034437882053574829 -0.00028361965636226612 0 0.0033362663412505431 -0.0004234729282942822 0 0.0031715645015267489 -0.00030040553504695662 0 0.0034437882053574829 -0.00028361965636226612 0 0.0033362663412505431 -0.0004234729282942822 0 0.0039453453554597782 -0.0002461563321900002 0 0.0039416801986713488 -0.0003052139057707172 0 0.0029854926040363541 -0.00040045623784616625 0 0.0031715645015267489 -0.00030040553504695662 0 0.0033362663412505431 -0.0004234729282942822 0 0.00023501335295912892 -0.0016447978463948393 0 0.00021487854707098571 -0.0015297587226441511 0 0.00032113191270377204 -0.0016771953449595846 0 0.00023501335295912892 -0.0016447978463948393 0 6.307003867368359e-05 -0.0015212128435979505 0 0.00021487854707098571 -0.0015297587226441511 0 6.307003867368359e-05 -0.0015212128435979505 0 0.00028367653564925169 -0.0017906791570238092 0 -0.00043156159831832296 -0.0016298498654562078 0 0.00023501335295912892 -0.0016447978463948393 0 6.307003867368359e-05 -0.0015212128435979505 0 0.00028367653564925169 -0.0017906791570238092 0 6.307003867368359e-05 -0.0015212128435979505 0 -0.00018902281506479995 -0.0013542361546472451 0 -2.4615746178632348e-05 -0.0013043890026941951 0 -0.00018902281506479995 -0.0013542361546472451 0 -2.4615746178632348e-05 -0.0013043890026941951 0 -0.00022004504853222995 -0.0011670284428066339 0 -2.4615746178632348e-05 -0.0013043890026941951 0 8.7495395480045564e-05 -0.0013322760013489846 0 9.9588329742286491e-05 -0.0014278324018302704 0 6.307003867368359e-05 -0.0015212128435979505 0 -2.4615746178632348e-05 -0.0013043890026941951 0 9.9588329742286491e-05 -0.0014278324018302704 0 6.307003867368359e-05 -0.0015212128435979505 0 9.9588329742286491e-05 -0.0014278324018302704 0 0.00021487854707098571 -0.0015297587226441511 0 0.00021487854707098571 -0.0015297587226441511 0 0.00019342438268227322 -0.0014096090510246897 0 0.00041506057210309355 -0.0014621233484306473 0 9.9588329742286491e-05 -0.0014278324018302704 0 0.00021487854707098571 -0.0015297587226441511 0 0.00019342438268227322 -0.0014096090510246897 0 8.7495395480045564e-05 -0.0013322760013489846 0 0.00019342438268227322 -0.0014096090510246897 0 8.3560915082516617e-05 -0.0011810063472148492 0 8.7495395480045564e-05 -0.0013322760013489846 0 9.9588329742286491e-05 -0.0014278324018302704 0 0.00019342438268227322 -0.0014096090510246897 0 0.00041506057210309355 -0.0014621233484306473 0 0.00057877726475679585 -0.0012992636776014686 0 0.0005781449811154718 -0.0016174029765517893 0 0.00021487854707098571 -0.0015297587226441511 0 0.00041506057210309355 -0.0014621233484306473 0 0.0005781449811154718 -0.0016174029765517893 0 0.00019342438268227322 -0.0014096090510246897 0 0.00035296322400621221 -0.0012969454100893282 0 0.00041506057210309355 -0.0014621233484306473 0 0.00035296322400621221 -0.0012969454100893282 0 0.00041506057210309355 -0.0014621233484306473 0 0.00057877726475679585 -0.0012992636776014686 0 0.00057877726475679585 -0.0012992636776014686 0 0.0005781449811154718 -0.0016174029765517893 0 0.00084623369598060198 -0.0014361385920814047 0 0.00057877726475679585 -0.0012992636776014686 0 0.00079143455965597124 -0.001226666876341796 0 0.00084623369598060198 -0.0014361385920814047 0 0.0005781449811154718 -0.0016174029765517893 0 0.00098627952153373857 -0.0017197585574686345 0 0.00084623369598060198 -0.0014361385920814047 0 0.00040658956121063076 -0.0016512459008700318 0 0.00098383893391648007 -0.0011878773152896463 0 0.00035350929435103379 -0.0016135289276499769 0 0.000340673843853327 -0.0016405135168284209 0 0.0003455726901705135 -0.0016334483688527602 0 0.00024723522395739045 -0.0015329445634264963 0 0.00040658956121063076 -0.0016512459008700318 0 0.00021487854707098571 -0.0015297587226441511 0 0.00035350929435103379 -0.0016135289276499769 0 0.00032113191270377204 -0.0016771953449595846 0 0.00035350929435103379 -0.0016135289276499769 0 0.00032113191270377204 -0.0016771953449595846 0 0.000340673843853327 -0.0016405135168284209 0 0.00032113191270377204 -0.0016771953449595846 0 0.000340673843853327 -0.0016405135168284209 0 0.00038356896583712342 -0.0015958571202901995 0 0.000340673843853327 -0.0016405135168284209 0 0.00031109309749420528 -0.0016074915451027823 0 0.0003455726901705135 -0.0016334483688527602 0 0.00031109309749420528 -0.0016074915451027823 0 0.00038356896583712342 -0.0015958571202901995 0 0.00044642746088523297 -0.0013915590738946314 0 0.000340673843853327 -0.0016405135168284209 0 0.00031109309749420528 -0.0016074915451027823 0 0.00038356896583712342 -0.0015958571202901995 0 0.00032113191270377204 -0.0016771953449595846 0 0.00038356896583712342 -0.0015958571202901995 0 0.00044198525704167461 -0.0015888861274372494 0 0.00032113191270377204 -0.0016771953449595846 0 0.00044198525704167461 -0.0015888861274372494 0 0.00028367653564925169 -0.0017906791570238092 0 0.00023501335295912892 -0.0016447978463948393 0 0.00032113191270377204 -0.0016771953449595846 0 0.00028367653564925169 -0.0017906791570238092 0 0.00044198525704167461 -0.0015888861274372494 0 0.00028367653564925169 -0.0017906791570238092 0 0.00057499984639383639 -0.0015938158088456707 0 0.00028367653564925169 -0.0017906791570238092 0 0.00057499984639383639 -0.0015938158088456707 0 0.00077939931676147399 -0.0016991997980404644 0 0.00057499984639383639 -0.0015938158088456707 0 0.00077939931676147399 -0.0016991997980404644 0 0.00091494399719063615 -0.0015502330315830379 0 0.0009902531694650071 -0.0016827607420876666 0 0.0011479446756295208 -0.0016477986634701324 0 0.00091494399719063615 -0.0015502330315830379 0 0.00077939931676147399 -0.0016991997980404644 0 0.0009902531694650071 -0.0016827607420876666 0 0.00091494399719063615 -0.0015502330315830379 0 0.0009902531694650071 -0.0016827607420876666 0 0.0010105091083459129 -0.0018281956331501318 0 0.0011231545290418697 -0.0017510750055408056 0 0.00077939931676147399 -0.0016991997980404644 0 0.0009902531694650071 -0.0016827607420876666 0 0.0010105091083459129 -0.0018281956331501318 0 0.00077939931676147399 -0.0016991997980404644 0 0.0010105091083459129 -0.0018281956331501318 0 0.00086658505769835164 -0.0020455159576462036 0 0.0010105091083459129 -0.0018281956331501318 0 0.0011233551785177918 -0.0019492258113697825 0 0.00086658505769835164 -0.0020455159576462036 0 0.00028367653564925169 -0.0017906791570238092 0 0.00077939931676147399 -0.0016991997980404644 0 0.00086658505769835164 -0.0020455159576462036 0 0.0013818780545650762 -0.0017468944524970183 0 0.0013085805638601527 -0.0016408721018557415 0 0.0014463351205808682 -0.001671722029784724 0 0.0013818780545650762 -0.0017468944524970183 0 0.0012554479781692201 -0.0017519613239599721 0 0.0013085805638601527 -0.0016408721018557415 0 0.0013818780545650762 -0.0017468944524970183 0 0.0012554479781692201 -0.0017519613239599721 0 0.0013473569369158713 -0.0018474852926735285 0 0.0012554479781692201 -0.0017519613239599721 0 0.0011479446756295208 -0.0016477986634701324 0 0.0013085805638601527 -0.0016408721018557415 0 0.0009902531694650071 -0.0016827607420876666 0 0.0011479446756295208 -0.0016477986634701324 0 0.0011231545290418697 -0.0017510750055408056 0 0.0012554479781692201 -0.0017519613239599721 0 0.0011479446756295208 -0.0016477986634701324 0 0.0011231545290418697 -0.0017510750055408056 0 0.0010105091083459129 -0.0018281956331501318 0 0.0011231545290418697 -0.0017510750055408056 0 0.0011996084133449579 -0.0018551021147400586 0 0.0010105091083459129 -0.0018281956331501318 0 0.0011996084133449579 -0.0018551021147400586 0 0.0011233551785177918 -0.0019492258113697825 0 0.0011996084133449579 -0.0018551021147400586 0 0.0012778738522149435 -0.0019454975990144667 0 0.0011233551785177918 -0.0019492258113697825 0 0.0012554479781692201 -0.0017519613239599721 0 0.0011996084133449579 -0.0018551021147400586 0 0.0013473569369158713 -0.0018474852926735285 0 0.0012554479781692201 -0.0017519613239599721 0 0.0011231545290418697 -0.0017510750055408056 0 0.0011996084133449579 -0.0018551021147400586 0 0.0011996084133449579 -0.0018551021147400586 0 0.0013473569369158713 -0.0018474852926735285 0 0.0012778738522149435 -0.0019454975990144667 0 0.0013473569369158713 -0.0018474852926735285 0 0.0013882930444789592 -0.0019255344675312015 0 0.0014566947045081796 -0.0018650352417508848 0 0.0013473569369158713 -0.0018474852926735285 0 0.0014566947045081796 -0.0018650352417508848 0 0.0014272473913088004 -0.0018160674623807411 0 0.0013818780545650762 -0.0017468944524970183 0 0.0013473569369158713 -0.0018474852926735285 0 0.0014272473913088004 -0.0018160674623807411 0 0.0014126733692738623 -0.0019716540224217916 0 0.0013882930444789592 -0.0019255344675312015 0 0.0013357989322384895 -0.0019993867045350415 0 0.0013882930444789592 -0.0019255344675312015 0 0.0012778738522149435 -0.0019454975990144667 0 0.0013357989322384895 -0.0019993867045350415 0 0.0013473569369158713 -0.0018474852926735285 0 0.0013882930444789592 -0.0019255344675312015 0 0.0012778738522149435 -0.0019454975990144667 0 0.0012778738522149435 -0.0019454975990144667 0 0.0013357989322384895 -0.0019993867045350415 0 0.001241996793669509 -0.0020634229277262653 0 0.0012778738522149435 -0.0019454975990144667 0 0.0011233551785177918 -0.0019492258113697825 0 0.001241996793669509 -0.0020634229277262653 0 -0.00065586431342492906 -0.0013612041819051454 0 -0.00073938076263320017 -0.0014095020434474416 0 -0.00056719258566352137 -0.0014252839912669781 0 -0.00065586431342492906 -0.0013612041819051454 0 -0.00072586397675547542 -0.001404463597274799 0 -0.00067883734607460545 -0.0012507437592257098 0 -0.00065586431342492906 -0.0013612041819051454 0 -0.00072586397675547542 -0.001404463597274799 0 -0.00073938076263320017 -0.0014095020434474416 0 0.0013357989322384895 -0.0019993867045350415 0 0.001241996793669509 -0.0020634229277262653 0 0.0014891254844399682 -0.0019997471716329978 0 0.0014126733692738623 -0.0019716540224217916 0 0.0013357989322384895 -0.0019993867045350415 0 0.0014891254844399682 -0.0019997471716329978 0 -0.00073938076263320017 -0.0014095020434474416 0 -0.00061481702565144053 -0.0014722727226926244 0 -0.00050888890307886861 -0.0014121281047885356 0 -0.00073902309702516579 -0.001397459719503699 0 -0.0007385418410995264 -0.0014005406503695013 0 -0.00072586397675547542 -0.001404463597274799 0 -0.00073938076263320017 -0.0014095020434474416 0 -0.00061481702565144053 -0.0014722727226926244 0 0.00024483996139746186 -0.0017330219738132036 0 0.00052220981120585882 -0.0017342657673648262 0 6.307003867368359e-05 -0.0015212128435979505 0 -0.00018902281506479995 -0.0013542361546472451 0 -0.00043156159831832296 -0.0016298498654562078 0 0.00027043104698894931 -0.0018011321628017296 0 0.00022308949043178399 -0.0018233826210605098 0 -0.00073938076263320017 -0.0014095020434474416 0 -0.00043156159831832296 -0.0016298498654562078 0 -0.00056719258566352137 -0.0014252839912669781 0 0.0011233551785177918 -0.0019492258113697825 0 0.001241996793669509 -0.0020634229277262653 0 0.00086658505769835164 -0.0020455159576462036 0 0.00024483996139746186 -0.0017330219738132036 0 0.00022308949043178399 -0.0018233826210605098 0 -0.00056719258566352137 -0.0014252839912669781 0 -0.00038444063504426983 -0.0012764096093668225 0 -0.00054047569432691259 -0.0012373878381867801 0 -0.00043156159831832296 -0.0016298498654562078 0 -0.00056719258566352137 -0.0014252839912669781 0 -0.00038444063504426983 -0.0012764096093668225 0 -0.00065586431342492906 -0.0013612041819051454 0 -0.00056719258566352137 -0.0014252839912669781 0 -0.00054047569432691259 -0.0012373878381867801 0 -0.00018902281506479995 -0.0013542361546472451 0 -0.00043156159831832296 -0.0016298498654562078 0 -0.00038444063504426983 -0.0012764096093668225 0 -0.00039659320893831553 -0.001155103233225288 0 -0.00038444063504426983 -0.0012764096093668225 0 -0.00022004504853222995 -0.0011670284428066339 0 -0.00018902281506479995 -0.0013542361546472451 0 -0.00038444063504426983 -0.0012764096093668225 0 -0.00022004504853222995 -0.0011670284428066339 0 -0.00039659320893831553 -0.001155103233225288 0 -0.00038685612360203647 -0.0010597179022049763 0 -0.00022004504853222995 -0.0011670284428066339 0 -0.00039659320893831553 -0.001155103233225288 0 -0.00054047569432691259 -0.0012373878381867801 0 -0.00051050108244549499 -0.0011007255019485757 0 -0.00039659320893831553 -0.001155103233225288 0 -0.00038444063504426983 -0.0012764096093668225 0 -0.00054047569432691259 -0.0012373878381867801 0 -0.00065586431342492906 -0.0013612041819051454 0 -0.00054047569432691259 -0.0012373878381867801 0 -0.00067883734607460545 -0.0012507437592257098 0 -0.00054047569432691259 -0.0012373878381867801 0 -0.00062253044183544534 -0.0011607425973266475 0 -0.00067883734607460545 -0.0012507437592257098 0 -0.00054047569432691259 -0.0012373878381867801 0 -0.00062253044183544534 -0.0011607425973266475 0 -0.00051050108244549499 -0.0011007255019485757 0 -0.00063023439780305831 -0.0010521816818333828 0 -0.00049216277653952472 -0.0010101991381541069 0 -0.00051050108244549499 -0.0011007255019485757 0 -0.00062253044183544534 -0.0011607425973266475 0 -0.00063023439780305831 -0.0010521816818333828 0 -0.00051050108244549499 -0.0011007255019485757 0 -0.00049216277653952472 -0.0010101991381541069 0 -0.00038685612360203647 -0.0010597179022049763 0 -0.00039873378615523967 -0.00096202148179359262 0 -0.00049216277653952472 -0.0010101991381541069 0 -0.00038685612360203647 -0.0010597179022049763 0 -0.00051050108244549499 -0.0011007255019485757 0 -0.00039659320893831553 -0.001155103233225288 0 -0.00038685612360203647 -0.0010597179022049763 0 -0.00051050108244549499 -0.0011007255019485757 0 -0.00072586397675547542 -0.001404463597274799 0 -0.00091636309666893166 -0.0012948814337697169 0 -0.00078938959121954342 -0.0012719204433355106 0 -0.00091984688984396033 -0.0011700807923431622 0 -0.00091636309666893166 -0.0012948814337697169 0 -0.00078938959121954342 -0.0012719204433355106 0 -0.00091984688984396033 -0.0011700807923431622 0 -0.00078938959121954342 -0.0012719204433355106 0 -0.00076751039130641078 -0.001137393479220079 0 -0.00078938959121954342 -0.0012719204433355106 0 -0.00067883734607460545 -0.0012507437592257098 0 -0.00076751039130641078 -0.001137393479220079 0 -0.00072586397675547542 -0.001404463597274799 0 -0.00078938959121954342 -0.0012719204433355106 0 -0.00067883734607460545 -0.0012507437592257098 0 -0.00062253044183544534 -0.0011607425973266475 0 -0.00067883734607460545 -0.0012507437592257098 0 -0.00076751039130641078 -0.001137393479220079 0 -0.00062253044183544534 -0.0011607425973266475 0 -0.00063023439780305831 -0.0010521816818333828 0 -0.00076751039130641078 -0.001137393479220079 0 -0.00063023439780305831 -0.0010521816818333828 0 -0.00076751039130641078 -0.001137393479220079 0 -0.00077156580616164871 -0.0010302784488799663 0 -0.00076751039130641078 -0.001137393479220079 0 -0.00084854367906988723 -0.0010864973268533962 0 -0.00077156580616164871 -0.0010302784488799663 0 -0.00088720873926148027 -0.0011507661612450866 0 -0.00076751039130641078 -0.001137393479220079 0 -0.00084854367906988723 -0.0010864973268533962 0 -0.00091607990398931579 -0.0011684196858730328 0 -0.00078034113752805984 -0.0011384671591597143 0 -0.00084854367906988723 -0.0010864973268533962 0 -0.00087970003070964769 -0.0010200078905561781 0 -0.00093222351879366518 -0.0010810456162457331 0 -0.00088720873926148027 -0.0011507661612450866 0 -0.00084854367906988723 -0.0010864973268533962 0 -0.00093222351879366518 -0.0010810456162457331 0 -0.00087970003070964769 -0.0010200078905561781 0 -0.00077156580616164871 -0.0010302784488799663 0 -0.00084285606962035116 -0.00094935310981225673 0 -0.00087970003070964769 -0.0010200078905561781 0 -0.00084285606962035116 -0.00094935310981225673 0 -0.00093895294123825807 -0.00095054909078060002 0 -0.00084854367906988723 -0.0010864973268533962 0 -0.00087970003070964769 -0.0010200078905561781 0 -0.00077156580616164871 -0.0010302784488799663 0 -0.00063023439780305831 -0.0010521816818333828 0 -0.00077156580616164871 -0.0010302784488799663 0 -0.00071283241006842306 -0.00095200816517104325 0 -0.00077156580616164871 -0.0010302784488799663 0 -0.00071283241006842306 -0.00095200816517104325 0 -0.00084285606962035116 -0.00094935310981225673 0 -0.00071283241006842306 -0.00095200816517104325 0 -0.00081389676779149416 -0.00088425216293217868 0 -0.00071141329107551475 -0.00087504492535917747 0 -0.00071283241006842306 -0.00095200816517104325 0 -0.00084285606962035116 -0.00094935310981225673 0 -0.00081389676779149416 -0.00088425216293217868 0 -0.00084285606962035116 -0.00094935310981225673 0 -0.00093792000457233141 -0.00089250211044366614 0 -0.00081389676779149416 -0.00088425216293217868 0 -0.00084285606962035116 -0.00094935310981225673 0 -0.00093895294123825807 -0.00095054909078060002 0 -0.00093792000457233141 -0.00089250211044366614 0 -0.00049216277653952472 -0.0010101991381541069 0 -0.00051456697646505567 -0.00091737831965090725 0 -0.00059357343169540806 -0.000962788257061179 0 -0.00049216277653952472 -0.0010101991381541069 0 -0.00051456697646505567 -0.00091737831965090725 0 -0.00039873378615523967 -0.00096202148179359262 0 -0.00063023439780305831 -0.0010521816818333828 0 -0.00071283241006842306 -0.00095200816517104325 0 -0.00059357343169540806 -0.000962788257061179 0 -0.00063023439780305831 -0.0010521816818333828 0 -0.00049216277653952472 -0.0010101991381541069 0 -0.00059357343169540806 -0.000962788257061179 0 -0.00071283241006842306 -0.00095200816517104325 0 -0.00062533005487610399 -0.00090604969489484644 0 -0.00071141329107551475 -0.00087504492535917747 0 -0.00062533005487610399 -0.00090604969489484644 0 -0.00071141329107551475 -0.00087504492535917747 0 -0.00059468521459879594 -0.00084365810534202477 0 -0.00071283241006842306 -0.00095200816517104325 0 -0.00059357343169540806 -0.000962788257061179 0 -0.00062533005487610399 -0.00090604969489484644 0 -0.00051456697646505567 -0.00091737831965090725 0 -0.00062533005487610399 -0.00090604969489484644 0 -0.00059468521459879594 -0.00084365810534202477 0 -0.00051456697646505567 -0.00091737831965090725 0 -0.00049605446060359639 -0.00087179447119316994 0 -0.00059468521459879594 -0.00084365810534202477 0 -0.00051456697646505567 -0.00091737831965090725 0 -0.00059357343169540806 -0.000962788257061179 0 -0.00062533005487610399 -0.00090604969489484644 0 -0.00049605446060359639 -0.00087179447119316994 0 -0.0004635902573284796 -0.00085247465991522347 0 -0.00052347038393001501 -0.00081728299017402655 0 -0.00049605446060359639 -0.00087179447119316994 0 -0.00045713208352594415 -0.00091312272321133299 0 -0.00042597750125787762 -0.00090248431289838467 0 -0.00049605446060359639 -0.00087179447119316994 0 -0.0004635902573284796 -0.00085247465991522347 0 -0.00042597750125787762 -0.00090248431289838467 0 -0.00051456697646505567 -0.00091737831965090725 0 -0.00049605446060359639 -0.00087179447119316994 0 -0.00045713208352594415 -0.00091312272321133299 0 -0.00044021749067675321 -0.00085075836483526981 0 -0.0004635902573284796 -0.00085247465991522347 0 -0.00050465463040908019 -0.00079112587304560613 0 -0.0004635902573284796 -0.00085247465991522347 0 -0.00040399422782206153 -0.00089257800636626569 0 -0.00042597750125787762 -0.00090248431289838467 0 -0.00044021749067675321 -0.00085075836483526981 0 -0.0004635902573284796 -0.00085247465991522347 0 -0.00040399422782206153 -0.00089257800636626569 0 -0.00044021749067675321 -0.00085075836483526981 0 -0.00040399422782206153 -0.00089257800636626569 0 -0.00039826603343623657 -0.00088418040625503974 0 -0.00040399422782206153 -0.00089257800636626569 0 -0.00036678782583273877 -0.00093135048008280181 0 -0.00035214762996227855 -0.00093213254684086535 0 -0.00040399422782206153 -0.00089257800636626569 0 -0.00035214762996227855 -0.00093213254684086535 0 -0.00039826603343623657 -0.00088418040625503974 0 -0.00040399422782206153 -0.00089257800636626569 0 -0.00036678782583273877 -0.00093135048008280181 0 -0.00042597750125787762 -0.00090248431289838467 0 -0.00036678782583273877 -0.00093135048008280181 0 -0.00035214762996227855 -0.00093213254684086535 0 -0.00031039330090348275 -0.00097347205866238503 0 -0.00035214762996227855 -0.00093213254684086535 0 -0.00031039330090348275 -0.00097347205866238503 0 -0.00029683359009681682 -0.00097265570878782629 0 -0.00051456697646505567 -0.00091737831965090725 0 -0.00045713208352594415 -0.00091312272321133299 0 -0.00039873378615523967 -0.00096202148179359262 0 -0.00045713208352594415 -0.00091312272321133299 0 -0.00042597750125787762 -0.00090248431289838467 0 -0.00039873378615523967 -0.00096202148179359262 0 -0.00036678782583273877 -0.00093135048008280181 0 -0.00042597750125787762 -0.00090248431289838467 0 -0.00039873378615523967 -0.00096202148179359262 0 -0.00036678782583273877 -0.00093135048008280181 0 -0.00039873378615523967 -0.00096202148179359262 0 -0.00031039330090348275 -0.00097347205866238503 0 -0.00038685612360203647 -0.0010597179022049763 0 -0.00039873378615523967 -0.00096202148179359262 0 -0.00030030554985696368 -0.0010349310505197663 0 -0.00038685612360203647 -0.0010597179022049763 0 -0.00030030554985696368 -0.0010349310505197663 0 -0.00022004504853222995 -0.0011670284428066339 0 -0.00030030554985696368 -0.0010349310505197663 0 -0.00021127955765433521 -0.0010318617799604233 0 -0.00022004504853222995 -0.0011670284428066339 0 -0.00039873378615523967 -0.00096202148179359262 0 -0.00030030554985696368 -0.0010349310505197663 0 -0.00031039330090348275 -0.00097347205866238503 0 -0.00030030554985696368 -0.0010349310505197663 0 -0.00031039330090348275 -0.00097347205866238503 0 -0.00021127955765433521 -0.0010318617799604233 0 -0.00031039330090348275 -0.00097347205866238503 0 -0.00025214088416832355 -0.00099554254718479691 0 -0.00021127955765433521 -0.0010318617799604233 0 -0.00031039330090348275 -0.00097347205866238503 0 -0.00029683359009681682 -0.00097265570878782629 0 -0.00025214088416832355 -0.00099554254718479691 0 -0.00029683359009681682 -0.00097265570878782629 0 -0.00025214088416832355 -0.00099554254718479691 0 -0.0002676243565234806 -0.0009901215807281683 0 -0.00019208460187936861 -0.0010148818760026442 0 -6.3976601203185257e-05 -0.0010996689503865369 0 -0.00020449554863690014 -0.0010029396216827595 0 -0.0002676243565234806 -0.0009901215807281683 0 -0.00019208460187936861 -0.0010148818760026442 0 -0.00027442717372345939 -0.00096939943786452103 0 -0.00025214088416832355 -0.00099554254718479691 0 -0.0002676243565234806 -0.0009901215807281683 0 -0.00019208460187936861 -0.0010148818760026442 0 -0.00017950396209860938 -0.0009433558949993549 0 -5.7358051109243264e-05 -0.00092110456613250303 0 -0.00025214088416832355 -0.00099554254718479691 0 -0.00019208460187936861 -0.0010148818760026442 0 -0.00021127955765433521 -0.0010318617799604233 0 -0.00019208460187936861 -0.0010148818760026442 0 -0.00021127955765433521 -0.0010318617799604233 0 -6.3976601203185257e-05 -0.0010996689503865369 0 -0.00021127955765433521 -0.0010318617799604233 0 -6.3976601203185257e-05 -0.0010996689503865369 0 -0.00022004504853222995 -0.0011670284428066339 0 0.00019342438268227322 -0.0014096090510246897 0 8.3560915082516617e-05 -0.0011810063472148492 0 0.00023688866694616516 -0.00095189851025476527 0 -9.2916893171927602e-05 -0.0010677167899176292 0 -5.7358051109243264e-05 -0.00092110456613250303 0 -6.3976601203185257e-05 -0.0010996689503865369 0 8.3560915082516617e-05 -0.0011810063472148492 0 0.00016377762870789308 -0.00094414118264216681 0 -2.4615746178632348e-05 -0.0013043890026941951 0 8.7495395480045564e-05 -0.0013322760013489846 0 8.3560915082516617e-05 -0.0011810063472148492 0 -2.4615746178632348e-05 -0.0013043890026941951 0 -6.3976601203185257e-05 -0.0010996689503865369 0 8.3560915082516617e-05 -0.0011810063472148492 0 -2.4615746178632348e-05 -0.0013043890026941951 0 -6.3976601203185257e-05 -0.0010996689503865369 0 -0.00022004504853222995 -0.0011670284428066339 0 0.00057877726475679585 -0.0012992636776014686 0 0.00048912174572716255 -0.0011234452070788977 0 0.00075335020821739934 -0.00097070154731527169 0 0.00057877726475679585 -0.0012992636776014686 0 0.00079143455965597124 -0.001226666876341796 0 0.00075335020821739934 -0.00097070154731527169 0 0.00035296322400621221 -0.0012969454100893282 0 0.00048912174572716255 -0.0011234452070788977 0 0.00037383819692482398 -0.00093430221048150302 0 0.00048912174572716255 -0.0011234452070788977 0 0.00037383819692482398 -0.00093430221048150302 0 0.00075335020821739934 -0.00097070154731527169 0 0.00021173939933505457 -0.0014275178926498884 0 0.00019658180672080957 -0.00083807060031588652 0 0.00019342438268227322 -0.0014096090510246897 0 0.00035296322400621221 -0.0012969454100893282 0 0.00037383819692482398 -0.00093430221048150302 0 0.00035296322400621221 -0.0012969454100893282 0 0.00057877726475679585 -0.0012992636776014686 0 0.00048912174572716255 -0.0011234452070788977 0 8.3560915082516617e-05 -0.0011810063472148492 0 0.00016377762870789308 -0.00094414118264216681 0 0.00023688866694616516 -0.00095189851025476527 0 0.00026871910628042245 -0.00046431854323563765 0 0.00026632545403344889 -0.00046957881920180411 0 0.00024718427291297153 -0.00046059509142344141 0 -0.0002676243565234806 -0.0009901215807281683 0 -0.00027442717372345939 -0.00096939943786452103 0 -0.00030762167328249513 -0.00097419513160409174 0 -5.7358051109243264e-05 -0.00092110456613250303 0 0.00019658180672080957 -0.00083807060031588652 0 -5.7358051109243264e-05 -0.00092110456613250303 0 6.7773044465212779e-05 -0.00075033284900737865 0 0.00019658180672080957 -0.00083807060031588652 0 6.7773044465212779e-05 -0.00075033284900737865 0 4.553667634856459e-05 -0.00083129854776746958 0 7.7740407686164854e-05 -0.00083418862739013716 0 9.3955833815824739e-05 -0.00079313382234250454 0 -0.00029683359009681682 -0.00097265570878782629 0 -0.0002676243565234806 -0.0009901215807281683 0 -0.00030762167328249513 -0.00097419513160409174 0 -0.00029683359009681682 -0.00097265570878782629 0 -0.00030762167328249513 -0.00097419513160409174 0 -0.00032743846387209134 -0.00095180445560410977 0 0.00026632545403344889 -0.00046957881920180411 0 0.00024718427291297153 -0.00046059509142344141 0 0.00023782002086591048 -0.00046711267335186352 0 0.00019658180672080957 -0.00083807060031588652 0 0.00053012179634777184 -0.00071977129674987643 0 6.7773044465212779e-05 -0.00075033284900737865 0 0.00020857902155466487 -0.00051744401761975216 0 0.00026632545403344889 -0.00046957881920180411 0 0.00024805588600344505 -0.00048880967829605223 0 0.00023782002086591048 -0.00046711267335186352 0 3.819003255583601e-05 -0.00068212839636951994 0 0.00012165553026079564 -0.00061392320661724929 0 7.5946218534919972e-05 -0.00058926734397430486 0 6.7773044465212779e-05 -0.00075033284900737865 0 -0.00039015734949055181 -0.00073363205821022214 0 -0.00030762167328249513 -0.00097419513160409174 0 -0.00035848908245014451 -0.00091799312454027564 0 -0.00039006389384075142 -0.00086263400442221382 0 -0.00030762167328249513 -0.00097419513160409174 0 -0.00032743846387209134 -0.00095180445560410977 0 -0.00035848908245014451 -0.00091799312454027564 0 -0.00035214762996227855 -0.00093213254684086535 0 -0.00032743846387209134 -0.00095180445560410977 0 -0.00035848908245014451 -0.00091799312454027564 0 -0.00035214762996227855 -0.00093213254684086535 0 -0.00029683359009681682 -0.00097265570878782629 0 -0.00032743846387209134 -0.00095180445560410977 0 -0.00035848908245014451 -0.00091799312454027564 0 -0.00039026281480888171 -0.0008738199492695477 0 -0.00039006389384075142 -0.00086263400442221382 0 -0.00035848908245014451 -0.00091799312454027564 0 -0.00039026281480888171 -0.0008738199492695477 0 -0.00039826603343623657 -0.00088418040625503974 0 -0.00035214762996227855 -0.00093213254684086535 0 -0.00035848908245014451 -0.00091799312454027564 0 -0.00039826603343623657 -0.00088418040625503974 0 -0.00044127021586632423 -0.00083526771152540803 0 -0.00041146904075234673 -0.00085023108351567735 0 -0.00050396426095299584 -0.00078294068076076415 0 -0.00044021749067675321 -0.00085075836483526981 0 -0.00039826603343623657 -0.00088418040625503974 0 -0.00044127021586632423 -0.00083526771152540803 0 -0.00039026281480888171 -0.0008738199492695477 0 -0.00039826603343623657 -0.00088418040625503974 0 -0.00044127021586632423 -0.00083526771152540803 0 -0.00039026281480888171 -0.0008738199492695477 0 -0.00044127021586632423 -0.00083526771152540803 0 -0.00041146904075234673 -0.00085023108351567735 0 -0.00044021749067675321 -0.00085075836483526981 0 -0.00044127021586632423 -0.00083526771152540803 0 -0.00050465463040908019 -0.00079112587304560613 0 0.00012165553026079564 -0.00061392320661724929 0 7.5946218534919972e-05 -0.00058926734397430486 0 0.00014134516307080067 -0.00055823901700849182 0 -0.00075566412908759388 -0.00069448499109951765 0 -0.00078804274982779965 -0.00071117702281381031 0 -0.00078355805130739492 -0.00073233871515992783 0 -0.00039015734949055181 -0.00073363205821022214 0 -0.00031099255533634175 -0.00062515617434219723 0 -0.00041872372198634053 -0.00078160851310915861 0 -0.00039015734949055181 -0.00073363205821022214 0 0.00024805588600344505 -0.00048880967829605223 0 0.00018284410953827896 -0.0005176016619202014 0 0.00017303784166476809 -0.0005574585841100349 0 0.00020857902155466487 -0.00051744401761975216 0 0.00016124961202856669 -0.00057129719140193577 0 0.00012165553026079564 -0.00061392320661724929 0 0.00014134516307080067 -0.00055823901700849182 0 0.00017303784166476809 -0.0005574585841100349 0 0.00024805588600344505 -0.00048880967829605223 0 0.0002247088935036126 -0.00047852716068796046 0 0.0002027996413964959 -0.00049149222145954835 0 0.00024805588600344505 -0.00048880967829605223 0 0.0002027996413964959 -0.00049149222145954835 0 0.00018284410953827896 -0.0005176016619202014 0 0.0002247088935036126 -0.00047852716068796046 0 0.00023782002086591048 -0.00046711267335186352 0 0.00020766329682985331 -0.00046606329061503243 0 0.0002247088935036126 -0.00047852716068796046 0 0.0002027996413964959 -0.00049149222145954835 0 0.00020766329682985331 -0.00046606329061503243 0 0.00024805588600344505 -0.00048880967829605223 0 0.0002247088935036126 -0.00047852716068796046 0 0.00023782002086591048 -0.00046711267335186352 0 0.0001832792761099711 -0.00047276317417178454 0 0.0001581476257064158 -0.00047389487740099223 0 0.00017102506131027806 -0.00045946550351641974 0 0.0001832792761099711 -0.00047276317417178454 0 0.00018614527472460019 -0.00045603572935603453 0 0.00017102506131027806 -0.00045946550351641974 0 0.0001832792761099711 -0.00047276317417178454 0 0.0002027996413964959 -0.00049149222145954835 0 0.00020766329682985331 -0.00046606329061503243 0 0.0001832792761099711 -0.00047276317417178454 0 0.00020766329682985331 -0.00046606329061503243 0 0.00018614527472460019 -0.00045603572935603453 0 0.0002027996413964959 -0.00049149222145954835 0 0.00017583388531475935 -0.00049423547539951184 0 0.00018284410953827896 -0.0005176016619202014 0 0.0001832792761099711 -0.00047276317417178454 0 0.0002027996413964959 -0.00049149222145954835 0 0.00017583388531475935 -0.00049423547539951184 0 0.00017583388531475935 -0.00049423547539951184 0 0.00015774683308973091 -0.00051328412489879663 0 0.00018284410953827896 -0.0005176016619202014 0 0.0001832792761099711 -0.00047276317417178454 0 0.00017583388531475935 -0.00049423547539951184 0 0.0001581476257064158 -0.00047389487740099223 0 0.00017583388531475935 -0.00049423547539951184 0 0.0001581476257064158 -0.00047389487740099223 0 0.00015774683308973091 -0.00051328412489879663 0 0.00018284410953827896 -0.0005176016619202014 0 0.00017303784166476809 -0.0005574585841100349 0 0.00015329259056468043 -0.00053907634950667402 0 0.00015774683308973091 -0.00051328412489879663 0 0.00018284410953827896 -0.0005176016619202014 0 0.00015329259056468043 -0.00053907634950667402 0 0.00017303784166476809 -0.0005574585841100349 0 0.00015329259056468043 -0.00053907634950667402 0 0.00013063411824111587 -0.00055025916465413385 0 0.00012758059283954112 -0.00052321770484551223 0 9.0114265436611437e-05 -0.00055474809948249774 0 0.00015774683308973091 -0.00051328412489879663 0 0.00013063411824111587 -0.00055025916465413385 0 7.9940975240261957e-05 -0.00052452639099879843 0 0.00015774683308973091 -0.00051328412489879663 0 -7.3692519200215845e-07 -0.00059179413110255598 0 8.3768727856803151e-05 -0.00049434918367471372 0 0.00013063411824111587 -0.00055025916465413385 0 7.9940975240261957e-05 -0.00052452639099879843 0 0.00010294358300372305 -0.00057984890927295966 0 -7.3692519200215845e-07 -0.00059179413110255598 0 1.3358080796032249e-05 -0.0004849009085477665 0 8.3768727856803151e-05 -0.00049434918367471372 0 0.00015774683308973091 -0.00051328412489879663 0 0.00015329259056468043 -0.00053907634950667402 0 0.00013063411824111587 -0.00055025916465413385 0 -7.3692519200215845e-07 -0.00059179413110255598 0 -0.00020522687291051368 -0.00068296513197611038 0 -0.00015103895134454997 -0.00053403626193552773 0 9.0114265436611437e-05 -0.00055474809948249774 0 -0.00042251119565278632 -0.00045696898308363835 0 7.9940975240261957e-05 -0.00052452639099879843 0 -3.0682238452202206e-06 -0.00054804924584705083 0 5.0048628905928521e-05 -0.00059031268463468516 0 -7.3692519200215845e-07 -0.00059179413110255598 0 -5.6284330220483321e-05 -0.00047944452237018355 0 -0.00015103895134454997 -0.00053403626193552773 0 -5.6284330220483321e-05 -0.00047944452237018355 0 -0.00015103895134454997 -0.00053403626193552773 0 -0.00015023436369776837 -0.0004262585391280006 0 -7.3692519200215845e-07 -0.00059179413110255598 0 -5.6284330220483321e-05 -0.00047944452237018355 0 1.3358080796032249e-05 -0.0004849009085477665 0 -5.6284330220483321e-05 -0.00047944452237018355 0 1.3358080796032249e-05 -0.0004849009085477665 0 -1.3149012901079042e-05 -0.00042037354278168677 0 -5.6284330220483321e-05 -0.00047944452237018355 0 -1.3149012901079042e-05 -0.00042037354278168677 0 -7.8164720873820834e-05 -0.00038811753171787318 0 -1.3149012901079042e-05 -0.00042037354278168677 0 3.0939070938257584e-05 -0.00035870058143721808 0 -2.8951219596328041e-05 -0.00035343737793366349 0 -1.3149012901079042e-05 -0.00042037354278168677 0 -7.8164720873820834e-05 -0.00038811753171787318 0 -2.8951219596328041e-05 -0.00035343737793366349 0 -7.8164720873820834e-05 -0.00038811753171787318 0 -0.00013139075747189416 -0.00034491312768755353 0 -0.00015023436369776837 -0.0004262585391280006 0 -5.6284330220483321e-05 -0.00047944452237018355 0 -7.8164720873820834e-05 -0.00038811753171787318 0 -0.00015023436369776837 -0.0004262585391280006 0 0.0001581476257064158 -0.00047389487740099223 0 9.5670073128940455e-05 -0.00045279253071502974 0 8.3768727856803151e-05 -0.00049434918367471372 0 0.0001581476257064158 -0.00047389487740099223 0 0.00015774683308973091 -0.00051328412489879663 0 8.3768727856803151e-05 -0.00049434918367471372 0 1.3358080796032249e-05 -0.0004849009085477665 0 8.3768727856803151e-05 -0.00049434918367471372 0 5.0150395697565384e-05 -0.00043822331101176149 0 1.3358080796032249e-05 -0.0004849009085477665 0 -1.3149012901079042e-05 -0.00042037354278168677 0 5.0150395697565384e-05 -0.00043822331101176149 0 9.5670073128940455e-05 -0.00045279253071502974 0 8.3768727856803151e-05 -0.00049434918367471372 0 5.0150395697565384e-05 -0.00043822331101176149 0 9.5670073128940455e-05 -0.00045279253071502974 0 5.0150395697565384e-05 -0.00043822331101176149 0 9.0506612159398046e-05 -0.00040372244174037482 0 -1.3149012901079042e-05 -0.00042037354278168677 0 5.0150395697565384e-05 -0.00043822331101176149 0 3.0939070938257584e-05 -0.00035870058143721808 0 5.0150395697565384e-05 -0.00043822331101176149 0 9.0506612159398046e-05 -0.00040372244174037482 0 3.0939070938257584e-05 -0.00035870058143721808 0 0.00016528755241454574 -0.00047191518470891575 0 0.00012825682338768961 -0.00033829424747676515 0 0.0001581476257064158 -0.00047389487740099223 0 9.0506612159398046e-05 -0.00040372244174037482 0 0.00010155765899961442 -0.00031485558882021774 0 0.0001581476257064158 -0.00047389487740099223 0 0.00016676283332996231 -0.00044936583690566951 0 0.00017102506131027806 -0.00045946550351641974 0 0.0001581476257064158 -0.00047389487740099223 0 9.5670073128940455e-05 -0.00045279253071502974 0 9.0506612159398046e-05 -0.00040372244174037482 0 0.00016676283332996231 -0.00044936583690566951 0 0.00017102506131027806 -0.00045946550351641974 0 0.000174205985318708 -0.00044897536160044756 0 0.00016676283332996231 -0.00044936583690566951 0 0.00017178680580055811 -0.00044130883326615449 0 0.000174205985318708 -0.00044897536160044756 0 0.00010155765899961442 -0.00031485558882021774 0 3.0939070938257584e-05 -0.00035870058143721808 0 2.6054501155300932e-05 -0.00027115621903716085 0 9.0506612159398046e-05 -0.00040372244174037482 0 0.00010155765899961442 -0.00031485558882021774 0 3.0939070938257584e-05 -0.00035870058143721808 0 0.00010155765899961442 -0.00031485558882021774 0 2.6054501155300932e-05 -0.00027115621903716085 0 2.6853101707457867e-05 -0.00017756886136072764 0 0.00016676283332996231 -0.00044936583690566951 0 0.00017178680580055811 -0.00044130883326615449 0 0.00016647834968715807 -0.00043122453093136215 0 0.00012825682338768961 -0.00033829424747676515 0 0.00080466484979864776 -0.00027483189660496411 0 0.00017178680580055811 -0.00044130883326615449 0 0.000174205985318708 -0.00044897536160044756 0 0.00018198178599168204 -0.00043990429615109786 0 0.00017178680580055811 -0.00044130883326615449 0 0.0001776849988850348 -0.00042755361508699724 0 0.00018198178599168204 -0.00043990429615109786 0 0.00045778086535688161 -0.0005813964499139663 0 0.00088078970257261032 -0.00039643654969019956 0 -0.00013139075747189416 -0.00034491312768755353 0 -6.8761177693739525e-05 -0.00032039757475475696 0 -0.00010305147226315415 -0.00028102525777028994 0 -7.8164720873820834e-05 -0.00038811753171787318 0 -0.00013139075747189416 -0.00034491312768755353 0 -6.8761177693739525e-05 -0.00032039757475475696 0 3.0939070938257584e-05 -0.00035870058143721808 0 2.6054501155300932e-05 -0.00027115621903716085 0 -1.5993907115451426e-05 -0.00029589467380247052 0 -6.8761177693739525e-05 -0.00032039757475475696 0 -1.5993907115451426e-05 -0.00029589467380247052 0 -5.1763094254787181e-05 -0.00025816373689196379 0 -6.8761177693739525e-05 -0.00032039757475475696 0 -2.8951219596328041e-05 -0.00035343737793366349 0 -1.5993907115451426e-05 -0.00029589467380247052 0 -7.8164720873820834e-05 -0.00038811753171787318 0 -6.8761177693739525e-05 -0.00032039757475475696 0 -2.8951219596328041e-05 -0.00035343737793366349 0 3.0939070938257584e-05 -0.00035870058143721808 0 -2.8951219596328041e-05 -0.00035343737793366349 0 -1.5993907115451426e-05 -0.00029589467380247052 0 2.6054501155300932e-05 -0.00027115621903716085 0 -1.4428225861694868e-05 -0.00022719180679667871 0 2.6853101707457867e-05 -0.00017756886136072764 0 2.6054501155300932e-05 -0.00027115621903716085 0 -1.5993907115451426e-05 -0.00029589467380247052 0 -1.4428225861694868e-05 -0.00022719180679667871 0 -1.4428225861694868e-05 -0.00022719180679667871 0 -5.1763094254787181e-05 -0.00025816373689196379 0 -6.1027570855933735e-05 -0.0001927775575258878 0 -1.5993907115451426e-05 -0.00029589467380247052 0 -1.4428225861694868e-05 -0.00022719180679667871 0 -5.1763094254787181e-05 -0.00025816373689196379 0 -5.1763094254787181e-05 -0.00025816373689196379 0 -0.00010305147226315415 -0.00028102525777028994 0 -6.1027570855933735e-05 -0.0001927775575258878 0 -0.00010305147226315415 -0.00028102525777028994 0 -6.1027570855933735e-05 -0.0001927775575258878 0 -0.00017696186496030797 -0.00029919320662854474 0 -6.8761177693739525e-05 -0.00032039757475475696 0 -5.1763094254787181e-05 -0.00025816373689196379 0 -0.00010305147226315415 -0.00028102525777028994 0 0.0012832862552561953 -0.0001373238626342324 0 0.0013217961221326535 -0.00023187445558738224 0 0.0012383490515583675 -0.00027739454029430781 0 0.0012832862552561953 -0.0001373238626342324 0 0.0011591650350669706 -0.00012619809519343186 0 0.0012383490515583675 -0.00027739454029430781 0 0.00080466484979864776 -0.00027483189660496411 0 0.0016155997193398107 -0.00037193133357992132 0 -7.9657267101167518e-05 -0.00017731539136450826 0 -6.1027570855933735e-05 -0.0001927775575258878 0 2.6853101707457867e-05 -0.00017756886136072764 0 0.00055276281898029021 -0.00015904825167732331 0 0.00080466484979864776 -0.00027483189660496411 0 -1.4428225861694868e-05 -0.00022719180679667871 0 -6.1027570855933735e-05 -0.0001927775575258878 0 2.6853101707457867e-05 -0.00017756886136072764 0 0.0018023833274688564 -0.00018175237151212212 0 0.0017393623374685899 -0.00031668202592469348 0 0.001927584752650486 -0.00042135670210757483 0 0.0016342140742965632 -0.00016744890978088138 0 0.0018023833274688564 -0.00018175237151212212 0 0.0017393623374685899 -0.00031668202592469348 0 0.00017178680580055811 -0.00044130883326615449 0 0.00017983910540854647 -0.00043292411432754657 0 0.00016647834968715807 -0.00043122453093136215 0 0.00088078970257261032 -0.00039643654969019956 0 0.00080466484979864776 -0.00027483189660496411 0 0.0016342140742965632 -0.00016744890978088138 0 0.0017393623374685899 -0.00031668202592469348 0 0.0015687102178929861 -0.00028871142171619363 0 0.00088078970257261032 -0.00039643654969019956 0 0.0017479094715863049 -0.00055509536006566958 0 0.0001776849988850348 -0.00042755361508699724 0 0.00020382793951427959 -0.00042571699825770629 0 0.00018198178599168204 -0.00043990429615109786 0 0.0012017955078952997 -0.00045125285997338002 0 0.0011231941477656917 -0.00059399054389074253 0 0.00099179900388771396 -0.00043192665975399293 0 0.00088078970257261032 -0.00039643654969019956 0 0.00065687919613737975 -0.00055517847216058236 0 0.0017479094715863049 -0.00055509536006566958 0 0.00065687919613737975 -0.00055517847216058236 0 0.0012839957578488891 -0.0011918051451068857 0 0.0011267866167699026 -0.0010000491015350621 0 0.0010203668686233065 -0.0012245474252159446 0 0.00075335020821739934 -0.00097070154731527169 0 0.0011267866167699026 -0.0010000491015350621 0 0.0010203668686233065 -0.0012245474252159446 0 0.00053012179634777184 -0.00071977129674987643 0 0.00065687919613737975 -0.00055517847216058236 0 0.00079143455965597124 -0.001226666876341796 0 0.00075335020821739934 -0.00097070154731527169 0 0.0010203668686233065 -0.0012245474252159446 0 0.00024718427291297153 -0.00046059509142344141 0 0.00024056836831482298 -0.00046261723538533088 0 0.00023782002086591048 -0.00046711267335186352 0 0.00020382793951427959 -0.00042571699825770629 0 0.00023782002086591048 -0.00046711267335186352 0 0.00020766329682985331 -0.00046606329061503243 0 0.00065687919613737975 -0.00055517847216058236 0 0.00013538990674997599 -0.00037668897762710836 0 0.00020382793951427959 -0.00042571699825770629 0 0.00020766329682985331 -0.00046606329061503243 0 0.00018614527472460019 -0.00045603572935603453 0 0.00018614527472460019 -0.00045603572935603453 0 0.000174205985318708 -0.00044897536160044756 0 0.00018198178599168204 -0.00043990429615109786 0 0.00018614527472460019 -0.00045603572935603453 0 0.00017102506131027806 -0.00045946550351641974 0 0.000174205985318708 -0.00044897536160044756 0 0.00020382793951427959 -0.00042571699825770629 0 0.00018614527472460019 -0.00045603572935603453 0 0.00018198178599168204 -0.00043990429615109786 0 -0.00052519313065236346 -0.00015298811750422801 0 -0.00038413645403628262 -0.00020627011128113233 0 -0.00034498930844894377 -0.00031650388329491821 0 -0.00043329764199397222 -0.00012431609872088018 0 -0.00038413645403628262 -0.00020627011128113233 0 -0.00024327572817624198 -0.00015330029935160472 0 2.5941470761241727e-05 -0.00012586194933821132 0 -0.00018344397186386332 -7.1869133905799886e-05 0 -0.00038413645403628262 -0.00020627011128113233 0 -0.00024327572817624198 -0.00015330029935160472 0 -0.00034498930844894377 -0.00031650388329491821 0 -0.00222095624628014 0.00010204909030033757 0 -0.0021831657571975663 -6.0900718176261282e-05 0 -0.0022794712279452095 -7.2328838863304547e-05 0 -0.00222095624628014 0.00010204909030033757 0 -0.0021105016818654889 -1.6321140771716891e-06 0 -0.0021831657571975663 -6.0900718176261282e-05 0 -0.0011503311930054229 -0.00011812807294461049 0 -0.0014304254447420554 -0.0001886393441129427 0 -0.00076507524192820288 -0.00035867638542002244 0 -0.00070121415871135463 -0.00040730859551389796 0 -0.00066061288226949063 -0.0003725843995117708 0 -0.00070121415871135463 -0.00040730859551389796 0 -0.00064218532333455648 -0.00040760412660860652 0 -0.00064943154529556641 -0.00044967563280786028 0 -0.00070121415871135463 -0.00040730859551389796 0 -0.00066061288226949063 -0.0003725843995117708 0 -0.00064218532333455648 -0.00040760412660860652 0 -0.00076507524192820288 -0.00035867638542002244 0 -0.00065447344389744228 -0.00030807468925387357 0 -0.00066232390274983944 -0.00032325253888349788 0 -0.0011503311930054229 -0.00011812807294461049 0 -0.0002348820907214014 -0.00022625375964502296 0 -0.00076507524192820288 -0.00035867638542002244 0 -0.00066061288226949063 -0.0003725843995117708 0 -0.00066232390274983944 -0.00032325253888349788 0 -0.00024327572817624198 -0.00015330029935160472 0 -0.00034498930844894377 -0.00031650388329491821 0 -5.3770139858004113e-05 -0.00017619506299354352 0 -0.00065447344389744228 -0.00030807468925387357 0 -0.00066232390274983944 -0.00032325253888349788 0 -0.00050076897828077026 -0.00039798773689913122 0 -0.0004125504714823012 -0.00031053751458767748 0 -0.00028640577218538594 -0.00045321606659964143 0 -0.00028077355359230476 -0.00011995261281362865 0 -0.00065447344389744228 -0.00030807468925387357 0 -0.0004125504714823012 -0.00031053751458767748 0 -0.00050076897828077026 -0.00039798773689913122 0 -0.0004125504714823012 -0.00031053751458767748 0 -0.00050076897828077026 -0.00039798773689913122 0 -0.00028640577218538594 -0.00045321606659964143 0 -0.00050076897828077026 -0.00039798773689913122 0 -0.00040519895052976103 -0.00054693109388788744 0 -0.00028640577218538594 -0.00045321606659964143 0 -0.00065332235924156891 -0.00033363449342761959 0 -0.00050382440444778878 -0.00046736975506468171 0 -0.00066061288226949063 -0.0003725843995117708 0 -0.00066232390274983944 -0.00032325253888349788 0 -0.00061891720942927988 -0.00037622479815275562 0 -0.00066232390274983944 -0.00032325253888349788 0 -0.00050076897828077026 -0.00039798773689913122 0 -0.00040519895052976103 -0.00054693109388788744 0 -0.00066061288226949063 -0.0003725843995117708 0 -0.00064218532333455648 -0.00040760412660860652 0 -0.00061891720942927988 -0.00037622479815275562 0 -0.00064218532333455648 -0.00040760412660860652 0 -0.00061891720942927988 -0.00037622479815275562 0 -0.00056773773499167659 -0.00042127817011174156 0 -0.00064218532333455648 -0.00040760412660860652 0 -0.00056773773499167659 -0.00042127817011174156 0 -0.00064943154529556641 -0.00044967563280786028 0 -0.00050382440444778878 -0.00046736975506468171 0 -0.00042251119565278632 -0.00045696898308363835 0 -0.00040519895052976103 -0.00054693109388788744 0 -0.00024937576964817779 -0.00056141047777003548 0 -0.00020522687291051368 -0.00068296513197611038 0 -0.00024937576964817779 -0.00056141047777003548 0 -0.00020522687291051368 -0.00068296513197611038 0 -0.00015103895134454997 -0.00053403626193552773 0 -0.00029216896789896788 -0.00044300612224775865 0 -9.8508879823973618e-05 -0.00015847610285545474 0 -0.00015103895134454997 -0.00053403626193552773 0 -0.00028640577218538594 -0.00045321606659964143 0 -0.00015023436369776837 -0.0004262585391280006 0 -0.00028640577218538594 -0.00045321606659964143 0 -0.00020442989772212865 -0.00036371472906807193 0 -0.0002716766261354634 -0.0002754165792330103 0 -0.00040519895052976103 -0.00054693109388788744 0 -0.00024937576964817779 -0.00056141047777003548 0 -0.00028640577218538594 -0.00045321606659964143 0 -0.00024937576964817779 -0.00056141047777003548 0 -0.00015103895134454997 -0.00053403626193552773 0 -0.00028640577218538594 -0.00045321606659964143 0 -0.00028640577218538594 -0.00045321606659964143 0 -0.00020442989772212865 -0.00036371472906807193 0 -0.00015023436369776837 -0.0004262585391280006 0 -0.00013139075747189416 -0.00034491312768755353 0 -0.00020442989772212865 -0.00036371472906807193 0 -0.00015023436369776837 -0.0004262585391280006 0 -6.1027570855933735e-05 -0.0001927775575258878 0 -0.00017696186496030797 -0.00029919320662854474 0 -0.0002716766261354634 -0.0002754165792330103 0 -0.00011352739894873449 -0.0002201013881119549 0 -9.8508879823973618e-05 -0.00015847610285545474 0 -0.00013139075747189416 -0.00034491312768755353 0 -0.00010305147226315415 -0.00028102525777028994 0 -0.00017696186496030797 -0.00029919320662854474 0 -0.00013139075747189416 -0.00034491312768755353 0 -0.00020442989772212865 -0.00036371472906807193 0 -0.00017696186496030797 -0.00029919320662854474 0 -0.00020442989772212865 -0.00036371472906807193 0 -0.00017696186496030797 -0.00029919320662854474 0 -0.0002716766261354634 -0.0002754165792330103 0 -9.8508879823973618e-05 -0.00015847610285545474 0 0.0004519419181779469 -3.364439466522098e-05 0 0.00055276281898029021 -0.00015904825167732331 0 0.00076262715316525748 -0.0002529115754295801 0 -7.9657267101167518e-05 -0.00017731539136450826 0 -6.1027570855933735e-05 -0.0001927775575258878 0 -0.00011641921073757303 -0.00021060641322143736 0 0.0012832862552561953 -0.0001373238626342324 0 0.0014039305357703949 -0.00014920935321800918 0 0.0013217961221326535 -0.00023187445558738224 0 -7.9657267101167518e-05 -0.00017731539136450826 0 -0.00011641921073757303 -0.00021060641322143736 0 -0.00011371549893780675 -0.0001871421379609502 0 0.00076262715316525748 -0.0002529115754295801 0 0.0004519419181779469 -3.364439466522098e-05 0 -7.9657267101167518e-05 -0.00017731539136450826 0 -0.00011209214260554626 -0.00017668808660478735 0 -0.00011371549893780675 -0.0001871421379609502 0 0.0009837975883975063 -0.0001468835155949252 0 0.00096737825956858133 -0.00013415742484204735 0 0.00092388823229969867 -0.00016664689784175442 0 0.00098746679783894226 -0.00013650978099863126 0 0.00096737825956858133 -0.00013415742484204735 0 0.00099177922795711752 -8.3208908159566707e-05 0 0.00096737825956858133 -0.00013415742484204735 0 0.00092659724411087575 -0.0001230081603683712 0 0.00095483807424432256 -0.00010513142757344382 0 0.00098360236787809916 -0.00013635465129914923 0 0.0009837975883975063 -0.0001468835155949252 0 0.00096737825956858133 -0.00013415742484204735 0 0.00076262715316525748 -0.0002529115754295801 0 0.00095163771110776574 -0.00021109688313612228 0 0.0004519419181779469 -3.364439466522098e-05 0 0.00048075510877696771 -8.5354109357528048e-05 0 -0.0002348820907214014 -0.00022625375964502296 0 -9.8508879823973618e-05 -0.00015847610285545474 0 -0.00065447344389744228 -0.00030807468925387357 0 -0.0004125504714823012 -0.00031053751458767748 0 -0.00028077355359230476 -0.00011995261281362865 0 0.00023020393721234935 -3.8436605503581556e-05 0 0.00023082990800385783 8.7525394226451776e-05 0 -9.7676215145849884e-05 -1.7487554216108574e-05 0 -5.3770139858004113e-05 -0.00017619506299354352 0 0.00023020393721234935 -3.8436605503581556e-05 0 -9.7676215145849884e-05 -1.7487554216108574e-05 0 -0.00024327572817624198 -0.00015330029935160472 0 -5.3770139858004113e-05 -0.00017619506299354352 0 -9.7676215145849884e-05 -1.7487554216108574e-05 0 0.00092388823229969867 -0.00016664689784175442 0 0.00092659724411087575 -0.0001230081603683712 0 0.0008809185364486526 -0.00014184644323955359 0 0.00096737825956858133 -0.00013415742484204735 0 0.00092388823229969867 -0.00016664689784175442 0 0.00092659724411087575 -0.0001230081603683712 0 0.00092659724411087575 -0.0001230081603683712 0 0.0008809185364486526 -0.00014184644323955359 0 0.000877975210524683 -7.5638341858797641e-05 0 0.00085807273356542269 -0.0001862249402298306 0 0.00092388823229969867 -0.00016664689784175442 0 0.0008809185364486526 -0.00014184644323955359 0 -0.00043329764199397222 -0.00012431609872088018 0 -0.00024327572817624198 -0.00015330029935160472 0 -9.7676215145849884e-05 -1.7487554216108574e-05 0 2.5941470761241727e-05 -0.00012586194933821132 0 0.00048075510877696771 -8.5354109357528048e-05 0 0.0021352527925118767 -0.0001581647852002432 0 0.0027775652203589317 -0.00023957439178615765 0 0.0033322567120547091 -0.00036142685741391751 0 0.003376223298322979 -0.00029351945733754355 0 0.003195727700170797 -0.0003142910368471188 0 0.0021352527925118767 -0.0001581647852002432 0 0.0013539670717451278 -0.00012024866307351395 0 0.00092659724411087575 -0.0001230081603683712 0 0.000877975210524683 -7.5638341858797641e-05 0 0.00093402839330240035 -7.9922545131052899e-05 0 0.00092659724411087575 -0.0001230081603683712 0 0.00093402839330240035 -7.9922545131052899e-05 0 0.00095483807424432256 -0.00010513142757344382 0 0.0021487669330296859 -0.00017887253463998615 0 0.0020505591856861218 -0.0001699791891433571 0 0.0020519412825172932 -0.0001942086864596545 0 0.0037722443044822139 -0.00029368378292986649 0 0.0040403818297515132 -0.00021867209667084437 0 0.0039107976344055018 -0.00017894666883132521 0 0.0033322567120547091 -0.00036142685741391751 0 0.003195727700170797 -0.0003142910368471188 0 0.0031699980579279752 -0.00038843389264622613 0 0.0035387910463398112 -0.00032406485443491154 0 0.0036414989354530756 -0.00029512330345583728 0 0.0020519412825172932 -0.0001942086864596545 0 0.0019514900526793504 -0.00016405717923712629 0 0.0019541234167028201 -0.00021313130466956871 0 0.003195727700170797 -0.0003142910368471188 0 0.0031699980579279752 -0.00038843389264622613 0 0.0029914289582030802 -0.00035095614621633324 0 0.0036414989354530756 -0.00029512330345583728 0 0.003317736249695856 -0.00034582929091900912 0 0.0031699980579279752 -0.00038843389264622613 0 0.0029914289582030802 -0.00035095614621633324 0 0.0029928984175788933 -0.00041503595970435739 0 0.0027775652203589317 -0.00023957439178615765 0 0.0023266581539241539 -0.00035539122946944332 0 0.00093402839330240035 -7.9922545131052899e-05 0 0.00095483807424432256 -0.00010513142757344382 0 0.00099177922795711752 -8.3208908159566707e-05 0 0.00096737825956858133 -0.00013415742484204735 0 0.00095483807424432256 -0.00010513142757344382 0 0.00099177922795711752 -8.3208908159566707e-05 0 0.0020505591856861218 -0.0001699791891433571 0 0.0020519412825172932 -0.0001942086864596545 0 0.0019514900526793504 -0.00016405717923712629 0 0.0013539670717451278 -0.00012024866307351395 0 0.0015321468964319433 -0.00010318257816891692 0 0.0014039305357703949 -0.00014920935321800918 0 0.0014123359344990569 -0.00031490896553235429 0 0.0013731753331432499 -0.00027483379574951315 0 0.0014039305357703949 -0.00014920935321800918 0 0.0013731753331432499 -0.00027483379574951315 0 0.0013217961221326535 -0.00023187445558738224 0 0.00076262715316525748 -0.0002529115754295801 0 0.0015321468964319433 -0.00010318257816891692 0 0.0014123359344990569 -0.00031490896553235429 0 0.0013703584796521903 -0.00031404304677124282 0 0.0013746943619133869 -0.0003500944667009908 0 0.0014123359344990569 -0.00031490896553235429 0 0.0013703584796521903 -0.00031404304677124282 0 0.0013731753331432499 -0.00027483379574951315 0 0.0013731753331432499 -0.00027483379574951315 0 0.0013217961221326535 -0.00023187445558738224 0 0.0013261041719312009 -0.00031652785599570481 0 0.0013703584796521903 -0.00031404304677124282 0 0.0013731753331432499 -0.00027483379574951315 0 0.0013261041719312009 -0.00031652785599570481 0 0.0013703584796521903 -0.00031404304677124282 0 0.0013261041719312009 -0.00031652785599570481 0 0.0013746943619133869 -0.0003500944667009908 0 0.0013261041719312009 -0.00031652785599570481 0 0.0013746943619133869 -0.0003500944667009908 0 0.0013174997219839559 -0.00042641065728427741 0 0.0013746943619133869 -0.0003500944667009908 0 0.0014175146276669535 -0.00040596912147808611 0 0.0013174997219839559 -0.00042641065728427741 0 0.0015321468964319433 -0.00010318257816891692 0 0.0023266581539241539 -0.00035539122946944332 0 0.0014123359344990569 -0.00031490896553235429 0 0.0013746943619133869 -0.0003500944667009908 0 0.0014175146276669535 -0.00040596912147808611 0 0.002727665580950204 -0.00032907771806663246 0 0.002590436822124397 -0.00045598323816457609 0 0.0027296002195034289 -0.00043452026456463244 0 0.0023266581539241539 -0.00035539122946944332 0 0.003317736249695856 -0.00034582929091900912 0 0.0023266581539241539 -0.00035539122946944332 0 0.0020022894359813361 -0.00039875880996354597 0 0.002727665580950204 -0.00032907771806663246 0 0.0025453965371349929 -0.0003649924664103335 0 0.002590436822124397 -0.00045598323816457609 0 0.0020598553692999602 -0.00066161669836182276 0 0.0021027913283321554 -0.00074774418174991693 0 0.0019842981945429865 -0.00067772456964084566 0 0.0020022894359813361 -0.00039875880996354597 0 0.0029515176494254512 -0.00060823121414940175 0 0.0035181848485645274 -0.00074159300314840257 0 0.0036135573123969545 -0.00093200355069053488 0 0.0033456301289906654 -0.0008073923432618716 0 0.0029515176494254512 -0.00060823121414940175 0 0.0042742036334471175 -0.00041700141331426781 0 0.0035330308569194793 -0.00042739067454632536 0 0.0035987100197833379 -0.00047125031187549 0 0.0035886688443224229 -0.00053717078047844729 0 0.0036432141959888632 -0.00041022125696427945 0 0.0035987100197833379 -0.00047125031187549 0 0.0036465408899547841 -0.00055223274180566534 0 0.0029515176494254512 -0.00060823121414940175 0 0.003317736249695856 -0.00034582929091900912 0 0.0035330308569194793 -0.00042739067454632536 0 0.0036432141959888632 -0.00041022125696427945 0 0.0035987100197833379 -0.00047125031187549 0 0.0040887487954134744 -0.00015377856854140078 0 0.0040584742612967883 -0.00014317847126359934 0 0.0040740734065559444 -0.00014702781295384938 0 0.003317736249695856 -0.00034582929091900912 0 0.0040759912223855294 -0.00030327623434861116 0 0.0035987100197833379 -0.00047125031187549 0 0.0036465408899547841 -0.00055223274180566534 0 0.0035886688443224229 -0.00053717078047844729 0 0.0040759912223855294 -0.00030327623434861116 0 0.0042742036334471175 -0.00041700141331426781 0 0.005612177517830952 0.00029610095925282885 0 0.0056231853197553257 0.00028323334221832381 0 0.0056008449472105832 0.00029119412677467354 0 0.0060274232758116631 0.00015652819835241974 0 0.0058275212949457393 0.00023606061294909579 0 0.0059612067294931119 0.00011192365378723102 0 0.0056185626699249555 0.00030601620789389241 0 0.005612177517830952 0.00029610095925282885 0 0.0055945592800862483 0.00030761475614728883 0 0.005580960160887734 9.2980628322124941e-05 0 0.0057466479300236611 0.00025468320457835004 0 0.0050978829988747119 -7.6344281669994321e-05 0 0.0050962701055071924 7.4180073699977082e-05 0 0.0051799078089003634 -9.8824296119141876e-05 0 0.005612177517830952 0.00029610095925282885 0 0.0056231853197553257 0.00028323334221832381 0 0.0056225338993234411 0.00029223499007143374 0 0.005580960160887734 9.2980628322124941e-05 0 0.0048532732274661847 3.1760426325394206e-07 0 0.0056185626699249555 0.00030601620789389241 0 0.005612177517830952 0.00029610095925282885 0 0.0056225338993234411 0.00029223499007143374 0 0.0042742036334471175 -0.00041700141331426781 0 0.0048532732274661847 3.1760426325394206e-07 0 0.0040983948512438619 -0.00017009134037186335 0 0.0041006582174134033 -0.0001715958500582777 0 0.0041016727579175878 -0.00017165075959286712 0 0.0044547619644509642 -0.00020463375124246544 0 0.0044771055095437452 -0.00021099924473949629 0 0.0044564808374261983 -0.00016199384655154466 0 0.0040759912223855294 -0.00030327623434861116 0 0.0048532732274661847 3.1760426325394206e-07 0 0.0040983948512438619 -0.00017009134037186335 0 0.0041064596392202043 -0.00017051880469021801 0 0.0041146786479429936 -0.00015740788645337656 0 0.0040759912223855294 -0.00030327623434861116 0 0.0041092042980729639 -0.00011565282005112269 0 0.0041012736167513192 -0.00017622334897555503 0 0.0041064596392202043 -0.00017051880469021801 0 0.0041143351763429118 -0.00019589680577260932 0 0.0040983948512438619 -0.00017009134037186335 0 0.0041016727579175878 -0.00017165075959286712 0 0.0041064596392202043 -0.00017051880469021801 0 0.0041016727579175878 -0.00017165075959286712 0 0.0041012736167513192 -0.00017622334897555503 0 0.0041064596392202043 -0.00017051880469021801 0 0.0041006582174134033 -0.0001715958500582777 0 0.0041016727579175878 -0.00017165075959286712 0 0.0041012736167513192 -0.00017622334897555503 0 0.0048532732274661847 3.1760426325394206e-07 0 0.0052131234266872316 3.476844531900072e-05 0 0.005580960160887734 9.2980628322124941e-05 0 0.0052131234266872316 3.476844531900072e-05 0 0.0040584742612967883 -0.00014317847126359934 0 0.0040708040734200321 -0.00013678602977045754 0 0.0041146786479429936 -0.00015740788645337656 0 0.0040403818297515132 -0.00021867209667084437 0 0.0040887487954134744 -0.00015377856854140078 0 0.004070260409932633 -0.00015523184787780814 0 0.0040708040734200321 -0.00013678602977045754 0 0.004070260409932633 -0.00015523184787780814 0 0.0040725098606013152 -0.0001257170537489446 0 0.0040584742612967883 -0.00014317847126359934 0 0.0040708040734200321 -0.00013678602977045754 0 0.0040740734065559444 -0.00014702781295384938 0 0.0040708040734200321 -0.00013678602977045754 0 0.0040740734065559444 -0.00014702781295384938 0 0.004070260409932633 -0.00015523184787780814 0 0.0040887487954134744 -0.00015377856854140078 0 0.0040740734065559444 -0.00014702781295384938 0 0.004070260409932633 -0.00015523184787780814 0 0.0040403818297515132 -0.00021867209667084437 0 0.004070260409932633 -0.00015523184787780814 0 0.0040725098606013152 -0.0001257170537489446 0 0.0039107976344055018 -0.00017894666883132521 0 0.0040725098606013152 -0.0001257170537489446 0 0.0037346980119693238 -8.1476791557806596e-05 0 0.0040708040734200321 -0.00013678602977045754 0 0.0040725098606013152 -0.0001257170537489446 0 0.0041146786479429936 -0.00015740788645337656 0 0.0040627440439352314 -0.00011618615609853109 0 0.0039570337350845189 -9.5516260880504223e-05 0 0.0040725098606013152 -0.0001257170537489446 0 0.0041474490977428278 -0.00013668731143068964 0 0.004178780312557728 -9.572603890980917e-05 0 0.0040403818297515132 -0.00021867209667084437 0 0.0039107976344055018 -0.00017894666883132521 0 0.0040725098606013152 -0.0001257170537489446 0 0.0040725098606013152 -0.0001257170537489446 0 0.0041146786479429936 -0.00015740788645337656 0 0.0041474490977428278 -0.00013668731143068964 0 0.0041064596392202043 -0.00017051880469021801 0 0.0041146786479429936 -0.00015740788645337656 0 0.0041143351763429118 -0.00019589680577260932 0 0.0041146786479429936 -0.00015740788645337656 0 0.0041474717328605533 -0.00019536633676484291 0 0.0041143351763429118 -0.00019589680577260932 0 0.0041146786479429936 -0.00015740788645337656 0 0.0041474490977428278 -0.00013668731143068964 0 0.0041775173404116428 -0.00017407024980270025 0 0.0041146786479429936 -0.00015740788645337656 0 0.0041775173404116428 -0.00017407024980270025 0 0.0041474717328605533 -0.00019536633676484291 0 0.0041775173404116428 -0.00017407024980270025 0 0.0041474717328605533 -0.00019536633676484291 0 0.0041734964574014514 -0.00020306705753977812 0 0.0041474490977428278 -0.00013668731143068964 0 0.0041775173404116428 -0.00017407024980270025 0 0.0042025725712963435 -0.00013898946000196841 0 0.0042421200059157222 -0.00016596863274319064 0 0.0041775173404116428 -0.00017407024980270025 0 0.0042025725712963435 -0.00013898946000196841 0 0.0042442660190524029 -0.00012520614325420819 0 0.0042025725712963435 -0.00013898946000196841 0 0.004178780312557728 -9.572603890980917e-05 0 0.0041474490977428278 -0.00013668731143068964 0 0.0042025725712963435 -0.00013898946000196841 0 0.004178780312557728 -9.572603890980917e-05 0 0.0037722443044822139 -0.00029368378292986649 0 0.0039107976344055018 -0.00017894666883132521 0 0.0037346980119693238 -8.1476791557806596e-05 0 0.0035985663002818546 -0.00020690446055375049 0 0.0037722443044822139 -0.00029368378292986649 0 0.0037346980119693238 -8.1476791557806596e-05 0 0.0025486134607495183 -0.00066591253270028021 0 0.0028282764293626772 -0.00058830569176493647 0 0.0030795765500698596 -0.00079884637934907849 0 0.0026730913371449628 -0.00047386909639113159 0 0.0025359583359481552 -0.00058710255153031246 0 0.0025566459554937828 -0.00034244521693548767 0 0.0026730913371449628 -0.00047386909639113159 0 0.0025486134607495183 -0.00066591253270028021 0 0.0028282764293626772 -0.00058830569176493647 0 0.0026730913371449628 -0.00047386909639113159 0 0.0025359583359481552 -0.00058710255153031246 0 0.0025486134607495183 -0.00066591253270028021 0 0.0030753378394189745 -0.00039597486036238626 0 0.0031590478649445551 -0.00025562132016811141 0 0.0031590478649445551 -0.00025562132016811141 0 0.00098383893391648007 -0.0011878773152896463 0 0.00098627952153373857 -0.0017197585574686345 0 0.00084623369598060198 -0.0014361385920814047 0 0.0011362834965398393 -0.0014561272651867803 0 0.0025359583359481552 -0.00058710255153031246 0 0.0025469139000510455 -0.0006661285231724859 0 0.0023922263224191976 -0.00062720062913636037 0 0.0025359583359481552 -0.00058710255153031246 0 0.0023922263224191976 -0.00062720062913636037 0 0.0025566459554937828 -0.00034244521693548767 0 0.00098383893391648007 -0.0011878773152896463 0 0.0018749855692587083 -0.00083672017175783733 0 0.0010203668686233065 -0.0012245474252159446 0 0.00084623369598060198 -0.0014361385920814047 0 0.0011362834965398393 -0.0014561272651867803 0 0.00079143455965597124 -0.001226666876341796 0 0.0010203668686233065 -0.0012245474252159446 0 0.00084623369598060198 -0.0014361385920814047 0 0.002711188868599731 -6.1100273953665005e-05 0 0.0026730913371449628 -0.00047386909639113159 0 0.0025566459554937828 -0.00034244521693548767 0 0.002711188868599731 -6.1100273953665005e-05 0 0.0026730913371449628 -0.00047386909639113159 0 0.0030110774707958151 -0.00041594929597705492 0 0.0017479094715863049 -0.00055509536006566958 0 0.0018749855692587083 -0.00083672017175783733 0 0.0012839957578488891 -0.0011918051451068857 0 0.0010203668686233065 -0.0012245474252159446 0 0.0011362834965398393 -0.0014561272651867803 0 0.0017393623374685899 -0.00031668202592469348 0 0.001927584752650486 -0.00042135670210757483 0 0.001765430267949542 -0.00052524484102302012 0 0.0017479094715863049 -0.00055509536006566958 0 0.0024273473407509928 -0.00044204532753991139 0 0.0017393623374685899 -0.00031668202592469348 0 0.0015687102178929861 -0.00028871142171619363 0 0.001765430267949542 -0.00052524484102302012 0 0.0013217961221326535 -0.00023187445558738224 0 0.0013261041719312009 -0.00031652785599570481 0 0.0012383490515583675 -0.00027739454029430781 0 0.001927584752650486 -0.00042135670210757483 0 0.001929558339214548 -0.00059573595786840765 0 0.001765430267949542 -0.00052524484102302012 0 0.0020022894359813361 -0.00039875880996354597 0 0.0016155997193398107 -0.00037193133357992132 0 0.0013261041719312009 -0.00031652785599570481 0 0.0013174997219839559 -0.00042641065728427741 0 0.0012383490515583675 -0.00027739454029430781 0 0.0030110774707958151 -0.00041594929597705492 0 0.0030795765500698596 -0.00079884637934907849 0 0.0033181658445723054 -0.00077534130088000497 0 0.0024273473407509928 -0.00044204532753991139 0 0.0026411323856915638 -0.00069618345175052367 0 0.001929558339214548 -0.00059573595786840765 0 0.001765430267949542 -0.00052524484102302012 0 0.001966004003603368 -0.00076685123815633703 0 0.0020532505389261866 -0.00066335122443456399 0 0.001927584752650486 -0.00042135670210757483 0 0.001929558339214548 -0.00059573595786840765 0 0.0020532505389261866 -0.00066335122443456399 0 0.001929558339214548 -0.00059573595786840765 0 0.0019842981945429865 -0.00067772456964084566 0 0.001929558339214548 -0.00059573595786840765 0 0.0019842981945429865 -0.00067772456964084566 0 0.001966004003603368 -0.00076685123815633703 0 0.0020022894359813361 -0.00039875880996354597 0 0.0019844728160055241 -0.00047291433018269282 0 0.0026730913371449628 -0.00047386909639113159 0 0.0030110774707958151 -0.00041594929597705492 0 0.0028282764293626772 -0.00058830569176493647 0 0.0030110774707958151 -0.00041594929597705492 0 0.0028282764293626772 -0.00058830569176493647 0 0.0030795765500698596 -0.00079884637934907849 0 0.0055707797905898016 0.00035591485550336328 0 0.0055945592800862483 0.00030761475614728883 0 0.0055696479405955915 0.00028223798995162302 0 0.0055707797905898016 0.00035591485550336328 0 0.0055696479405955915 0.00028223798995162302 0 0.0054764736264254852 0.00032476970386925068 0 0.0036135573123969545 -0.00093200355069053488 0 0.0030795765500698596 -0.00079884637934907849 0 0.0033456301289906654 -0.0008073923432618716 0 0.0042742036334471175 -0.00041700141331426781 0 0.0045531392199399537 -0.00021263129262353743 0 0.0056185626699249555 0.00030601620789389241 0 0.0055707797905898016 0.00035591485550336328 0 0.0055945592800862483 0.00030761475614728883 0 0.0035181848485645274 -0.00074159300314840257 0 0.0033184956581117624 -0.00077401372965905382 0 0.0033456301289906654 -0.0008073923432618716 0 0.0021027913283321554 -0.00074774418174991693 0 0.0019842981945429865 -0.00067772456964084566 0 0.001966004003603368 -0.00076685123815633703 0 0.0029515176494254512 -0.00060823121414940175 0 0.0026411323856915638 -0.00069618345175052367 0 0.0026411323856915638 -0.00069618345175052367 0 0.002710388996856313 -0.00074863877211164148 0 0.0030795765500698596 -0.00079884637934907849 0 0.0033181658445723054 -0.00077534130088000497 0 0.0033456301289906654 -0.0008073923432618716 0 0.0058275212949457393 0.00023606061294909579 0 0.0055696479405955915 0.00028223798995162302 0 0.0057771269241017375 0.0001147971741518009 0 0.0057466479300236611 0.00025468320457835004 0 0.0055735669082623701 0.0002874044794861995 0 0.0055945592800862483 0.00030761475614728883 0 0.0056008449472105832 0.00029119412677467354 0 0.0055696479405955915 0.00028223798995162302 0 0.005612177517830952 0.00029610095925282885 0 0.0055945592800862483 0.00030761475614728883 0 0.0056008449472105832 0.00029119412677467354 0 0.0055696479405955915 0.00028223798995162302 0 0.0053902685437462678 0.00020841417168190871 0 0.0055162232417399308 0.00011544349623833178 0 0.0055696479405955915 0.00028223798995162302 0 0.0053902685437462678 0.00020841417168190871 0 0.0054764736264254852 0.00032476970386925068 0 0.00070498333627182902 -0.0010172653251637809 0 0.00070451328400372801 -0.0012145402060651793 0 0.00063643722975588446 -0.0011177476559417906 0 0.0031590478649445551 -0.00025562132016811141 0 0.0030249230608712882 -0.00050979550459731278 0 0.0031590478649445551 -0.00025562132016811141 0 0.0045531392199399537 -0.00021263129262353743 0 0.0053537209339244987 0.0004364975640334348 0 0.0053902685437462678 0.00020841417168190871 0 0.0054764736264254852 0.00032476970386925068 0 0.0053537209339244987 0.0004364975640334348 0 0.0055707797905898016 0.00035591485550336328 0 0.0054764736264254852 0.00032476970386925068 0 0.00053928100413843316 -0.0011776669315546791 0 0.00064498761526756397 -0.0010040198019686235 0 0.00063643722975588446 -0.0011177476559417906 0 0.00070498333627182902 -0.0010172653251637809 0 0.00064498761526756397 -0.0010040198019686235 0 0.00063643722975588446 -0.0011177476559417906 0 0.00034467182048390191 -0.0014399589442136804 0 0.00098383893391648007 -0.0011878773152896463 0 0.00053928100413843316 -0.0011776669315546791 0 0.00070451328400372801 -0.0012145402060651793 0 0.00059413741403895027 -0.0013040845653000789 0 0.00053928100413843316 -0.0011776669315546791 0 0.00070451328400372801 -0.0012145402060651793 0 0.00063643722975588446 -0.0011177476559417906 0 0.0006723406892359126 -0.0013330798092519715 0 0.00062775355576008486 -0.0013469006617086051 0 0.00056235808004336918 -0.0013535156364623323 0 0.00059413741403895027 -0.0013040845653000789 0 0.0006723406892359126 -0.0013330798092519715 0 0.00056235808004336918 -0.0013535156364623323 0 0.0030249230608712882 -0.00050979550459731278 0 0.0030914089544610717 -0.00069418659122531031 0 0.00070451328400372801 -0.0012145402060651793 0 0.00059413741403895027 -0.0013040845653000789 0 0.0006723406892359126 -0.0013330798092519715 0 0.0053902685437462678 0.00020841417168190871 0 0.0054453376297699538 -9.1651467241856595e-05 0 0.0055162232417399308 0.00011544349623833178 0 0.0055696479405955915 0.00028223798995162302 0 0.0056548510841580874 5.5321700119521983e-05 0 0.0057771269241017375 0.0001147971741518009 0 0.0055696479405955915 0.00028223798995162302 0 0.0055162232417399308 0.00011544349623833178 0 0.0056548510841580874 5.5321700119521983e-05 0 0.0054453376297699538 -9.1651467241856595e-05 0 0.0055162232417399308 0.00011544349623833178 0 0.0056548510841580874 5.5321700119521983e-05 0 0.0057771269241017375 0.0001147971741518009 0 0.0058868115701495149 3.354383069127148e-05 0 0.0058931779992304331 0.00010448873673954656 0 0.0058275212949457393 0.00023606061294909579 0 0.0057771269241017375 0.0001147971741518009 0 0.0058931779992304331 0.00010448873673954656 0 0.0056548510841580874 5.5321700119521983e-05 0 0.0057771269241017375 0.0001147971741518009 0 0.0057949011644936686 1.366949563451688e-06 0 0.0057949011644936686 1.366949563451688e-06 0 0.0058868115701495149 3.354383069127148e-05 0 0.0058890432389213697 -5.3335929903911757e-05 0 0.0057771269241017375 0.0001147971741518009 0 0.0057949011644936686 1.366949563451688e-06 0 0.0058868115701495149 3.354383069127148e-05 0 0.0056548510841580874 5.5321700119521983e-05 0 0.0057949011644936686 1.366949563451688e-06 0 0.0057330170097061421 -0.00012716910142689808 0 0.0057949011644936686 1.366949563451688e-06 0 0.0058890432389213697 -5.3335929903911757e-05 0 0.0057330170097061421 -0.00012716910142689808 0 0.0058890432389213697 -5.3335929903911757e-05 0 0.0057330170097061421 -0.00012716910142689808 0 0.005919022966709547 -0.00015931317673764252 0 0.0054453376297699538 -9.1651467241856595e-05 0 0.0056548510841580874 5.5321700119521983e-05 0 0.0057330170097061421 -0.00012716910142689808 0 0.0054453376297699538 -9.1651467241856595e-05 0 0.0057330170097061421 -0.00012716910142689808 0 0.0055083220356894631 -0.00040495587468905505 0 0.0057330170097061421 -0.00012716910142689808 0 0.0058557822209725783 -0.00027210800071728974 0 0.0055083220356894631 -0.00040495587468905505 0 0.0058557822209725783 -0.00027210800071728974 0 0.005919022966709547 -0.00015931317673764252 0 0.0060116953725147994 -0.00029472505691651682 0 0.0057330170097061421 -0.00012716910142689808 0 0.0058557822209725783 -0.00027210800071728974 0 0.005919022966709547 -0.00015931317673764252 0 0.0058557822209725783 -0.00027210800071728974 0 0.0058606943955459298 -0.00042976892297919424 0 0.0060116953725147994 -0.00029472505691651682 0 0.0058557822209725783 -0.00027210800071728974 0 0.0058606943955459298 -0.00042976892297919424 0 0.0055083220356894631 -0.00040495587468905505 0 0.0058606943955459298 -0.00042976892297919424 0 0.0055083220356894631 -0.00040495587468905505 0 0.0058174089800726086 -0.00069404544929894485 0 0.00065458234953574867 -0.0013372905832503711 0 0.00063978925586243886 -0.0013384565857859265 0 0.00062775355576008486 -0.0013469006617086051 0 0.00065458234953574867 -0.0013372905832503711 0 0.00063978925586243886 -0.0013384565857859265 0 0.00065790854403070267 -0.0013176214820018058 0 0.00063978925586243886 -0.0013384565857859265 0 0.00065816086698011951 -0.0013139041083807116 0 0.00065790854403070267 -0.0013176214820018058 0 0.00063978925586243886 -0.0013384565857859265 0 0.00065816086698011951 -0.0013139041083807116 0 0.00062887783553708431 -0.0013413621130915591 0 0.00063978925586243886 -0.0013384565857859265 0 0.00062887783553708431 -0.0013413621130915591 0 0.00059688380681096307 -0.0013412530044388741 0 0.00062775355576008486 -0.0013469006617086051 0 0.00059688380681096307 -0.0013412530044388741 0 0.00056235808004336918 -0.0013535156364623323 0 0.00063978925586243886 -0.0013384565857859265 0 0.00062775355576008486 -0.0013469006617086051 0 0.00059688380681096307 -0.0013412530044388741 0 0.0030914089544610717 -0.00069418659122531031 0 0.0028653770844958141 -0.00094013651474571995 0 0.0006723406892359126 -0.0013330798092519715 0 0.00065458234953574867 -0.0013372905832503711 0 0.00062775355576008486 -0.0013469006617086051 0 0.0059646587989818358 -3.1187019285569159e-05 0 0.0059574066016961184 -2.4491442709767347e-05 0 0.0059603920826005255 -2.7206063412329454e-05 0 0.0059646587989818358 -3.1187019285569159e-05 0 0.0059603920826005255 -2.7206063412329454e-05 0 0.0059605664550300133 -3.4576219491010059e-05 0 0.0059784316649385437 -3.224048457023841e-05 0 0.0059646587989818358 -3.1187019285569159e-05 0 0.0059574066016961184 -2.4491442709767347e-05 0 0.0042199304279204571 -0.00021123284935599507 0 0.0041800691733544539 -0.00023824616277017257 0 0.0041877737829133042 -0.00022190429556906671 0 0.0042199304279204571 -0.00021123284935599507 0 0.0041877737829133042 -0.00022190429556906671 0 0.0041734964574014514 -0.00020306705753977812 0 0.0042199304279204571 -0.00021123284935599507 0 0.0041775173404116428 -0.00017407024980270025 0 0.0041734964574014514 -0.00020306705753977812 0 0.0041800691733544539 -0.00023824616277017257 0 0.0041877737829133042 -0.00022190429556906671 0 0.0041734964574014514 -0.00020306705753977812 0 0.0041800691733544539 -0.00023824616277017257 0 0.0041474717328605533 -0.00019536633676484291 0 0.0041734964574014514 -0.00020306705753977812 0 0.0059574066016961184 -2.4491442709767347e-05 0 0.0059576478245504747 -2.894223352271428e-05 0 0.0059603920826005255 -2.7206063412329454e-05 0 0.0041800691733544539 -0.00023824616277017257 0 0.0041474717328605533 -0.00019536633676484291 0 0.0041143351763429118 -0.00019589680577260932 0 0.0051301007372125187 -0.0001457486236446965 0 0.0050019120470567143 -0.000110927669336928 0 0.0059576478245504747 -2.894223352271428e-05 0 0.0059603920826005255 -2.7206063412329454e-05 0 0.0059658645778792084 -2.6414343627415857e-05 0 0.0059603920826005255 -2.7206063412329454e-05 0 0.0059695127491280527 -2.4426269328820378e-05 0 0.0059605664550300133 -3.4576219491010059e-05 0 0.0059603920826005255 -2.7206063412329454e-05 0 0.0059695127491280527 -2.4426269328820378e-05 0 0.0059658645778792084 -2.6414343627415857e-05 0 0.0059695127491280527 -2.4426269328820378e-05 0 0.005977629872440428 -1.8941205651723427e-05 0 0.005979535215468141 -2.1269994266171571e-05 0 0.0060843306025650887 -9.9203292921244368e-05 0 0.005985125468006689 -2.7507228003277858e-05 0 0.0059695127491280527 -2.4426269328820378e-05 0 0.0059658645778792084 -2.6414343627415857e-05 0 0.005979535215468141 -2.1269994266171571e-05 0 0.0059576478245504747 -2.894223352271428e-05 0 0.0059658645778792084 -2.6414343627415857e-05 0 0.0059664255113745408 -3.0193841239949629e-05 0 0.0059660480217489393 -3.1543130617566682e-05 0 0.0059576478245504747 -2.894223352271428e-05 0 0.0059664255113745408 -3.0193841239949629e-05 0 0.0052131234266872316 3.476844531900072e-05 0 0.0050019120470567143 -0.000110927669336928 0 0.0059670671234602268 -3.2477836894583101e-05 0 0.0059664255113745408 -3.0193841239949629e-05 0 0.0059702470603477309 -2.7168200845328045e-05 0 0.0059670671234602268 -3.2477836894583101e-05 0 0.0059660078447441034 -3.154210687011095e-05 0 0.0059664255113745408 -3.0193841239949629e-05 0 0.0052131234266872316 3.476844531900072e-05 0 0.0053497061996510753 -6.6788525722699828e-05 0 0.0059658645778792084 -2.6414343627415857e-05 0 0.0059664255113745408 -3.0193841239949629e-05 0 0.0059702470603477309 -2.7168200845328045e-05 0 0.0059658645778792084 -2.6414343627415857e-05 0 0.0059702470603477309 -2.7168200845328045e-05 0 0.005979535215468141 -2.1269994266171571e-05 0 0.0059755503746420427 5.2797807130421942e-05 0 0.005977629872440428 -1.8941205651723427e-05 0 0.005979535215468141 -2.1269994266171571e-05 0 0.0059670671234602268 -3.2477836894583101e-05 0 0.0059702470603477309 -2.7168200845328045e-05 0 0.005979535215468141 -2.1269994266171571e-05 0 0.0060274232758116631 0.00015652819835241974 0 0.0059755503746420427 5.2797807130421942e-05 0 0.005979535215468141 -2.1269994266171571e-05 0 0.005580960160887734 9.2980628322124941e-05 0 0.0060226528891392317 -2.0935024861681543e-05 0 0.0060274232758116631 0.00015652819835241974 0 0.0059755503746420427 5.2797807130421942e-05 0 0.0059612067294931119 0.00011192365378723102 0 0.0058275212949457393 0.00023606061294909579 0 0.0059612067294931119 0.00011192365378723102 0 0.0058931779992304331 0.00010448873673954656 0 0.0059612067294931119 0.00011192365378723102 0 0.0058931779992304331 0.00010448873673954656 0 0.0059455696085969302 4.8561287621248702e-05 0 0.0059755503746420427 5.2797807130421942e-05 0 0.0059612067294931119 0.00011192365378723102 0 0.0059455696085969302 4.8561287621248702e-05 0 0.0058868115701495149 3.354383069127148e-05 0 0.0058931779992304331 0.00010448873673954656 0 0.0059455696085969302 4.8561287621248702e-05 0 0.0059755503746420427 5.2797807130421942e-05 0 0.0059455696085969302 4.8561287621248702e-05 0 0.005977629872440428 -1.8941205651723427e-05 0 0.0058868115701495149 3.354383069127148e-05 0 0.0059455696085969302 4.8561287621248702e-05 0 0.005977629872440428 -1.8941205651723427e-05 0 0.0062128287922559172 -0.00017971875549774451 0 0.005977629872440428 -1.8941205651723427e-05 0 0.0060576186632875411 -0.00019426734097315786 0 0.0058868115701495149 3.354383069127148e-05 0 0.0058890432389213697 -5.3335929903911757e-05 0 0.005977629872440428 -1.8941205651723427e-05 0 0.0058890432389213697 -5.3335929903911757e-05 0 0.005977629872440428 -1.8941205651723427e-05 0 0.005919022966709547 -0.00015931317673764252 0 0.005977629872440428 -1.8941205651723427e-05 0 0.005919022966709547 -0.00015931317673764252 0 0.0060576186632875411 -0.00019426734097315786 0 0.005919022966709547 -0.00015931317673764252 0 0.0060576186632875411 -0.00019426734097315786 0 0.0060116953725147994 -0.00029472505691651682 0 0.0060576186632875411 -0.00019426734097315786 0 0.0060116953725147994 -0.00029472505691651682 0 0.006164950426886087 -0.00030752536986320105 0 0.0060116953725147994 -0.00029472505691651682 0 0.0061288944398415418 -0.00042254855250987002 0 0.006164950426886087 -0.00030752536986320105 0 0.0058606943955459298 -0.00042976892297919424 0 0.0061288944398415418 -0.00042254855250987002 0 0.0061320282257542984 -0.00055343652053697044 0 0.0058606943955459298 -0.00042976892297919424 0 0.0060116953725147994 -0.00029472505691651682 0 0.0061288944398415418 -0.00042254855250987002 0 0.0061288944398415418 -0.00042254855250987002 0 0.0062348610960726034 -0.0004078786362920661 0 0.0061941838274171494 -0.0004955044213005111 0 0.0061288944398415418 -0.00042254855250987002 0 0.0062348610960726034 -0.0004078786362920661 0 0.006164950426886087 -0.00030752536986320105 0 0.0062128287922559172 -0.00017971875549774451 0 0.0060576186632875411 -0.00019426734097315786 0 0.006164950426886087 -0.00030752536986320105 0 0.0062128287922559172 -0.00017971875549774451 0 0.006164950426886087 -0.00030752536986320105 0 0.0063359461880011661 -0.00029447293518389966 0 0.0060843306025650887 -9.9203292921244368e-05 0 0.0061553049496089378 -0.00016687104077969421 0 0.0062348610960726034 -0.0004078786362920661 0 0.006164950426886087 -0.00030752536986320105 0 0.0063359461880011661 -0.00029447293518389966 0 0.0062348610960726034 -0.0004078786362920661 0 0.0063286865373283875 -0.00042508884895622157 0 0.0063359461880011661 -0.00029447293518389966 0 0.0062348610960726034 -0.0004078786362920661 0 0.0063286865373283875 -0.00042508884895622157 0 0.0062492167144077067 -0.00046958152411006281 0 0.0064295483008186098 -0.0003629185165968643 0 0.0063286865373283875 -0.00042508884895622157 0 0.00639034757173341 -0.000478475675924562 0 0.0064295483008186098 -0.0003629185165968643 0 0.0063286865373283875 -0.00042508884895622157 0 0.0063359461880011661 -0.00029447293518389966 0 0.0061710308188980718 -0.00018714571488068964 0 0.0061553049496089378 -0.00016687104077969421 0 0.0059740500233797771 -5.4061224423394442e-05 0 0.0059646587989818358 -3.1187019285569159e-05 0 0.0059605664550300133 -3.4576219491010059e-05 0 0.0063042650321970366 -0.00051341726492859182 0 0.0062649833909137094 -0.00061391726541460507 0 0.0063820275612611055 -0.00060524208483145651 0 0.00639034757173341 -0.000478475675924562 0 0.0063042650321970366 -0.00051341726492859182 0 0.0063820275612611055 -0.00060524208483145651 0 0.0063286865373283875 -0.00042508884895622157 0 0.00639034757173341 -0.000478475675924562 0 0.0063042650321970366 -0.00051341726492859182 0 0.0063286865373283875 -0.00042508884895622157 0 0.0062492167144077067 -0.00046958152411006281 0 0.0063042650321970366 -0.00051341726492859182 0 0.0062492167144077067 -0.00046958152411006281 0 0.0062208538082034071 -0.00051682552167772397 0 0.0063042650321970366 -0.00051341726492859182 0 0.0062208538082034071 -0.00051682552167772397 0 0.0063042650321970366 -0.00051341726492859182 0 0.0062649833909137094 -0.00061391726541460507 0 0.0062204440133255545 -0.00052124293192413464 0 0.0062229639628063162 -0.00052043171463627097 0 0.0062208538082034071 -0.00051682552167772397 0 0.0062212521279027726 -0.00046857201314401333 0 0.0061777720522128467 -0.00045663679776609213 0 0.0062208538082034071 -0.00051682552167772397 0 0.006204809987829997 -0.0005100484906199439 0 0.0062212521279027726 -0.00046857201314401333 0 0.006204809987829997 -0.0005100484906199439 0 0.0062663832282725011 -0.00045924883045865794 0 0.0062212521279027726 -0.00046857201314401333 0 0.0062208538082034071 -0.00051682552167772397 0 0.0061941838274171494 -0.0004955044213005111 0 0.006204809987829997 -0.0005100484906199439 0 0.0062492167144077067 -0.00046958152411006281 0 0.0062208538082034071 -0.00051682552167772397 0 0.0061941838274171494 -0.0004955044213005111 0 0.0062348610960726034 -0.0004078786362920661 0 0.0062492167144077067 -0.00046958152411006281 0 0.0061941838274171494 -0.0004955044213005111 0 0.0061320282257542984 -0.00055343652053697044 0 0.006204809987829997 -0.0005100484906199439 0 0.0062641842134910459 -0.00048669862460642548 0 0.0061288944398415418 -0.00042254855250987002 0 0.0061941838274171494 -0.0004955044213005111 0 0.0061320282257542984 -0.00055343652053697044 0 0.0061941838274171494 -0.0004955044213005111 0 0.0061320282257542984 -0.00055343652053697044 0 0.006204809987829997 -0.0005100484906199439 0 0.006204809987829997 -0.0005100484906199439 0 0.0062663832282725011 -0.00045924883045865794 0 0.0062641842134910459 -0.00048669862460642548 0 0.0062663832282725011 -0.00045924883045865794 0 0.0062541862888902651 -0.00040893644734649225 0 0.0063825582909092914 -0.00039521377368767344 0 0.0063192941131146648 -0.00033520160359678608 0 0.0062541862888902651 -0.00040893644734649225 0 0.0063825582909092914 -0.00039521377368767344 0 0.0063192941131146648 -0.00033520160359678608 0 0.0062178365332231271 -0.00036226342824070541 0 0.0062541862888902651 -0.00040893644734649225 0 0.0067276914996607486 -0.00027580633676307535 0 0.0070041338966248768 -0.00021610606820873576 0 0.0062178365332231271 -0.00036226342824070541 0 0.0062541862888902651 -0.00040893644734649225 0 0.0061980466536649074 -0.00041330075885275859 0 0.0062541862888902651 -0.00040893644734649225 0 0.0062212521279027726 -0.00046857201314401333 0 0.0061980466536649074 -0.00041330075885275859 0 0.0062663832282725011 -0.00045924883045865794 0 0.0062541862888902651 -0.00040893644734649225 0 0.0062212521279027726 -0.00046857201314401333 0 0.0062212521279027726 -0.00046857201314401333 0 0.0061777720522128467 -0.00045663679776609213 0 0.0061980466536649074 -0.00041330075885275859 0 0.0061777720522128467 -0.00045663679776609213 0 0.0061980466536649074 -0.00041330075885275859 0 0.0061596056236441505 -0.00039559048016464028 0 0.0062229639628063162 -0.00052043171463627097 0 0.006542826772117971 -0.00050193019954372468 0 0.0070041338966248768 -0.00021610606820873576 0 0.0073165292455920012 -0.0005467084956976056 0 0.0077820154919915462 -9.8926625131154952e-05 0 0.008447893842905306 -5.4682731064623995e-05 0 0.0081423926582424311 -0.00045745828923647201 0 0.0062178365332231271 -0.00036226342824070541 0 0.0061980466536649074 -0.00041330075885275859 0 0.0061661108192748743 -0.00038813983533946559 0 0.0062178365332231271 -0.00036226342824070541 0 0.0061661108192748743 -0.00038813983533946559 0 0.0061559121308737861 -0.00037709489919388777 0 0.0061661108192748743 -0.00038813983533946559 0 0.0061622349130183536 -0.00039365373731636957 0 0.0061559121308737861 -0.00037709489919388777 0 0.006542826772117971 -0.00050193019954372468 0 0.0073165292455920012 -0.0005467084956976056 0 0.0061980466536649074 -0.00041330075885275859 0 0.0061661108192748743 -0.00038813983533946559 0 0.0061596056236441505 -0.00039559048016464028 0 0.0065013082820175811 -0.00051468170023570819 0 0.006542826772117971 -0.00050193019954372468 0 0.0069342672421717037 -0.00060963758360590959 0 0.0069660528283254208 -0.0006080732943348192 0 0.0069500642336408252 -0.00061993743935392714 0 0.0074696004786542914 -0.00062632323468414487 0 0.0077260617930100988 -0.00061295857532131677 0 0.0076002843173386368 -0.00054082223078131088 0 0.0069682251511452523 -0.00061609163619623841 0 0.0069660528283254208 -0.0006080732943348192 0 0.0069500642336408252 -0.00061993743935392714 0 0.007207790091496376 -0.00062399249159512211 0 0.0073165292455920012 -0.0005467084956976056 0 0.006542826772117971 -0.00050193019954372468 0 0.006663901454679641 -0.0006399043388427032 0 0.0069682251511452523 -0.00061609163619623841 0 0.0069500642336408252 -0.00061993743935392714 0 0.0069481022303160399 -0.00063885402119653585 0 0.0062649833909137094 -0.00061391726541460507 0 0.0063017440893984788 -0.00069976390837775664 0 0.0063820275612611055 -0.00060524208483145651 0 0.0028005773347610586 -0.00035917606425342415 0 0.0047034014876552689 -0.00065560823657213885 0 0.0054879186318879695 0.00065550032725771783 0 0.0061473992514153013 0.00087108815920008791 0 0.0057604858608358541 0.00021630535620420973 0 0.00067998518916693735 -0.0012740040604337084 0 0.00066916821679525171 -0.0012959752547834795 0 0.00067448278311082132 -0.0012913164514713632 0 0.00067998518916693735 -0.0012740040604337084 0 0.00071318358497282988 -0.0012466883368408897 0 0.0006881761112741084 -0.0012825578895287264 0 0.0028005773347610586 -0.00035917606425342415 0 0.0030930302930778563 -0.00015635061621785388 0 0.00067998518916693735 -0.0012740040604337084 0 0.00066916821679525171 -0.0012959752547834795 0 0.0006881761112741084 -0.0012825578895287264 0 0.00066916821679525171 -0.0012959752547834795 0 0.00065816086698011951 -0.0013139041083807116 0 0.0006881761112741084 -0.0012825578895287264 0 0.00066916821679525171 -0.0012959752547834795 0 0.00065816086698011951 -0.0013139041083807116 0 0.00065790854403070267 -0.0013176214820018058 0 0.00065458234953574867 -0.0013372905832503711 0 0.00065790854403070267 -0.0013176214820018058 0 0.00067448278311082132 -0.0012913164514713632 0 0.0028653770844958141 -0.00094013651474571995 0 0.0047034014876552689 -0.00065560823657213885 0 0.00066916821679525171 -0.0012959752547834795 0 0.00065790854403070267 -0.0013176214820018058 0 0.00067448278311082132 -0.0012913164514713632 0 0.0055083220356894631 -0.00040495587468905505 0 0.0058174089800726086 -0.00069404544929894485 0 0.0055593319452648619 -0.0007860041512430504 0 0.006308056954445045 -0.00054579002635443143 0 0.0047034014876552689 -0.00065560823657213885 0 0.0060515648654147717 -0.00059525276561322635 0 0.006308056954445045 -0.00054579002635443143 0 0.0061320282257542984 -0.00055343652053697044 0 0.0063434723072786966 -0.00054454082903173957 0 0.0062641842134910459 -0.00048669862460642548 0 0.0058606943955459298 -0.00042976892297919424 0 0.0061320282257542984 -0.00055343652053697044 0 0.0058174089800726086 -0.00069404544929894485 0 0.0062663832282725011 -0.00045924883045865794 0 0.0062641842134910459 -0.00048669862460642548 0 0.0063555812921781722 -0.00042817762422309543 0 0.0063434723072786966 -0.00054454082903173957 0 0.0062641842134910459 -0.00048669862460642548 0 0.0063555812921781722 -0.00042817762422309543 0 0.0063434723072786966 -0.00054454082903173957 0 0.0063555812921781722 -0.00042817762422309543 0 0.0064485420775714578 -0.00050328437608634577 0 0.0063555812921781722 -0.00042817762422309543 0 0.0064485420775714578 -0.00050328437608634577 0 0.0064284200408133629 -0.00032485397494849845 0 0.0047034014876552689 -0.00065560823657213885 0 0.0065646515939904206 -2.1512258325763782e-05 0 0.0063555812921781722 -0.00042817762422309543 0 0.0064284200408133629 -0.00032485397494849845 0 0.0063825582909092914 -0.00039521377368767344 0 0.0062663832282725011 -0.00045924883045865794 0 0.0063555812921781722 -0.00042817762422309543 0 0.0063825582909092914 -0.00039521377368767344 0 0.0067276914996607486 -0.00027580633676307535 0 0.0065324217591977568 -0.00034243388758917193 0 0.0063192941131146648 -0.00033520160359678608 0 0.0063825582909092914 -0.00039521377368767344 0 0.0065078113172970875 -0.00037117603319013551 0 0.0064284200408133629 -0.00032485397494849845 0 0.0063825582909092914 -0.00039521377368767344 0 0.0065078113172970875 -0.00037117603319013551 0 0.0062917238803400647 -4.9753271642977043e-05 0 0.0060942575143516911 -0.00043974046531143607 0 0.006388957496565365 -0.00068770264135203083 0 0.0064284200408133629 -0.00032485397494849845 0 0.0065078113172970875 -0.00037117603319013551 0 0.006388957496565365 -0.00068770264135203083 0 0.0065646515939904206 -2.1512258325763782e-05 0 0.0063421339783643902 -0.00073754746221589497 0 0.0060942575143516911 -0.00043974046531143607 0 0.0055298931756195841 -0.0002287126027375944 0 0.0053418029618351104 -0.00057203580996402525 0 0.0059021323454663179 -0.00013278716526640087 0 0.0057604858608358541 0.00021630535620420973 0 0.0055298931756195841 -0.0002287126027375944 0 0.0060942575143516911 -0.00043974046531143607 0 0.0059021323454663179 -0.00013278716526640087 0 0.0055298931756195841 -0.0002287126027375944 0 0.0062917238803400647 -4.9753271642977043e-05 0 0.0060942575143516911 -0.00043974046531143607 0 0.0059021323454663179 -0.00013278716526640087 0 0.0061473992514153013 0.00087108815920008791 0 0.0062917238803400647 -4.9753271642977043e-05 0 0.0057604858608358541 0.00021630535620420973 0 0.0062917238803400647 -4.9753271642977043e-05 0 0.0059021323454663179 -0.00013278716526640087 0 0.0057604858608358541 0.00021630535620420973 0 0.0054879186318879695 0.00065550032725771783 0 0.0051827613261027109 0.00019778081854896341 0 0.0048067413176254821 0.00043330466299748902 0 0.0057604858608358541 0.00021630535620420973 0 0.0051827613261027109 0.00019778081854896341 0 0.0055298931756195841 -0.0002287126027375944 0 0.0054879186318879695 0.00065550032725771783 0 0.0057604858608358541 0.00021630535620420973 0 0.0051827613261027109 0.00019778081854896341 0 0.0051827613261027109 0.00019778081854896341 0 0.0051514018267002437 -0.00016860393122374156 0 0.0055298931756195841 -0.0002287126027375944 0 0.0051514018267002437 -0.00016860393122374156 0 0.0055298931756195841 -0.0002287126027375944 0 0.0053418029618351104 -0.00057203580996402525 0 0.0051514018267002437 -0.00016860393122374156 0 0.0049617424486653409 -0.00044482297253868515 0 0.0053418029618351104 -0.00057203580996402525 0 0.0049617424486653409 -0.00044482297253868515 0 0.0047483413962467079 -3.4185106231842664e-05 0 0.0046319402562363127 -0.00057154795557039229 0 0.0051514018267002437 -0.00016860393122374156 0 0.0049617424486653409 -0.00044482297253868515 0 0.0047483413962467079 -3.4185106231842664e-05 0 0.0041138820460350084 -0.0002214462648214582 0 0.0047483413962467079 -3.4185106231842664e-05 0 0.0046319402562363127 -0.00057154795557039229 0 0.0041138820460350084 -0.0002214462648214582 0 0.0046319402562363127 -0.00057154795557039229 0 0.004155138569914724 -0.00071764544184550207 0 0.0041138820460350084 -0.0002214462648214582 0 0.0042497972974346911 0.00025951389950824893 0 0.0036950273403298997 6.413442608615447e-05 0 0.0041138820460350084 -0.0002214462648214582 0 0.0042497972974346911 0.00025951389950824893 0 0.0047483413962467079 -3.4185106231842664e-05 0 0.0024890154020650278 -0.00050018795502406474 0 0.0023639597004854224 -0.00054363158142390169 0 0.0024684084401065134 -0.00036579585222741806 0 0.003573261114033899 -4.8373346868393897e-05 0 0.0030930302930778563 -0.00015635061621785388 0 0.0042497972974346911 0.00025951389950824893 0 0.0048010106576559138 0.00045107259475271356 0 0.0047483413962467079 -3.4185106231842664e-05 0 0.0051635713481544042 -0.00013900356151352774 0 0.0030930302930778563 -0.00015635061621785388 0 0.0051827613261027109 0.00019778081854896341 0 0.0048010106576559138 0.00045107259475271356 0 0.0047483413962467079 -3.4185106231842664e-05 0 0.0051827613261027109 0.00019778081854896341 0 0.0051514018267002437 -0.00016860393122374156 0 0.0047483413962467079 -3.4185106231842664e-05 0 0.0031521891865869856 -0.00044951878089542584 0 0.0033016209999986775 -6.1774288443481822e-05 0 0.0027345492430500586 -0.00045580904579162358 0 0.0032024117745750704 -0.0003925745256183599 0 0.0033612075938287585 -0.00052392708368395548 0 0.0031521891865869856 -0.00044951878089542584 0 0.0035675562645494092 -0.00025527224712871221 0 0.0033174812861867498 -0.00067246653831232878 0 0.0020590202953015618 -0.00058302956243663653 0 0.0032024117745750704 -0.0003925745256183599 0 0.0031521891865869856 -0.00044951878089542584 0 0.0033016209999986775 -6.1774288443481822e-05 0 0.0035675562645494092 -0.00025527224712871221 0 0.0032024117745750704 -0.0003925745256183599 0 0.0042239702890362399 -0.000727807484699628 0 0.0041138820460350084 -0.0002214462648214582 0 0.0034934880151567256 -0.00026703945909316198 0 0.004155138569914724 -0.00071764544184550207 0 0.0041138820460350084 -0.0002214462648214582 0 0.0034934880151567256 -0.00026703945909316198 0 0.0036950273403298997 6.413442608615447e-05 0 0.0032024117745750704 -0.0003925745256183599 0 0.0024108757652572428 -0.00050416823080930389 0 0.002551034828491101 -0.00049683051971632713 0 0.0025828043697334485 -0.000517988918634988 0 0.0026066267857531062 -0.00047819740941072296 0 0.0010348973805285441 -0.00087509714713336672 0 0.0010993420973885145 -0.00091617053101106228 0 0.0010549108136268727 -0.00098490708764616543 0 0.0024108757652572428 -0.00050416823080930389 0 0.0011881747102719851 -0.00095224446891536041 0 0.003573261114033899 -4.8373346868393897e-05 0 0.0024108757652572428 -0.00050416823080930389 0 0.0020590202953015618 -0.00058302956243663653 0 0.0012758540627645929 -0.0009132995089175083 0 0.0010993420973885145 -0.00091617053101106228 0 0.0011167578507928848 -0.00097438506490175533 0 0.0012071119910402337 -0.00091997402937130492 0 0.0011114971589711782 -0.00084880584246042944 0 0.0010993420973885145 -0.00091617053101106228 0 0.0012071119910402337 -0.00091997402937130492 0 0.0011114971589711782 -0.00084880584246042944 0 0.0010348973805285441 -0.00087509714713336672 0 0.0010993420973885145 -0.00091617053101106228 0 0.0020590202953015618 -0.00058302956243663653 0 0.0024108757652572428 -0.00050416823080930389 0 0.0011046845544081705 -0.0010375475839603291 0 0.0010549108136268727 -0.00098490708764616543 0 0.0010529156658710362 -0.0011013096837152968 0 0.0011167578507928848 -0.00097438506490175533 0 0.0011046845544081705 -0.0010375475839603291 0 0.0011883952156314555 -0.0010168251709970935 0 0.0010993420973885145 -0.00091617053101106228 0 0.0011167578507928848 -0.00097438506490175533 0 0.0010549108136268727 -0.00098490708764616543 0 0.0011167578507928848 -0.00097438506490175533 0 0.0011046845544081705 -0.0010375475839603291 0 0.0010549108136268727 -0.00098490708764616543 0 0.0010348973805285441 -0.00087509714713336672 0 0.0010549108136268727 -0.00098490708764616543 0 0.00094499091139283841 -0.001015876111077327 0 0.0010549108136268727 -0.00098490708764616543 0 0.0010529156658710362 -0.0011013096837152968 0 0.00094499091139283841 -0.001015876111077327 0 0.0009831397865582086 -0.0011327815621177937 0 0.0011881747102719851 -0.00095224446891536041 0 0.0010072566323254186 -0.001173111473560521 0 0.00082906167332425776 -0.0010593682289113623 0 0.00086734856879313303 -0.0011943740119593925 0 0.0010072566323254186 -0.001173111473560521 0 0.00086734856879313303 -0.0011943740119593925 0 0.00084135602738267905 -0.0013108778610840879 0 0.0010529156658710362 -0.0011013096837152968 0 0.0011660970710385551 -0.0012155325220629645 0 0.0011551235726046469 -0.0010993793713305092 0 0.0011046845544081705 -0.0010375475839603291 0 0.0010529156658710362 -0.0011013096837152968 0 0.0011551235726046469 -0.0010993793713305092 0 0.0011046845544081705 -0.0010375475839603291 0 0.0011551235726046469 -0.0010993793713305092 0 0.0011883952156314555 -0.0010168251709970935 0 0.00071318358497282988 -0.0012466883368408897 0 0.0006881761112741084 -0.0012825578895287264 0 0.00074350274797565434 -0.0012687443203660503 0 0.0024890154020650278 -0.00050018795502406474 0 0.0026174962007907074 -0.00045550061820252402 0 0.0024684084401065134 -0.00036579585222741806 0 0.0030930302930778563 -0.00015635061621785388 0 0.0011881747102719851 -0.00095224446891536041 0 0.00082906167332425776 -0.0010593682289113623 0 0.00086734856879313303 -0.0011943740119593925 0 0.00069717364857045129 -0.0013112977805470175 0 0.0011881747102719851 -0.00095224446891536041 0 0.00056408764533931964 -0.0014147889586045954 0 0.00074350274797565434 -0.0012687443203660503 0 0.00067927146034919459 -0.0013012742589150873 0 0.00069717364857045129 -0.0013112977805470175 0 0.0006881761112741084 -0.0012825578895287264 0 0.00074350274797565434 -0.0012687443203660503 0 0.00067927146034919459 -0.0013012742589150873 0 0.00065816086698011951 -0.0013139041083807116 0 0.0006881761112741084 -0.0012825578895287264 0 0.00067927146034919459 -0.0013012742589150873 0 0.00065816086698011951 -0.0013139041083807116 0 0.00067927146034919459 -0.0013012742589150873 0 0.00062887783553708431 -0.0013413621130915591 0 0.00062887783553708431 -0.0013413621130915591 0 0.00069717364857045129 -0.0013112977805470175 0 0.00084135602738267905 -0.0013108778610840879 0 0.00062887783553708431 -0.0013413621130915591 0 0.00056291272239266592 -0.0013277738841978456 0 0.00052612568113774843 -0.0013118905238853227 0 0.00067927146034919459 -0.0013012742589150873 0 0.00062887783553708431 -0.0013413621130915591 0 0.00069717364857045129 -0.0013112977805470175 0 0.00062948992224752271 -0.0013352142618867882 0 0.00068730494424882845 -0.0013071150578133379 0 0.00062887783553708431 -0.0013413621130915591 0 0.00056291272239266592 -0.0013277738841978456 0 0.00059688380681096307 -0.0013412530044388741 0 0.00059688380681096307 -0.0013412530044388741 0 0.00054524463711599404 -0.0013408904354425468 0 0.00056235808004336918 -0.0013535156364623323 0 0.00054524463711599404 -0.0013408904354425468 0 0.00056235808004336918 -0.0013535156364623323 0 0.00049530638087986567 -0.0013603481888918043 0 0.00056291272239266592 -0.0013277738841978456 0 0.00059688380681096307 -0.0013412530044388741 0 0.00054524463711599404 -0.0013408904354425468 0 0.00052698052768268436 -0.0013219757706940411 0 0.0005444134857618048 -0.001343984355609664 0 0.00049530638087986567 -0.0013603481888918043 0 0.00054524463711599404 -0.0013408904354425468 0 0.00052698052768268436 -0.0013219757706940411 0 0.00049530638087986567 -0.0013603481888918043 0 0.00056291272239266592 -0.0013277738841978456 0 0.00054524463711599404 -0.0013408904354425468 0 0.00052698052768268436 -0.0013219757706940411 0 0.00052698052768268436 -0.0013219757706940411 0 0.00052612568113774843 -0.0013118905238853227 0 0.00055675392535438687 -0.0012941826884964064 0 0.00086734856879313303 -0.0011943740119593925 0 0.00069717364857045129 -0.0013112977805470175 0 0.00084135602738267905 -0.0013108778610840879 0 0.00056291272239266592 -0.0013277738841978456 0 0.00052698052768268436 -0.0013219757706940411 0 0.00052612568113774843 -0.0013118905238853227 0 0.0010072566323254186 -0.001173111473560521 0 0.00084135602738267905 -0.0013108778610840879 0 0.0010460296337916897 -0.0012729922871863341 0 0.00068730494424882845 -0.0013071150578133379 0 0.00083698765085486618 -0.0012395675450136046 0 0.00052612568113774843 -0.0013118905238853227 0 0.00061945390749945975 -0.00120522823547544 0 0.00055675392535438687 -0.0012941826884964064 0 0.0010072566323254186 -0.001173111473560521 0 0.0010460296337916897 -0.0012729922871863341 0 0.0011660970710385551 -0.0012155325220629645 0 0.0009831397865582086 -0.0011327815621177937 0 0.0011789916376859896 -0.001221275337973512 0 0.00061945390749945975 -0.00120522823547544 0 0.00062076153682774269 -0.0013022639339331167 0 0.00074009890627062388 -0.0012535865040597212 0 0.00062076153682774269 -0.0013022639339331167 0 0.00072626838215287181 -0.0013275089625258726 0 0.00074009890627062388 -0.0012535865040597212 0 0.00061945390749945975 -0.00120522823547544 0 0.00062076153682774269 -0.0013022639339331167 0 0.00055675392535438687 -0.0012941826884964064 0 0.00062076153682774269 -0.0013022639339331167 0 0.00072626838215287181 -0.0013275089625258726 0 0.00060564923905764194 -0.0013841875508378684 0 0.00052698052768268436 -0.0013219757706940411 0 0.00055675392535438687 -0.0012941826884964064 0 0.0005444134857618048 -0.001343984355609664 0 0.00062076153682774269 -0.0013022639339331167 0 0.00055675392535438687 -0.0012941826884964064 0 0.0005444134857618048 -0.001343984355609664 0 0.00062076153682774269 -0.0013022639339331167 0 0.0005444134857618048 -0.001343984355609664 0 0.00060564923905764194 -0.0013841875508378684 0 0.0005444134857618048 -0.001343984355609664 0 0.00051909912714154162 -0.0014421375054169893 0 0.00060564923905764194 -0.0013841875508378684 0 0.0005444134857618048 -0.001343984355609664 0 0.00051909912714154162 -0.0014421375054169893 0 0.00049530638087986567 -0.0013603481888918043 0 0.00072626838215287181 -0.0013275089625258726 0 0.00060564923905764194 -0.0013841875508378684 0 0.0008168588263978802 -0.0014136510944235045 0 0.00060564923905764194 -0.0013841875508378684 0 0.00067002614235331587 -0.0014750318725102233 0 0.0008168588263978802 -0.0014136510944235045 0 0.00051909912714154162 -0.0014421375054169893 0 0.00060564923905764194 -0.0013841875508378684 0 0.00067002614235331587 -0.0014750318725102233 0 0.00057499984639383639 -0.0015938158088456707 0 0.00051909912714154162 -0.0014421375054169893 0 0.00067002614235331587 -0.0014750318725102233 0 0.00044198525704167461 -0.0015888861274372494 0 0.00057499984639383639 -0.0015938158088456707 0 0.00051909912714154162 -0.0014421375054169893 0 0.00044198525704167461 -0.0015888861274372494 0 0.00051909912714154162 -0.0014421375054169893 0 0.00044642746088523297 -0.0013915590738946314 0 0.00038356896583712342 -0.0015958571202901995 0 0.00044198525704167461 -0.0015888861274372494 0 0.00044642746088523297 -0.0013915590738946314 0 0.00034467182048390191 -0.0014399589442136804 0 0.00047244986439167597 -0.0013655652348661775 0 0.00053928100413843316 -0.0011776669315546791 0 0.00059413741403895027 -0.0013040845653000789 0 0.00044642746088523297 -0.0013915590738946314 0 0.00059413741403895027 -0.0013040845653000789 0 0.00044642746088523297 -0.0013915590738946314 0 0.00056235808004336918 -0.0013535156364623323 0 0.00044642746088523297 -0.0013915590738946314 0 0.00056235808004336918 -0.0013535156364623323 0 0.00049530638087986567 -0.0013603481888918043 0 0.00051909912714154162 -0.0014421375054169893 0 0.00044642746088523297 -0.0013915590738946314 0 0.00049530638087986567 -0.0013603481888918043 0 0.0012024426706634549 -0.0015203546087918043 0 0.0010806850261744691 -0.00140477447854524 0 0.0013362705346380008 -0.0013739286121446051 0 0.0012024426706634549 -0.0015203546087918043 0 0.0013870736565208585 -0.0015331748975464438 0 0.0013362705346380008 -0.0013739286121446051 0 0.0013870736565208585 -0.0015331748975464438 0 0.0013362705346380008 -0.0013739286121446051 0 0.0014665598057378192 -0.0014160600208424862 0 0.0012024426706634549 -0.0015203546087918043 0 0.0013870736565208585 -0.0015331748975464438 0 0.0013085805638601527 -0.0016408721018557415 0 0.0013870736565208585 -0.0015331748975464438 0 0.0013085805638601527 -0.0016408721018557415 0 0.0014463351205808682 -0.001671722029784724 0 0.0011479446756295208 -0.0016477986634701324 0 0.0012024426706634549 -0.0015203546087918043 0 0.0013085805638601527 -0.0016408721018557415 0 0.0011479446756295208 -0.0016477986634701324 0 0.0012024426706634549 -0.0015203546087918043 0 0.00091494399719063615 -0.0015502330315830379 0 0.00067002614235331587 -0.0014750318725102233 0 0.00091494399719063615 -0.0015502330315830379 0 0.0008168588263978802 -0.0014136510944235045 0 0.00057499984639383639 -0.0015938158088456707 0 0.00067002614235331587 -0.0014750318725102233 0 0.00091494399719063615 -0.0015502330315830379 0 0.0012024426706634549 -0.0015203546087918043 0 0.00091494399719063615 -0.0015502330315830379 0 0.0010806850261744691 -0.00140477447854524 0 0.0008168588263978802 -0.0014136510944235045 0 0.0010806850261744691 -0.00140477447854524 0 0.00090035017365402688 -0.0013114150692634988 0 0.00091494399719063615 -0.0015502330315830379 0 0.0008168588263978802 -0.0014136510944235045 0 0.0010806850261744691 -0.00140477447854524 0 0.0010806850261744691 -0.00140477447854524 0 0.00090035017365402688 -0.0013114150692634988 0 0.0012977507362956734 -0.0012163921043586831 0 0.00090035017365402688 -0.0013114150692634988 0 0.0008880983603132683 -0.0011378053101398081 0 0.0012977507362956734 -0.0012163921043586831 0 0.00072626838215287181 -0.0013275089625258726 0 0.0008168588263978802 -0.0014136510944235045 0 0.00090035017365402688 -0.0013114150692634988 0 0.00072626838215287181 -0.0013275089625258726 0 0.00090035017365402688 -0.0013114150692634988 0 0.00074009890627062388 -0.0012535865040597212 0 0.00090035017365402688 -0.0013114150692634988 0 0.00074009890627062388 -0.0012535865040597212 0 0.0008880983603132683 -0.0011378053101398081 0 0.00083698765085486618 -0.0012395675450136046 0 0.0010611713721669898 -0.0011899922999662187 0 0.0010460296337916897 -0.0012729922871863341 0 0.0012309176546991681 -0.0012208825929513952 0 0.0011660970710385551 -0.0012155325220629645 0 0.00061945390749945975 -0.00120522823547544 0 0.00074009890627062388 -0.0012535865040597212 0 0.0008880983603132683 -0.0011378053101398081 0 0.0012309176546991681 -0.0012208825929513952 0 0.0012221384527594747 -0.0011624831630156285 0 0.0011660970710385551 -0.0012155325220629645 0 0.0010611713721669898 -0.0011899922999662187 0 0.0012781919798678797 -0.0012088669606995204 0 0.0012309176546991681 -0.0012208825929513952 0 0.0012805837281826124 -0.0011796914202294336 0 0.0012977507362956734 -0.0012163921043586831 0 0.0012309176546991681 -0.0012208825929513952 0 0.0012221384527594747 -0.0011624831630156285 0 0.0012805837281826124 -0.0011796914202294336 0 0.0012805837281826124 -0.0011796914202294336 0 0.0012977507362956734 -0.0012163921043586831 0 0.0014972727954279837 -0.0010697031311389959 0 0.0012977507362956734 -0.0012163921043586831 0 0.0015120321923281469 -0.0012247376067586599 0 0.0014972727954279837 -0.0010697031311389959 0 0.0010806850261744691 -0.00140477447854524 0 0.0012977507362956734 -0.0012163921043586831 0 0.0013362705346380008 -0.0013739286121446051 0 0.0012977507362956734 -0.0012163921043586831 0 0.0013362705346380008 -0.0013739286121446051 0 0.0015120321923281469 -0.0012247376067586599 0 0.0013362705346380008 -0.0013739286121446051 0 0.0014665598057378192 -0.0014160600208424862 0 0.0015120321923281469 -0.0012247376067586599 0 0.0015120321923281469 -0.0012247376067586599 0 0.0014972727954279837 -0.0010697031311389959 0 0.001630100734116897 -0.0010415262188818179 0 0.0012805837281826124 -0.0011796914202294336 0 0.0014972727954279837 -0.0010697031311389959 0 0.0013311981344801495 -0.0010803072685805618 0 0.0014972727954279837 -0.0010697031311389959 0 0.0013311981344801495 -0.0010803072685805618 0 0.0013164241352584508 -0.0009826520160339232 0 0.0015002409016681212 -0.0010592475769059639 0 0.0014782544369934042 -0.0010094006175674203 0 0.0014972727954279837 -0.0010697031311389959 0 0.0016012758437915927 -0.0010033112283092699 0 0.0016480494119600377 -0.00097067970262563683 0 0.0014972727954279837 -0.0010697031311389959 0 0.001630100734116897 -0.0010415262188818179 0 0.0016480494119600377 -0.00097067970262563683 0 0.001630100734116897 -0.0010415262188818179 0 0.0016480494119600377 -0.00097067970262563683 0 0.0017418297804496709 -0.00092819727270513751 0 0.0012221384527594747 -0.0011624831630156285 0 0.0011660970710385551 -0.0012155325220629645 0 0.0011551235726046469 -0.0010993793713305092 0 0.0012221384527594747 -0.0011624831630156285 0 0.0011551235726046469 -0.0010993793713305092 0 0.0012516727893987403 -0.0010884916697807936 0 0.0011551235726046469 -0.0010993793713305092 0 0.0012516727893987403 -0.0010884916697807936 0 0.0011883952156314555 -0.0010168251709970935 0 0.0012221384527594747 -0.0011624831630156285 0 0.0012805837281826124 -0.0011796914202294336 0 0.0012516727893987403 -0.0010884916697807936 0 0.0012805837281826124 -0.0011796914202294336 0 0.0012516727893987403 -0.0010884916697807936 0 0.0013311981344801495 -0.0010803072685805618 0 0.0012516727893987403 -0.0010884916697807936 0 0.0013311981344801495 -0.0010803072685805618 0 0.0013164241352584508 -0.0009826520160339232 0 0.0012516727893987403 -0.0010884916697807936 0 0.0013164241352584508 -0.0009826520160339232 0 0.0011883952156314555 -0.0010168251709970935 0 0.0014782544369934042 -0.0010094006175674203 0 0.0012758540627645929 -0.0009132995089175083 0 0.0011167578507928848 -0.00097438506490175533 0 0.0011883952156314555 -0.0010168251709970935 0 0.0012071119910402337 -0.00091997402937130492 0 0.0013164241352584508 -0.0009826520160339232 0 0.0011883952156314555 -0.0010168251709970935 0 0.0012071119910402337 -0.00091997402937130492 0 0.0014643194637362672 -0.0008791231005531655 0 0.0015506358287741128 -0.00094332645903239031 0 0.0015467653774419168 -0.00089006131350086658 0 0.0015506358287741128 -0.00094332645903239031 0 0.0015467653774419168 -0.00089006131350086658 0 0.001600035351811326 -0.00090740069188549751 0 0.0016012758437915927 -0.0010033112283092699 0 0.001600035351811326 -0.00090740069188549751 0 0.0016891587173994667 -0.00090839484581901311 0 0.0016012758437915927 -0.0010033112283092699 0 0.0015506358287741128 -0.00094332645903239031 0 0.001600035351811326 -0.00090740069188549751 0 0.00208241331410338 -0.00058768790289383721 0 0.0018238875470013602 -0.00074445852666891891 0 0.001600035351811326 -0.00090740069188549751 0 0.0015755727417410209 -0.00082885588780074002 0 0.0016891587173994667 -0.00090839484581901311 0 0.0015755727417410209 -0.00082885588780074002 0 0.0016891587173994667 -0.00090839484581901311 0 0.0018431351714751369 -0.00076076644554638024 0 0.0033016209999986775 -6.1774288443481822e-05 0 0.0024209931616873404 -0.00038013572798143103 0 0.0027345492430500586 -0.00045580904579162358 0 0.0020590202953015618 -0.00058302956243663653 0 0.00208241331410338 -0.00058768790289383721 0 0.0014643194637362672 -0.0008791231005531655 0 0.0015467653774419168 -0.00089006131350086658 0 0.0015755727417410209 -0.00082885588780074002 0 0.0015467653774419168 -0.00089006131350086658 0 0.001600035351811326 -0.00090740069188549751 0 0.0015755727417410209 -0.00082885588780074002 0 0.0024209931616873404 -0.00038013572798143103 0 0.0027345492430500586 -0.00045580904579162358 0 0.0022183461394327045 -0.00072116185345463552 0 0.0016480494119600377 -0.00097067970262563683 0 0.0017834785879587516 -0.00085669304880694813 0 0.0017418297804496709 -0.00092819727270513751 0 0.0016480494119600377 -0.00097067970262563683 0 0.0016891587173994667 -0.00090839484581901311 0 0.0017834785879587516 -0.00085669304880694813 0 0.0016012758437915927 -0.0010033112283092699 0 0.0016480494119600377 -0.00097067970262563683 0 0.0016891587173994667 -0.00090839484581901311 0 0.0016891587173994667 -0.00090839484581901311 0 0.0017834785879587516 -0.00085669304880694813 0 0.0018431351714751369 -0.00076076644554638024 0 0.0017834785879587516 -0.00085669304880694813 0 0.0018257254523727376 -0.00085948315959031186 0 0.0017418297804496709 -0.00092819727270513751 0 0.0017834785879587516 -0.00085669304880694813 0 0.001883501576361638 -0.00084218287411441108 0 0.0018257254523727376 -0.00085948315959031186 0 0.0017834785879587516 -0.00085669304880694813 0 0.001883501576361638 -0.00084218287411441108 0 0.0018431351714751369 -0.00076076644554638024 0 0.001883501576361638 -0.00084218287411441108 0 0.0018431351714751369 -0.00076076644554638024 0 0.002054198300223061 -0.00089996857218274987 0 0.001883501576361638 -0.00084218287411441108 0 0.0020363018701451303 -0.00093932937544182783 0 0.002054198300223061 -0.00089996857218274987 0 0.001883501576361638 -0.00084218287411441108 0 0.0019344048888327943 -0.00089617442006832563 0 0.0020363018701451303 -0.00093932937544182783 0 0.001883501576361638 -0.00084218287411441108 0 0.0019344048888327943 -0.00089617442006832563 0 0.0018705393499826009 -0.00085877666795800976 0 0.0019344048888327943 -0.00089617442006832563 0 0.0020538626700699189 -0.00095814421544347292 0 0.0020363018701451303 -0.00093932937544182783 0 0.0019344048888327943 -0.00089617442006832563 0 0.0020538626700699189 -0.00095814421544347292 0 0.001988136006759672 -0.00096290842830876785 0 0.0020363018701451303 -0.00093932937544182783 0 0.0021073021149569911 -0.00098244736938809651 0 0.0021597300899294258 -0.0010108403279155405 0 0.0020538626700699189 -0.00095814421544347292 0 0.0020363018701451303 -0.00093932937544182783 0 0.0021073021149569911 -0.00098244736938809651 0 0.0021543017319728287 -0.00098281244007044125 0 0.0021128244054279856 -0.0010848282125212958 0 0.0024781031042144762 -0.0010901153011927071 0 0.0020538626700699189 -0.00095814421544347292 0 0.0021073021149569911 -0.00098244736938809651 0 0.0021543017319728287 -0.00098281244007044125 0 0.0021073021149569911 -0.00098244736938809651 0 0.0021543017319728287 -0.00098281244007044125 0 0.0021409433629661144 -0.00099451703345055211 0 0.0012183176994055717 -0.00035923187204273918 0 0.006715622260769571 -0.00052169644589198814 0 0.0021543017319728287 -0.00098281244007044125 0 0.0021409433629661144 -0.00099451703345055211 0 0.0021501730977054696 -0.00098821269375995338 0 0.0021543017319728287 -0.00098281244007044125 0 0.0020543677232287842 -0.0010062391917855431 0 0.0021128244054279856 -0.0010848282125212958 0 0.0020543677232287842 -0.0010062391917855431 0 0.001988136006759672 -0.00096290842830876785 0 0.0020028222840401916 -0.0010490126591831822 0 0.0020538626700699189 -0.00095814421544347292 0 0.0020543677232287842 -0.0010062391917855431 0 0.001988136006759672 -0.00096290842830876785 0 0.0020538626700699189 -0.00095814421544347292 0 0.0021543017319728287 -0.00098281244007044125 0 0.0020543677232287842 -0.0010062391917855431 0 0.0049411038544457109 -0.0015844695277540263 0 0.006715622260769571 -0.00052169644589198814 0 0.0031298297068693241 -0.0022479360963559222 0 0.0026149276334705889 -0.0017779763304235153 0 0.0024981391184306341 -0.0023305908426810933 0 0.0021409433629661144 -0.00099451703345055211 0 0.0021597300899294258 -0.0010108403279155405 0 0.0021501730977054696 -0.00098821269375995338 0 0.0018956431474340515 -0.0017726876833976588 0 0.006715622260769571 -0.00052169644589198814 0 0.0021073021149569911 -0.00098244736938809651 0 0.0021409433629661144 -0.00099451703345055211 0 0.0021597300899294258 -0.0010108403279155405 0 0.0031298297068693241 -0.0022479360963559222 0 0.0026149276334705889 -0.0017779763304235153 0 0.00314741721493362 -0.0017895164693959829 0 0.0026149276334705889 -0.0017779763304235153 0 0.0030557773301553726 -0.0013802200971303202 0 0.00314741721493362 -0.0017895164693959829 0 0.0030557773301553726 -0.0013802200971303202 0 0.0027108739050735269 -0.0011640340793323824 0 0.003041690501237359 -0.00088500300582017787 0 0.0026149276334705889 -0.0017779763304235153 0 0.0030557773301553726 -0.0013802200971303202 0 0.0027108739050735269 -0.0011640340793323824 0 0.0020363018701451303 -0.00093932937544182783 0 0.0021597300899294258 -0.0010108403279155405 0 0.002054198300223061 -0.00089996857218274987 0 0.0018956431474340515 -0.0017726876833976588 0 0.0025876846291931267 -0.00091133672149520863 0 0.0021597300899294258 -0.0010108403279155405 0 0.0023103473775133196 -0.00092211698987829441 0 0.002054198300223061 -0.00089996857218274987 0 0.0024209931616873404 -0.00038013572798143103 0 0.0018431351714751369 -0.00076076644554638024 0 0.0022183461394327045 -0.00072116185345463552 0 0.0023103473775133196 -0.00092211698987829441 0 0.002054198300223061 -0.00089996857218274987 0 0.0022183461394327045 -0.00072116185345463552 0 0.0018431351714751369 -0.00076076644554638024 0 0.002054198300223061 -0.00089996857218274987 0 0.0022183461394327045 -0.00072116185345463552 0 0.0027009960502869966 -0.00051498154221557709 0 0.0025876846291931267 -0.00091133672149520863 0 0.0027345492430500586 -0.00045580904579162358 0 0.0027108739050735269 -0.0011640340793323824 0 0.003041690501237359 -0.00088500300582017787 0 0.0027345492430500586 -0.00045580904579162358 0 0.0023103473775133196 -0.00092211698987829441 0 0.0022183461394327045 -0.00072116185345463552 0 0.0031521891865869856 -0.00044951878089542584 0 0.0027345492430500586 -0.00045580904579162358 0 0.003041690501237359 -0.00088500300582017787 0 0.0031521891865869856 -0.00044951878089542584 0 0.003041690501237359 -0.00088500300582017787 0 0.0033174812861867498 -0.00067246653831232878 0 0.003553829327556711 -0.00028988722170799155 0 0.0033174812861867498 -0.00067246653831232878 0 0.0037201566151283051 -0.0010244786834289654 0 0.003041690501237359 -0.00088500300582017787 0 0.0033174812861867498 -0.00067246653831232878 0 0.0033194356358515207 -0.0010968741101176408 0 0.0033174812861867498 -0.00067246653831232878 0 0.0037201566151283051 -0.0010244786834289654 0 0.0033194356358515207 -0.0010968741101176408 0 0.003553829327556711 -0.00028988722170799155 0 0.0037201566151283051 -0.0010244786834289654 0 0.004176218667748267 -0.00071799228813009723 0 0.0037201566151283051 -0.0010244786834289654 0 0.0042663673462461013 -0.0012365740405984606 0 0.0039379430420913219 -0.001613880965820376 0 0.0037201566151283051 -0.0010244786834289654 0 0.0034722500901242337 -0.0014867099291560901 0 0.0039379430420913219 -0.001613880965820376 0 0.0030557773301553726 -0.0013802200971303202 0 0.003041690501237359 -0.00088500300582017787 0 0.0033194356358515207 -0.0010968741101176408 0 0.0030557773301553726 -0.0013802200971303202 0 0.0034722500901242337 -0.0014867099291560901 0 0.0033194356358515207 -0.0010968741101176408 0 0.0037201566151283051 -0.0010244786834289654 0 0.0034722500901242337 -0.0014867099291560901 0 0.0033194356358515207 -0.0010968741101176408 0 0.0050022015036285334 -0.00079255018018417514 0 0.0046319402562363127 -0.00057154795557039229 0 0.0048005784880687467 -0.0011531312234786294 0 0.0050022015036285334 -0.00079255018018417514 0 0.0048005784880687467 -0.0011531312234786294 0 0.005282785686017471 -0.0011156887726999987 0 0.0049617424486653409 -0.00044482297253868515 0 0.0050022015036285334 -0.00079255018018417514 0 0.0046319402562363127 -0.00057154795557039229 0 0.004176218667748267 -0.00071799228813009723 0 0.0042663673462461013 -0.0012365740405984606 0 0.0048005784880687467 -0.0011531312234786294 0 0.0046319402562363127 -0.00057154795557039229 0 0.004155138569914724 -0.00071764544184550207 0 0.0048005784880687467 -0.0011531312234786294 0 0.0042239702890362399 -0.000727807484699628 0 0.0047382471154107592 -0.0011173858791618068 0 0.0037201566151283051 -0.0010244786834289654 0 0.004176218667748267 -0.00071799228813009723 0 0.0042663673462461013 -0.0012365740405984606 0 0.0042663673462461013 -0.0012365740405984606 0 0.0045431348389416903 -0.0016695960938415263 0 0.0039379430420913219 -0.001613880965820376 0 0.0042663673462461013 -0.0012365740405984606 0 0.0048005784880687467 -0.0011531312234786294 0 0.0045431348389416903 -0.0016695960938415263 0 0.0048005784880687467 -0.0011531312234786294 0 0.0045431348389416903 -0.0016695960938415263 0 0.005282785686017471 -0.0011156887726999987 0 0.00587704264223221 -0.0010844842954718906 0 0.0059257776461767164 -0.00086055981291118097 0 0.0059463580172240908 -0.0010517759936379989 0 0.0046736352523066901 -0.001592622038097663 0 0.0057338429118840009 -0.00090184360215609836 0 0.00587704264223221 -0.0010844842954718906 0 0.0059001028994843203 -0.0011074636571395701 0 0.0059463580172240908 -0.0010517759936379989 0 0.00587704264223221 -0.0010844842954718906 0 0.0059001028994843203 -0.0011074636571395701 0 0.005944441097712078 -0.0010897046064535754 0 0.0045431348389416903 -0.0016695960938415263 0 0.0039379430420913219 -0.001613880965820376 0 0.0038824196898435844 -0.0021779557023004002 0 0.0046736352523066901 -0.001592622038097663 0 0.0076346597284689451 -0.0010787723304834806 0 0.012418496932433791 -0.00021170828597531302 0 0.012954899430373982 -0.00044039685330942536 0 0.01277147962784923 2.6719690025548381e-05 0 0.0094377349456804174 -0.00076902396861560599 0 0.0076346597284689451 -0.0010787723304834806 0 0.012418496932433791 -0.00021170828597531302 0 0.012157363304594365 -0.00056426628172334063 0 0.012954899430373982 -0.00044039685330942536 0 0.012418496932433791 -0.00021170828597531302 0 0.012157363304594365 -0.00056426628172334063 0 0.011891006265531608 -0.00022451767164084806 0 0.0030557773301553726 -0.0013802200971303202 0 0.0034722500901242337 -0.0014867099291560901 0 0.00314741721493362 -0.0017895164693959829 0 0.0034722500901242337 -0.0014867099291560901 0 0.0035087309689011276 -0.0018749893250492847 0 0.00314741721493362 -0.0017895164693959829 0 0.0034722500901242337 -0.0014867099291560901 0 0.0035087309689011276 -0.0018749893250492847 0 0.0039379430420913219 -0.001613880965820376 0 0.0035087309689011276 -0.0018749893250492847 0 0.0039379430420913219 -0.001613880965820376 0 0.0038824196898435844 -0.0021779557023004002 0 0.012954899430373982 -0.00044039685330942536 0 0.013366091648658042 -8.4346669001435936e-05 0 0.01277147962784923 2.6719690025548381e-05 0 0.0076346597284689451 -0.0010787723304834806 0 0.01099406859964585 -0.0001764323619612844 0 0.0031298297068693241 -0.0022479360963559222 0 0.0035087309689011276 -0.0018749893250492847 0 0.0038824196898435844 -0.0021779557023004002 0 0.0080702150823252859 -0.00052731780771000079 0 0.0083835513287132523 -0.00049793770644715365 0 0.0082377342111106169 -0.00061539196534407309 0 0.0031298297068693241 -0.0022479360963559222 0 0.0035087309689011276 -0.0018749893250492847 0 0.00314741721493362 -0.0017895164693959829 0 0.0049411038544457109 -0.0015844695277540263 0 0.0076346597284689451 -0.0010787723304834806 0 0.01099406859964585 -0.0001764323619612844 0 0.011944904773834173 0.00024122611304263215 0 0.013366091648658042 -8.4346669001435936e-05 0 0.013342152725311737 0.00046598430165499381 0 0.013736415958624548 0.00024837370573981108 0 0.0080702150823252859 -0.00052731780771000079 0 0.0082377342111106169 -0.00061539196534407309 0 0.0080892792952417664 -0.0007569568388701033 0 0.013366091648658042 -8.4346669001435936e-05 0 0.013019796733978932 0.00034832829360103532 0 0.01277147962784923 2.6719690025548381e-05 0 0.013366091648658042 -8.4346669001435936e-05 0 0.013019796733978932 0.00034832829360103532 0 0.013342152725311737 0.00046598430165499381 0 0.013019796733978932 0.00034832829360103532 0 0.01296495476236275 0.00073304213559724257 0 0.013342152725311737 0.00046598430165499381 0 0.012945543371727854 0.00077528089762382872 0 0.013431922667668175 0.00055634578669447744 0 0.01296495476236275 0.00073304213559724257 0 0.013266643652040075 0.00084294644536927099 0 0.013263535260778845 0.0008815062310751241 0 0.013277029074998933 0.00093228511077154974 0 0.013266643652040075 0.00084294644536927099 0 0.013263535260778845 0.0008815062310751241 0 0.013277029074998933 0.00093228511077154974 0 0.013292480243558936 0.00092486354108232743 0 0.013263535260778845 0.0008815062310751241 0 0.013431922667668175 0.00055634578669447744 0 0.011944904773834173 0.00024122611304263215 0 0.013277029074998933 0.00093228511077154974 0 0.013266643652040075 0.00084294644536927099 0 0.01326505206289233 0.0010208091282229107 0 0.012418496932433791 -0.00021170828597531302 0 0.011891006265531608 -0.00022451767164084806 0 0.012208102355659113 0.00013261048313358961 0 0.012208102355659113 0.00013261048313358961 0 0.011999613360402879 0.00041318335517456605 0 0.011738028793464228 0.00012324137329990372 0 0.011891006265531608 -0.00022451767164084806 0 0.012208102355659113 0.00013261048313358961 0 0.011738028793464228 0.00012324137329990372 0 0.012208102355659113 0.00013261048313358961 0 0.01277147962784923 2.6719690025548381e-05 0 0.012520471964676658 0.00047890239885892063 0 0.012418496932433791 -0.00021170828597531302 0 0.012208102355659113 0.00013261048313358961 0 0.01277147962784923 2.6719690025548381e-05 0 0.013019796733978932 0.00034832829360103532 0 0.01277147962784923 2.6719690025548381e-05 0 0.012520471964676658 0.00047890239885892063 0 0.012599139569164374 0.00078743542713171223 0 0.012520471964676658 0.00047890239885892063 0 0.012049036961436796 0.00087904826869022849 0 0.013019796733978932 0.00034832829360103532 0 0.01296495476236275 0.00073304213559724257 0 0.012520471964676658 0.00047890239885892063 0 0.01296495476236275 0.00073304213559724257 0 0.012599139569164374 0.00078743542713171223 0 0.012520471964676658 0.00047890239885892063 0 0.012520471964676658 0.00047890239885892063 0 0.011999613360402879 0.00041318335517456605 0 0.012049036961436796 0.00087904826869022849 0 0.012208102355659113 0.00013261048313358961 0 0.012520471964676658 0.00047890239885892063 0 0.011999613360402879 0.00041318335517456605 0 0.014334590354731199 0.0012062327615641494 0 0.014211057665507384 0.00087661632668356473 0 0.014426614528245722 0.0010128981873844254 0 0.014334590354731199 0.0012062327615641494 0 0.01396460487258956 0.0011537724966554431 0 0.014211057665507384 0.00087661632668356473 0 0.012599139569164374 0.00078743542713171223 0 0.012049036961436796 0.00087904826869022849 0 0.012837500356423032 0.0010650487673585689 0 0.013346223745806778 0.0011074524190792265 0 0.013353616766374359 0.0010794432521753262 0 0.01296495476236275 0.00073304213559724257 0 0.012599139569164374 0.00078743542713171223 0 0.012837500356423032 0.0010650487673585689 0 0.01396460487258956 0.0011537724966554431 0 0.014211057665507384 0.00087661632668356473 0 0.013841096087437431 0.00080611074562601521 0 0.014211057665507384 0.00087661632668356473 0 0.014426614528245722 0.0010128981873844254 0 0.014515859524377416 0.00084885461016854906 0 0.014211057665507384 0.00087661632668356473 0 0.014515859524377416 0.00084885461016854906 0 0.014426146453141414 0.00069806682617317708 0 0.013292480243558936 0.00092486354108232743 0 0.013412087219620016 0.0010015437026267874 0 0.013275424217148654 0.00089330001219594085 0 0.013292480243558936 0.00092486354108232743 0 0.013263535260778845 0.0008815062310751241 0 0.013412087219620016 0.0010015437026267874 0 0.013353616766374359 0.0010794432521753262 0 0.013412373968932176 0.0010272139973697236 0 0.012837500356423032 0.0010650487673585689 0 0.013263535260778845 0.0008815062310751241 0 0.013412087219620016 0.0010015437026267874 0 0.01296495476236275 0.00073304213559724257 0 0.012837500356423032 0.0010650487673585689 0 0.013263535260778845 0.0008815062310751241 0 0.01396460487258956 0.0011537724966554431 0 0.013841096087437431 0.00080611074562601521 0 0.013412087219620016 0.0010015437026267874 0 0.013841096087437431 0.00080611074562601521 0 0.013412087219620016 0.0010015437026267874 0 0.013444509005495814 0.00077453258359229805 0 0.013412087219620016 0.0010015437026267874 0 0.013275424217148654 0.00089330001219594085 0 0.013444509005495814 0.00077453258359229805 0 0.013214695963226802 0.00075910120514620393 0 0.013275424217148654 0.00089330001219594085 0 0.013444509005495814 0.00077453258359229805 0 0.013214695963226802 0.00075910120514620393 0 0.013146253754739459 0.00084781488131367884 0 0.013275424217148654 0.00089330001219594085 0 0.013292480243558936 0.00092486354108232743 0 0.013275424217148654 0.00089330001219594085 0 0.013158004758939496 0.00089606343790926332 0 0.013146253754739459 0.00084781488131367884 0 0.013275424217148654 0.00089330001219594085 0 0.013158004758939496 0.00089606343790926332 0 0.013292480243558936 0.00092486354108232743 0 0.013158004758939496 0.00089606343790926332 0 0.013197708961297272 0.00094446976055289418 0 0.01301947232648204 0.00086712614609504662 0 0.013041956451079688 0.00081803300753732419 0 0.012993361737475338 0.0009087072589124759 0 0.012952000211093294 0.00075671123360078864 0 0.01242126685826978 0.00060910693457256397 0 0.01301947232648204 0.00086712614609504662 0 0.012796759841922694 0.00088674455979586252 0 0.012887575645816595 0.00091552965707371748 0 0.013158004758939496 0.00089606343790926332 0 0.01301947232648204 0.00086712614609504662 0 0.013038960753446896 0.00093416640250775884 0 0.013146253754739459 0.00084781488131367884 0 0.01301947232648204 0.00086712614609504662 0 0.013041956451079688 0.00081803300753732419 0 0.013146253754739459 0.00084781488131367884 0 0.013158004758939496 0.00089606343790926332 0 0.01301947232648204 0.00086712614609504662 0 0.013214695963226802 0.00075910120514620393 0 0.013041956451079688 0.00081803300753732419 0 0.0130075879054256 0.00062259903963725197 0 0.013214695963226802 0.00075910120514620393 0 0.013146253754739459 0.00084781488131367884 0 0.013041956451079688 0.00081803300753732419 0 0.013041956451079688 0.00081803300753732419 0 0.012910589559551553 0.00077711071112712877 0 0.0130075879054256 0.00062259903963725197 0 0.014173948064851097 0.00073192205898897265 0 0.014217421438686513 0.00080795487664492326 0 0.014254481812818924 0.00073483370354837413 0 0.014173948064851097 0.00073192205898897265 0 0.014244924951831267 0.00066750782555999777 0 0.014254481812818924 0.00073483370354837413 0 0.013135076215735208 0.00047030359544500687 0 0.012702302161088377 0.00038243516507843837 0 0.01170685969386907 -0.000499351901506597 0 0.011216305347283824 9.0473847806885445e-05 0 0.011642311098289938 0.00038232898062696031 0 0.011216305347283824 9.0473847806885445e-05 0 0.011642311098289938 0.00038232898062696031 0 0.010710492688951422 0.00068827336015722131 0 0.01170685969386907 -0.000499351901506597 0 0.011642311098289938 0.00038232898062696031 0 0.012248557129677189 0.00049807765753451293 0 0.013041956451079688 0.00081803300753732419 0 0.012910589559551553 0.00077711071112712877 0 0.012993361737475338 0.0009087072589124759 0 0.013135076215735208 0.00047030359544500687 0 0.01242126685826978 0.00060910693457256397 0 0.01242126685826978 0.00060910693457256397 0 0.011695915263038075 0.00084515120518470976 0 0.011642311098289938 0.00038232898062696031 0 0.012248557129677189 0.00049807765753451293 0 0.011610775890691991 0.00095810314034461893 0 0.012313171711577612 0.00014334201138265203 0 0.012066618861492403 0.00096915116194737784 0 0.011035903967837973 0.00097039932096802119 0 0.012066618861492403 0.00096915116194737784 0 0.011035903967837973 0.00097039932096802119 0 0.011750510931483852 0.0013689408183463127 0 0.012066618861492403 0.00096915116194737784 0 0.012476886076018856 0.0013358219462576196 0 0.012716291989030135 0.00094276290500056959 0 0.012313171711577612 0.00014334201138265203 0 0.012066618861492403 0.00096915116194737784 0 0.012716291989030135 0.00094276290500056959 0 0.011610775890691991 0.00095810314034461893 0 0.010952500003975886 0.0014249190922044396 0 0.010710492688951422 0.00068827336015722131 0 0.011642311098289938 0.00038232898062696031 0 0.011610775890691991 0.00095810314034461893 0 0.010710492688951422 0.00068827336015722131 0 0.0020543677232287842 -0.0010062391917855431 0 0.0021128244054279856 -0.0010848282125212958 0 0.0020028222840401916 -0.0010490126591831822 0 0.0066414579994152441 0.00052893680995422167 0 0.0071835530095951065 0.00062793383486041496 0 0.011695915263038075 0.00084515120518470976 0 0.0071835530095951065 0.00062793383486041496 0 0.011035903967837973 0.00097039932096802119 0 0.011212498164640839 0.0020939819043373758 0 0.0097340356489265169 0.001861204712409095 0 0.0066414579994152441 0.00052893680995422167 0 0.006715622260769571 -0.00052169644589198814 0 0.011212498164640839 0.0020939819043373758 0 0.012002929443477382 0.0017580494418721632 0 0.012684746530583305 0.0022534722843294921 0 0.012066618861492403 0.00096915116194737784 0 0.011750510931483852 0.0013689408183463127 0 0.012476886076018856 0.0013358219462576196 0 0.011750510931483852 0.0013689408183463127 0 0.012002929443477382 0.0017580494418721632 0 0.012476886076018856 0.0013358219462576196 0 0.011035903967837973 0.00097039932096802119 0 0.011750510931483852 0.0013689408183463127 0 0.011212498164640839 0.0020939819043373758 0 0.011750510931483852 0.0013689408183463127 0 0.011212498164640839 0.0020939819043373758 0 0.012002929443477382 0.0017580494418721632 0 0.006715622260769571 -0.00052169644589198814 0 0.011766256364091079 0.0026263053443498236 0 0.012002929443477382 0.0017580494418721632 0 0.012684746530583305 0.0022534722843294921 0 0.012476886076018856 0.0013358219462576196 0 0.01276559808926005 0.0012485451300232318 0 0.012476886076018856 0.0013358219462576196 0 0.012716291989030135 0.00094276290500056959 0 0.01265090617088176 0.0016545450051884054 0 0.01276559808926005 0.0012485451300232318 0 0.012476886076018856 0.0013358219462576196 0 0.01265090617088176 0.0016545450051884054 0 0.01276559808926005 0.0012485451300232318 0 0.013005409520353499 0.0012005992922002652 0 0.01265090617088176 0.0016545450051884054 0 0.013372656184645745 0.001149788069276691 0 0.013005409520353499 0.0012005992922002652 0 0.0080702150823252859 -0.00052731780771000079 0 0.0077114616590061554 -0.0005838602324305047 0 0.0080892792952417664 -0.0007569568388701033 0 0.006715622260769571 -0.00052169644589198814 0 0.011944904773834173 0.00024122611304263215 0 0.013372656184645745 0.001149788069276691 0 0.013005409520353499 0.0012005992922002652 0 0.013246483553141394 0.0010464170071506742 0 0.011944904773834173 0.00024122611304263215 0 0.012772374983894733 0.00087063606385260099 0 0.013082517590710689 0.0010278425973744116 0 0.013246483553141394 0.0010464170071506742 0 0.013197708961297272 0.00094446976055289418 0 0.013005409520353499 0.0012005992922002652 0 0.013082517590710689 0.0010278425973744116 0 0.013246483553141394 0.0010464170071506742 0 0.013005409520353499 0.0012005992922002652 0 0.013082517590710689 0.0010278425973744116 0 0.012927136518345558 0.0010214626360554758 0 0.013277029074998933 0.00093228511077154974 0 0.013246483553141394 0.0010464170071506742 0 0.013197708961297272 0.00094446976055289418 0 0.013277029074998933 0.00093228511077154974 0 0.01326505206289233 0.0010208091282229107 0 0.013246483553141394 0.0010464170071506742 0 0.013277029074998933 0.00093228511077154974 0 0.013292480243558936 0.00092486354108232743 0 0.013197708961297272 0.00094446976055289418 0 0.013158004758939496 0.00089606343790926332 0 0.013197708961297272 0.00094446976055289418 0 0.013038960753446896 0.00093416640250775884 0 0.013082517590710689 0.0010278425973744116 0 0.013197708961297272 0.00094446976055289418 0 0.013038960753446896 0.00093416640250775884 0 0.01301947232648204 0.00086712614609504662 0 0.013038960753446896 0.00093416640250775884 0 0.012887575645816595 0.00091552965707371748 0 0.013038960753446896 0.00093416640250775884 0 0.012887575645816595 0.00091552965707371748 0 0.012927136518345558 0.0010214626360554758 0 0.01242126685826978 0.00060910693457256397 0 0.012651793988213759 0.00086282085448775056 0 0.012796759841922694 0.00088674455979586252 0 0.012887575645816595 0.00091552965707371748 0 0.012716291989030135 0.00094276290500056959 0 0.01276559808926005 0.0012485451300232318 0 0.012716291989030135 0.00094276290500056959 0 0.012927136518345558 0.0010214626360554758 0 0.012887575645816595 0.00091552965707371748 0 0.012716291989030135 0.00094276290500056959 0 0.012927136518345558 0.0010214626360554758 0 0.01276559808926005 0.0012485451300232318 0 0.013005409520353499 0.0012005992922002652 0 0.012927136518345558 0.0010214626360554758 0 0.013082517590710689 0.0010278425973744116 0 0.013038960753446896 0.00093416640250775884 0 0.012927136518345558 0.0010214626360554758 0 0.0092624138267167165 -0.00021738916359194301 0 0.0093035564913783505 -0.00044492499263688932 0 0.0094532277674742784 -6.9268684276004689e-05 0 0.0091792817197327813 -0.00058844636672365216 0 0.0093613820904916503 -9.2094450397410261e-05 0 0.0091280721405018351 -0.00011405651252211067 0 0.0092624138267167165 -0.00021738916359194301 0 0.0094532277674742784 -6.9268684276004689e-05 0 0.0091593326551914368 -0.00035704419988414173 0 0.0092624138267167165 -0.00021738916359194301 0 0.0093035564913783505 -0.00044492499263688932 0 0.0091593326551914368 -0.00035704419988414173 0 0.0092624138267167165 -0.00021738916359194301 0 0.0091437921977056309 -0.0002347945110461432 0 0.0091280721405018351 -0.00011405651252211067 0 0.0092624138267167165 -0.00021738916359194301 0 0.0091437921977056309 -0.0002347945110461432 0 0.009548042346494692 -0.0004141606259704582 0 0.0089621879397411043 -0.00065511573048892863 0 0.0092646075445594715 -0.00011708273359919977 0 0.009548042346494692 -0.0004141606259704582 0 0.0097888865112037374 -7.2114470929064361e-05 0 0.0092646075445594715 -0.00011708273359919977 0 0.009548042346494692 -0.0004141606259704582 0 0.0089621879397411043 -0.00065511573048892863 0 0.0095600360464842132 -0.00093201454140997111 0 0.0089621879397411043 -0.00065511573048892863 0 0.0088184760079162497 -0.0010200057852712038 0 0.0095600360464842132 -0.00093201454140997111 0 0.0091792817197327813 -0.00058844636672365216 0 0.0083131527682914069 -0.0006170728136257451 0 0.0090625453574653576 -0.00053565891368396361 0 0.0093035564913783505 -0.00044492499263688932 0 0.0091638001629540927 -0.00080894521258110272 0 0.0089621879397411043 -0.00065511573048892863 0 0.0088184760079162497 -0.0010200057852712038 0 0.0087650189882892138 -0.0010760441039258054 0 0.0090625453574653576 -0.00053565891368396361 0 0.0091593326551914368 -0.00035704419988414173 0 0.0093035564913783505 -0.00044492499263688932 0 0.0088184760079162497 -0.0010200057852712038 0 0.0087650189882892138 -0.0010760441039258054 0 0.0085177233434434521 -0.00085909147609367087 0 0.0087650189882892138 -0.0010760441039258054 0 0.0085177233434434521 -0.00085909147609367087 0 0.0086568010604111505 -0.00054765000090083724 0 0.0083131527682914069 -0.0006170728136257451 0 0.0081454980034028727 -0.00052026475628774314 0 0.0075394610199830524 -0.00047206882230314595 0 0.0076083094278841619 -0.00030307522058020187 0 0.0076641164789949673 -0.00045381937605385391 0 0.0085177233434434521 -0.00085909147609367087 0 0.0086568010604111505 -0.00054765000090083724 0 0.0081423926582424311 -0.00045745828923647201 0 0.0073165292455920012 -0.0005467084956976056 0 0.0081454980034028727 -0.00052026475628774314 0 0.0077260617930100988 -0.00061295857532131677 0 0.0076641164789949673 -0.00045381937605385391 0 0.0076002843173386368 -0.00054082223078131088 0 0.0075394610199830524 -0.00047206882230314595 0 0.0076641164789949673 -0.00045381937605385391 0 0.0076002843173386368 -0.00054082223078131088 0 0.008447893842905306 -5.4682731064623995e-05 0 0.0086568010604111505 -0.00054765000090083724 0 0.0081423926582424311 -0.00045745828923647201 0 0.0085177233434434521 -0.00085909147609367087 0 0.0081423926582424311 -0.00045745828923647201 0 0.0080206062375031747 -0.00082622638263955004 0 0.0088184760079162497 -0.0010200057852712038 0 0.0085177233434434521 -0.00085909147609367087 0 0.0078905767969017927 -0.001279421134277176 0 0.0085177233434434521 -0.00085909147609367087 0 0.0080206062375031747 -0.00082622638263955004 0 0.0078905767969017927 -0.001279421134277176 0 0.0088103900939597874 -0.001037044458420105 0 0.0087238502605923567 -0.0010922456930429994 0 0.0075400113677830862 -0.00071368568535089261 0 0.0070505678735449965 -0.001325522779742892 0 0.0078905767969017927 -0.001279421134277176 0 0.0080206062375031747 -0.00082622638263955004 0 0.0075400113677830862 -0.00071368568535089261 0 0.0078905767969017927 -0.001279421134277176 0 0.0081423926582424311 -0.00045745828923647201 0 0.0080206062375031747 -0.00082622638263955004 0 0.0075400113677830862 -0.00071368568535089261 0 0.0071242068869373423 -0.00019213175829178329 0 0.0077820154919915462 -9.8926625131154952e-05 0 0.0075400113677830862 -0.00071368568535089261 0 0.0077820154919915462 -9.8926625131154952e-05 0 0.0081423926582424311 -0.00045745828923647201 0 0.0075400113677830862 -0.00071368568535089261 0 0.0071242068869373423 -0.00019213175829178329 0 0.0075400113677830862 -0.00071368568535089261 0 0.0068470728245308707 -0.000715836217102827 0 0.0075400113677830862 -0.00071368568535089261 0 0.0070505678735449965 -0.001325522779742892 0 0.0068470728245308707 -0.000715836217102827 0 0.010157872000734661 -0.00079853944791533993 0 0.0095600360464842132 -0.00093201454140997111 0 0.010028503082379169 -0.00034525196590641673 0 0.0086074400765554886 -0.0010613824567883739 0 0.0087238502605923567 -0.0010922456930429994 0 0.009548042346494692 -0.0004141606259704582 0 0.0095600360464842132 -0.00093201454140997111 0 0.010028503082379169 -0.00034525196590641673 0 0.009548042346494692 -0.0004141606259704582 0 0.010028503082379169 -0.00034525196590641673 0 0.0097888865112037374 -7.2114470929064361e-05 0 0.010157872000734661 -0.00079853944791533993 0 0.010028503082379169 -0.00034525196590641673 0 0.010545075936226736 -0.00021083642294423939 0 0.010545075936226736 -0.00021083642294423939 0 0.010729994272712064 -0.00071321344839365248 0 0.011062251482122089 -0.00027756264507723362 0 0.0086074400765554886 -0.0010613824567883739 0 0.0086141450087675684 -0.00098302486002473446 0 0.010157872000734661 -0.00079853944791533993 0 0.010545075936226736 -0.00021083642294423939 0 0.010729994272712064 -0.00071321344839365248 0 0.0070505678735449965 -0.001325522779742892 0 0.0064335443565011977 -0.0012586505399063347 0 0.006594203491707795 -0.0009971108194075332 0 0.006594203491707795 -0.0009971108194075332 0 0.0068470728245308707 -0.000715836217102827 0 0.006388957496565365 -0.00068770264135203083 0 0.0070505678735449965 -0.001325522779742892 0 0.006594203491707795 -0.0009971108194075332 0 0.0068470728245308707 -0.000715836217102827 0 0.0071242068869373423 -0.00019213175829178329 0 0.0065078113172970875 -0.00037117603319013551 0 0.0068470728245308707 -0.000715836217102827 0 0.0065078113172970875 -0.00037117603319013551 0 0.0068470728245308707 -0.000715836217102827 0 0.006388957496565365 -0.00068770264135203083 0 0.006594203491707795 -0.0009971108194075332 0 0.006388957496565365 -0.00068770264135203083 0 0.0061468094288033986 -0.00097357068430787598 0 0.0064335443565011977 -0.0012586505399063347 0 0.006594203491707795 -0.0009971108194075332 0 0.0061468094288033986 -0.00097357068430787598 0 0.0061468094288033986 -0.00097357068430787598 0 0.0061217997262216686 -0.00074214468197353074 0 0.0059257776461767164 -0.00086055981291118097 0 0.006388957496565365 -0.00068770264135203083 0 0.0061468094288033986 -0.00097357068430787598 0 0.0061217997262216686 -0.00074214468197353074 0 0.006036298442210453 -0.00050252786195412636 0 0.0057338429118840009 -0.00090184360215609836 0 0.0060942575143516911 -0.00043974046531143607 0 0.0061217997262216686 -0.00074214468197353074 0 0.0059257776461767164 -0.00086055981291118097 0 0.0060942575143516911 -0.00043974046531143607 0 0.006388957496565365 -0.00068770264135203083 0 0.0061217997262216686 -0.00074214468197353074 0 0.0050022015036285334 -0.00079255018018417514 0 0.0053418029618351104 -0.00057203580996402525 0 0.005282785686017471 -0.0011156887726999987 0 0.0060942575143516911 -0.00043974046531143607 0 0.0053418029618351104 -0.00057203580996402525 0 0.005282785686017471 -0.0011156887726999987 0 0.0049617424486653409 -0.00044482297253868515 0 0.0050022015036285334 -0.00079255018018417514 0 0.0053418029618351104 -0.00057203580996402525 0 0.0061468094288033986 -0.00097357068430787598 0 0.0059257776461767164 -0.00086055981291118097 0 0.0059463580172240908 -0.0010517759936379989 0 0.0061468094288033986 -0.00097357068430787598 0 0.006051333488688874 -0.001175335494171652 0 0.0059463580172240908 -0.0010517759936379989 0 0.0059001028994843203 -0.0011074636571395701 0 0.006051333488688874 -0.001175335494171652 0 0.0059463580172240908 -0.0010517759936379989 0 0.0064335443565011977 -0.0012586505399063347 0 0.0061468094288033986 -0.00097357068430787598 0 0.006051333488688874 -0.001175335494171652 0 0.0086141450087675684 -0.00098302486002473446 0 0.0086437521496289978 -0.00092701916989624958 0 0.011392734840777262 -0.00064939287872621857 0 0.011062251482122089 -0.00027756264507723362 0 0.011490058585281428 -0.00018755875108384637 0 0.010729994272712064 -0.00071321344839365248 0 0.011392734840777262 -0.00064939287872621857 0 0.011062251482122089 -0.00027756264507723362 0 0.011891006265531608 -0.00022451767164084806 0 0.011392734840777262 -0.00064939287872621857 0 0.011490058585281428 -0.00018755875108384637 0 0.012157363304594365 -0.00056426628172334063 0 0.011891006265531608 -0.00022451767164084806 0 0.011392734840777262 -0.00064939287872621857 0 0.0094377349456804174 -0.00076902396861560599 0 0.0086437521496289978 -0.00092701916989624958 0 0.011738028793464228 0.00012324137329990372 0 0.011397394570569905 0.00010163433370321862 0 0.011513045277820839 0.00041334258723178937 0 0.011891006265531608 -0.00022451767164084806 0 0.011490058585281428 -0.00018755875108384637 0 0.011738028793464228 0.00012324137329990372 0 0.011490058585281428 -0.00018755875108384637 0 0.011738028793464228 0.00012324137329990372 0 0.011397394570569905 0.00010163433370321862 0 0.011062251482122089 -0.00027756264507723362 0 0.011091784007850302 0.00014414691320741756 0 0.011397394570569905 0.00010163433370321862 0 0.011062251482122089 -0.00027756264507723362 0 0.011490058585281428 -0.00018755875108384637 0 0.011397394570569905 0.00010163433370321862 0 0.011091784007850302 0.00014414691320741756 0 0.011397394570569905 0.00010163433370321862 0 0.011513045277820839 0.00041334258723178937 0 0.011091784007850302 0.00014414691320741756 0 0.011336702288164089 0.00057185398576719768 0 0.011513045277820839 0.00041334258723178937 0 0.011231730193446891 0.00031743949547582121 0 0.010887612214273793 0.00065806896259309165 0 0.010640769023504637 0.00017079319258151075 0 0.012285575485892654 0.00053823635291499181 0 0.010456420585425698 0.00021058994904992178 0 0.011091784007850302 0.00014414691320741756 0 0.011336702288164089 0.00057185398576719768 0 0.010712485224102014 0.00032945926036989604 0 0.013346223745806778 0.0011074524190792265 0 0.012285575485892654 0.00053823635291499181 0 0.011999613360402879 0.00041318335517456605 0 0.011738028793464228 0.00012324137329990372 0 0.011513045277820839 0.00041334258723178937 0 0.011999613360402879 0.00041318335517456605 0 0.012049036961436796 0.00087904826869022849 0 0.011513045277820839 0.00041334258723178937 0 0.012049036961436796 0.00087904826869022849 0 0.011303697008353764 0.00063380653876669564 0 0.011513045277820839 0.00041334258723178937 0 0.012285575485892654 0.00053823635291499181 0 0.011628968664565593 0.00069309008503709547 0 0.014334590354731199 0.0012062327615641494 0 0.014610727258299212 0.0010483020672689197 0 0.014426614528245722 0.0010128981873844254 0 0.014334590354731199 0.0012062327615641494 0 0.014635986660900479 0.0012669762282464824 0 0.014610727258299212 0.0010483020672689197 0 0.014610727258299212 0.0010483020672689197 0 0.014515859524377416 0.00084885461016854906 0 0.014730231539719221 0.00085794327094440342 0 0.014610727258299212 0.0010483020672689197 0 0.014426614528245722 0.0010128981873844254 0 0.014515859524377416 0.00084885461016854906 0 0.014610727258299212 0.0010483020672689197 0 0.014730231539719221 0.00085794327094440342 0 0.014828949708625633 0.001063619111196086 0 0.014730231539719221 0.00085794327094440342 0 0.014828949708625633 0.001063619111196086 0 0.014869247344383203 0.00077547768622817205 0 0.014515859524377416 0.00084885461016854906 0 0.014730231539719221 0.00085794327094440342 0 0.014653068453012516 0.00070752660843356415 0 0.014635986660900479 0.0012669762282464824 0 0.014610727258299212 0.0010483020672689197 0 0.014828949708625633 0.001063619111196086 0 0.012285575485892654 0.00053823635291499181 0 0.01299432578842747 0.00082243312878870801 0 0.01057991953695353 0.00056305374226771408 0 0.010887612214273793 0.00065806896259309165 0 0.010558955939660558 0.0010003026160639295 0 0.01057991953695353 0.00056305374226771408 0 0.010887612214273793 0.00065806896259309165 0 0.010640769023504637 0.00017079319258151075 0 0.014828949708625633 0.001063619111196086 0 0.015003129594611081 0.00086504210198494762 0 0.014869247344383203 0.00077547768622817205 0 0.01299432578842747 0.00082243312878870801 0 0.012088892048894071 0.00078595377152263337 0 0.010171294360493322 0.00061274138962772796 0 0.010280545353415112 0.00062728389400861504 0 0.010153066165748735 0.00071960530951396188 0 0.010171294360493322 0.00061274138962772796 0 0.010280545353415112 0.00062728389400861504 0 0.010229271756343052 0.00043639796527709409 0 0.01057991953695353 0.00056305374226771408 0 0.010558955939660558 0.0010003026160639295 0 0.010229271756343052 0.00043639796527709409 0 0.012088892048894071 0.00078595377152263337 0 0.0097426846512745722 0.0003359554097978096 0 0.01057991953695353 0.00056305374226771408 0 0.010229271756343052 0.00043639796527709409 0 0.010640769023504637 0.00017079319258151075 0 0.010229271756343052 0.00043639796527709409 0 0.010640769023504637 0.00017079319258151075 0 0.010163143395242817 0.0001040312201985591 0 0.010456420585425698 0.00021058994904992178 0 0.010291277969658367 0.00013560974864090016 0 0.010545075936226736 -0.00021083642294423939 0 0.011091784007850302 0.00014414691320741756 0 0.010712485224102014 0.00032945926036989604 0 0.010545075936226736 -0.00021083642294423939 0 0.011062251482122089 -0.00027756264507723362 0 0.011091784007850302 0.00014414691320741756 0 0.010545075936226736 -0.00021083642294423939 0 0.010712485224102014 0.00032945926036989604 0 0.010163143395242817 0.0001040312201985591 0 0.010028503082379169 -0.00034525196590641673 0 0.010163143395242817 0.0001040312201985591 0 0.0097888865112037374 -7.2114470929064361e-05 0 0.010028503082379169 -0.00034525196590641673 0 0.010545075936226736 -0.00021083642294423939 0 0.010163143395242817 0.0001040312201985591 0 0.010163143395242817 0.0001040312201985591 0 0.0097888865112037374 -7.2114470929064361e-05 0 0.0098906073189994406 0.00018204292249005729 0 0.0097888865112037374 -7.2114470929064361e-05 0 0.0098906073189994406 0.00018204292249005729 0 0.0096906041215735917 0.00016135243076654477 0 0.0098906073189994406 0.00018204292249005729 0 0.0096906041215735917 0.00016135243076654477 0 0.0098138184752689095 0.00033508205825312249 0 0.0096906041215735917 0.00016135243076654477 0 0.0098138184752689095 0.00033508205825312249 0 0.0097093348202958781 0.00029898433939480737 0 0.0098138184752689095 0.00033508205825312249 0 0.0097905536325874464 0.0004627500097661298 0 0.0097168144720625391 0.00038426332544023799 0 0.0098138184752689095 0.00033508205825312249 0 0.0097168144720625391 0.00038426332544023799 0 0.0097093348202958781 0.00029898433939480737 0 0.0098906073189994406 0.00018204292249005729 0 0.0098138184752689095 0.00033508205825312249 0 0.0099932736521595629 0.00034913476643634746 0 0.0098138184752689095 0.00033508205825312249 0 0.0099932736521595629 0.00034913476643634746 0 0.009892650526494285 0.00044784302420753204 0 0.010229271756343052 0.00043639796527709409 0 0.010163143395242817 0.0001040312201985591 0 0.0099932736521595629 0.00034913476643634746 0 0.010163143395242817 0.0001040312201985591 0 0.0098906073189994406 0.00018204292249005729 0 0.0099932736521595629 0.00034913476643634746 0 0.010229271756343052 0.00043639796527709409 0 0.010000118407138225 0.00049875096547447257 0 0.010078408975591605 0.00058219858394693879 0 0.010229271756343052 0.00043639796527709409 0 0.0099932736521595629 0.00034913476643634746 0 0.010000118407138225 0.00049875096547447257 0 0.010171294360493322 0.00061274138962772796 0 0.010229271756343052 0.00043639796527709409 0 0.010078408975591605 0.00058219858394693879 0 0.010000118407138225 0.00049875096547447257 0 0.010078408975591605 0.00058219858394693879 0 0.0099570990032973646 0.00058338789465832517 0 0.010078408975591605 0.00058219858394693879 0 0.010007426177340737 0.00064066465680126528 0 0.0099570990032973646 0.00058338789465832517 0 0.010078408975591605 0.00058219858394693879 0 0.010093263135453771 0.00065233830612321491 0 0.010007426177340737 0.00064066465680126528 0 0.010171294360493322 0.00061274138962772796 0 0.010078408975591605 0.00058219858394693879 0 0.010093263135453771 0.00065233830612321491 0 0.0099214483466584895 0.00063187258973295476 0 0.010007426177340737 0.00064066465680126528 0 0.0099570990032973646 0.00058338789465832517 0 0.0099214483466584895 0.00063187258973295476 0 0.0099570990032973646 0.00058338789465832517 0 0.0098594552430278457 0.00058298578104009344 0 0.0099570990032973646 0.00058338789465832517 0 0.0098712603522029766 0.00053188202896400081 0 0.0098594552430278457 0.00058298578104009344 0 0.0098712603522029766 0.00053188202896400081 0 0.0097905536325874464 0.0004627500097661298 0 0.0097883064532541583 0.00051954227382877704 0 0.010000118407138225 0.00049875096547447257 0 0.0099570990032973646 0.00058338789465832517 0 0.0098712603522029766 0.00053188202896400081 0 0.010000118407138225 0.00049875096547447257 0 0.0098712603522029766 0.00053188202896400081 0 0.009892650526494285 0.00044784302420753204 0 0.0099932736521595629 0.00034913476643634746 0 0.010000118407138225 0.00049875096547447257 0 0.009892650526494285 0.00044784302420753204 0 0.0098138184752689095 0.00033508205825312249 0 0.009892650526494285 0.00044784302420753204 0 0.0097905536325874464 0.0004627500097661298 0 0.0098712603522029766 0.00053188202896400081 0 0.009892650526494285 0.00044784302420753204 0 0.0097905536325874464 0.0004627500097661298 0 0.0097905536325874464 0.0004627500097661298 0 0.0097019997612653661 0.00048069913779718741 0 0.0097168144720625391 0.00038426332544023799 0 0.0097905536325874464 0.0004627500097661298 0 0.0097019997612653661 0.00048069913779718741 0 0.0097883064532541583 0.00051954227382877704 0 0.0097019997612653661 0.00048069913779718741 0 0.0097633990673944467 0.00052164649354943424 0 0.0097883064532541583 0.00051954227382877704 0 0.0097019997612653661 0.00048069913779718741 0 0.0097633990673944467 0.00052164649354943424 0 0.009762708640897717 0.00051992903831164295 0 0.0097633990673944467 0.00052164649354943424 0 0.0097883064532541583 0.00051954227382877704 0 0.0098050248908901575 0.00056851966166572554 0 0.0097633990673944467 0.00052164649354943424 0 0.0098050248908901575 0.00056851966166572554 0 0.0097772806058524196 0.00054843867848382289 0 0.0098712603522029766 0.00053188202896400081 0 0.0097883064532541583 0.00051954227382877704 0 0.0098594552430278457 0.00058298578104009344 0 0.0098594552430278457 0.00058298578104009344 0 0.0098050248908901575 0.00056851966166572554 0 0.0098588426770281224 0.00062425531988633909 0 0.0097883064532541583 0.00051954227382877704 0 0.0098594552430278457 0.00058298578104009344 0 0.0098050248908901575 0.00056851966166572554 0 0.0098050248908901575 0.00056851966166572554 0 0.0098238178183695461 0.00062119037215573817 0 0.0098588426770281224 0.00062425531988633909 0 0.0098050248908901575 0.00056851966166572554 0 0.0098238178183695461 0.00062119037215573817 0 0.009795466528931868 0.00058429009229534563 0 0.0099214483466584895 0.00063187258973295476 0 0.0098594552430278457 0.00058298578104009344 0 0.0098588426770281224 0.00062425531988633909 0 0.0097827345341401674 0.00061750268684689351 0 0.0098001457577932324 0.00061622264079382299 0 0.0097804312943157827 0.00057866669754017431 0 0.0098001457577932324 0.00061622264079382299 0 0.009795466528931868 0.00058429009229534563 0 0.0097804312943157827 0.00057866669754017431 0 0.0098238178183695461 0.00062119037215573817 0 0.0098001457577932324 0.00061622264079382299 0 0.009795466528931868 0.00058429009229534563 0 0.0098050248908901575 0.00056851966166572554 0 0.009795466528931868 0.00058429009229534563 0 0.0097772806058524196 0.00054843867848382289 0 0.009795466528931868 0.00058429009229534563 0 0.0097804312943157827 0.00057866669754017431 0 0.0097772806058524196 0.00054843867848382289 0 0.0097804312943157827 0.00057866669754017431 0 0.0097719085267087436 0.0005473430257125245 0 0.0097772806058524196 0.00054843867848382289 0 0.0097633990673944467 0.00052164649354943424 0 0.0097772806058524196 0.00054843867848382289 0 0.009762708640897717 0.00051992903831164295 0 0.0097719085267087436 0.0005473430257125245 0 0.0097772806058524196 0.00054843867848382289 0 0.009762708640897717 0.00051992903831164295 0 0.0097719085267087436 0.0005473430257125245 0 0.009762708640897717 0.00051992903831164295 0 0.0097702122988491333 0.00053755596999221621 0 0.0092998369399482621 0.00037385267404569018 0 0.0095114963019663594 0.00040620285382026035 0 0.0093477588869663453 0.00025007790968864676 0 0.009565971750251135 0.00045829567230196822 0 0.0095237860181317541 0.00037231450303620302 0 0.0097671172725534976 0.00053650686982585757 0 0.0097702122988491333 0.00053755596999221621 0 0.0097593100588447973 0.00054644316874903154 0 0.009762708640897717 0.00051992903831164295 0 0.0097702122988491333 0.00053755596999221621 0 0.0097593100588447973 0.00054644316874903154 0 0.0097019997612653661 0.00048069913779718741 0 0.0093387157044134087 0.00026764996553427315 0 0.0095658957842809349 0.00029032314516141044 0 0.0096771536478303562 0.00048303525795886796 0 0.0095237860181317541 0.00037231450303620302 0 0.0097019997612653661 0.00048069913779718741 0 0.009762708640897717 0.00051992903831164295 0 0.0097593100588447973 0.00054644316874903154 0 0.009606064028795918 0.0003125556611683963 0 0.0095658957842809349 0.00029032314516141044 0 0.0094532277674742784 -6.9268684276004689e-05 0 0.0097019997612653661 0.00048069913779718741 0 0.009606064028795918 0.0003125556611683963 0 0.0095658957842809349 0.00029032314516141044 0 0.0097019997612653661 0.00048069913779718741 0 0.0097168144720625391 0.00038426332544023799 0 0.009606064028795918 0.0003125556611683963 0 0.0097168144720625391 0.00038426332544023799 0 0.009606064028795918 0.0003125556611683963 0 0.0097093348202958781 0.00029898433939480737 0 0.0096906041215735917 0.00016135243076654477 0 0.009606064028795918 0.0003125556611683963 0 0.0097093348202958781 0.00029898433939480737 0 0.0095237860181317541 0.00037231450303620302 0 0.0094908105466288192 0.00032049574456115737 0 0.0097888865112037374 -7.2114470929064361e-05 0 0.0096906041215735917 0.00016135243076654477 0 0.0092646075445594715 -0.00011708273359919977 0 0.0095679004124077302 0.00027614083812792608 0 0.0093613820904916503 -9.2094450397410261e-05 0 0.0096906041215735917 0.00016135243076654477 0 0.009606064028795918 0.0003125556611683963 0 0.0092646075445594715 -0.00011708273359919977 0 0.0093831262827143869 0.00026877031829631703 0 0.0095658957842809349 0.00029032314516141044 0 0.0094532277674742784 -6.9268684276004689e-05 0 0.0093831262827143869 0.00026877031829631703 0 0.0094532277674742784 -6.9268684276004689e-05 0 0.0091449335538172742 5.4979561280569863e-05 0 0.0091280721405018351 -0.00011405651252211067 0 0.0094532277674742784 -6.9268684276004689e-05 0 0.0091449335538172742 5.4979561280569863e-05 0 0.0095237860181317541 0.00037231450303620302 0 0.0092531776796077707 0.00016095598408847245 0 0.014885721237653138 0.00016549417360873202 0 0.014561444890114799 0.00028349056451739936 0 0.014911099087894224 0.00016284016134573349 0 0.014939319981120832 0.00012636036927868375 0 0.014955335756319374 0.00015197708346686051 0 0.014959160154675794 8.9496251929166478e-05 0 0.014911099087894224 0.00016284016134573349 0 0.014939319981120832 0.00012636036927868375 0 0.014939319981120832 0.00012636036927868375 0 0.014955335756319374 0.00015197708346686051 0 0.01495668777640068 0.00012286162386315633 0 0.014952980891425599 0.00013919444888043939 0 0.014955335756319374 0.00015197708346686051 0 0.01495668777640068 0.00012286162386315633 0 0.014952980891425599 0.00013919444888043939 0 0.014955335756319374 0.00015197708346686051 0 0.014944632581490348 0.00017106058431466854 0 0.01417413856057468 0.00039933136946718558 0 0.01464259662390946 0.00074159717877907085 0 0.013955147556298361 0.00090553756721540159 0 0.014911099087894224 0.00016284016134573349 0 0.01417413856057468 0.00039933136946718558 0 0.01464259662390946 0.00074159717877907085 0 0.0097996765330627643 0.00068693978369099721 0 0.009848665018955715 0.00073473895662642778 0 0.0098271183433753274 0.00069148083821904622 0 0.009848665018955715 0.00073473895662642778 0 0.0098271183433753274 0.00069148083821904622 0 0.009863113958650891 0.00070972558556470005 0 0.0098271183433753274 0.00069148083821904622 0 0.0098280875184996019 0.00065943259296811 0 0.0098022641919835226 0.00064985127765017814 0 0.0098271183433753274 0.00069148083821904622 0 0.0098280875184996019 0.00065943259296811 0 0.009863113958650891 0.00070972558556470005 0 0.0098238178183695461 0.00062119037215573817 0 0.0098001457577932324 0.00061622264079382299 0 0.0098280875184996019 0.00065943259296811 0 0.0097827345341401674 0.00061750268684689351 0 0.0098001457577932324 0.00061622264079382299 0 0.0098022641919835226 0.00064985127765017814 0 0.0098001457577932324 0.00061622264079382299 0 0.0098280875184996019 0.00065943259296811 0 0.0098022641919835226 0.00064985127765017814 0 0.0098588426770281224 0.00062425531988633909 0 0.0098657028770492237 0.00067473160282940231 0 0.0099109396780384246 0.00067824320992651674 0 0.0099214483466584895 0.00063187258973295476 0 0.0098588426770281224 0.00062425531988633909 0 0.0099109396780384246 0.00067824320992651674 0 0.0098238178183695461 0.00062119037215573817 0 0.0098280875184996019 0.00065943259296811 0 0.0098657028770492237 0.00067473160282940231 0 0.0098238178183695461 0.00062119037215573817 0 0.0098588426770281224 0.00062425531988633909 0 0.0098657028770492237 0.00067473160282940231 0 0.0098280875184996019 0.00065943259296811 0 0.0098657028770492237 0.00067473160282940231 0 0.009863113958650891 0.00070972558556470005 0 0.0098657028770492237 0.00067473160282940231 0 0.0099012395943408778 0.00071563691531551497 0 0.0099109396780384246 0.00067824320992651674 0 0.0099012395943408778 0.00071563691531551497 0 0.009863113958650891 0.00070972558556470005 0 0.0099156390406252414 0.00076188569897816464 0 0.009848665018955715 0.00073473895662642778 0 0.009863113958650891 0.00070972558556470005 0 0.0099156390406252414 0.00076188569897816464 0 0.012056165624401828 0.00080655169086766621 0 0.011875036367736992 0.00082674578234595672 0 0.0099012395943408778 0.00071563691531551497 0 0.0099156390406252414 0.00076188569897816464 0 0.009957122791312013 0.00072978716024616418 0 0.0098657028770492237 0.00067473160282940231 0 0.0099012395943408778 0.00071563691531551497 0 0.009863113958650891 0.00070972558556470005 0 0.011875036367736992 0.00082674578234595672 0 0.012221497455176243 0.0010418823211036377 0 0.0099156390406252414 0.00076188569897816464 0 0.009957122791312013 0.00072978716024616418 0 0.010040364736207896 0.00078342491142188134 0 0.013955147556298361 0.00090553756721540159 0 0.013470398336129884 0.00084717898297745667 0 0.013276470077399082 0.0010397730132449643 0 0.013470398336129884 0.00084717898297745667 0 0.013345605577376718 0.00096619666900289042 0 0.013435811574466779 0.00071668524693933552 0 0.013127985993065231 0.00063687330635616519 0 0.012221497455176243 0.0010418823211036377 0 0.009957122791312013 0.00072978716024616418 0 0.01002001606778484 0.00073045143832453142 0 0.010040364736207896 0.00078342491142188134 0 0.009957122791312013 0.00072978716024616418 0 0.0099109396780384246 0.00067824320992651674 0 0.0099706533298244537 0.00068505832554404723 0 0.0099012395943408778 0.00071563691531551497 0 0.009957122791312013 0.00072978716024616418 0 0.0099109396780384246 0.00067824320992651674 0 0.0099706533298244537 0.00068505832554404723 0 0.010041717126514686 0.00068998481551830625 0 0.01002001606778484 0.00073045143832453142 0 0.009957122791312013 0.00072978716024616418 0 0.0099706533298244537 0.00068505832554404723 0 0.01002001606778484 0.00073045143832453142 0 0.0099214483466584895 0.00063187258973295476 0 0.010007426177340737 0.00064066465680126528 0 0.0099706533298244537 0.00068505832554404723 0 0.010007426177340737 0.00064066465680126528 0 0.0099706533298244537 0.00068505832554404723 0 0.010041717126514686 0.00068998481551830625 0 0.0099214483466584895 0.00063187258973295476 0 0.0099109396780384246 0.00067824320992651674 0 0.0099706533298244537 0.00068505832554404723 0 0.010171294360493322 0.00061274138962772796 0 0.010093263135453771 0.00065233830612321491 0 0.010153066165748735 0.00071960530951396188 0 0.010041717126514686 0.00068998481551830625 0 0.01002001606778484 0.00073045143832453142 0 0.010153066165748735 0.00071960530951396188 0 0.010093263135453771 0.00065233830612321491 0 0.010041717126514686 0.00068998481551830625 0 0.010153066165748735 0.00071960530951396188 0 0.010093263135453771 0.00065233830612321491 0 0.010007426177340737 0.00064066465680126528 0 0.010041717126514686 0.00068998481551830625 0 0.012715146904606971 0.0010614278638267746 0 0.012878295014416586 0.0010272894025132025 0 0.012861199161699772 0.00093110532704440523 0 0.013345605577376718 0.00096619666900289042 0 0.013210428863977422 0.00091457548310765831 0 0.013043341106433275 0.00099150527409002276 0 0.012221497455176243 0.0010418823211036377 0 0.013102848265263117 0.00097549393076047717 0 0.01002001606778484 0.00073045143832453142 0 0.010040364736207896 0.00078342491142188134 0 0.010153066165748735 0.00071960530951396188 0 0.014209766309644377 0.00046085817359386999 0 0.0138437697921821 0.000618205958857453 0 0.013210428863977422 0.00091457548310765831 0 0.013435811574466779 0.00071668524693933552 0 0.013026409024243282 0.00094903284372213268 0 0.012221497455176243 0.0010418823211036377 0 0.011366067267576356 0.0008949789276753616 0 0.013345605577376718 0.00096619666900289042 0 0.013210428863977422 0.00091457548310765831 0 0.013435811574466779 0.00071668524693933552 0 0.01490171718744303 0.00023720367372479575 0 0.01488408998550371 0.00025460328070241113 0 0.014869401685578942 0.00028763505225062777 0 0.01490171718744303 0.00023720367372479575 0 0.014889715734131538 0.00023158923303778526 0 0.01488408998550371 0.00025460328070241113 0 0.01490171718744303 0.00023720367372479575 0 0.014935023730396391 0.00021327521695295264 0 0.014869401685578942 0.00028763505225062777 0 0.01490171718744303 0.00023720367372479575 0 0.014908650347144932 0.00021718798404618143 0 0.014889715734131538 0.00023158923303778526 0 0.014889715734131538 0.00023158923303778526 0 0.014907280933313729 0.00019469359773045542 0 0.014887023517916858 0.00019962030450986623 0 0.014908650347144932 0.00021718798404618143 0 0.014889715734131538 0.00023158923303778526 0 0.014907280933313729 0.00019469359773045542 0 0.014907280933313729 0.00019469359773045542 0 0.01492283465612923 0.00020087228042131816 0 0.014926136970678162 0.00017258406619803182 0 0.01492283465612923 0.00020087228042131816 0 0.014932344500520231 0.00018915234627701777 0 0.014926136970678162 0.00017258406619803182 0 0.014908650347144932 0.00021718798404618143 0 0.014907280933313729 0.00019469359773045542 0 0.01492283465612923 0.00020087228042131816 0 0.01492283465612923 0.00020087228042131816 0 0.014917704150161125 0.00021716965821028737 0 0.014935023730396391 0.00021327521695295264 0 0.01490171718744303 0.00023720367372479575 0 0.014917704150161125 0.00021716965821028737 0 0.014935023730396391 0.00021327521695295264 0 0.01490171718744303 0.00023720367372479575 0 0.014908650347144932 0.00021718798404618143 0 0.014917704150161125 0.00021716965821028737 0 0.014908650347144932 0.00021718798404618143 0 0.01492283465612923 0.00020087228042131816 0 0.014917704150161125 0.00021716965821028737 0 0.01417413856057468 0.00039933136946718558 0 0.013955147556298361 0.00090553756721540159 0 0.013435811574466779 0.00071668524693933552 0 0.014955335756319374 0.00015197708346686051 0 0.014935023730396391 0.00021327521695295264 0 0.014944632581490348 0.00017106058431466854 0 0.013955147556298361 0.00090553756721540159 0 0.013470398336129884 0.00084717898297745667 0 0.013435811574466779 0.00071668524693933552 0 0.014561444890114799 0.00028349056451739936 0 0.014209766309644377 0.00046085817359386999 0 0.014935023730396391 0.00021327521695295264 0 0.014944632581490348 0.00017106058431466854 0 0.014932344500520231 0.00018915234627701777 0 0.014944632581490348 0.00017106058431466854 0 0.014932344500520231 0.00018915234627701777 0 0.014926136970678162 0.00017258406619803182 0 0.01492283465612923 0.00020087228042131816 0 0.014935023730396391 0.00021327521695295264 0 0.014932344500520231 0.00018915234627701777 0 0.014944632581490348 0.00017106058431466854 0 0.014940086090300507 0.00013993217653644299 0 0.014926136970678162 0.00017258406619803182 0 0.014952980891425599 0.00013919444888043939 0 0.014944632581490348 0.00017106058431466854 0 0.014940086090300507 0.00013993217653644299 0 0.014904042227446162 0.0001733216207795756 0 0.014926136970678162 0.00017258406619803182 0 0.014912109799076728 0.00013844366119013688 0 0.014940086090300507 0.00013993217653644299 0 0.014926136970678162 0.00017258406619803182 0 0.014912109799076728 0.00013844366119013688 0 0.014904042227446162 0.0001733216207795756 0 0.014883455768095088 0.00016441789660512468 0 0.014912109799076728 0.00013844366119013688 0 0.014907280933313729 0.00019469359773045542 0 0.014904042227446162 0.0001733216207795756 0 0.014887023517916858 0.00019962030450986623 0 0.014907280933313729 0.00019469359773045542 0 0.014904042227446162 0.0001733216207795756 0 0.014926136970678162 0.00017258406619803182 0 0.014852094628697363 0.0001765992218945705 0 0.014883455768095088 0.00016441789660512468 0 0.014859505260851745 0.00021109375741029947 0 0.014904042227446162 0.0001733216207795756 0 0.014883455768095088 0.00016441789660512468 0 0.014887023517916858 0.00019962030450986623 0 0.014883455768095088 0.00016441789660512468 0 0.014859505260851745 0.00021109375741029947 0 0.014887023517916858 0.00019962030450986623 0 0.014883455768095088 0.00016441789660512468 0 0.014871669019351712 0.00013035064523473429 0 0.014912109799076728 0.00013844366119013688 0 0.014852094628697363 0.0001765992218945705 0 0.014883455768095088 0.00016441789660512468 0 0.014871669019351712 0.00013035064523473429 0 0.014852094628697363 0.0001765992218945705 0 0.014811651583601697 0.00015215185943670765 0 0.014871669019351712 0.00013035064523473429 0 0.014852094628697363 0.0001765992218945705 0 0.014811651583601697 0.00015215185943670765 0 0.014825593909218686 0.00024188234299812346 0 0.014825593909218686 0.00024188234299812346 0 0.014818982312939349 0.000289365969386309 0 0.014738558750774317 0.00028209391966192872 0 0.014811651583601697 0.00015215185943670765 0 0.014825593909218686 0.00024188234299812346 0 0.014738558750774317 0.00028209391966192872 0 0.014825593909218686 0.00024188234299812346 0 0.014849162616983163 0.0002659689677636251 0 0.014818982312939349 0.000289365969386309 0 0.014825593909218686 0.00024188234299812346 0 0.014849162616983163 0.0002659689677636251 0 0.01485115527867099 0.0002387704185624611 0 0.014849162616983163 0.0002659689677636251 0 0.01485115527867099 0.0002387704185624611 0 0.014869882574019458 0.00023586262136703168 0 0.014825593909218686 0.00024188234299812346 0 0.01485115527867099 0.0002387704185624611 0 0.014859505260851745 0.00021109375741029947 0 0.014852094628697363 0.0001765992218945705 0 0.014825593909218686 0.00024188234299812346 0 0.014859505260851745 0.00021109375741029947 0 0.01485115527867099 0.0002387704185624611 0 0.014859505260851745 0.00021109375741029947 0 0.014869882574019458 0.00023586262136703168 0 0.014859505260851745 0.00021109375741029947 0 0.014887023517916858 0.00019962030450986623 0 0.014869882574019458 0.00023586262136703168 0 0.014889715734131538 0.00023158923303778526 0 0.014887023517916858 0.00019962030450986623 0 0.014869882574019458 0.00023586262136703168 0 0.014889715734131538 0.00023158923303778526 0 0.014869882574019458 0.00023586262136703168 0 0.014872732924164871 0.00025480776293383933 0 0.014849162616983163 0.0002659689677636251 0 0.014869882574019458 0.00023586262136703168 0 0.014872732924164871 0.00025480776293383933 0 0.014889715734131538 0.00023158923303778526 0 0.014872732924164871 0.00025480776293383933 0 0.01488408998550371 0.00025460328070241113 0 0.012878295014416586 0.0010272894025132025 0 0.01293480057981224 0.00095367014092304742 0 0.013008929143512968 0.00097549941539193754 0 0.013210428863977422 0.00091457548310765831 0 0.013026409024243282 0.00094903284372213268 0 0.013043341106433275 0.00099150527409002276 0 0.014872732924164871 0.00025480776293383933 0 0.01488408998550371 0.00025460328070241113 0 0.014869401685578942 0.00028763505225062777 0 0.013102848265263117 0.00097549393076047717 0 0.012958538857246722 0.00099474744418456785 0 0.013026409024243282 0.00094903284372213268 0 0.013043341106433275 0.00099150527409002276 0 0.013008929143512968 0.00097549941539193754 0 0.014849162616983163 0.0002659689677636251 0 0.014872732924164871 0.00025480776293383933 0 0.014869401685578942 0.00028763505225062777 0 0.014849162616983163 0.0002659689677636251 0 0.014869401685578942 0.00028763505225062777 0 0.014818982312939349 0.000289365969386309 0 0.012970677125580405 0.00085444107998150834 0 0.01293480057981224 0.00095367014092304742 0 0.013008929143512968 0.00097549941539193754 0 0.012970677125580405 0.00085444107998150834 0 0.012861199161699772 0.00093110532704440523 0 0.01293480057981224 0.00095367014092304742 0 0.012878295014416586 0.0010272894025132025 0 0.012861199161699772 0.00093110532704440523 0 0.01293480057981224 0.00095367014092304742 0 0.012088892048894071 0.00078595377152263337 0 0.011366067267576356 0.0008949789276753616 0 0.015003129594611081 0.00086504210198494762 0 0.014869247344383203 0.00077547768622817205 0 0.014873853528406545 0.00059886793460611678 0 0.012970677125580405 0.00085444107998150834 0 0.013008929143512968 0.00097549941539193754 0 0.013013647711552596 0.00098074375537525764 0 0.012088892048894071 0.00078595377152263337 0 0.014485332231803545 0.00081610966457493987 0 0.014869247344383203 0.00077547768622817205 0 0.014873853528406545 0.00059886793460611678 0 0.014803680630417562 0.00062793198170761502 0 0.014485332231803545 0.00081610966457493987 0 0.014787977706156193 0.00066800447284247962 0 0.014869401685578942 0.00028763505225062777 0 0.01478889220302192 0.00033734680015590869 0 0.014818982312939349 0.000289365969386309 0 0.013026409024243282 0.00094903284372213268 0 0.013008929143512968 0.00097549941539193754 0 0.013013647711552596 0.00098074375537525764 0 0.0138437697921821 0.000618205958857453 0 0.014485332231803545 0.00081610966457493987 0 0.01478889220302192 0.00033734680015590869 0 0.014818982312939349 0.000289365969386309 0 0.014738558750774317 0.00028209391966192872 0 0.01489265816896314 0.00058932461181260894 0 0.014703237106693636 0.00048989260420861502 0 0.014738558750774317 0.00028209391966192872 0 0.014703237106693636 0.00048989260420861502 0 0.014557409328917408 0.00038144821127421096 0 0.014738558750774317 0.00028209391966192872 0 0.014485332231803545 0.00081610966457493987 0 0.014806779092491784 0.00019089631454579097 0 0.01489265816896314 0.00058932461181260894 0 0.014703237106693636 0.00048989260420861502 0 0.014803680630417562 0.00062793198170761502 0 0.014703237106693636 0.00048989260420861502 0 0.014803680630417562 0.00062793198170761502 0 0.014653068453012516 0.00070752660843356415 0 0.014803680630417562 0.00062793198170761502 0 0.014653068453012516 0.00070752660843356415 0 0.014764736420993553 0.00074217432033425723 0 0.014730231539719221 0.00085794327094440342 0 0.014653068453012516 0.00070752660843356415 0 0.014764736420993553 0.00074217432033425723 0 0.014869247344383203 0.00077547768622817205 0 0.014803680630417562 0.00062793198170761502 0 0.014764736420993553 0.00074217432033425723 0 0.014730231539719221 0.00085794327094440342 0 0.014869247344383203 0.00077547768622817205 0 0.014764736420993553 0.00074217432033425723 0 0.014515859524377416 0.00084885461016854906 0 0.014653068453012516 0.00070752660843356415 0 0.014426146453141414 0.00069806682617317708 0 0.014653068453012516 0.00070752660843356415 0 0.014557999622053132 0.00056421270237652849 0 0.014426146453141414 0.00069806682617317708 0 0.014557999622053132 0.00056421270237652849 0 0.014557409328917408 0.00038144821127421096 0 0.014316496077552705 0.00054899765490577096 0 0.014703237106693636 0.00048989260420861502 0 0.014653068453012516 0.00070752660843356415 0 0.014557999622053132 0.00056421270237652849 0 0.014703237106693636 0.00048989260420861502 0 0.014557999622053132 0.00056421270237652849 0 0.014557409328917408 0.00038144821127421096 0 0.014557409328917408 0.00038144821127421096 0 0.014576824891176159 0.00020888023489492983 0 0.014413058831562341 0.00031051281896569727 0 0.014557409328917408 0.00038144821127421096 0 0.014738558750774317 0.00028209391966192872 0 0.014576824891176159 0.00020888023489492983 0 0.014811651583601697 0.00015215185943670765 0 0.014738558750774317 0.00028209391966192872 0 0.014715549438660316 0.00012660889416547431 0 0.014738558750774317 0.00028209391966192872 0 0.014576824891176159 0.00020888023489492983 0 0.014715549438660316 0.00012660889416547431 0 0.014576824891176159 0.00020888023489492983 0 0.014715549438660316 0.00012660889416547431 0 0.014592952118126621 9.1288213858216317e-05 0 0.014715549438660316 0.00012660889416547431 0 0.014724644554233689 5.7646396119791756e-05 0 0.014592952118126621 9.1288213858216317e-05 0 0.014715549438660316 0.00012660889416547431 0 0.014792084585360604 6.908420493709795e-05 0 0.014724644554233689 5.7646396119791756e-05 0 0.014811651583601697 0.00015215185943670765 0 0.014715549438660316 0.00012660889416547431 0 0.014792084585360604 6.908420493709795e-05 0 0.014792084585360604 6.908420493709795e-05 0 0.014724644554233689 5.7646396119791756e-05 0 0.014820086077129049 1.1206124352179369e-05 0 0.014792084585360604 6.908420493709795e-05 0 0.014820086077129049 1.1206124352179369e-05 0 0.014829107988384108 4.4111436382503014e-05 0 0.014724644554233689 5.7646396119791756e-05 0 0.014820086077129049 1.1206124352179369e-05 0 0.014649510990282716 1.8430419606224253e-05 0 0.014820086077129049 1.1206124352179369e-05 0 0.014999990218395631 -2.1550515713830141e-08 0 0.014829755646250088 -2.4695729496115038e-05 0 0.014999990218395631 -2.1550515713830141e-08 0 0.014829755646250088 -2.4695729496115038e-05 0 0.014999413332366882 -1.5882250462405811e-07 0 0.014820086077129049 1.1206124352179369e-05 0 0.014999990218395631 -2.1550515713830141e-08 0 0.014979316427261144 1.5192013855451687e-05 0 0.014833418675836882 1.6483122556951615e-05 0 0.014900901675231591 1.3372519791443342e-05 0 0.014820086077129049 1.1206124352179369e-05 0 0.014827994107364616 2.0840454973012197e-05 0 0.014829107988384108 4.4111436382503014e-05 0 0.014827994107364616 2.0840454973012197e-05 0 0.014877533234783186 3.525621944943052e-05 0 0.014829107988384108 4.4111436382503014e-05 0 0.014827994107364616 2.0840454973012197e-05 0 0.014891113536203883 -4.7963079943895328e-07 0 0.014877533234783186 3.525621944943052e-05 0 0.014877533234783186 3.525621944943052e-05 0 0.014876214770347843 5.9246219523559705e-05 0 0.014829107988384108 4.4111436382503014e-05 0 0.014900901675231591 1.3372519791443342e-05 0 0.014945250430741287 5.0933278010598687e-06 0 0.014999990218395631 -2.1550515713830141e-08 0 0.014979316427261144 1.5192013855451687e-05 0 0.014999991622666884 9.5789932105322596e-09 0 0.014979316427261144 1.5192013855451687e-05 0 0.014999991622666884 9.5789932105322596e-09 0 0.015001015708207686 4.5886647718457743e-06 0 0.014945250430741287 5.0933278010598687e-06 0 0.014999976228434771 -1.6321116518363217e-10 0 0.014999991622666884 9.5789932105322596e-09 0 0.015001015708207686 4.5886647718457743e-06 0 0.015000008258486084 -2.7924147222900779e-09 0 0.014891113536203883 -4.7963079943895328e-07 0 0.014877533234783186 3.525621944943052e-05 0 0.014933053675494416 3.4697968169080798e-05 0 0.014877533234783186 3.525621944943052e-05 0 0.014911182667131021 6.080003336256888e-05 0 0.014876214770347843 5.9246219523559705e-05 0 0.014877533234783186 3.525621944943052e-05 0 0.014911182667131021 6.080003336256888e-05 0 0.014933053675494416 3.4697968169080798e-05 0 0.014876214770347843 5.9246219523559705e-05 0 0.014848749540287722 8.4963002663301037e-05 0 0.014907037788258979 8.9253294501273432e-05 0 0.014911182667131021 6.080003336256888e-05 0 0.014876214770347843 5.9246219523559705e-05 0 0.014907037788258979 8.9253294501273432e-05 0 0.014792084585360604 6.908420493709795e-05 0 0.014829107988384108 4.4111436382503014e-05 0 0.014848749540287722 8.4963002663301037e-05 0 0.014876214770347843 5.9246219523559705e-05 0 0.014829107988384108 4.4111436382503014e-05 0 0.014848749540287722 8.4963002663301037e-05 0 0.014811651583601697 0.00015215185943670765 0 0.014792084585360604 6.908420493709795e-05 0 0.014848749540287722 8.4963002663301037e-05 0 0.014811651583601697 0.00015215185943670765 0 0.014848749540287722 8.4963002663301037e-05 0 0.014871669019351712 0.00013035064523473429 0 0.014848749540287722 8.4963002663301037e-05 0 0.014871669019351712 0.00013035064523473429 0 0.014907037788258979 8.9253294501273432e-05 0 0.014871669019351712 0.00013035064523473429 0 0.014912109799076728 0.00013844366119013688 0 0.014907037788258979 8.9253294501273432e-05 0 0.014933046820206965 0.00010692082670029676 0 0.014912109799076728 0.00013844366119013688 0 0.014907037788258979 8.9253294501273432e-05 0 0.014940086090300507 0.00013993217653644299 0 0.014933046820206965 0.00010692082670029676 0 0.014912109799076728 0.00013844366119013688 0 0.014952980891425599 0.00013919444888043939 0 0.014940086090300507 0.00013993217653644299 0 0.014957353754558126 0.00010258522452089684 0 0.014940086090300507 0.00013993217653644299 0 0.014933046820206965 0.00010692082670029676 0 0.014957353754558126 0.00010258522452089684 0 0.014933046820206965 0.00010692082670029676 0 0.014957353754558126 0.00010258522452089684 0 0.014941324516255574 6.528613587568501e-05 0 0.014957353754558126 0.00010258522452089684 0 0.014941324516255574 6.528613587568501e-05 0 0.014970707962425832 6.4932347729933248e-05 0 0.014933046820206965 0.00010692082670029676 0 0.014941324516255574 6.528613587568501e-05 0 0.014907037788258979 8.9253294501273432e-05 0 0.014911182667131021 6.080003336256888e-05 0 0.014941324516255574 6.528613587568501e-05 0 0.014907037788258979 8.9253294501273432e-05 0 0.014941324516255574 6.528613587568501e-05 0 0.014933053675494416 3.4697968169080798e-05 0 0.014979177742461314 2.7031758023565645e-05 0 0.014911182667131021 6.080003336256888e-05 0 0.014941324516255574 6.528613587568501e-05 0 0.014933053675494416 3.4697968169080798e-05 0 0.014933053675494416 3.4697968169080798e-05 0 0.014999767110888768 -4.8659410853693946e-08 0 0.014979177742461314 2.7031758023565645e-05 0 0.014891113536203883 -4.7963079943895328e-07 0 0.014933053675494416 3.4697968169080798e-05 0 0.014999767110888768 -4.8659410853693946e-08 0 0.014999767110888768 -4.8659410853693946e-08 0 0.014979177742461314 2.7031758023565645e-05 0 0.015000094145695643 6.0533690484052626e-08 0 0.014941324516255574 6.528613587568501e-05 0 0.014979177742461314 2.7031758023565645e-05 0 0.014970707962425832 6.4932347729933248e-05 0 0.014970707962425832 6.4932347729933248e-05 0 0.014996095155977116 5.0948314588147742e-05 0 0.014974722668198093 8.37213093652765e-05 0 0.014979177742461314 2.7031758023565645e-05 0 0.014970707962425832 6.4932347729933248e-05 0 0.014996095155977116 5.0948314588147742e-05 0 0.014976445580858444 -8.0400743941565329e-06 0 0.014997888626392014 4.8474950984629075e-07 0 0.014999989134984338 1.4645180057768667e-08 0 0.014979177742461314 2.7031758023565645e-05 0 0.014996095155977116 5.0948314588147742e-05 0 0.015000094145695643 6.0533690484052626e-08 0 0.014989144724335643 2.6098188499969689e-05 0 0.014999989173148601 -1.6621378369614522e-09 0 0.014976445580858444 -8.0400743941565329e-06 0 0.014997888626392014 4.8474950984629075e-07 0 0.014948247362293372 -5.3665627588663218e-06 0 0.014999999766481342 -4.7406207726572851e-09 0 0.014997888626392014 4.8474950984629075e-07 0 0.014999813317472745 -1.871506864969553e-08 0 0.014997888626392014 4.8474950984629075e-07 0 0.014999813317472745 -1.871506864969553e-08 0 0.015001988888291271 -2.3773822820288764e-06 0 0.014993634968577372 2.4380394447477622e-07 0 0.014974057029975689 -6.6639967316983339e-06 0 0.014999999766481342 -4.7406207726572851e-09 0 0.014997888626392014 4.8474950984629075e-07 0 0.014999989134984338 1.4645180057768667e-08 0 0.01499734093388979 4.7225941689675258e-07 0 0.014999813317472745 -1.871506864969553e-08 0 0.015001988888291271 -2.3773822820288764e-06 0 0.014976445580858444 -8.0400743941565329e-06 0 0.014948247362293372 -5.3665627588663218e-06 0 0.014941820335385096 -6.3975947704340713e-05 0 0.014974233259766498 9.9808082271424242e-05 0 0.014974722668198093 8.37213093652765e-05 0 0.01495668777640068 0.00012286162386315633 0 0.014989144724335643 2.6098188499969689e-05 0 0.014932703674362927 -1.2152246760265295e-05 0 0.014880042930844595 -5.6438751324388748e-05 0 0.014948247362293372 -5.3665627588663218e-06 0 0.014941820335385096 -6.3975947704340713e-05 0 0.014996095155977116 5.0948314588147742e-05 0 0.014974233259766498 9.9808082271424242e-05 0 0.014974722668198093 8.37213093652765e-05 0 0.014957353754558126 0.00010258522452089684 0 0.014970707962425832 6.4932347729933248e-05 0 0.014974722668198093 8.37213093652765e-05 0 0.014957353754558126 0.00010258522452089684 0 0.014974722668198093 8.37213093652765e-05 0 0.01495668777640068 0.00012286162386315633 0 0.014952980891425599 0.00013919444888043939 0 0.014957353754558126 0.00010258522452089684 0 0.01495668777640068 0.00012286162386315633 0 0.01511595534130802 7.2210535594909042e-05 0 0.014932703674362927 -1.2152246760265295e-05 0 0.014959160154675794 8.9496251929166478e-05 0 0.014939319981120832 0.00012636036927868375 0 0.014974233259766498 9.9808082271424242e-05 0 0.014939319981120832 0.00012636036927868375 0 0.014974233259766498 9.9808082271424242e-05 0 0.01495668777640068 0.00012286162386315633 0 0.014335429717019869 0.00084095779603871219 0 0.014307667826786689 0.00085949524172684844 0 0.014331727898754155 0.00087692533885568708 0 0.014366436124302599 0.00084616632955954922 0 0.014335429717019869 0.00084095779603871219 0 0.014331727898754155 0.00087692533885568708 0 0.013859315114249598 0.00050691688476632796 0 0.013769884390772697 0.00062335558599236241 0 0.013441014654848231 0.00010877569527339267 0 0.013198227596546361 0.00039131822698723991 0 0.013499243879064338 0.00037080001127087433 0 0.014366436124302599 0.00084616632955954922 0 0.014335429717019869 0.00084095779603871219 0 0.014354893992056507 0.00081405420859348475 0 0.014366436124302599 0.00084616632955954922 0 0.014397303046948225 0.00080782755782362161 0 0.014354893992056507 0.00081405420859348475 0 0.014335429717019869 0.00084095779603871219 0 0.014314714446776197 0.00083538582589345889 0 0.014335021831319157 0.00080747517962480406 0 0.014314714446776197 0.00083538582589345889 0 0.014287329291769919 0.00085925278684160383 0 0.014307667826786689 0.00085949524172684844 0 0.014314714446776197 0.00083538582589345889 0 0.014287329291769919 0.00085925278684160383 0 0.014316893575195784 0.00080753306167072997 0 0.014335429717019869 0.00084095779603871219 0 0.014314714446776197 0.00083538582589345889 0 0.014307667826786689 0.00085949524172684844 0 0.014287329291769919 0.00085925278684160383 0 0.014286318827089126 0.00087526131234638975 0 0.014307667826786689 0.00085949524172684844 0 0.014286318827089126 0.00087526131234638975 0 0.014307667826786689 0.00085949524172684844 0 0.01429571267327609 0.00088000066163250218 0 0.014307667826786689 0.00085949524172684844 0 0.01429571267327609 0.00088000066163250218 0 0.014331727898754155 0.00087692533885568708 0 0.01429571267327609 0.00088000066163250218 0 0.014282429622702318 0.00089376688494788726 0 0.014303681594252354 0.00089450056318722548 0 0.01429571267327609 0.00088000066163250218 0 0.014303681594252354 0.00089450056318722548 0 0.014331727898754155 0.00087692533885568708 0 0.01429571267327609 0.00088000066163250218 0 0.014282429622702318 0.00089376688494788726 0 0.014278703232471036 0.00087675755976490384 0 0.014286318827089126 0.00087526131234638975 0 0.01429571267327609 0.00088000066163250218 0 0.014278703232471036 0.00087675755976490384 0 0.014331450487706844 0.00097881980596987192 0 0.014247443108670058 0.00082869034518662189 0 0.013135076215735208 0.00047030359544500687 0 0.014331450487706844 0.00097881980596987192 0 0.014282812354500766 0.00090443869670597398 0 0.014282429622702318 0.00089376688494788726 0 0.014303681594252354 0.00089450056318722548 0 0.013135076215735208 0.00047030359544500687 0 0.013697694615619588 0.00079098825987114301 0 0.013214695963226802 0.00075910120514620393 0 0.0130075879054256 0.00062259903963725197 0 0.013368958855437152 0.00057081666080558249 0 0.013697694615619588 0.00079098825987114301 0 0.013769884390772697 0.00062335558599236241 0 0.0130075879054256 0.00062259903963725197 0 0.013198227596546361 0.00039131822698723991 0 0.013368958855437152 0.00057081666080558249 0 0.013198227596546361 0.00039131822698723991 0 0.013368958855437152 0.00057081666080558249 0 0.013499243879064338 0.00037080001127087433 0 0.013214695963226802 0.00075910120514620393 0 0.013368958855437152 0.00057081666080558249 0 0.013444509005495814 0.00077453258359229805 0 0.013368958855437152 0.00057081666080558249 0 0.013444509005495814 0.00077453258359229805 0 0.013724389465483688 0.00053045510656269052 0 0.013841096087437431 0.00080611074562601521 0 0.013444509005495814 0.00077453258359229805 0 0.013724389465483688 0.00053045510656269052 0 0.013841096087437431 0.00080611074562601521 0 0.013724389465483688 0.00053045510656269052 0 0.014036376640724657 0.00060843506334217954 0 0.013724389465483688 0.00053045510656269052 0 0.014036376640724657 0.00060843506334217954 0 0.014146234357902313 0.00034408928912037917 0 0.013368958855437152 0.00057081666080558249 0 0.013724389465483688 0.00053045510656269052 0 0.013499243879064338 0.00037080001127087433 0 0.013724389465483688 0.00053045510656269052 0 0.013801347176809413 0.00023129170731823212 0 0.013499243879064338 0.00037080001127087433 0 0.014557999622053132 0.00056421270237652849 0 0.014426146453141414 0.00069806682617317708 0 0.014316496077552705 0.00054899765490577096 0 0.014211057665507384 0.00087661632668356473 0 0.014426146453141414 0.00069806682617317708 0 0.014316496077552705 0.00054899765490577096 0 0.014211057665507384 0.00087661632668356473 0 0.013841096087437431 0.00080611074562601521 0 0.014036376640724657 0.00060843506334217954 0 0.014211057665507384 0.00087661632668356473 0 0.014036376640724657 0.00060843506334217954 0 0.014316496077552705 0.00054899765490577096 0 0.014036376640724657 0.00060843506334217954 0 0.014316496077552705 0.00054899765490577096 0 0.014146234357902313 0.00034408928912037917 0 0.014316496077552705 0.00054899765490577096 0 0.014413058831562341 0.00031051281896569727 0 0.014146234357902313 0.00034408928912037917 0 0.014557409328917408 0.00038144821127421096 0 0.014316496077552705 0.00054899765490577096 0 0.014413058831562341 0.00031051281896569727 0 0.014413058831562341 0.00031051281896569727 0 0.014146234357902313 0.00034408928912037917 0 0.014413371032366337 0.00014363089545481935 0 0.014413371032366337 0.00014363089545481935 0 0.014204832401168781 8.6524787379541586e-05 0 0.014427179905590949 6.5257285875347729e-05 0 0.014146234357902313 0.00034408928912037917 0 0.014413371032366337 0.00014363089545481935 0 0.014204832401168781 8.6524787379541586e-05 0 0.014576824891176159 0.00020888023489492983 0 0.014413371032366337 0.00014363089545481935 0 0.014592952118126621 9.1288213858216317e-05 0 0.014576824891176159 0.00020888023489492983 0 0.014413058831562341 0.00031051281896569727 0 0.014413371032366337 0.00014363089545481935 0 0.013441014654848231 0.00010877569527339267 0 0.013801347176809413 0.00023129170731823212 0 0.013499243879064338 0.00037080001127087433 0 0.014146234357902313 0.00034408928912037917 0 0.013801347176809413 0.00023129170731823212 0 0.014204832401168781 8.6524787379541586e-05 0 0.013724389465483688 0.00053045510656269052 0 0.014146234357902313 0.00034408928912037917 0 0.013801347176809413 0.00023129170731823212 0 0.013801347176809413 0.00023129170731823212 0 0.014204832401168781 8.6524787379541586e-05 0 0.01373945614618776 -0.00023135897741133088 0 0.014046437876481297 -3.6002439944970298e-05 0 0.014368555132480601 0.00021783650036120132 0 0.013859315114249598 0.00050691688476632796 0 0.014368555132480601 0.00021783650036120132 0 0.013441014654848231 0.00010877569527339267 0 0.013801347176809413 0.00023129170731823212 0 0.01373945614618776 -0.00023135897741133088 0 0.014990944559810459 1.5628293362579207e-05 0 0.014994301345553213 7.8226001003585916e-06 0 0.014990150412576319 1.2756366993014421e-05 0 0.014368555132480601 0.00021783650036120132 0 0.014738305169134592 0.00043765846028618645 0 0.014285748775264397 7.2653036783310227e-05 0 0.014311485802215336 6.620409765619802e-05 0 0.014366816758271117 9.4845576845295235e-06 0 0.014204832401168781 8.6524787379541586e-05 0 0.014285748775264397 7.2653036783310227e-05 0 0.014311485802215336 6.620409765619802e-05 0 0.014368555132480601 0.00021783650036120132 0 0.014735605481819469 -3.1438001673820831e-05 0 0.014997494183993361 7.4097632130500919e-06 0 0.014994301345553213 7.8226001003585916e-06 0 0.01499763857006684 2.500081807173758e-06 0 0.014990944559810459 1.5628293362579207e-05 0 0.014997494183993361 7.4097632130500919e-06 0 0.014994301345553213 7.8226001003585916e-06 0 0.014592952118126621 9.1288213858216317e-05 0 0.014427179905590949 6.5257285875347729e-05 0 0.014649510990282716 1.8430419606224253e-05 0 0.014413371032366337 0.00014363089545481935 0 0.014592952118126621 9.1288213858216317e-05 0 0.014427179905590949 6.5257285875347729e-05 0 0.014311485802215336 6.620409765619802e-05 0 0.014366816758271117 9.4845576845295235e-06 0 0.014427179905590949 6.5257285875347729e-05 0 0.014204832401168781 8.6524787379541586e-05 0 0.014311485802215336 6.620409765619802e-05 0 0.014427179905590949 6.5257285875347729e-05 0 0.014366816758271117 9.4845576845295235e-06 0 0.014649510990282716 1.8430419606224253e-05 0 0.014636921589118647 -6.3455575850682346e-05 0 0.014366816758271117 9.4845576845295235e-06 0 0.014427179905590949 6.5257285875347729e-05 0 0.014649510990282716 1.8430419606224253e-05 0 0.014724644554233689 5.7646396119791756e-05 0 0.014592952118126621 9.1288213858216317e-05 0 0.014649510990282716 1.8430419606224253e-05 0 0.014649510990282716 1.8430419606224253e-05 0 0.014829755646250088 -2.4695729496115038e-05 0 0.014636921589118647 -6.3455575850682346e-05 0 0.014820086077129049 1.1206124352179369e-05 0 0.014649510990282716 1.8430419606224253e-05 0 0.014829755646250088 -2.4695729496115038e-05 0 0.014735605481819469 -3.1438001673820831e-05 0 0.014803295825751911 -2.2442630127402445e-06 0 0.014999884872106265 2.3380264152976437e-06 0 0.015000001597560033 6.0796689431853019e-10 0 0.014999998433989942 1.4189110297394675e-09 0 0.014829755646250088 -2.4695729496115038e-05 0 0.014636921589118647 -6.3455575850682346e-05 0 0.014999413332366882 -1.5882250462405811e-07 0 0.014803295825751911 -2.2442630127402445e-06 0 0.014999913990920379 -3.7261865491942584e-10 0 0.014994301345553213 7.8226001003585916e-06 0 0.01499763857006684 2.500081807173758e-06 0 0.014993260089294263 4.4270425739339422e-06 0 0.01499763857006684 2.500081807173758e-06 0 0.01499737169966354 2.2452248100877362e-06 0 0.014993260089294263 4.4270425739339422e-06 0 0.014997494183993361 7.4097632130500919e-06 0 0.014999884872106265 2.3380264152976437e-06 0 0.01499763857006684 2.500081807173758e-06 0 0.014999884872106265 2.3380264152976437e-06 0 0.01499763857006684 2.500081807173758e-06 0 0.014999998433989942 1.4189110297394675e-09 0 0.01499763857006684 2.500081807173758e-06 0 0.014999998433989942 1.4189110297394675e-09 0 0.014999994066058987 1.2559771101747347e-09 0 0.01499763857006684 2.500081807173758e-06 0 0.014999994066058987 1.2559771101747347e-09 0 0.01499737169966354 2.2452248100877362e-06 0 0.014999994066058987 1.2559771101747347e-09 0 0.01499737169966354 2.2452248100877362e-06 0 0.014999998569078157 4.8238910451704414e-09 0 0.01499737169966354 2.2452248100877362e-06 0 0.014999998569078157 4.8238910451704414e-09 0 0.014997308199026926 3.2432697380306618e-06 0 0.014997308199026926 3.2432697380306618e-06 0 0.014995625946578828 2.3276407867085891e-06 0 0.014999085409240401 3.580143898362287e-06 0 0.014999998569078157 4.8238910451704414e-09 0 0.014997308199026926 3.2432697380306618e-06 0 0.014999085409240401 3.580143898362287e-06 0 0.01499737169966354 2.2452248100877362e-06 0 0.014997308199026926 3.2432697380306618e-06 0 0.014993260089294263 4.4270425739339422e-06 0 0.014994301345553213 7.8226001003585916e-06 0 0.014993260089294263 4.4270425739339422e-06 0 0.014990150412576319 1.2756366993014421e-05 0 0.014997308199026926 3.2432697380306618e-06 0 0.014993260089294263 4.4270425739339422e-06 0 0.014995625946578828 2.3276407867085891e-06 0 0.014993260089294263 4.4270425739339422e-06 0 0.014984333445983775 9.6532751924088579e-06 0 0.014990150412576319 1.2756366993014421e-05 0 0.014772948359949299 0.00017458212774590704 0 0.014738305169134592 0.00043765846028618645 0 0.015054805225480241 -3.9056709784958361e-05 0 0.014772948359949299 0.00017458212774590704 0 0.015002704101192114 1.7815352114857221e-05 0 0.015001536146778311 1.9007869618118597e-05 0 0.015002152418976759 1.9213568721434916e-05 0 0.014772948359949299 0.00017458212774590704 0 0.014777688713662342 0.00048526014644923007 0 0.014772948359949299 0.00017458212774590704 0 0.01502919184063352 5.432283486872073e-06 0 0.015002704101192114 1.7815352114857221e-05 0 0.015001536146778311 1.9007869618118597e-05 0 0.015004185263953074 1.4960939402803417e-05 0 0.014349003650653483 0.00077759283336824032 0 0.014335021831319157 0.00080747517962480406 0 0.014319187656581569 0.00080218311564370494 0 0.014349003650653483 0.00077759283336824032 0 0.014335021831319157 0.00080747517962480406 0 0.014354893992056507 0.00081405420859348475 0 0.014335429717019869 0.00084095779603871219 0 0.014335021831319157 0.00080747517962480406 0 0.014354893992056507 0.00081405420859348475 0 0.014320611069110561 0.00064884726978052965 0 0.014777688713662342 0.00048526014644923007 0 0.014397303046948225 0.00080782755782362161 0 0.014354893992056507 0.00081405420859348475 0 0.014372467469221658 0.00079391891190971344 0 0.014349003650653483 0.00077759283336824032 0 0.014354893992056507 0.00081405420859348475 0 0.014372467469221658 0.00079391891190971344 0 0.015262624298393182 0.00029871877340665611 0 0.015252414859969183 0.00020503564638202742 0 0.015339013710267333 0.0002320201495128151 0 0.01520527630763301 7.4499749424450305e-05 0 0.014777688713662342 0.00048526014644923007 0 0.014785586634352324 0.00058336276150111068 0 0.014777688713662342 0.00048526014644923007 0 0.014314714446776197 0.00083538582589345889 0 0.014335021831319157 0.00080747517962480406 0 0.014316893575195784 0.00080753306167072997 0 0.015002704101192114 1.7815352114857221e-05 0 0.015002152418976759 1.9213568721434916e-05 0 0.015003122903733948 1.6810009640209072e-05 0 0.015002704101192114 1.7815352114857221e-05 0 0.015003122903733948 1.6810009640209072e-05 0 0.015004185263953074 1.4960939402803417e-05 0 0.015003392620197863 1.6996810231127326e-05 0 0.015003122903733948 1.6810009640209072e-05 0 0.015002262065715312 1.3373237136090772e-05 0 0.015003392620197863 1.6996810231127326e-05 0 0.015002152418976759 1.9213568721434916e-05 0 0.015003122903733948 1.6810009640209072e-05 0 0.015003122903733948 1.6810009640209072e-05 0 0.015002023211877038 6.5760412974439854e-06 0 0.015002262065715312 1.3373237136090772e-05 0 0.015003122903733948 1.6810009640209072e-05 0 0.015002023211877038 6.5760412974439854e-06 0 0.015004185263953074 1.4960939402803417e-05 0 0.014992994066547177 4.501584625674111e-06 0 0.01502919184063352 5.432283486872073e-06 0 0.014999998569078157 4.8238910451704414e-09 0 0.015002023211877038 6.5760412974439854e-06 0 0.014999085409240401 3.580143898362287e-06 0 0.014999998569078157 4.8238910451704414e-09 0 0.015002023211877038 6.5760412974439854e-06 0 0.015000005186972861 6.3728212697302771e-09 0 0.015002023211877038 6.5760412974439854e-06 0 0.015000005186972861 6.3728212697302771e-09 0 0.015001638744106011 6.9112510922092555e-06 0 0.015000005186972861 6.3728212697302771e-09 0 0.015001638744106011 6.9112510922092555e-06 0 0.015000004233233782 8.6800717950422139e-09 0 0.015000004233233782 8.6800717950422139e-09 0 0.015002022934451867 1.2698168274929106e-05 0 0.015003494521316312 1.826377954502943e-05 0 0.015001638744106011 6.9112510922092555e-06 0 0.015000004233233782 8.6800717950422139e-09 0 0.015002022934451867 1.2698168274929106e-05 0 0.015002022934451867 1.2698168274929106e-05 0 0.015003494521316312 1.826377954502943e-05 0 0.015003407897016992 1.9503520225587292e-05 0 0.015001638744106011 6.9112510922092555e-06 0 0.015002022934451867 1.2698168274929106e-05 0 0.015002262065715312 1.3373237136090772e-05 0 0.015002023211877038 6.5760412974439854e-06 0 0.015001638744106011 6.9112510922092555e-06 0 0.015002262065715312 1.3373237136090772e-05 0 0.015002022934451867 1.2698168274929106e-05 0 0.015002262065715312 1.3373237136090772e-05 0 0.015003407897016992 1.9503520225587292e-05 0 0.015000012494356046 2.2982214117044448e-08 0 0.015003494521316312 1.826377954502943e-05 0 0.014999121570471207 2.8774245171929063e-05 0 0.015000004233233782 8.6800717950422139e-09 0 0.015000012494356046 2.2982214117044448e-08 0 0.015003494521316312 1.826377954502943e-05 0 0.015003494521316312 1.826377954502943e-05 0 0.014999121570471207 2.8774245171929063e-05 0 0.01500346409387191 3.5295804683338592e-05 0 0.014999121570471207 2.8774245171929063e-05 0 0.01500346409387191 3.5295804683338592e-05 0 0.014973840833962086 7.893855510346357e-05 0 0.015025123784377948 0.00013105250319486486 0 0.014977608576654504 0.00019526407551613502 0 0.014973840833962086 7.893855510346357e-05 0 0.015003494521316312 1.826377954502943e-05 0 0.01500346409387191 3.5295804683338592e-05 0 0.015003407897016992 1.9503520225587292e-05 0 0.015015275841215611 8.2796785899699632e-05 0 0.015054826619347676 9.6297293748129367e-05 0 0.015025123784377948 0.00013105250319486486 0 0.015067865463441332 0.00020629127200641752 0 0.015140755472145865 0.00016618234528465397 0 0.015067865463441332 0.00020629127200641752 0 0.015149060543312175 0.0002749309461820594 0 0.015025489316974909 0.00028918708278502872 0 0.015025123784377948 0.00013105250319486486 0 0.015067865463441332 0.00020629127200641752 0 0.014977608576654504 0.00019526407551613502 0 0.015067865463441332 0.00020629127200641752 0 0.014977608576654504 0.00019526407551613502 0 0.015025489316974909 0.00028918708278502872 0 0.01520527630763301 7.4499749424450305e-05 0 0.015054826619347676 9.6297293748129367e-05 0 0.015003392620197863 1.6996810231127326e-05 0 0.015002262065715312 1.3373237136090772e-05 0 0.015003407897016992 1.9503520225587292e-05 0 0.015067865463441332 0.00020629127200641752 0 0.015140755472145865 0.00016618234528465397 0 0.015149060543312175 0.0002749309461820594 0 0.015252414859969183 0.00020503564638202742 0 0.015140755472145865 0.00016618234528465397 0 0.015149060543312175 0.0002749309461820594 0 0.015262624298393182 0.00029871877340665611 0 0.015252414859969183 0.00020503564638202742 0 0.015149060543312175 0.0002749309461820594 0 0.015262624298393182 0.00029871877340665611 0 0.015173023932675648 0.00039659911114071352 0 0.015149060543312175 0.0002749309461820594 0 0.014286318827089126 0.00087526131234638975 0 0.014321714705688058 0.00090809576397279338 0 0.014278703232471036 0.00087675755976490384 0 0.014287329291769919 0.00085925278684160383 0 0.014286318827089126 0.00087526131234638975 0 0.014321714705688058 0.00090809576397279338 0 0.014785586634352324 0.00058336276150111068 0 0.014748538038340904 0.000652495276671959 0 0.015173023932675648 0.00039659911114071352 0 0.015149060543312175 0.0002749309461820594 0 0.015069667996718864 0.00038796591492845514 0 0.015149060543312175 0.0002749309461820594 0 0.015025489316974909 0.00028918708278502872 0 0.015069667996718864 0.00038796591492845514 0 0.014977608576654504 0.00019526407551613502 0 0.015025489316974909 0.00028918708278502872 0 0.014926757790499698 0.00027144530988360005 0 0.015025489316974909 0.00028918708278502872 0 0.014927495415814994 0.00040560972792397324 0 0.014926757790499698 0.00027144530988360005 0 0.015025489316974909 0.00028918708278502872 0 0.014927495415814994 0.00040560972792397324 0 0.015069667996718864 0.00038796591492845514 0 0.014927495415814994 0.00040560972792397324 0 0.015069667996718864 0.00038796591492845514 0 0.01503882517804072 0.00055279460131722757 0 0.015173023932675648 0.00039659911114071352 0 0.015069667996718864 0.00038796591492845514 0 0.01503882517804072 0.00055279460131722757 0 0.014748538038340904 0.000652495276671959 0 0.014751376898897091 0.00072408812671756614 0 0.01503882517804072 0.00055279460131722757 0 0.01473225572609939 0.00075658181655122246 0 0.014732022901338532 0.00057293069648564632 0 0.014927495415814994 0.00040560972792397324 0 0.01503882517804072 0.00055279460131722757 0 0.014732022901338532 0.00057293069648564632 0 0.014751376898897091 0.00072408812671756614 0 0.014734992496647566 0.0007539242604547243 0 0.014465822854705346 0.00090398110940113094 0 0.01453382293208587 0.00078555068746032411 0 0.01473225572609939 0.00075658181655122246 0 0.01453382293208587 0.00078555068746032411 0 0.01473225572609939 0.00075658181655122246 0 0.014634394782250993 0.00075461975416930903 0 0.014465822854705346 0.00090398110940113094 0 0.014412463361699445 0.00078687451726681295 0 0.01433827308489323 0.00085520115535753932 0 0.014465822854705346 0.00090398110940113094 0 0.01453382293208587 0.00078555068746032411 0 0.014412463361699445 0.00078687451726681295 0 0.014283077922063365 0.00080704965907587407 0 0.01433827308489323 0.00085520115535753932 0 0.014317791695727965 0.00075309938469606604 0 0.014412463361699445 0.00078687451726681295 0 0.01433827308489323 0.00085520115535753932 0 0.014317791695727965 0.00075309938469606604 0 0.014217421438686513 0.00080795487664492326 0 0.014283077922063365 0.00080704965907587407 0 0.014278703232471036 0.00087675755976490384 0 0.014283077922063365 0.00080704965907587407 0 0.014317791695727965 0.00075309938469606604 0 0.014254481812818924 0.00073483370354837413 0 0.014217421438686513 0.00080795487664492326 0 0.014283077922063365 0.00080704965907587407 0 0.014254481812818924 0.00073483370354837413 0 0.014283077922063365 0.00080704965907587407 0 0.014278703232471036 0.00087675755976490384 0 0.01433827308489323 0.00085520115535753932 0 0.014321714705688058 0.00090809576397279338 0 0.014278703232471036 0.00087675755976490384 0 0.01433827308489323 0.00085520115535753932 0 0.014321714705688058 0.00090809576397279338 0 0.014465822854705346 0.00090398110940113094 0 0.01433827308489323 0.00085520115535753932 0 0.014791000497990975 0.00056344845715686697 0 0.014881468258158118 0.00048536369128891185 0 0.014852487022996902 0.00043118059295833448 0 0.014731662592426163 0.00061137785282581937 0 0.014852487022996902 0.00043118059295833448 0 0.014799992637478008 0.0004337783224699455 0 0.014611892810436945 0.00054924026072332172 0 0.014791000497990975 0.00056344845715686697 0 0.014852487022996902 0.00043118059295833448 0 0.014670237242490924 0.00058030815258216075 0 0.014840313874088728 0.00044392210654679002 0 0.014731662592426163 0.00061137785282581937 0 0.014799992637478008 0.0004337783224699455 0 0.014673724467123147 0.00049107613392648461 0 0.014611892810436945 0.00054924026072332172 0 0.014713109280526047 0.00063832444427373836 0 0.014622003488308775 0.00073236844573292556 0 0.014611892810436945 0.00054924026072332172 0 0.014713109280526047 0.00063832444427373836 0 0.014791000497990975 0.00056344845715686697 0 0.014713109280526047 0.00063832444427373836 0 0.014791000497990975 0.00056344845715686697 0 0.014784811497429407 0.00065076148054848981 0 0.014866082613010104 0.00062607994787809587 0 0.014850193963962472 0.00059439657671211347 0 0.01494423868366352 0.00051169187010810763 0 0.014784811497429407 0.00065076148054848981 0 0.014850193963962472 0.00059439657671211347 0 0.014824129702952426 0.00068484819740846051 0 0.014866082613010104 0.00062607994787809587 0 0.014850193963962472 0.00059439657671211347 0 0.014824129702952426 0.00068484819740846051 0 0.014791000497990975 0.00056344845715686697 0 0.014784811497429407 0.00065076148054848981 0 0.014850193963962472 0.00059439657671211347 0 0.014837968945473637 0.00054550769980252971 0 0.014777947443175024 0.00072560750526378965 0 0.014866082613010104 0.00062607994787809587 0 0.01494423868366352 0.00051169187010810763 0 0.014859170632869697 0.00069456070922449022 0 0.01473225572609939 0.00075658181655122246 0 0.014732022901338532 0.00057293069648564632 0 0.014700671203116926 0.00078973860070325776 0 0.01494423868366352 0.00051169187010810763 0 0.014881468258158118 0.00048536369128891185 0 0.014959041641088579 0.00033142852609623465 0 0.014791000497990975 0.00056344845715686697 0 0.014850193963962472 0.00059439657671211347 0 0.014881468258158118 0.00048536369128891185 0 0.014850193963962472 0.00059439657671211347 0 0.01494423868366352 0.00051169187010810763 0 0.014881468258158118 0.00048536369128891185 0 0.014959041641088579 0.00033142852609623465 0 0.014860291975940222 0.00035771398945090707 0 0.014852487022996902 0.00043118059295833448 0 0.014881468258158118 0.00048536369128891185 0 0.014959041641088579 0.00033142852609623465 0 0.014852487022996902 0.00043118059295833448 0 0.014837968945473637 0.00054550769980252971 0 0.014888812237016172 0.00033787839457793397 0 0.014927495415814994 0.00040560972792397324 0 0.014732022901338532 0.00057293069648564632 0 0.014817013780255406 0.00033345731949075368 0 0.014926757790499698 0.00027144530988360005 0 0.014817013780255406 0.00033345731949075368 0 0.014931356293491127 0.00018375643950398982 0 0.014927495415814994 0.00040560972792397324 0 0.014926757790499698 0.00027144530988360005 0 0.014817013780255406 0.00033345731949075368 0 0.014959041641088579 0.00033142852609623465 0 0.014880476349791397 0.00026625889233835854 0 0.014931356293491127 0.00018375643950398982 0 0.014959041641088579 0.00033142852609623465 0 0.014880476349791397 0.00026625889233835854 0 0.014860291975940222 0.00035771398945090707 0 0.014888812237016172 0.00033787839457793397 0 0.014921287653139298 0.0002009304403489278 0 0.014880476349791397 0.00026625889233835854 0 0.014860291975940222 0.00035771398945090707 0 0.014822078276662789 0.00033173067863121331 0 0.014860291975940222 0.00035771398945090707 0 0.014799992637478008 0.0004337783224699455 0 0.014822078276662789 0.00033173067863121331 0 0.014860291975940222 0.00035771398945090707 0 0.014852487022996902 0.00043118059295833448 0 0.014799992637478008 0.0004337783224699455 0 0.014799992637478008 0.0004337783224699455 0 0.014822078276662789 0.00033173067863121331 0 0.014776740094285876 0.00034812720182704124 0 0.014800391060255458 0.00042943234293933084 0 0.01468731937698434 0.00037128741957252417 0 0.014799992637478008 0.0004337783224699455 0 0.014595410976048277 0.00038154973569212193 0 0.014673724467123147 0.00049107613392648461 0 0.014833578061241326 0.00025104576378438581 0 0.014822078276662789 0.00033173067863121331 0 0.014776740094285876 0.00034812720182704124 0 0.014880476349791397 0.00026625889233835854 0 0.014833578061241326 0.00025104576378438581 0 0.014822078276662789 0.00033173067863121331 0 0.014833578061241326 0.00025104576378438581 0 0.014905666027423494 0.00016072259401844505 0 0.014872345174033815 0.00012816708741185078 0 0.014880476349791397 0.00026625889233835854 0 0.014833578061241326 0.00025104576378438581 0 0.014905666027423494 0.00016072259401844505 0 0.014880476349791397 0.00026625889233835854 0 0.014905666027423494 0.00016072259401844505 0 0.014931356293491127 0.00018375643950398982 0 0.014905666027423494 0.00016072259401844505 0 0.014940802582060158 0.0001183500746717286 0 0.014953500983264457 5.4115517777088667e-05 0 0.014905666027423494 0.00016072259401844505 0 0.014872345174033815 0.00012816708741185078 0 0.014953500983264457 5.4115517777088667e-05 0 0.014977608576654504 0.00019526407551613502 0 0.014926757790499698 0.00027144530988360005 0 0.014931356293491127 0.00018375643950398982 0 0.014905666027423494 0.00016072259401844505 0 0.014931356293491127 0.00018375643950398982 0 0.014940802582060158 0.0001183500746717286 0 0.014940802582060158 0.0001183500746717286 0 0.014973840833962086 7.893855510346357e-05 0 0.014953500983264457 5.4115517777088667e-05 0 0.014931356293491127 0.00018375643950398982 0 0.014940802582060158 0.0001183500746717286 0 0.014973840833962086 7.893855510346357e-05 0 0.015015275841215611 8.2796785899699632e-05 0 0.014969695804922479 7.7522638472557099e-05 0 0.014977608576654504 0.00019526407551613502 0 0.014931356293491127 0.00018375643950398982 0 0.014973840833962086 7.893855510346357e-05 0 0.014999121570471207 2.8774245171929063e-05 0 0.014973840833962086 7.893855510346357e-05 0 0.014999968265299755 1.2209665318541122e-08 0 0.014973840833962086 7.893855510346357e-05 0 0.014999968265299755 1.2209665318541122e-08 0 0.014953500983264457 5.4115517777088667e-05 0 0.015000012494356046 2.2982214117044448e-08 0 0.014999121570471207 2.8774245171929063e-05 0 0.014999968265299755 1.2209665318541122e-08 0 0.014872345174033815 0.00012816708741185078 0 0.014953500983264457 5.4115517777088667e-05 0 0.014917085828161116 7.9558572032081865e-06 0 0.014999968265299755 1.2209665318541122e-08 0 0.014953500983264457 5.4115517777088667e-05 0 0.0149999396660779 3.197074816688101e-08 0 0.014953500983264457 5.4115517777088667e-05 0 0.0149999396660779 3.197074816688101e-08 0 0.014917085828161116 7.9558572032081865e-06 0 0.0149999396660779 3.197074816688101e-08 0 0.014917085828161116 7.9558572032081865e-06 0 0.014999772299119229 -8.2334336627872942e-08 0 0.014917085828161116 7.9558572032081865e-06 0 0.014852913584354853 -7.3813384963104261e-05 0 0.014762442937017266 0.0001073172316527289 0 0.014917085828161116 7.9558572032081865e-06 0 0.014852913584354853 -7.3813384963104261e-05 0 0.014999772299119229 -8.2334336627872942e-08 0 0.014852913584354853 -7.3813384963104261e-05 0 0.014999772299119229 -8.2334336627872942e-08 0 0.014999881115816818 2.8026598683522032e-08 0 0.014852913584354853 -7.3813384963104261e-05 0 0.014999881115816818 2.8026598683522032e-08 0 0.015000472183393967 -4.2085890275840835e-05 0 0.014999881115816818 2.8026598683522032e-08 0 0.015000472183393967 -4.2085890275840835e-05 0 0.015000110355287264 -5.8305922918322153e-08 0 0.014852913584354853 -7.3813384963104261e-05 0 0.014310977424994735 -0.00022641772044686701 0 0.01449213710658364 4.3952507395764783e-05 0 0.014854216285402625 -8.342771036808445e-05 0 0.014594114765546212 -0.00013986638359858832 0 0.014852913584354853 -7.3813384963104261e-05 0 0.01449213710658364 4.3952507395764783e-05 0 0.014762442937017266 0.0001073172316527289 0 0.014310977424994735 -0.00022641772044686701 0 0.01449213710658364 4.3952507395764783e-05 0 0.014060159426540965 4.6577990929505936e-05 0 0.01449213710658364 4.3952507395764783e-05 0 0.014277301561122604 0.00023973189099153335 0 0.014060159426540965 4.6577990929505936e-05 0 0.01449213710658364 4.3952507395764783e-05 0 0.014762442937017266 0.0001073172316527289 0 0.014638815517293617 0.00033905977795308439 0 0.01449213710658364 4.3952507395764783e-05 0 0.014277301561122604 0.00023973189099153335 0 0.014638815517293617 0.00033905977795308439 0 0.014782038091348914 0.00023864941163470661 0 0.014762442937017266 0.0001073172316527289 0 0.014638815517293617 0.00033905977795308439 0 0.014833578061241326 0.00025104576378438581 0 0.014872345174033815 0.00012816708741185078 0 0.014782038091348914 0.00023864941163470661 0 0.014872345174033815 0.00012816708741185078 0 0.014782038091348914 0.00023864941163470661 0 0.014762442937017266 0.0001073172316527289 0 0.014872345174033815 0.00012816708741185078 0 0.014917085828161116 7.9558572032081865e-06 0 0.014762442937017266 0.0001073172316527289 0 0.014987861886734975 6.2182106833758623e-06 0 0.014999977546364968 -1.6053754203609878e-09 0 0.014999962503944043 2.0680039208022444e-08 0 0.014987861886734975 6.2182106833758623e-06 0 0.014985336544788648 1.1246291615789281e-05 0 0.014967491250484454 2.1482831757193131e-05 0 0.014987861886734975 6.2182106833758623e-06 0 0.014999977546364968 -1.6053754203609878e-09 0 0.014985336544788648 1.1246291615789281e-05 0 0.014999977546364968 -1.6053754203609878e-09 0 0.014985336544788648 1.1246291615789281e-05 0 0.014998034000773118 7.2079453164297893e-06 0 0.015097884682280181 8.2687986650584716e-06 0 0.014705357004697647 -1.773700689644193e-05 0 0.014705357004697647 -1.773700689644193e-05 0 0.015000223937536477 -1.291415625203072e-07 0 0.014999977546364968 -1.6053754203609878e-09 0 0.014998034000773118 7.2079453164297893e-06 0 0.015000013269938552 5.0384468455088687e-09 0 0.015000472183393967 -4.2085890275840835e-05 0 0.015016890500971642 -3.3641033242928503e-05 0 0.015000110355287264 -5.8305922918322153e-08 0 0.014594114765546212 -0.00013986638359858832 0 0.014705357004697647 -1.773700689644193e-05 0 0.014310977424994735 -0.00022641772044686701 0 0.013899624677820095 -0.00022563235458335134 0 0.014060159426540965 4.6577990929505936e-05 0 0.014277301561122604 0.00023973189099153335 0 0.014060159426540965 4.6577990929505936e-05 0 0.013867443672629336 0.00027714771501359867 0 0.014060159426540965 4.6577990929505936e-05 0 0.013722951552361197 4.5735618806915758e-05 0 0.013867443672629336 0.00027714771501359867 0 0.013899624677820095 -0.00022563235458335134 0 0.014060159426540965 4.6577990929505936e-05 0 0.013722951552361197 4.5735618806915758e-05 0 0.014705357004697647 -1.773700689644193e-05 0 0.014314513440837659 2.8319500619589824e-05 0 0.014985336544788648 1.1246291615789281e-05 0 0.014986334236645391 3.4106084831287267e-05 0 0.014948561827043797 4.0855839621306957e-05 0 0.014985336544788648 1.1246291615789281e-05 0 0.014996016037094521 1.1883433531464887e-05 0 0.014986334236645391 3.4106084831287267e-05 0 0.014986334236645391 3.4106084831287267e-05 0 0.014908709194348849 9.4067209298088998e-05 0 0.014931853939515608 0.0001175544686249167 0 0.014314513440837659 2.8319500619589824e-05 0 0.014268829939966636 0.00023443082587409222 0 0.013722951552361197 4.5735618806915758e-05 0 0.013525513273004081 0.00026714882776604872 0 0.013867443672629336 0.00027714771501359867 0 0.014986334236645391 3.4106084831287267e-05 0 0.014948561827043797 4.0855839621306957e-05 0 0.014908709194348849 9.4067209298088998e-05 0 0.014909773609124242 9.2593404179351364e-05 0 0.014840570742797586 2.6578701625521143e-05 0 0.014948561827043797 4.0855839621306957e-05 0 0.014908709194348849 9.4067209298088998e-05 0 0.014952937495406743 2.9831823714289743e-05 0 0.014948561827043797 4.0855839621306957e-05 0 0.014967491250484454 2.1482831757193131e-05 0 0.014952937495406743 2.9831823714289743e-05 0 0.014985336544788648 1.1246291615789281e-05 0 0.014948561827043797 4.0855839621306957e-05 0 0.014967491250484454 2.1482831757193131e-05 0 0.013525513273004081 0.00026714882776604872 0 0.013431571906904789 0.00047420967229355764 0 0.013342266436900426 0.00046173401537054912 0 0.014268829939966636 0.00023443082587409222 0 0.013732919881026869 0.00012273868646415519 0 0.014908709194348849 9.4067209298088998e-05 0 0.014931853939515608 0.0001175544686249167 0 0.014810392795454078 0.00030751817757009898 0 0.013525513273004081 0.00026714882776604872 0 0.013635376681726692 0.00043871389590882968 0 0.013867443672629336 0.00027714771501359867 0 0.013525513273004081 0.00026714882776604872 0 0.013635376681726692 0.00043871389590882968 0 0.013431571906904789 0.00047420967229355764 0 0.013836093109711879 0.00050023314809276493 0 0.013867443672629336 0.00027714771501359867 0 0.014052752999567644 0.00043812179412598034 0 0.013635376681726692 0.00043871389590882968 0 0.013836093109711879 0.00050023314809276493 0 0.013867443672629336 0.00027714771501359867 0 0.014277301561122604 0.00023973189099153335 0 0.013867443672629336 0.00027714771501359867 0 0.014052752999567644 0.00043812179412598034 0 0.013836093109711879 0.00050023314809276493 0 0.014052752999567644 0.00043812179412598034 0 0.013955189978604732 0.0006129669574518416 0 0.014052752999567644 0.00043812179412598034 0 0.013955189978604732 0.0006129669574518416 0 0.01411047729139943 0.00060835754931668905 0 0.013955189978604732 0.0006129669574518416 0 0.013990342716677812 0.00073805626855740338 0 0.01411047729139943 0.00060835754931668905 0 0.013990342716677812 0.00073805626855740338 0 0.014107742811796874 0.00082924520156743456 0 0.013896588648639029 0.00089600381461170441 0 0.013990342716677812 0.00073805626855740338 0 0.013820348659002968 0.00071619374911860325 0 0.013896588648639029 0.00089600381461170441 0 0.013955189978604732 0.0006129669574518416 0 0.013990342716677812 0.00073805626855740338 0 0.013820348659002968 0.00071619374911860325 0 0.013820348659002968 0.00071619374911860325 0 0.013745434789637785 0.00086166013063627544 0 0.013896588648639029 0.00089600381461170441 0 0.013820348659002968 0.00071619374911860325 0 0.013647877672152161 0.00059788386204139151 0 0.013614384474930033 0.00078370640454573297 0 0.013820348659002968 0.00071619374911860325 0 0.013745434789637785 0.00086166013063627544 0 0.013614384474930033 0.00078370640454573297 0 0.013836093109711879 0.00050023314809276493 0 0.013955189978604732 0.0006129669574518416 0 0.013820348659002968 0.00071619374911860325 0 0.013836093109711879 0.00050023314809276493 0 0.013820348659002968 0.00071619374911860325 0 0.013647877672152161 0.00059788386204139151 0 0.013635376681726692 0.00043871389590882968 0 0.013836093109711879 0.00050023314809276493 0 0.013647877672152161 0.00059788386204139151 0 0.013635376681726692 0.00043871389590882968 0 0.013503166425052579 0.00056774869034679283 0 0.013647877672152161 0.00059788386204139151 0 0.013635376681726692 0.00043871389590882968 0 0.013503166425052579 0.00056774869034679283 0 0.013431571906904789 0.00047420967229355764 0 0.013503166425052579 0.00056774869034679283 0 0.013647877672152161 0.00059788386204139151 0 0.013413974774458711 0.00069030001457158496 0 0.013647877672152161 0.00059788386204139151 0 0.013614384474930033 0.00078370640454573297 0 0.013413974774458711 0.00069030001457158496 0 0.013745434789637785 0.00086166013063627544 0 0.013614384474930033 0.00078370640454573297 0 0.01358253703919019 0.00093532253496424189 0 0.013614384474930033 0.00078370640454573297 0 0.013403598964626803 0.00087592281890288204 0 0.01358253703919019 0.00093532253496424189 0 0.013614384474930033 0.00078370640454573297 0 0.013403598964626803 0.00087592281890288204 0 0.013413974774458711 0.00069030001457158496 0 0.013403598964626803 0.00087592281890288204 0 0.013413974774458711 0.00069030001457158496 0 0.013206860923105749 0.00076049367216116277 0 0.013413974774458711 0.00069030001457158496 0 0.013206860923105749 0.00076049367216116277 0 0.013270837921295606 0.00058646345615161752 0 0.013403598964626803 0.00087592281890288204 0 0.01319828525647008 0.00092448686404789321 0 0.013206860923105749 0.00076049367216116277 0 0.01319828525647008 0.00092448686404789321 0 0.013206860923105749 0.00076049367216116277 0 0.01296954958992096 0.00088487027058901382 0 0.013206860923105749 0.00076049367216116277 0 0.013270837921295606 0.00058646345615161752 0 0.012944428649978308 0.0006628277487868723 0 0.013270837921295606 0.00058646345615161752 0 0.013172342375699022 0.00040054624145483995 0 0.012944428649978308 0.0006628277487868723 0 0.013503166425052579 0.00056774869034679283 0 0.013413974774458711 0.00069030001457158496 0 0.013270837921295606 0.00058646345615161752 0 0.013503166425052579 0.00056774869034679283 0 0.013270837921295606 0.00058646345615161752 0 0.013431571906904789 0.00047420967229355764 0 0.013270837921295606 0.00058646345615161752 0 0.013431571906904789 0.00047420967229355764 0 0.013172342375699022 0.00040054624145483995 0 0.013327082933576973 0.00034278490252331092 0 0.013732919881026869 0.00012273868646415519 0 0.014595410976048277 0.00038154973569212193 0 0.014389036147608163 0.00031192955320063565 0 0.014394988365567352 0.00055281136678200034 0 0.014595410976048277 0.00038154973569212193 0 0.014569167554157603 0.00054904010563396922 0 0.014673724467123147 0.00049107613392648461 0 0.014833578061241326 0.00025104576378438581 0 0.014782038091348914 0.00023864941163470661 0 0.014776740094285876 0.00034812720182704124 0 0.01468731937698434 0.00037128741957252417 0 0.014506420776201899 0.00032024140966227727 0 0.014782038091348914 0.00023864941163470661 0 0.014776740094285876 0.00034812720182704124 0 0.014638815517293617 0.00033905977795308439 0 0.014289425567208608 0.00024168648072542983 0 0.014506420776201899 0.00032024140966227727 0 0.014277301561122604 0.00023973189099153335 0 0.014389036147608163 0.00031192955320063565 0 0.014252507472794718 0.00044475021786579718 0 0.014277301561122604 0.00023973189099153335 0 0.014052752999567644 0.00043812179412598034 0 0.014252507472794718 0.00044475021786579718 0 0.014052752999567644 0.00043812179412598034 0 0.014252507472794718 0.00044475021786579718 0 0.01411047729139943 0.00060835754931668905 0 0.014389036147608163 0.00031192955320063565 0 0.014252507472794718 0.00044475021786579718 0 0.014394988365567352 0.00055281136678200034 0 0.014252507472794718 0.00044475021786579718 0 0.014239529958832058 0.00066962416214454146 0 0.014394988365567352 0.00055281136678200034 0 0.014252507472794718 0.00044475021786579718 0 0.01411047729139943 0.00060835754931668905 0 0.014239529958832058 0.00066962416214454146 0 0.013990342716677812 0.00073805626855740338 0 0.01411047729139943 0.00060835754931668905 0 0.014107742811796874 0.00082924520156743456 0 0.01411047729139943 0.00060835754931668905 0 0.014107742811796874 0.00082924520156743456 0 0.014239529958832058 0.00066962416214454146 0 0.014310743026304215 0.00080429005206132968 0 0.014239529958832058 0.00066962416214454146 0 0.014394988365567352 0.00055281136678200034 0 0.014107742811796874 0.00082924520156743456 0 0.014310743026304215 0.00080429005206132968 0 0.014239529958832058 0.00066962416214454146 0 0.014310743026304215 0.00080429005206132968 0 0.014394988365567352 0.00055281136678200034 0 0.01449551352494674 0.0008079755022940983 0 0.014394988365567352 0.00055281136678200034 0 0.014569167554157603 0.00054904010563396922 0 0.01449551352494674 0.0008079755022940983 0 0.014595410976048277 0.00038154973569212193 0 0.014394988365567352 0.00055281136678200034 0 0.014569167554157603 0.00054904010563396922 0 0.014731662592426163 0.00061137785282581937 0 0.014569167554157603 0.00054904010563396922 0 0.014673724467123147 0.00049107613392648461 0 0.014670237242490924 0.00058030815258216075 0 0.014454004305336537 0.00075626507462334298 0 0.014731662592426163 0.00061137785282581937 0 0.014569167554157603 0.00054904010563396922 0 0.01449551352494674 0.0008079755022940983 0 0.014611892810436945 0.00054924026072332172 0 0.014412055750045435 0.00069934647103503031 0 0.014622003488308775 0.00073236844573292556 0 0.014488508325284866 0.00082061615782578839 0 0.014412055750045435 0.00069934647103503031 0 0.014622003488308775 0.00073236844573292556 0 0.014488508325284866 0.00082061615782578839 0 0.014622003488308775 0.00073236844573292556 0 0.014578947233194963 0.00083573075858665066 0 0.010453563471136938 0.00051067362117694724 0 0.010469053020649287 0.00060809090596607802 0 0.011056864903506028 0.00047004359471811288 0 0.014488508325284866 0.00082061615782578839 0 0.014454754180714409 0.00093686734754280939 0 0.014578947233194963 0.00083573075858665066 0 0.014488508325284866 0.00082061615782578839 0 0.014454754180714409 0.00093686734754280939 0 0.014361189902618263 0.0008874300295029419 0 0.010453563471136938 0.00051067362117694724 0 0.010168813087217957 0.00055574707984481044 0 0.010169883948437613 0.00057183324072943942 0 0.012378577422769817 0.0007227330491952563 0 0.012545127221736327 0.00078571889402093977 0 0.014454754180714409 0.00093686734754280939 0 0.014361189902618263 0.0008874300295029419 0 0.014237236103682023 0.0010274020331918295 0 0.010453563471136938 0.00051067362117694724 0 0.010169883948437613 0.00057183324072943942 0 0.010469053020649287 0.00060809090596607802 0 0.014488508325284866 0.00082061615782578839 0 0.014361189902618263 0.0008874300295029419 0 0.014412055750045435 0.00069934647103503031 0 0.014454004305336537 0.00075626507462334298 0 0.014243327748325417 0.00093391386293264524 0 0.014361189902618263 0.0008874300295029419 0 0.014412055750045435 0.00069934647103503031 0 0.014228513017216875 0.00095186174405383994 0 0.014310743026304215 0.00080429005206132968 0 0.01449551352494674 0.0008079755022940983 0 0.014228513017216875 0.00095186174405383994 0 0.014310743026304215 0.00080429005206132968 0 0.014191930278676825 0.00089521595093754636 0 0.014228513017216875 0.00095186174405383994 0 0.014107742811796874 0.00082924520156743456 0 0.014310743026304215 0.00080429005206132968 0 0.014191930278676825 0.00089521595093754636 0 0.014107742811796874 0.00082924520156743456 0 0.014122185461525365 0.00098248720481444946 0 0.013992005167102981 0.00098552748280973657 0 0.014107742811796874 0.00082924520156743456 0 0.014191930278676825 0.00089521595093754636 0 0.014122185461525365 0.00098248720481444946 0 0.014191930278676825 0.00089521595093754636 0 0.014122185461525365 0.00098248720481444946 0 0.014228513017216875 0.00095186174405383994 0 0.0078044926070495024 0.00084912601468033362 0 0.010521051164900333 0.0009850751869113568 0 0.0063934823044238713 0.0012033503168997896 0 0.0064934198927205601 0.0011636931117324268 0 0.0066811748253727274 0.0012751700092232927 0 0.012545127221736327 0.00078571889402093977 0 0.010521051164900333 0.0009850751869113568 0 0.014122185461525365 0.00098248720481444946 0 0.014237236103682023 0.0010274020331918295 0 0.013978787246263334 0.0011378547482429149 0 0.010168813087217957 0.00055574707984481044 0 0.010169883948437613 0.00057183324072943942 0 0.010115571649176282 0.00060949001446825501 0 0.014361189902618263 0.0008874300295029419 0 0.014228513017216875 0.00095186174405383994 0 0.014237236103682023 0.0010274020331918295 0 0.014122185461525365 0.00098248720481444946 0 0.014228513017216875 0.00095186174405383994 0 0.014237236103682023 0.0010274020331918295 0 0.0063934823044238713 0.0012033503168997896 0 0.0063448249310748229 0.0011154744996217222 0 0.0062742995869069559 0.0010928401645822281 0 0.0063934823044238713 0.0012033503168997896 0 0.0063448249310748229 0.0011154744996217222 0 0.0064136278832432891 0.0011382390687972497 0 0.0063934823044238713 0.0012033503168997896 0 0.0064136278832432891 0.0011382390687972497 0 0.0064934198927205601 0.0011636931117324268 0 0.0064136278832432891 0.0011382390687972497 0 0.0064225338757172082 0.0010732546939700664 0 0.0064934198927205601 0.0011636931117324268 0 0.0063448249310748229 0.0011154744996217222 0 0.0064136278832432891 0.0011382390687972497 0 0.0064225338757172082 0.0010732546939700664 0 0.0063448249310748229 0.0011154744996217222 0 0.0064225338757172082 0.0010732546939700664 0 0.0062660496938768883 0.0010425676581359152 0 0.0064225338757172082 0.0010732546939700664 0 0.006569210712049676 0.0011243638295368248 0 0.0066002702682811595 0.00099998865035017502 0 0.0064934198927205601 0.0011636931117324268 0 0.006569210712049676 0.0011243638295368248 0 0.0066811748253727274 0.0012751700092232927 0 0.0064225338757172082 0.0010732546939700664 0 0.0064934198927205601 0.0011636931117324268 0 0.006569210712049676 0.0011243638295368248 0 0.0059654354423492638 0.00097067193663147333 0 0.0060072292762450895 0.00093916617351147414 0 0.005970921301964454 0.00095713784642647616 0 0.0062854243914896709 0.00098976749050708971 0 0.0061917035285837078 0.00094631646287758261 0 0.0064225338757172082 0.0010732546939700664 0 0.0066002702682811595 0.00099998865035017502 0 0.0063768680617502767 0.00094353177016268358 0 0.0064225338757172082 0.0010732546939700664 0 0.0063768680617502767 0.00094353177016268358 0 0.0062660496938768883 0.0010425676581359152 0 0.0061917035285837078 0.00094631646287758261 0 0.0061364312633550308 0.0009426987989496424 0 0.0063768680617502767 0.00094353177016268358 0 0.0061303448272080931 0.00094487764131222858 0 0.0062660496938768883 0.0010425676581359152 0 0.0061303448272080931 0.00094487764131222858 0 0.0061676800279483676 0.0010061732427274169 0 0.0062660496938768883 0.0010425676581359152 0 0.0061303448272080931 0.00094487764131222858 0 0.0061277409470524638 0.00097507974252342123 0 0.0061424427027306633 0.00096563213436028506 0 0.0061303448272080931 0.00094487764131222858 0 0.0061676800279483676 0.0010061732427274169 0 0.0061424427027306633 0.00096563213436028506 0 0.0061676800279483676 0.0010061732427274169 0 0.0061550509512524861 0.00098439725391406634 0 0.0061424427027306633 0.00096563213436028506 0 0.0061676800279483676 0.0010061732427274169 0 0.0061580690405359231 0.0010497748580360004 0 0.0062162467004603433 0.0010519121872707021 0 0.0061676800279483676 0.0010061732427274169 0 0.0061580690405359231 0.0010497748580360004 0 0.0061550509512524861 0.00098439725391406634 0 0.0078044926070495024 0.00084912601468033362 0 0.0084321861144737425 0.00084307484943920536 0 0.0061580690405359231 0.0010497748580360004 0 0.0062742995869069559 0.0010928401645822281 0 0.0062162467004603433 0.0010519121872707021 0 0.0063934823044238713 0.0012033503168997896 0 0.0061580690405359231 0.0010497748580360004 0 0.0062742995869069559 0.0010928401645822281 0 0.0063448249310748229 0.0011154744996217222 0 0.0062742995869069559 0.0010928401645822281 0 0.0062660496938768883 0.0010425676581359152 0 0.0062742995869069559 0.0010928401645822281 0 0.0062660496938768883 0.0010425676581359152 0 0.0062162467004603433 0.0010519121872707021 0 0.0061676800279483676 0.0010061732427274169 0 0.0062660496938768883 0.0010425676581359152 0 0.0062162467004603433 0.0010519121872707021 0 0.0071530552210864514 0.0014627809660997431 0 0.0071787633374329864 0.0012480397602304535 0 0.0073774071278500533 0.0013090362576666245 0 0.0071530552210864514 0.0014627809660997431 0 0.0070273726433951042 0.001333069918870119 0 0.0071787633374329864 0.0012480397602304535 0 0.013197383024608345 0.0013315007369581109 0 0.013086975224435859 0.0012629536106232445 0 0.013236853702426051 0.0013259754861455236 0 0.013086975224435859 0.0012629536106232445 0 0.013229187545968817 0.0011001415511793407 0 0.012988273114226156 0.0010901182278878015 0 0.013197383024608345 0.0013315007369581109 0 0.013086975224435859 0.0012629536106232445 0 0.013229187545968817 0.0011001415511793407 0 0.01319828525647008 0.00092448686404789321 0 0.013229187545968817 0.0011001415511793407 0 0.012988273114226156 0.0010901182278878015 0 0.013403598964626803 0.00087592281890288204 0 0.01319828525647008 0.00092448686404789321 0 0.013229187545968817 0.0011001415511793407 0 0.013403598964626803 0.00087592281890288204 0 0.013229187545968817 0.0011001415511793407 0 0.013421478573644008 0.0010411730001142635 0 0.013325556464079387 0.001146044279439455 0 0.013229187545968817 0.0011001415511793407 0 0.013421478573644008 0.0010411730001142635 0 0.013197383024608345 0.0013315007369581109 0 0.013325556464079387 0.001146044279439455 0 0.01341164841570568 0.0011405072895116827 0 0.013197383024608345 0.0013315007369581109 0 0.013325556464079387 0.001146044279439455 0 0.013229187545968817 0.0011001415511793407 0 0.013197383024608345 0.0013315007369581109 0 0.01341164841570568 0.0011405072895116827 0 0.013514313005445965 0.0011633729119914936 0 0.01341164841570568 0.0011405072895116827 0 0.013421478573644008 0.0010411730001142635 0 0.013566897055093877 0.0010628329115222842 0 0.013325556464079387 0.001146044279439455 0 0.01341164841570568 0.0011405072895116827 0 0.013421478573644008 0.0010411730001142635 0 0.013403598964626803 0.00087592281890288204 0 0.013421478573644008 0.0010411730001142635 0 0.01358253703919019 0.00093532253496424189 0 0.013421478573644008 0.0010411730001142635 0 0.01358253703919019 0.00093532253496424189 0 0.013566897055093877 0.0010628329115222842 0 0.01358253703919019 0.00093532253496424189 0 0.013566897055093877 0.0010628329115222842 0 0.01370633485909511 0.001002320819269963 0 0.01341164841570568 0.0011405072895116827 0 0.013566897055093877 0.0010628329115222842 0 0.013514313005445965 0.0011633729119914936 0 0.013566897055093877 0.0010628329115222842 0 0.013514313005445965 0.0011633729119914936 0 0.013663767391437959 0.0011196703249081459 0 0.013514313005445965 0.0011633729119914936 0 0.013526986966910881 0.0012054064643011908 0 0.013663767391437959 0.0011196703249081459 0 0.013197383024608345 0.0013315007369581109 0 0.013526986966910881 0.0012054064643011908 0 0.013709448567542202 0.0012282356056071823 0 0.013526986966910881 0.0012054064643011908 0 0.013709448567542202 0.0012282356056071823 0 0.013663767391437959 0.0011196703249081459 0 0.012995867195463938 0.0012817025157728129 0 0.01360252512507463 0.0012741633862014487 0 0.0071530552210864514 0.0014627809660997431 0 0.0070273726433951042 0.001333069918870119 0 0.0068501765640698389 0.0013322105798743915 0 0.0070273726433951042 0.001333069918870119 0 0.0068501765640698389 0.0013322105798743915 0 0.0069676974245669095 0.0012531018054048025 0 0.010240187773463824 0.0013977786691290019 0 0.0094346983053560391 0.0012447966832094424 0 0.013197383024608345 0.0013315007369581109 0 0.012646215509120236 0.0011324382875024111 0 0.012563681227245426 0.0012176828120057969 0 0.013197383024608345 0.0013315007369581109 0 0.013236853702426051 0.0013259754861455236 0 0.012646215509120236 0.0011324382875024111 0 0.013197383024608345 0.0013315007369581109 0 0.013514313005445965 0.0011633729119914936 0 0.013526986966910881 0.0012054064643011908 0 0.0094346983053560391 0.0012447966832094424 0 0.010521051164900333 0.0009850751869113568 0 0.013709448567542202 0.0012282356056071823 0 0.01383144854931544 0.0010741878118602844 0 0.013978787246263334 0.0011378547482429149 0 0.012646215509120236 0.0011324382875024111 0 0.012563681227245426 0.0012176828120057969 0 0.011520096571268467 0.00097445066484252042 0 0.01360252512507463 0.0012741633862014487 0 0.010521051164900333 0.0009850751869113568 0 0.0068501765640698389 0.0013322105798743915 0 0.0066811748253727274 0.0012751700092232927 0 0.0067629031845811306 0.0012418942062376497 0 0.0068501765640698389 0.0013322105798743915 0 0.0067629031845811306 0.0012418942062376497 0 0.006814762178206416 0.0012335298817795267 0 0.0068501765640698389 0.0013322105798743915 0 0.006814762178206416 0.0012335298817795267 0 0.0068652475967899912 0.0012378944720056475 0 0.013709448567542202 0.0012282356056071823 0 0.013663767391437959 0.0011196703249081459 0 0.01383144854931544 0.0010741878118602844 0 0.013566897055093877 0.0010628329115222842 0 0.013663767391437959 0.0011196703249081459 0 0.01370633485909511 0.001002320819269963 0 0.013663767391437959 0.0011196703249081459 0 0.01370633485909511 0.001002320819269963 0 0.01383144854931544 0.0010741878118602844 0 0.013745434789637785 0.00086166013063627544 0 0.01358253703919019 0.00093532253496424189 0 0.01370633485909511 0.001002320819269963 0 0.013745434789637785 0.00086166013063627544 0 0.01370633485909511 0.001002320819269963 0 0.013896588648639029 0.00089600381461170441 0 0.01370633485909511 0.001002320819269963 0 0.01383144854931544 0.0010741878118602844 0 0.013896588648639029 0.00089600381461170441 0 0.014107742811796874 0.00082924520156743456 0 0.013896588648639029 0.00089600381461170441 0 0.013992005167102981 0.00098552748280973657 0 0.01383144854931544 0.0010741878118602844 0 0.013896588648639029 0.00089600381461170441 0 0.013992005167102981 0.00098552748280973657 0 0.014122185461525365 0.00098248720481444946 0 0.013992005167102981 0.00098552748280973657 0 0.013978787246263334 0.0011378547482429149 0 0.01383144854931544 0.0010741878118602844 0 0.013992005167102981 0.00098552748280973657 0 0.013978787246263334 0.0011378547482429149 0 0.006569210712049676 0.0011243638295368248 0 0.0066811748253727274 0.0012751700092232927 0 0.0066901917586457884 0.0011244213031542537 0 0.0066811748253727274 0.0012751700092232927 0 0.0066901917586457884 0.0011244213031542537 0 0.0067629031845811306 0.0012418942062376497 0 0.0066901917586457884 0.0011244213031542537 0 0.0067685352766852815 0.0011466505201804115 0 0.0067629031845811306 0.0012418942062376497 0 0.006569210712049676 0.0011243638295368248 0 0.0066002702682811595 0.00099998865035017502 0 0.0066901917586457884 0.0011244213031542537 0 0.0066002702682811595 0.00099998865035017502 0 0.0066901917586457884 0.0011244213031542537 0 0.0067794114114151484 0.0010639340184765184 0 0.0059654354423492638 0.00097067193663147333 0 0.0062031844004214465 0.0010767133913635587 0 0.0060635897832959813 0.0009034447950865078 0 0.0062854243914896709 0.00098976749050708971 0 0.0065044208343246679 0.0010589358709364382 0 0.0062031844004214465 0.0010767133913635587 0 0.0067140322927178933 0.00078985561271828052 0 0.0063465422760183516 0.00078980310119949187 0 0.0062031844004214465 0.0010767133913635587 0 0.0063465422760183516 0.00078980310119949187 0 0.0060635897832959813 0.0009034447950865078 0 0.0067794114114151484 0.0010639340184765184 0 0.0068245439882312032 0.001175282290100029 0 0.0068852798153830027 0.0011773187251538397 0 0.0068245439882312032 0.001175282290100029 0 0.0067685352766852815 0.0011466505201804115 0 0.006814762178206416 0.0012335298817795267 0 0.0066901917586457884 0.0011244213031542537 0 0.0067794114114151484 0.0010639340184765184 0 0.0067685352766852815 0.0011466505201804115 0 0.0067794114114151484 0.0010639340184765184 0 0.0068245439882312032 0.001175282290100029 0 0.0067685352766852815 0.0011466505201804115 0 0.0067685352766852815 0.0011466505201804115 0 0.0067629031845811306 0.0012418942062376497 0 0.006814762178206416 0.0012335298817795267 0 0.0068245439882312032 0.001175282290100029 0 0.006814762178206416 0.0012335298817795267 0 0.0068652475967899912 0.0012378944720056475 0 0.0069676974245669095 0.0012531018054048025 0 0.0068852798153830027 0.0011773187251538397 0 0.0068914129637186218 0.0010693696336922989 0 0.0068652475967899912 0.0012378944720056475 0 0.0069676974245669095 0.0012531018054048025 0 0.0068852798153830027 0.0011773187251538397 0 0.0068245439882312032 0.001175282290100029 0 0.0068652475967899912 0.0012378944720056475 0 0.0068852798153830027 0.0011773187251538397 0 0.0068501765640698389 0.0013322105798743915 0 0.0068652475967899912 0.0012378944720056475 0 0.0069676974245669095 0.0012531018054048025 0 0.0067794114114151484 0.0010639340184765184 0 0.0068852798153830027 0.0011773187251538397 0 0.0068914129637186218 0.0010693696336922989 0 0.0065044208343246679 0.0010589358709364382 0 0.0068546278792379718 0.001075514767908545 0 0.0062031844004214465 0.0010767133913635587 0 0.0068914129637186218 0.0010693696336922989 0 0.0067140322927178933 0.00078985561271828052 0 0.0068914129637186218 0.0010693696336922989 0 0.0070829141213309618 0.00070257027726413853 0 0.0067140322927178933 0.00078985561271828052 0 0.0068914129637186218 0.0010693696336922989 0 0.0070829141213309618 0.00070257027726413853 0 0.0073234128517235516 0.0010348557976603316 0 0.0069676974245669095 0.0012531018054048025 0 0.0068914129637186218 0.0010693696336922989 0 0.0071787633374329864 0.0012480397602304535 0 0.0068914129637186218 0.0010693696336922989 0 0.0071787633374329864 0.0012480397602304535 0 0.0073234128517235516 0.0010348557976603316 0 0.0070273726433951042 0.001333069918870119 0 0.0069676974245669095 0.0012531018054048025 0 0.0071787633374329864 0.0012480397602304535 0 0.0071310376928749803 0.00020740787447144166 0 0.0070829141213309618 0.00070257027726413853 0 0.0068284329093007239 0.00045291969377116425 0 0.0071310376928749803 0.00020740787447144166 0 0.0068284329093007239 0.00045291969377116425 0 0.0067625986301157164 0.00013810717353625137 0 0.0067140322927178933 0.00078985561271828052 0 0.0065766073114944959 0.00056668832849601639 0 0.0068284329093007239 0.00045291969377116425 0 0.0070829141213309618 0.00070257027726413853 0 0.0067140322927178933 0.00078985561271828052 0 0.0068284329093007239 0.00045291969377116425 0 0.0067140322927178933 0.00078985561271828052 0 0.0065766073114944959 0.00056668832849601639 0 0.0063465422760183516 0.00078980310119949187 0 0.0065766073114944959 0.00056668832849601639 0 0.0068284329093007239 0.00045291969377116425 0 0.0065070130446111905 0.00027048969700695238 0 0.0068284329093007239 0.00045291969377116425 0 0.0065070130446111905 0.00027048969700695238 0 0.0067625986301157164 0.00013810717353625137 0 0.0065070130446111905 0.00027048969700695238 0 0.0061196676794410491 0.00025088220470568943 0 0.0062858569726224845 2.272345412893329e-05 0 0.0065766073114944959 0.00056668832849601639 0 0.0065070130446111905 0.00027048969700695238 0 0.0061975470221211013 0.00055042023096741515 0 0.0065070130446111905 0.00027048969700695238 0 0.0061196676794410491 0.00025088220470568943 0 0.0061975470221211013 0.00055042023096741515 0 0.0065766073114944959 0.00056668832849601639 0 0.0063465422760183516 0.00078980310119949187 0 0.0061975470221211013 0.00055042023096741515 0 0.0063465422760183516 0.00078980310119949187 0 0.0061975470221211013 0.00055042023096741515 0 0.0060635897832959813 0.0009034447950865078 0 0.0060635897832959813 0.0009034447950865078 0 0.0059548254953877104 0.00098149711446864399 0 0.005970921301964454 0.00095713784642647616 0 0.0060400357743651953 0.00089901840704119341 0 0.0058236375449371514 0.00066672087296377493 0 0.0059654354423492638 0.00097067193663147333 0 0.0060635897832959813 0.0009034447950865078 0 0.005970921301964454 0.00095713784642647616 0 0.0061975470221211013 0.00055042023096741515 0 0.0060635897832959813 0.0009034447950865078 0 0.0056705567249611035 0.00034177630122050298 0 0.0061196676794410491 0.00025088220470568943 0 0.0056705567249611035 0.00034177630122050298 0 0.0059093909055435868 -2.7780894371866626e-06 0 0.0061196676794410491 0.00025088220470568943 0 0.0061975470221211013 0.00055042023096741515 0 0.0056705567249611035 0.00034177630122050298 0 0.0059093909055435868 -2.7780894371866626e-06 0 0.0057852446523725155 -0.00036887281601417535 0 0.0053405341740615812 -0.00015930903423849578 0 0.0059093909055435868 -2.7780894371866626e-06 0 0.0057852446523725155 -0.00036887281601417535 0 0.0061295849562999025 -0.00025749381588989229 0 0.0057852446523725155 -0.00036887281601417535 0 0.0060130923703717509 -0.00050671474608268718 0 0.0057960371696465524 -0.00065736161916249793 0 0.0057852446523725155 -0.00036887281601417535 0 0.0061295849562999025 -0.00025749381588989229 0 0.0060130923703717509 -0.00050671474608268718 0 0.0061295849562999025 -0.00025749381588989229 0 0.0060130923703717509 -0.00050671474608268718 0 0.0063403851065855985 -0.00050680790433980255 0 0.0061295849562999025 -0.00025749381588989229 0 0.0063403851065855985 -0.00050680790433980255 0 0.0064053174832502642 -0.00018957572667145978 0 0.0061295849562999025 -0.00025749381588989229 0 0.0062858569726224845 2.272345412893329e-05 0 0.0064053174832502642 -0.00018957572667145978 0 0.0059093909055435868 -2.7780894371866626e-06 0 0.0061295849562999025 -0.00025749381588989229 0 0.0062858569726224845 2.272345412893329e-05 0 0.0061196676794410491 0.00025088220470568943 0 0.0059093909055435868 -2.7780894371866626e-06 0 0.0062858569726224845 2.272345412893329e-05 0 0.0065070130446111905 0.00027048969700695238 0 0.0062858569726224845 2.272345412893329e-05 0 0.0065574537384996065 -3.9874066239247511e-05 0 0.0065070130446111905 0.00027048969700695238 0 0.0065574537384996065 -3.9874066239247511e-05 0 0.0067625986301157164 0.00013810717353625137 0 0.0065574537384996065 -3.9874066239247511e-05 0 0.0067625986301157164 0.00013810717353625137 0 0.0067079509310164313 -0.00023704852981193118 0 0.0065582256449754186 -0.00012709214405405445 0 0.0065290047062308721 -0.00018841489402627313 0 0.0062858569726224845 2.272345412893329e-05 0 0.0065574537384996065 -3.9874066239247511e-05 0 0.0064053174832502642 -0.00018957572667145978 0 0.0065574537384996065 -3.9874066239247511e-05 0 0.0066667204026283769 -0.00021212705038568274 0 0.0064053174832502642 -0.00018957572667145978 0 0.0061730311845892161 -0.000593188504537689 0 0.0065290047062308721 -0.00018841489402627313 0 0.0063403851065855985 -0.00050680790433980255 0 0.0066667204026283769 -0.00021212705038568274 0 0.0064053174832502642 -0.00018957572667145978 0 0.0061960945854003151 -0.00048043343388900464 0 0.0061887878931183547 -0.00064500109834580185 0 0.006363018701103936 -0.00071226102362547934 0 0.0060556421581078341 -0.00064057136065146176 0 0.0061960945854003151 -0.00048043343388900464 0 0.0061887878931183547 -0.00064500109834580185 0 0.0065290047062308721 -0.00018841489402627313 0 0.0069967483492561194 -0.00081192958912169172 0 0.0068072011627498472 -0.00012491936563246186 0 0.0071794938746432072 -0.00014391120007635209 0 0.0070731889660286713 -0.00049997396931362136 0 0.0071356142960265767 0.00022553800991343363 0 0.0068072011627498472 -0.00012491936563246186 0 0.0071794938746432072 -0.00014391120007635209 0 0.0071735497313475749 0.00023539750713110006 0 0.0065290047062308721 -0.00018841489402627313 0 0.0071310376928749803 0.00020740787447144166 0 0.0067625986301157164 0.00013810717353625137 0 0.0067079509310164313 -0.00023704852981193118 0 0.0060759234098426264 0.0010079144125617926 0 0.0059924871620974001 0.0010044410589946399 0 0.0060283228170824035 0.0010606653287229516 0 0.0060759234098426264 0.0010079144125617926 0 0.0060283228170824035 0.0010606653287229516 0 0.0060780251431018116 0.0010591271745086521 0 0.0060759234098426264 0.0010079144125617926 0 0.0060780251431018116 0.0010591271745086521 0 0.0061250186691215016 0.001013629623821362 0 0.0060759234098426264 0.0010079144125617926 0 0.0061277409470524638 0.00097507974252342123 0 0.0061250186691215016 0.001013629623821362 0 0.0061303448272080931 0.00094487764131222858 0 0.0060759234098426264 0.0010079144125617926 0 0.0061277409470524638 0.00097507974252342123 0 0.0060072292762450895 0.00093916617351147414 0 0.0061303448272080931 0.00094487764131222858 0 0.0060759234098426264 0.0010079144125617926 0 0.0060072292762450895 0.00093916617351147414 0 0.005970921301964454 0.00095713784642647616 0 0.0059924871620974001 0.0010044410589946399 0 0.0060072292762450895 0.00093916617351147414 0 0.0060759234098426264 0.0010079144125617926 0 0.0059924871620974001 0.0010044410589946399 0 0.0059548254953877104 0.00098149711446864399 0 0.005970921301964454 0.00095713784642647616 0 0.0059924871620974001 0.0010044410589946399 0 0.0059548254953877104 0.00098149711446864399 0 0.0059924871620974001 0.0010044410589946399 0 0.0059476884204108706 0.0010768215722557312 0 0.0059924871620974001 0.0010044410589946399 0 0.0059851042292964739 0.0010949361273037239 0 0.0060283228170824035 0.0010606653287229516 0 0.0059924871620974001 0.0010044410589946399 0 0.0059851042292964739 0.0010949361273037239 0 0.0059476884204108706 0.0010768215722557312 0 0.0056705567249611035 0.00034177630122050298 0 0.0059093909055435868 -2.7780894371866626e-06 0 0.0053405341740615812 -0.00015930903423849578 0 0.0058236375449371514 0.00066672087296377493 0 0.0056433488550909731 0.00045864067259741734 0 0.0057852446523725155 -0.00036887281601417535 0 0.0053405341740615812 -0.00015930903423849578 0 0.0055103170677458626 -0.00068964913666636754 0 0.0053405341740615812 -0.00015930903423849578 0 0.0050384235840852049 -0.00060273740988725912 0 0.0055103170677458626 -0.00068964913666636754 0 0.0056433488550909731 0.00045864067259741734 0 0.0055013184836252777 0.00028605014618376457 0 0.0059851042292964739 0.0010949361273037239 0 0.0059476884204108706 0.0010768215722557312 0 0.0059547280391391635 0.0011675595068290601 0 0.0059851042292964739 0.0010949361273037239 0 0.0060075036179989445 0.001123154606505152 0 0.0059547280391391635 0.0011675595068290601 0 0.0059851042292964739 0.0010949361273037239 0 0.0060283228170824035 0.0010606653287229516 0 0.0060075036179989445 0.001123154606505152 0 0.0060283228170824035 0.0010606653287229516 0 0.0060780251431018116 0.0010591271745086521 0 0.0060075036179989445 0.001123154606505152 0 0.0060780251431018116 0.0010591271745086521 0 0.0060075036179989445 0.001123154606505152 0 0.0060858591643733438 0.0011068356601870086 0 0.0060075036179989445 0.001123154606505152 0 0.0060098572139174779 0.0011582061162895708 0 0.0059574444017335901 0.0012035279450619866 0 0.0060075036179989445 0.001123154606505152 0 0.0060098572139174779 0.0011582061162895708 0 0.0060858591643733438 0.0011068356601870086 0 0.0060098572139174779 0.0011582061162895708 0 0.0061123260100409572 0.0011487069216176479 0 0.0060858591643733438 0.0011068356601870086 0 0.0061123260100409572 0.0011487069216176479 0 0.0061613720259326328 0.00110588984810584 0 0.0062124077615324539 0.0011321012887896269 0 0.0061123260100409572 0.0011487069216176479 0 0.0061613720259326328 0.00110588984810584 0 0.0060858591643733438 0.0011068356601870086 0 0.0061613720259326328 0.00110588984810584 0 0.006154109455555383 0.0010535648755000699 0 0.0062180749084907519 0.0010716954933884804 0 0.0061613720259326328 0.00110588984810584 0 0.0060858591643733438 0.0011068356601870086 0 0.006154109455555383 0.0010535648755000699 0 0.0060780251431018116 0.0010591271745086521 0 0.0060858591643733438 0.0011068356601870086 0 0.006154109455555383 0.0010535648755000699 0 0.0060780251431018116 0.0010591271745086521 0 0.0061250186691215016 0.001013629623821362 0 0.006154109455555383 0.0010535648755000699 0 0.0061250186691215016 0.001013629623821362 0 0.006154109455555383 0.0010535648755000699 0 0.0061914232554846869 0.00099523359560939849 0 0.006154109455555383 0.0010535648755000699 0 0.0061914232554846869 0.00099523359560939849 0 0.0062240410294704986 0.0010246059885886242 0 0.006154109455555383 0.0010535648755000699 0 0.0062240410294704986 0.0010246059885886242 0 0.0062180749084907519 0.0010716954933884804 0 0.0061914232554846869 0.00099523359560939849 0 0.0061584607862958151 0.00097408146363419919 0 0.0062225602099475908 0.00095242438402667136 0 0.0061250186691215016 0.001013629623821362 0 0.0061914232554846869 0.00099523359560939849 0 0.0061584607862958151 0.00097408146363419919 0 0.0061277409470524638 0.00097507974252342123 0 0.0061250186691215016 0.001013629623821362 0 0.0061584607862958151 0.00097408146363419919 0 0.0063437872788565256 0.0010163764625857317 0 0.0062800526045839302 0.00096828084611982499 0 0.0063843992248056938 0.0009185525348531713 0 0.0063437872788565256 0.0010163764625857317 0 0.0064510914416351425 0.00099997291656553485 0 0.0063843992248056938 0.0009185525348531713 0 0.0063437872788565256 0.0010163764625857317 0 0.0063718170614340177 0.0010613821406073032 0 0.0064510914416351425 0.00099997291656553485 0 0.0061914232554846869 0.00099523359560939849 0 0.0062800526045839302 0.00096828084611982499 0 0.0062225602099475908 0.00095242438402667136 0 0.0061914232554846869 0.00099523359560939849 0 0.0062800526045839302 0.00096828084611982499 0 0.0062240410294704986 0.0010246059885886242 0 0.0062800526045839302 0.00096828084611982499 0 0.0062757109179940604 0.0010207068665294317 0 0.0062240410294704986 0.0010246059885886242 0 0.0063437872788565256 0.0010163764625857317 0 0.0062800526045839302 0.00096828084611982499 0 0.0062757109179940604 0.0010207068665294317 0 0.0062757109179940604 0.0010207068665294317 0 0.0062180749084907519 0.0010716954933884804 0 0.0062895179236402516 0.0010881071959796024 0 0.0062757109179940604 0.0010207068665294317 0 0.0062240410294704986 0.0010246059885886242 0 0.0062180749084907519 0.0010716954933884804 0 0.0063437872788565256 0.0010163764625857317 0 0.0063718170614340177 0.0010613821406073032 0 0.0062895179236402516 0.0010881071959796024 0 0.0063437872788565256 0.0010163764625857317 0 0.0062757109179940604 0.0010207068665294317 0 0.0062895179236402516 0.0010881071959796024 0 0.0063718170614340177 0.0010613821406073032 0 0.0063408932206834266 0.0010968992449596736 0 0.0063766347450035579 0.0010949698584348656 0 0.0063718170614340177 0.0010613821406073032 0 0.0063408932206834266 0.0010968992449596736 0 0.0062895179236402516 0.0010881071959796024 0 0.0062895179236402516 0.0010881071959796024 0 0.0062124077615324539 0.0011321012887896269 0 0.0062853000411263408 0.0011484417275083975 0 0.0063408932206834266 0.0010968992449596736 0 0.0062853000411263408 0.0011484417275083975 0 0.0063989269563409839 0.0011102459604427973 0 0.0063408932206834266 0.0010968992449596736 0 0.0062895179236402516 0.0010881071959796024 0 0.0062853000411263408 0.0011484417275083975 0 0.0041356320035644189 9.9176705792680092e-05 0 0.0045099099953986536 0.00061541502354472543 0 0.0061613720259326328 0.00110588984810584 0 0.0062180749084907519 0.0010716954933884804 0 0.0062124077615324539 0.0011321012887896269 0 0.0062180749084907519 0.0010716954933884804 0 0.0062895179236402516 0.0010881071959796024 0 0.0062124077615324539 0.0011321012887896269 0 0.0062124077615324539 0.0011321012887896269 0 0.0062853000411263408 0.0011484417275083975 0 0.0061982811880433846 0.0011891179097204905 0 0.0061123260100409572 0.0011487069216176479 0 0.0062124077615324539 0.0011321012887896269 0 0.0061982811880433846 0.0011891179097204905 0 0.0041356320035644189 9.9176705792680092e-05 0 0.0041652662265540619 0.00015771944143264059 0 0.0020114266006545237 -0.0008277086642345103 0 0.0019100501212869719 -0.00085367646298812455 0 0.0019206655004786726 -0.00089180310612939665 0 0.0019100501212869719 -0.00085367646298812455 0 0.0018626062974538404 -0.00086329293171803583 0 0.0019206655004786726 -0.00089180310612939665 0 0.0019100501212869719 -0.00085367646298812455 0 0.0018960314672833449 -0.00085191043733614776 0 0.0018626062974538404 -0.00086329293171803583 0 0.0019100501212869719 -0.00085367646298812455 0 0.0018960314672833449 -0.00085191043733614776 0 0.0019399070371657219 -0.00082537301381327183 0 0.0020114266006545237 -0.0008277086642345103 0 0.0019100501212869719 -0.00085367646298812455 0 0.0019399070371657219 -0.00082537301381327183 0 0.0063408932206834266 0.0010968992449596736 0 0.0063989269563409839 0.0011102459604427973 0 0.0063766347450035579 0.0010949698584348656 0 0.001883501576361638 -0.00084218287411441108 0 0.0018257254523727376 -0.00085948315959031186 0 0.0018705393499826009 -0.00085877666795800976 0 0.0018257254523727376 -0.00085948315959031186 0 0.0018626062974538404 -0.00086329293171803583 0 0.0018705393499826009 -0.00085877666795800976 0 0.0018960314672833449 -0.00085191043733614776 0 0.0018626062974538404 -0.00086329293171803583 0 0.0018903041341185116 -0.00086756414721227777 0 0.0018626062974538404 -0.00086329293171803583 0 0.0018903041341185116 -0.00086756414721227777 0 0.0018705393499826009 -0.00085877666795800976 0 0.0019344048888327943 -0.00089617442006832563 0 0.0018903041341185116 -0.00086756414721227777 0 0.0018705393499826009 -0.00085877666795800976 0 0.0019344048888327943 -0.00089617442006832563 0 0.001988136006759672 -0.00096290842830876785 0 0.001931327901156681 -0.00091593596568518025 0 0.0019344048888327943 -0.00089617442006832563 0 0.0018903041341185116 -0.00086756414721227777 0 0.001931327901156681 -0.00091593596568518025 0 0.0018903041341185116 -0.00086756414721227777 0 0.001931327901156681 -0.00091593596568518025 0 0.0019134899048647688 -0.00095185688511348484 0 0.0018903041341185116 -0.00086756414721227777 0 0.0019134899048647688 -0.00095185688511348484 0 0.001893816025514119 -0.00087275016423275114 0 0.0037644666032000855 -0.00021938848939145783 0 0.0036097361936799402 5.9868520804218697e-05 0 0.0062468120847851928 0.00047226200805362606 0 0.0054903439318953395 0.00066031937503143498 0 0.0061902812730026549 -0.00016949453615479318 0 0.0057081290203500543 0.00096577873727707135 0 0.0096158511228101665 0.00080686012578663584 0 0.0037644666032000855 -0.00021938848939145783 0 0.0071835530095951065 0.00062793383486041496 0 0.001988136006759672 -0.00096290842830876785 0 0.0019134899048647688 -0.00095185688511348484 0 0.0020028222840401916 -0.0010490126591831822 0 0.001988136006759672 -0.00096290842830876785 0 0.001931327901156681 -0.00091593596568518025 0 0.0019134899048647688 -0.00095185688511348484 0 0.0045099099953986536 0.00061541502354472543 0 0.0057081290203500543 0.00096577873727707135 0 0.0063718170614340177 0.0010613821406073032 0 0.0063989269563409839 0.0011102459604427973 0 0.0064510914416351425 0.00099997291656553485 0 0.0045099099953986536 0.00061541502354472543 0 0.0036097361936799402 5.9868520804218697e-05 0 0.0063989269563409839 0.0011102459604427973 0 0.0065762304342336314 0.0010197597782612778 0 0.0064510914416351425 0.00099997291656553485 0 0.0063718170614340177 0.0010613821406073032 0 0.0063989269563409839 0.0011102459604427973 0 0.0063766347450035579 0.0010949698584348656 0 0.0048108437053253897 0.0014630821416502689 0 0.0055200137358732059 0.0009740711044484208 0 0.0054903439318953395 0.00066031937503143498 0 0.0018960314672833449 -0.00085191043733614776 0 0.0018903041341185116 -0.00086756414721227777 0 0.001893816025514119 -0.00087275016423275114 0 0.0018960314672833449 -0.00085191043733614776 0 0.0019399070371657219 -0.00082537301381327183 0 0.001893816025514119 -0.00087275016423275114 0 0.0062468120847851928 0.00047226200805362606 0 0.0055200137358732059 0.0009740711044484208 0 0.0054903439318953395 0.00066031937503143498 0 0.0065762304342336314 0.0010197597782612778 0 0.0064510914416351425 0.00099997291656553485 0 0.0065102764781697344 0.00083800216739508587 0 0.0064510914416351425 0.00099997291656553485 0 0.0065102764781697344 0.00083800216739508587 0 0.0063843992248056938 0.0009185525348531713 0 0.010080971466593756 0.00098713878289697493 0 0.0096158511228101665 0.00080686012578663584 0 0.0065762304342336314 0.0010197597782612778 0 0.0065102764781697344 0.00083800216739508587 0 0.0067679758161558017 0.00085541818696405485 0 0.013260454360195191 0.0010718321135849012 0 0.014227064191525257 0.0010916414406078859 0 0.014195556391524115 0.00059810996217314941 0 0.013850975517879265 0.0005255447176217014 0 0.014179120061870972 0.00058262467312314805 0 0.013260454360195191 0.0010718321135849012 0 0.013115781912088389 0.00046638649219840329 0 0.014195556391524115 0.00059810996217314941 0 0.013260454360195191 0.0010718321135849012 0 0.013115781912088389 0.00046638649219840329 0 0.012083879571095206 0.00090993033777718002 0 0.0062468120847851928 0.00047226200805362606 0 0.0069694143912907274 -4.0146851693468157e-05 0 0.0061902812730026549 -0.00016949453615479318 0 0.010952500003975886 0.0014249190922044396 0 0.010200432311802324 0.0013003474704264772 0 0.010710492688951422 0.00068827336015722131 0 0.0071835530095951065 0.00062793383486041496 0 0.0096158511228101665 0.00080686012578663584 0 0.0096158511228101665 0.00080686012578663584 0 0.012757947857904905 0.00057716867690881641 0 0.014227064191525257 0.0010916414406078859 0 0.014195556391524115 0.00059810996217314941 0 0.014337327275622182 0.00067556806454874491 0 0.012702302161088377 0.00038243516507843837 0 0.012757947857904905 0.00057716867690881641 0 0.014244924951831267 0.00066750782555999777 0 0.014337327275622182 0.00067556806454874491 0 0.014284663776424967 0.00066304484486278932 0 0.014195556391524115 0.00059810996217314941 0 0.014284663776424967 0.00066304484486278932 0 0.01433891175241777 0.00069848506736069069 0 0.014195556391524115 0.00059810996217314941 0 0.014337327275622182 0.00067556806454874491 0 0.014284663776424967 0.00066304484486278932 0 0.014284663776424967 0.00066304484486278932 0 0.01433891175241777 0.00069848506736069069 0 0.014317791695727965 0.00075309938469606604 0 0.014412463361699445 0.00078687451726681295 0 0.01433891175241777 0.00069848506736069069 0 0.014317791695727965 0.00075309938469606604 0 0.014244924951831267 0.00066750782555999777 0 0.014284663776424967 0.00066304484486278932 0 0.014254481812818924 0.00073483370354837413 0 0.014284663776424967 0.00066304484486278932 0 0.014317791695727965 0.00075309938469606604 0 0.014254481812818924 0.00073483370354837413 0 0.014555988843680083 0.00066874993031159052 0 0.014433953904470481 0.0006629340052701308 0 0.014517798962856239 0.000727915655529837 0 0.014555988843680083 0.00066874993031159052 0 0.014627570377786387 0.00072153845812750141 0 0.014694657503701438 0.00064828985609763942 0 0.014586661066318651 0.00055723352609853612 0 0.014555988843680083 0.00066874993031159052 0 0.014694657503701438 0.00064828985609763942 0 0.014586661066318651 0.00055723352609853612 0 0.014555988843680083 0.00066874993031159052 0 0.014433953904470481 0.0006629340052701308 0 0.014195556391524115 0.00059810996217314941 0 0.01433891175241777 0.00069848506736069069 0 0.014433953904470481 0.0006629340052701308 0 0.014586661066318651 0.00055723352609853612 0 0.014195556391524115 0.00059810996217314941 0 0.014433953904470481 0.0006629340052701308 0 0.01433891175241777 0.00069848506736069069 0 0.014433953904470481 0.0006629340052701308 0 0.014517798962856239 0.000727915655529837 0 0.014412463361699445 0.00078687451726681295 0 0.01433891175241777 0.00069848506736069069 0 0.014517798962856239 0.000727915655529837 0 0.01453382293208587 0.00078555068746032411 0 0.014412463361699445 0.00078687451726681295 0 0.014517798962856239 0.000727915655529837 0 0.01453382293208587 0.00078555068746032411 0 0.014517798962856239 0.000727915655529837 0 0.014634394782250993 0.00075461975416930903 0 0.014555988843680083 0.00066874993031159052 0 0.014517798962856239 0.000727915655529837 0 0.014627570377786387 0.00072153845812750141 0 0.014517798962856239 0.000727915655529837 0 0.014627570377786387 0.00072153845812750141 0 0.014634394782250993 0.00075461975416930903 0 0.014859170632869697 0.00069456070922449022 0 0.014807548647527339 0.0006949490726148765 0 0.014694657503701438 0.00064828985609763942 0 0.01473225572609939 0.00075658181655122246 0 0.014634394782250993 0.00075461975416930903 0 0.014700671203116926 0.00078973860070325776 0 0.014777947443175024 0.00072560750526378965 0 0.014707427735056263 0.00064693637807268652 0 0.014627570377786387 0.00072153845812750141 0 0.014634394782250993 0.00075461975416930903 0 0.014700671203116926 0.00078973860070325776 0 0.014627570377786387 0.00072153845812750141 0 0.014700671203116926 0.00078973860070325776 0 0.014694657503701438 0.00064828985609763942 0 0.014859170632869697 0.00069456070922449022 0 0.014807548647527339 0.0006949490726148765 0 0.014824129702952426 0.00068484819740846051 0 0.014866082613010104 0.00062607994787809587 0 0.014859170632869697 0.00069456070922449022 0 0.014824129702952426 0.00068484819740846051 0 0.014586661066318651 0.00055723352609853612 0 0.014694657503701438 0.00064828985609763942 0 0.014806419357714351 0.00069221096003845234 0 0.014807548647527339 0.0006949490726148765 0 0.01478498534593106 0.00069266024875635362 0 0.014694657503701438 0.00064828985609763942 0 0.01478498534593106 0.00069266024875635362 0 0.014694657503701438 0.00064828985609763942 0 0.014806419357714351 0.00069221096003845234 0 0.014795311038002749 0.00071187622391326094 0 0.014756099576853823 0.00075445313633906274 0 0.014806419357714351 0.00069221096003845234 0 0.01478498534593106 0.00069266024875635362 0 0.014795311038002749 0.00071187622391326094 0 0.014806419357714351 0.00069221096003845234 0 0.01478498534593106 0.00069266024875635362 0 0.014795311038002749 0.00071187622391326094 0 0.014803695072216886 0.00070272804924217448 0 0.014795311038002749 0.00071187622391326094 0 0.014803695072216886 0.00070272804924217448 0 0.014789203858462101 0.00071533325967882051 0 0.014807548647527339 0.0006949490726148765 0 0.01478498534593106 0.00069266024875635362 0 0.014803695072216886 0.00070272804924217448 0 0.014795311038002749 0.00071187622391326094 0 0.014789203858462101 0.00071533325967882051 0 0.014756099576853823 0.00075445313633906274 0 0.014789203858462101 0.00071533325967882051 0 0.014824129702952426 0.00068484819740846051 0 0.014779291829651464 0.00070210111758115163 0 0.014807548647527339 0.0006949490726148765 0 0.014803695072216886 0.00070272804924217448 0 0.014824129702952426 0.00068484819740846051 0 0.014803695072216886 0.00070272804924217448 0 0.014789203858462101 0.00071533325967882051 0 0.014824129702952426 0.00068484819740846051 0 0.014784811497429407 0.00065076148054848981 0 0.014824129702952426 0.00068484819740846051 0 0.014779291829651464 0.00070210111758115163 0 0.014784811497429407 0.00065076148054848981 0 0.014725203996228977 0.00070324707721058336 0 0.014779291829651464 0.00070210111758115163 0 0.014713109280526047 0.00063832444427373836 0 0.014784811497429407 0.00065076148054848981 0 0.014725203996228977 0.00070324707721058336 0 0.014725203996228977 0.00070324707721058336 0 0.014696403460438427 0.00075758240079565179 0 0.014747357149580262 0.00073849848605295556 0 0.014789203858462101 0.00071533325967882051 0 0.014747357149580262 0.00073849848605295556 0 0.014779291829651464 0.00070210111758115163 0 0.014725203996228977 0.00070324707721058336 0 0.014747357149580262 0.00073849848605295556 0 0.014779291829651464 0.00070210111758115163 0 0.014713109280526047 0.00063832444427373836 0 0.014725203996228977 0.00070324707721058336 0 0.014622003488308775 0.00073236844573292556 0 0.014725203996228977 0.00070324707721058336 0 0.014696403460438427 0.00075758240079565179 0 0.014622003488308775 0.00073236844573292556 0 0.014696403460438427 0.00075758240079565179 0 0.014622003488308775 0.00073236844573292556 0 0.014655091183904054 0.00080548199330586403 0 0.012378577422769817 0.0007227330491952563 0 0.012888025496996955 0.00065666916215963622 0 0.014454754180714409 0.00093686734754280939 0 0.014578947233194963 0.00083573075858665066 0 0.014684047498930413 0.00084796128333567951 0 0.014622003488308775 0.00073236844573292556 0 0.014578947233194963 0.00083573075858665066 0 0.014655091183904054 0.00080548199330586403 0 0.014655091183904054 0.00080548199330586403 0 0.014684047498930413 0.00084796128333567951 0 0.014712664562969106 0.00078163960160791874 0 0.014578947233194963 0.00083573075858665066 0 0.014655091183904054 0.00080548199330586403 0 0.014684047498930413 0.00084796128333567951 0 0.014684047498930413 0.00084796128333567951 0 0.014756099576853823 0.00075445313633906274 0 0.014806419357714351 0.00069221096003845234 0 0.012888025496996955 0.00065666916215963622 0 0.013384361537479796 0.00056894611007171007 0 0.014789203858462101 0.00071533325967882051 0 0.014747357149580262 0.00073849848605295556 0 0.014756099576853823 0.00075445313633906274 0 0.014747357149580262 0.00073849848605295556 0 0.014712664562969106 0.00078163960160791874 0 0.014756099576853823 0.00075445313633906274 0 0.014696403460438427 0.00075758240079565179 0 0.014747357149580262 0.00073849848605295556 0 0.014712664562969106 0.00078163960160791874 0 0.014696403460438427 0.00075758240079565179 0 0.014655091183904054 0.00080548199330586403 0 0.014712664562969106 0.00078163960160791874 0 0.014684047498930413 0.00084796128333567951 0 0.014712664562969106 0.00078163960160791874 0 0.014756099576853823 0.00075445313633906274 0 0.0061827734942608665 0.00092058437702441018 0 0.0062288574116779556 0.0009214523354647415 0 0.0063194280986546688 0.00086261734517880447 0 0.011056864903506028 0.00047004359471811288 0 0.011106535426722311 0.00073040686485363463 0 0.011984355885595405 0.00044310848563092285 0 0.0061580690405359231 0.0010497748580360004 0 0.0061827734942608665 0.00092058437702441018 0 0.0061550509512524861 0.00098439725391406634 0 0.0061827734942608665 0.00092058437702441018 0 0.0061550509512524861 0.00098439725391406634 0 0.0061621281039987734 0.00095653245963055666 0 0.0084321861144737425 0.00084307484943920536 0 0.0086388119802250571 0.00082754224379602006 0 0.010469053020649287 0.00060809090596607802 0 0.011056864903506028 0.00047004359471811288 0 0.011106535426722311 0.00073040686485363463 0 0.0061827734942608665 0.00092058437702441018 0 0.0061621281039987734 0.00095653245963055666 0 0.0061789539595144567 0.00095096758881589832 0 0.0061584607862958151 0.00097408146363419919 0 0.0061424427027306633 0.00096563213436028506 0 0.0061789539595144567 0.00095096758881589832 0 0.0061424427027306633 0.00096563213436028506 0 0.0061621281039987734 0.00095653245963055666 0 0.0061789539595144567 0.00095096758881589832 0 0.0061550509512524861 0.00098439725391406634 0 0.0061424427027306633 0.00096563213436028506 0 0.0061621281039987734 0.00095653245963055666 0 0.0061277409470524638 0.00097507974252342123 0 0.0061584607862958151 0.00097408146363419919 0 0.0061424427027306633 0.00096563213436028506 0 0.0061584607862958151 0.00097408146363419919 0 0.0061789539595144567 0.00095096758881589832 0 0.0062225602099475908 0.00095242438402667136 0 0.0062288574116779556 0.0009214523354647415 0 0.0061789539595144567 0.00095096758881589832 0 0.0062225602099475908 0.00095242438402667136 0 0.0061827734942608665 0.00092058437702441018 0 0.0062288574116779556 0.0009214523354647415 0 0.0061789539595144567 0.00095096758881589832 0 0.0062288574116779556 0.0009214523354647415 0 0.0062725291399948185 0.0009245884295916904 0 0.0063194280986546688 0.00086261734517880447 0 0.0062800526045839302 0.00096828084611982499 0 0.0062225602099475908 0.00095242438402667136 0 0.0062725291399948185 0.0009245884295916904 0 0.0062288574116779556 0.0009214523354647415 0 0.0062225602099475908 0.00095242438402667136 0 0.0062725291399948185 0.0009245884295916904 0 0.0062725291399948185 0.0009245884295916904 0 0.0063134813824359468 0.00091927265154478064 0 0.0063194280986546688 0.00086261734517880447 0 0.0062800526045839302 0.00096828084611982499 0 0.0062725291399948185 0.0009245884295916904 0 0.0063134813824359468 0.00091927265154478064 0 0.0062800526045839302 0.00096828084611982499 0 0.0063134813824359468 0.00091927265154478064 0 0.0063843992248056938 0.0009185525348531713 0 0.0065102764781697344 0.00083800216739508587 0 0.0063843992248056938 0.0009185525348531713 0 0.0063194280986546688 0.00086261734517880447 0 0.0063134813824359468 0.00091927265154478064 0 0.0063843992248056938 0.0009185525348531713 0 0.0063194280986546688 0.00086261734517880447 0 0.010080971466593756 0.00098713878289697493 0 0.0091670655873423573 0.00087920061222389182 0 0.013850975517879265 0.0005255447176217014 0 0.013384361537479796 0.00056894611007171007 0 0.013115781912088389 0.00046638649219840329 0 0.011984355885595405 0.00044310848563092285 0 0.012083879571095206 0.00090993033777718002 0 0.011106535426722311 0.00073040686485363463 0 0.011984355885595405 0.00044310848563092285 0 0.012083879571095206 0.00090993033777718002 0 0.0086388119802250571 0.00082754224379602006 0 0.0091670655873423573 0.00087920061222389182 0 0.011305398023894441 -4.467284865076029e-05 0 0.011203640368804736 7.8528794470570729e-05 0 0.011444560350183371 0.00027963766062465671 0 0.011943635094040818 6.04647101542923e-07 0 0.011305398023894441 -4.467284865076029e-05 0 0.011444560350183371 0.00027963766062465671 0 0.011943635094040818 6.04647101542923e-07 0 0.011305398023894441 -4.467284865076029e-05 0 0.01113256243377646 -3.8978970548251718e-07 0 0.011451337685111545 -5.234615648025754e-05 0 0.010214011368458587 0.00015257197419131995 0 0.011305398023894441 -4.467284865076029e-05 0 0.011203640368804736 7.8528794470570729e-05 0 0.011038152217576215 -8.8018494011579104e-05 0 0.011168118665467479 0.00013012108451839423 0 0.011203640368804736 7.8528794470570729e-05 0 0.011171673702658669 8.4585229012497758e-05 0 0.011203640368804736 7.8528794470570729e-05 0 0.011171673702658669 8.4585229012497758e-05 0 0.011191106584829932 7.5224481234068203e-05 0 0.011168118665467479 0.00013012108451839423 0 0.011123195246584318 0.00010433530797268374 0 0.011171673702658669 8.4585229012497758e-05 0 0.011168118665467479 0.00013012108451839423 0 0.011180045198266833 0.00017461942368309302 0 0.01114447289687274 0.00019321272847544908 0 0.011168118665467479 0.00013012108451839423 0 0.011180045198266833 0.00017461942368309302 0 0.011203640368804736 7.8528794470570729e-05 0 0.011180045198266833 0.00017461942368309302 0 0.011203640368804736 7.8528794470570729e-05 0 0.011254705956903435 0.00022651888139962417 0 0.011180045198266833 0.00017461942368309302 0 0.011181055987675586 0.0002173251959268406 0 0.01114447289687274 0.00019321272847544908 0 0.011180045198266833 0.00017461942368309302 0 0.011254705956903435 0.00022651888139962417 0 0.011181055987675586 0.0002173251959268406 0 0.014659717557423865 0.00028093994463460498 0 0.014167283915184592 0.00029927649194130514 0 0.014590181402033154 0.00010668994655097197 0 0.012880088672597635 0.00024920461482314064 0 0.012841286723898336 0.0003214040437021817 0 0.014659717557423865 0.00028093994463460498 0 0.014167283915184592 0.00029927649194130514 0 0.014101602742746919 0.00037759841368035287 0 0.011254705956903435 0.00022651888139962417 0 0.011181055987675586 0.0002173251959268406 0 0.011301699761601194 0.00032250076393661436 0 0.0133261666140163 8.1505397644207871e-05 0 0.012841286723898336 0.0003214040437021817 0 0.014057929909392017 0.00041437479149898789 0 0.013035350427096614 1.1503841245508012e-06 0 0.013782157565282234 -9.7129923997162672e-06 0 0.012841286723898336 0.0003214040437021817 0 0.011925375276802791 0.00012562491079744085 0 0.012443306432892168 8.0595020308256484e-05 0 0.012654114771243001 -4.5193480190021371e-05 0 0.012717323989988783 -3.7381149728043508e-05 0 0.014167283915184592 0.00029927649194130514 0 0.014057929909392017 0.00041437479149898789 0 0.013782157565282234 -9.7129923997162672e-06 0 0.011203640368804736 7.8528794470570729e-05 0 0.011254705956903435 0.00022651888139962417 0 0.011444560350183371 0.00027963766062465671 0 0.011254705956903435 0.00022651888139962417 0 0.011301699761601194 0.00032250076393661436 0 0.011444560350183371 0.00027963766062465671 0 0.011945505323726222 -1.4082923433329367e-07 0 0.011925375276802791 0.00012562491079744085 0 0.01194585358308628 3.079239280293385e-07 0 0.012654114771243001 -4.5193480190021371e-05 0 0.012489301091171445 -3.0559206740622377e-07 0 0.012654114771243001 -4.5193480190021371e-05 0 0.012489301091171445 -3.0559206740622377e-07 0 0.012717323989988783 -3.7381149728043508e-05 0 0.012489301091171445 -3.0559206740622377e-07 0 0.013032106183125601 3.1052365042878048e-07 0 0.012717323989988783 -3.7381149728043508e-05 0 0.012841286723898336 0.0003214040437021817 0 0.013033831486018152 8.7494787466871748e-08 0 0.012443306432892168 8.0595020308256484e-05 0 0.013032106183125601 3.1052365042878048e-07 0 0.012717323989988783 -3.7381149728043508e-05 0 0.013035350427096614 1.1503841245508012e-06 0 0.013782157565282234 -9.7129923997162672e-06 0 0.013783348934465997 -1.055532070184643e-06 0 0.014998210335754368 -5.9430173257353501e-07 0 0.014816617515920293 -3.4159415733940941e-05 0 0.015000042248713763 9.3983982605049416e-08 0 0.014167283915184592 0.00029927649194130514 0 0.013782157565282234 -9.7129923997162672e-06 0 0.014248943214669347 2.8334391956930786e-05 0 0.013782157565282234 -9.7129923997162672e-06 0 0.013936722285277288 -0.00019312396873196765 0 0.014248943214669347 2.8334391956930786e-05 0 0.013782157565282234 -9.7129923997162672e-06 0 0.013936722285277288 -0.00019312396873196765 0 0.013783348934465997 -1.055532070184643e-06 0 0.014286009348303428 -8.6588630316697049e-05 0 0.01378551660755213 -4.4236659169022607e-08 0 0.014622160538496591 -8.6507363836719694e-06 0 0.013788379074694372 8.8497387815692895e-07 0 0.014998210335754368 -5.9430173257353501e-07 0 0.014622160538496591 -8.6507363836719694e-06 0 0.014998210335754368 -5.9430173257353501e-07 0 0.014816617515920293 -3.4159415733940941e-05 0 0.014622160538496591 -8.6507363836719694e-06 0 0.014816617515920293 -3.4159415733940941e-05 0 0.014705920409995304 -5.4429630078915715e-05 0 0.014705920409995304 -5.4429630078915715e-05 0 0.014590181402033154 0.00010668994655097197 0 0.014777174026855161 1.5409943376583466e-05 0 0.014816617515920293 -3.4159415733940941e-05 0 0.014705920409995304 -5.4429630078915715e-05 0 0.014777174026855161 1.5409943376583466e-05 0 0.013936722285277288 -0.00019312396873196765 0 0.014705920409995304 -5.4429630078915715e-05 0 0.014248943214669347 2.8334391956930786e-05 0 0.014286009348303428 -8.6588630316697049e-05 0 0.014667742488100677 -6.694373289142539e-05 0 0.014167283915184592 0.00029927649194130514 0 0.014248943214669347 2.8334391956930786e-05 0 0.014590181402033154 0.00010668994655097197 0 0.014659717557423865 0.00028093994463460498 0 0.014590181402033154 0.00010668994655097197 0 0.014787818010686498 0.00010176521207586368 0 0.014705920409995304 -5.4429630078915715e-05 0 0.014248943214669347 2.8334391956930786e-05 0 0.014590181402033154 0.00010668994655097197 0 0.014590181402033154 0.00010668994655097197 0 0.014787818010686498 0.00010176521207586368 0 0.014777174026855161 1.5409943376583466e-05 0 0.014787818010686498 0.00010176521207586368 0 0.014811449766513198 5.9732997893136833e-05 0 0.014777174026855161 1.5409943376583466e-05 0 0.014787818010686498 0.00010176521207586368 0 0.014811449766513198 5.9732997893136833e-05 0 0.01478760729357592 7.2308966635805226e-05 0 0.014787818010686498 0.00010176521207586368 0 0.01478760729357592 7.2308966635805226e-05 0 0.014793115947997657 9.9715649010195944e-05 0 0.014846146195232687 3.5743058074885524e-05 0 0.014883175782100791 1.2037757971281369e-05 0 0.014861221281071006 -3.4752429920779311e-06 0 0.014811449766513198 5.9732997893136833e-05 0 0.014846146195232687 3.5743058074885524e-05 0 0.01478760729357592 7.2308966635805226e-05 0 0.014816617515920293 -3.4159415733940941e-05 0 0.014846146195232687 3.5743058074885524e-05 0 0.014777174026855161 1.5409943376583466e-05 0 0.014811449766513198 5.9732997893136833e-05 0 0.014846146195232687 3.5743058074885524e-05 0 0.014777174026855161 1.5409943376583466e-05 0 0.014816617515920293 -3.4159415733940941e-05 0 0.014846146195232687 3.5743058074885524e-05 0 0.014883175782100791 1.2037757971281369e-05 0 0.014816617515920293 -3.4159415733940941e-05 0 0.014883175782100791 1.2037757971281369e-05 0 0.015000042248713763 9.3983982605049416e-08 0 0.014883175782100791 1.2037757971281369e-05 0 0.015000042248713763 9.3983982605049416e-08 0 0.014985829852654887 2.0457956785177949e-05 0 0.014887715125305232 1.480267803082045e-05 0 0.014919880893656829 2.0544213370375559e-05 0 0.014883175782100791 1.2037757971281369e-05 0 0.014861362056370344 2.3991958388720287e-05 0 0.014861221281071006 -3.4752429920779311e-06 0 0.015000042248713763 9.3983982605049416e-08 0 0.014985829852654887 2.0457956785177949e-05 0 0.01499888212585221 7.1177274494915878e-06 0 0.014919880893656829 2.0544213370375559e-05 0 0.014880556256707013 2.2924867734431773e-05 0 0.014861362056370344 2.3991958388720287e-05 0 0.014861221281071006 -3.4752429920779311e-06 0 0.014764594476449334 3.8268057545761938e-05 0 0.014734399705669995 0.00013114078359990674 0 0.014662472380339759 9.5385481961439192e-05 0 0.014585333386662727 0.0001387640557919412 0 0.014734399705669995 0.00013114078359990674 0 0.014662472380339759 9.5385481961439192e-05 0 0.014723408105484408 8.1953936226127758e-05 0 0.014792351818462125 6.0586595040058397e-05 0 0.014659015567748148 5.6581118217333843e-05 0 0.014838231994001574 4.0987954459687005e-05 0 0.014792351818462125 6.0586595040058397e-05 0 0.014846146195232687 3.5743058074885524e-05 0 0.014734399705669995 0.00013114078359990674 0 0.01478760729357592 7.2308966635805226e-05 0 0.014734399705669995 0.00013114078359990674 0 0.01478760729357592 7.2308966635805226e-05 0 0.014723408105484408 8.1953936226127758e-05 0 0.01478760729357592 7.2308966635805226e-05 0 0.014723408105484408 8.1953936226127758e-05 0 0.014741631449318806 5.693654828244045e-05 0 0.014662472380339759 9.5385481961439192e-05 0 0.014723408105484408 8.1953936226127758e-05 0 0.014668546903486027 5.6614771796658684e-05 0 0.014723408105484408 8.1953936226127758e-05 0 0.014668546903486027 5.6614771796658684e-05 0 0.014741631449318806 5.693654828244045e-05 0 0.014668546903486027 5.6614771796658684e-05 0 0.014688244185342829 -1.0268308665953361e-05 0 0.014741631449318806 5.693654828244045e-05 0 0.014668546903486027 5.6614771796658684e-05 0 0.014688244185342829 -1.0268308665953361e-05 0 0.014604116516378822 2.5822789895515852e-05 0 0.011379328741765928 0.00011792082569789645 0 0.01138409393853616 0.00026637333979811183 0 0.011543368486752768 0.00012666855634427786 0 0.011379328741765928 0.00011792082569789645 0 0.011228628564829578 0.00014791653947638779 0 0.011277347131778068 0.00020732571358548948 0 0.01478760729357592 7.2308966635805226e-05 0 0.014741631449318806 5.693654828244045e-05 0 0.014793115947997657 9.9715649010195944e-05 0 0.013003855635381617 5.5249772037271358e-05 0 0.013018758542995503 0.00012837767868245669 0 0.014688244185342829 -1.0268308665953361e-05 0 0.014741631449318806 5.693654828244045e-05 0 0.014793115947997657 9.9715649010195944e-05 0 0.011181055987675586 0.0002173251959268406 0 0.011228628564829578 0.00014791653947638779 0 0.01114447289687274 0.00019321272847544908 0 0.014659717557423865 0.00028093994463460498 0 0.014787818010686498 0.00010176521207586368 0 0.014793115947997657 9.9715649010195944e-05 0 0.012880088672597635 0.00024920461482314064 0 0.013018758542995503 0.00012837767868245669 0 0.011228628564829578 0.00014791653947638779 0 0.01114447289687274 0.00019321272847544908 0 0.011277347131778068 0.00020732571358548948 0 0.01114447289687274 0.00019321272847544908 0 0.011235542465409089 0.00031255381916782312 0 0.011277347131778068 0.00020732571358548948 0 0.01114447289687274 0.00019321272847544908 0 0.011028719432858087 0.0001435030559689967 0 0.011123195246584318 0.00010433530797268374 0 0.011168118665467479 0.00013012108451839423 0 0.01114447289687274 0.00019321272847544908 0 0.011123195246584318 0.00010433530797268374 0 0.011147570248045776 0.00020307554479095073 0 0.011114934995051029 0.00022244364870693269 0 0.011235542465409089 0.00031255381916782312 0 0.01138409393853616 0.00026637333979811183 0 0.011335240300539286 0.00040623067397495055 0 0.01138409393853616 0.00026637333979811183 0 0.011428670470445759 0.00038743319139775237 0 0.011335240300539286 0.00040623067397495055 0 0.011379328741765928 0.00011792082569789645 0 0.01138409393853616 0.00026637333979811183 0 0.011277347131778068 0.00020732571358548948 0 0.011235542465409089 0.00031255381916782312 0 0.01138409393853616 0.00026637333979811183 0 0.011277347131778068 0.00020732571358548948 0 0.011509065324316821 0.00028218669286990958 0 0.011614310272773147 0.00026627127913716092 0 0.011543368486752768 0.00012666855634427786 0 0.01138409393853616 0.00026637333979811183 0 0.011509065324316821 0.00028218669286990958 0 0.011543368486752768 0.00012666855634427786 0 0.01138409393853616 0.00026637333979811183 0 0.011509065324316821 0.00028218669286990958 0 0.011428670470445759 0.00038743319139775237 0 0.011509065324316821 0.00028218669286990958 0 0.01151818256375539 0.00038188735743095639 0 0.011428670470445759 0.00038743319139775237 0 0.010323485299761239 0.00020310542347688705 0 0.010332059762488206 0.00067691302682154446 0 0.011509065324316821 0.00028218669286990958 0 0.011614310272773147 0.00026627127913716092 0 0.01151818256375539 0.00038188735743095639 0 0.0095966970242372645 0.0008032636307046862 0 0.0094569387528788424 0.000105121384983718 0 0.0090741015111581915 0.00098062723927959394 0 0.0095966970242372645 0.0008032636307046862 0 0.010388949362908542 0.00058157495263058147 0 0.0094569387528788424 0.000105121384983718 0 0.010388949362908542 0.00058157495263058147 0 0.010523462611600231 -0.00018702154028265043 0 0.0094569387528788424 0.000105121384983718 0 0.010523462611600231 -0.00018702154028265043 0 0.0094569387528788424 0.000105121384983718 0 0.010059183358862106 -0.00078166265056463854 0 0.010323485299761239 0.00020310542347688705 0 0.012563495467668936 2.1897053103773234e-05 0 0.012563495467668936 2.1897053103773234e-05 0 0.013165287076012082 5.6716869718155449e-05 0 0.011614310272773147 0.00026627127913716092 0 0.011716181657890351 0.00014039134714546357 0 0.011543368486752768 0.00012666855634427786 0 0.014449386674700486 -2.8938492097178134e-05 0 0.014482978807566358 1.0368769433464345e-05 0 0.014547120059521209 -3.4922400062427876e-05 0 0.014282658788972318 0.00021497753684638851 0 0.01435433124927135 0.00013429743248934362 0 0.014451949289777282 0.00023274026171999951 0 0.012563495467668936 2.1897053103773234e-05 0 0.01269780215800703 -0.00025728639427143686 0 0.010523462611600231 -0.00018702154028265043 0 0.010059183358862106 -0.00078166265056463854 0 0.01115525346497425 -0.00066718600143420134 0 0.012563495467668936 2.1897053103773234e-05 0 0.014442746669787928 -7.94051863397218e-05 0 0.014442746669787928 -7.94051863397218e-05 0 0.014399648577059044 9.4551979009742656e-05 0 0.014449386674700486 -2.8938492097178134e-05 0 0.014441650511161017 1.5920111140040686e-05 0 0.014482978807566358 1.0368769433464345e-05 0 0.014441650511161017 1.5920111140040686e-05 0 0.014482978807566358 1.0368769433464345e-05 0 0.014468804498983058 5.2459590571283798e-05 0 0.014482978807566358 1.0368769433464345e-05 0 0.014527782294624713 3.8356049332232848e-05 0 0.014468804498983058 5.2459590571283798e-05 0 0.014482978807566358 1.0368769433464345e-05 0 0.014547120059521209 -3.4922400062427876e-05 0 0.014527782294624713 3.8356049332232848e-05 0 0.014547120059521209 -3.4922400062427876e-05 0 0.014604116516378822 2.5822789895515852e-05 0 0.014527782294624713 3.8356049332232848e-05 0 0.013003855635381617 5.5249772037271358e-05 0 0.013165287076012082 5.6716869718155449e-05 0 0.014688244185342829 -1.0268308665953361e-05 0 0.014547120059521209 -3.4922400062427876e-05 0 0.014604116516378822 2.5822789895515852e-05 0 0.014668546903486027 5.6614771796658684e-05 0 0.014604116516378822 2.5822789895515852e-05 0 0.014594723953627712 7.4895027197403882e-05 0 0.015000042248713763 9.3983982605049416e-08 0 0.01499888212585221 7.1177274494915878e-06 0 0.014999987373284394 -1.9875227829348491e-08 0 0.014604116516378822 2.5822789895515852e-05 0 0.014594723953627712 7.4895027197403882e-05 0 0.014527782294624713 3.8356049332232848e-05 0 0.014662472380339759 9.5385481961439192e-05 0 0.014668546903486027 5.6614771796658684e-05 0 0.014594723953627712 7.4895027197403882e-05 0 0.014594723953627712 7.4895027197403882e-05 0 0.014522995567461514 7.6700964405829834e-05 0 0.014527782294624713 3.8356049332232848e-05 0 0.014659015567748148 5.6581118217333843e-05 0 0.014530766678615355 3.1377697063282307e-05 0 0.014522995567461514 7.6700964405829834e-05 0 0.014585333386662727 0.0001387640557919412 0 0.014469664615380247 8.7243821227931312e-05 0 0.014594723953627712 7.4895027197403882e-05 0 0.014522995567461514 7.6700964405829834e-05 0 0.014585333386662727 0.0001387640557919412 0 0.014662472380339759 9.5385481961439192e-05 0 0.014594723953627712 7.4895027197403882e-05 0 0.014585333386662727 0.0001387640557919412 0 0.014861221281071006 -3.4752429920779311e-06 0 0.014731062600331463 -2.3746629682042594e-05 0 0.014764594476449334 3.8268057545761938e-05 0 0.01499888212585221 7.1177274494915878e-06 0 0.014998643098503567 3.6971047667270214e-06 0 0.014999987373284394 -1.9875227829348491e-08 0 0.014731062600331463 -2.3746629682042594e-05 0 0.014764594476449334 3.8268057545761938e-05 0 0.014637255270590229 4.330769356758086e-05 0 0.014731062600331463 -2.3746629682042594e-05 0 0.014637255270590229 4.330769356758086e-05 0 0.014580512682482675 -2.2878350051486766e-05 0 0.014880556256707013 2.2924867734431773e-05 0 0.014820905432505537 2.2317952200455898e-05 0 0.014999987373284394 -1.9875227829348491e-08 0 0.01499781286140963 1.1786012824167936e-06 0 0.01499496416879542 2.8752269030950056e-06 0 0.014998643098503567 3.6971047667270214e-06 0 0.014999987373284394 -1.9875227829348491e-08 0 0.01499781286140963 1.1786012824167936e-06 0 0.014820905432505537 2.2317952200455898e-05 0 0.014756538705691429 1.5156595720174315e-05 0 0.014637255270590229 4.330769356758086e-05 0 0.014531141549514825 2.7705356707709262e-05 0 0.014580512682482675 -2.2878350051486766e-05 0 0.014531141549514825 2.7705356707709262e-05 0 0.014580512682482675 -2.2878350051486766e-05 0 0.014490422548238952 2.7205961254431618e-06 0 0.014530766678615355 3.1377697063282307e-05 0 0.014496262891416901 7.4333169934639316e-06 0 0.014459863731613771 4.809105156119841e-05 0 0.014469664615380247 8.7243821227931312e-05 0 0.014468804498983058 5.2459590571283798e-05 0 0.014459863731613771 4.809105156119841e-05 0 0.014469664615380247 8.7243821227931312e-05 0 0.014490422548238952 2.7205961254431618e-06 0 0.014522995567461514 7.6700964405829834e-05 0 0.014469664615380247 8.7243821227931312e-05 0 0.014468804498983058 5.2459590571283798e-05 0 0.014522995567461514 7.6700964405829834e-05 0 0.014527782294624713 3.8356049332232848e-05 0 0.014468804498983058 5.2459590571283798e-05 0 0.014459863731613771 4.809105156119841e-05 0 0.014468804498983058 5.2459590571283798e-05 0 0.014439427114896193 5.9400839256787107e-05 0 0.014441650511161017 1.5920111140040686e-05 0 0.014468804498983058 5.2459590571283798e-05 0 0.014439427114896193 5.9400839256787107e-05 0 0.014459863731613771 4.809105156119841e-05 0 0.014439427114896193 5.9400839256787107e-05 0 0.014502966044736491 3.1101225057930191e-05 0 0.014439427114896193 5.9400839256787107e-05 0 0.014502966044736491 3.1101225057930191e-05 0 0.014489443033859864 0.0001185263213800487 0 0.014502966044736491 3.1101225057930191e-05 0 0.014587346687952753 6.95066238882123e-05 0 0.014489443033859864 0.0001185263213800487 0 0.014502966044736491 3.1101225057930191e-05 0 0.014522498423906415 -1.020673994735517e-05 0 0.014580782521677759 -2.8629409482937711e-05 0 0.014502966044736491 3.1101225057930191e-05 0 0.014580782521677759 -2.8629409482937711e-05 0 0.014587346687952753 6.95066238882123e-05 0 0.014459863731613771 4.809105156119841e-05 0 0.014502966044736491 3.1101225057930191e-05 0 0.014490422548238952 2.7205961254431618e-06 0 0.014502966044736491 3.1101225057930191e-05 0 0.014490422548238952 2.7205961254431618e-06 0 0.014522498423906415 -1.020673994735517e-05 0 0.014531141549514825 2.7705356707709262e-05 0 0.014490422548238952 2.7205961254431618e-06 0 0.014503873748942707 -4.424826396176719e-06 0 0.014756538705691429 1.5156595720174315e-05 0 0.014802163847213286 -1.6912379097572314e-05 0 0.01499781286140963 1.1786012824167936e-06 0 0.014994560702589839 2.7066385561787902e-06 0 0.01499496416879542 2.8752269030950056e-06 0 0.014531141549514825 2.7705356707709262e-05 0 0.014504611950223749 -1.258820725190202e-05 0 0.014503873748942707 -4.424826396176719e-06 0 0.014999987373284394 -1.9875227829348491e-08 0 0.01499496416879542 2.8752269030950056e-06 0 0.014999962503944043 2.0680039208022444e-08 0 0.014802163847213286 -1.6912379097572314e-05 0 0.01482896388890215 -1.3403237649991598e-06 0 0.014504611950223749 -1.258820725190202e-05 0 0.014503873748942707 -4.424826396176719e-06 0 0.014522498423906415 -1.020673994735517e-05 0 0.014490422548238952 2.7205961254431618e-06 0 0.014503873748942707 -4.424826396176719e-06 0 0.014522498423906415 -1.020673994735517e-05 0 0.014802163847213286 -1.6912379097572314e-05 0 0.014775944970069852 -5.872571355201708e-06 0 0.014993288333223182 3.8696672609866602e-06 0 0.014989109862073286 6.5927520220861818e-06 0 0.014980312183743747 1.0963035880458782e-05 0 0.014504611950223749 -1.258820725190202e-05 0 0.014522498423906415 -1.020673994735517e-05 0 0.014580782521677759 -2.8629409482937711e-05 0 0.01499492980039099 2.5914922023160212e-06 0 0.014993288333223182 3.8696672609866602e-06 0 0.014980312183743747 1.0963035880458782e-05 0 0.014994472734560954 2.8419100848790571e-06 0 0.014993288333223182 3.8696672609866602e-06 0 0.01499496416879542 2.8752269030950056e-06 0 0.014802163847213286 -1.6912379097572314e-05 0 0.014931359662759424 -1.7879603371390448e-05 0 0.014993288333223182 3.8696672609866602e-06 0 0.01499496416879542 2.8752269030950056e-06 0 0.014999962503944043 2.0680039208022444e-08 0 0.014987861886734975 6.2182106833758623e-06 0 0.014999962503944043 2.0680039208022444e-08 0 0.014980185562715315 1.1247324734541367e-05 0 0.014993288333223182 3.8696672609866602e-06 0 0.014999962503944043 2.0680039208022444e-08 0 0.014989109862073286 6.5927520220861818e-06 0 0.014999962503944043 2.0680039208022444e-08 0 0.014989109862073286 6.5927520220861818e-06 0 0.014980185562715315 1.1247324734541367e-05 0 0.014989109862073286 6.5927520220861818e-06 0 0.014980185562715315 1.1247324734541367e-05 0 0.014980312183743747 1.0963035880458782e-05 0 0.014987861886734975 6.2182106833758623e-06 0 0.014967491250484454 2.1482831757193131e-05 0 0.014980185562715315 1.1247324734541367e-05 0 0.014967491250484454 2.1482831757193131e-05 0 0.014980185562715315 1.1247324734541367e-05 0 0.014952937495406743 2.9831823714289743e-05 0 0.014980185562715315 1.1247324734541367e-05 0 0.014980312183743747 1.0963035880458782e-05 0 0.014952937495406743 2.9831823714289743e-05 0 0.014775944970069852 -5.872571355201708e-06 0 0.014840570742797586 2.6578701625521143e-05 0 0.014580782521677759 -2.8629409482937711e-05 0 0.014587346687952753 6.95066238882123e-05 0 0.014715683778862591 7.6486435488904035e-06 0 0.014587346687952753 6.95066238882123e-05 0 0.014715683778862591 7.6486435488904035e-06 0 0.014694923395136306 0.00014854088801444674 0 0.014908709194348849 9.4067209298088998e-05 0 0.014715683778862591 7.6486435488904035e-06 0 0.014694923395136306 0.00014854088801444674 0 0.014908709194348849 9.4067209298088998e-05 0 0.014810392795454078 0.00030751817757009898 0 0.014694923395136306 0.00014854088801444674 0 0.013732919881026869 0.00012273868646415519 0 0.013526574266778854 -0.00015206428014543307 0 0.014810392795454078 0.00030751817757009898 0 0.014694923395136306 0.00014854088801444674 0 0.014609200387882606 0.00026674355529629116 0 0.014694923395136306 0.00014854088801444674 0 0.014609200387882606 0.00026674355529629116 0 0.014563676107515088 0.00016540337737386623 0 0.014587346687952753 6.95066238882123e-05 0 0.014694923395136306 0.00014854088801444674 0 0.014563676107515088 0.00016540337737386623 0 0.014587346687952753 6.95066238882123e-05 0 0.014563676107515088 0.00016540337737386623 0 0.014489443033859864 0.0001185263213800487 0 0.014563676107515088 0.00016540337737386623 0 0.014489443033859864 0.0001185263213800487 0 0.014451949289777282 0.00023274026171999951 0 0.01435433124927135 0.00013429743248934362 0 0.014439427114896193 5.9400839256787107e-05 0 0.014489443033859864 0.0001185263213800487 0 0.01435433124927135 0.00013429743248934362 0 0.014489443033859864 0.0001185263213800487 0 0.014451949289777282 0.00023274026171999951 0 0.014609200387882606 0.00026674355529629116 0 0.014563676107515088 0.00016540337737386623 0 0.014451949289777282 0.00023274026171999951 0 0.013526574266778854 -0.00015206428014543307 0 0.01269780215800703 -0.00025728639427143686 0 0.012252260553956883 -0.00054750421345946222 0 0.01115525346497425 -0.00066718600143420134 0 0.0113779156562903 0.00023417251837619344 0 0.012252260553956883 -0.00054750421345946222 0 0.0113779156562903 0.00023417251837619344 0 0.012247615982313421 0.00030430137245862767 0 0.010523462611600231 -0.00018702154028265043 0 0.01115525346497425 -0.00066718600143420134 0 0.0113779156562903 0.00023417251837619344 0 0.010388949362908542 0.00058157495263058147 0 0.0113779156562903 0.00023417251837619344 0 0.011020550597199908 0.001013718224866739 0 0.010388949362908542 0.00058157495263058147 0 0.010523462611600231 -0.00018702154028265043 0 0.0113779156562903 0.00023417251837619344 0 0.0113779156562903 0.00023417251837619344 0 0.012247615982313421 0.00030430137245862767 0 0.011887608718682136 0.00096050384795968665 0 0.0113779156562903 0.00023417251837619344 0 0.011887608718682136 0.00096050384795968665 0 0.011020550597199908 0.001013718224866739 0 0.012247615982313421 0.00030430137245862767 0 0.012619733130513315 0.00093954896176701923 0 0.011887608718682136 0.00096050384795968665 0 0.012247615982313421 0.00030430137245862767 0 0.012983232426260849 0.00025770699890530191 0 0.012619733130513315 0.00093954896176701923 0 0.012927712207078881 0.00048673617662342849 0 0.012668319527419312 0.00090155365404821417 0 0.01296954958992096 0.00088487027058901382 0 0.012944428649978308 0.0006628277487868723 0 0.012619733130513315 0.00093954896176701923 0 0.013206860923105749 0.00076049367216116277 0 0.01296954958992096 0.00088487027058901382 0 0.012944428649978308 0.0006628277487868723 0 0.013345978647470174 -0.0004187788963406094 0 0.012252260553956883 -0.00054750421345946222 0 0.012983232426260849 0.00025770699890530191 0 0.013732919881026869 0.00012273868646415519 0 0.012927712207078881 0.00048673617662342849 0 0.012252260553956883 -0.00054750421345946222 0 0.012247615982313421 0.00030430137245862767 0 0.012983232426260849 0.00025770699890530191 0 0.0076342833443498147 0.0015430774273874806 0 0.0081458692331751511 0.0015592086712415557 0 0.0076610715444422129 0.001245145026545717 0 0.010056157258354815 0.0015441347754175567 0 0.0098175277332311645 0.0015851358604062886 0 0.013086975224435859 0.0012629536106232445 0 0.013236853702426051 0.0013259754861455236 0 0.012528566711003556 0.0015706254738293496 0 0.0071530552210864514 0.0014627809660997431 0 0.0076342833443498147 0.0015430774273874806 0 0.0073774071278500533 0.0013090362576666245 0 0.010240187773463824 0.0013977786691290019 0 0.010056157258354815 0.0015441347754175567 0 0.0076342833443498147 0.0015430774273874806 0 0.0076610715444422129 0.001245145026545717 0 0.0073774071278500533 0.0013090362576666245 0 0.012528566711003556 0.0015706254738293496 0 0.012988273114226156 0.0010901182278878015 0 0.012619733130513315 0.00093954896176701923 0 0.013086975224435859 0.0012629536106232445 0 0.012528566711003556 0.0015706254738293496 0 0.012988273114226156 0.0010901182278878015 0 0.01319828525647008 0.00092448686404789321 0 0.01296954958992096 0.00088487027058901382 0 0.012988273114226156 0.0010901182278878015 0 0.01296954958992096 0.00088487027058901382 0 0.012988273114226156 0.0010901182278878015 0 0.012619733130513315 0.00093954896176701923 0 0.012528566711003556 0.0015706254738293496 0 0.012619733130513315 0.00093954896176701923 0 0.011887608718682136 0.00096050384795968665 0 0.011887608718682136 0.00096050384795968665 0 0.011020550597199908 0.001013718224866739 0 0.011487956354864406 0.0016182530459865536 0 0.012528566711003556 0.0015706254738293496 0 0.011887608718682136 0.00096050384795968665 0 0.011487956354864406 0.0016182530459865536 0 0.011020550597199908 0.001013718224866739 0 0.011487956354864406 0.0016182530459865536 0 0.010405600506937245 0.0015620208155289312 0 0.0098175277332311645 0.0015851358604062886 0 0.0095312863176528744 0.0015396217485037741 0 0.0081458692331751511 0.0015592086712415557 0 0.0082879940437295286 0.0012209370365709482 0 0.0086664082541825609 0.0015448370280099508 0 0.0081458692331751511 0.0015592086712415557 0 0.0079412801872391463 0.0010877474210204024 0 0.0076610715444422129 0.001245145026545717 0 0.0081458692331751511 0.0015592086712415557 0 0.0079412801872391463 0.0010877474210204024 0 0.0082879940437295286 0.0012209370365709482 0 0.0082879940437295286 0.0012209370365709482 0 0.0082893484197173409 0.00077690270477395827 0 0.0086353586155874344 0.001096974734241235 0 0.0079412801872391463 0.0010877474210204024 0 0.0082879940437295286 0.0012209370365709482 0 0.0082893484197173409 0.00077690270477395827 0 0.0079412801872391463 0.0010877474210204024 0 0.0082893484197173409 0.00077690270477395827 0 0.0078622933266750614 0.00067375267875535022 0 0.0079412801872391463 0.0010877474210204024 0 0.0076589140037531724 0.00092340511224463196 0 0.0078622933266750614 0.00067375267875535022 0 0.0079412801872391463 0.0010877474210204024 0 0.0076589140037531724 0.00092340511224463196 0 0.0076610715444422129 0.001245145026545717 0 0.0076610715444422129 0.001245145026545717 0 0.0073774071278500533 0.0013090362576666245 0 0.0073234128517235516 0.0010348557976603316 0 0.0071787633374329864 0.0012480397602304535 0 0.0073774071278500533 0.0013090362576666245 0 0.0073234128517235516 0.0010348557976603316 0 0.0076589140037531724 0.00092340511224463196 0 0.0073234128517235516 0.0010348557976603316 0 0.0074824646428652431 0.00057840680752213418 0 0.0076589140037531724 0.00092340511224463196 0 0.0076610715444422129 0.001245145026545717 0 0.0073234128517235516 0.0010348557976603316 0 0.0071310376928749803 0.00020740787447144166 0 0.0070829141213309618 0.00070257027726413853 0 0.0074824646428652431 0.00057840680752213418 0 0.0070829141213309618 0.00070257027726413853 0 0.0073234128517235516 0.0010348557976603316 0 0.0074824646428652431 0.00057840680752213418 0 0.0076589140037531724 0.00092340511224463196 0 0.0074824646428652431 0.00057840680752213418 0 0.0078622933266750614 0.00067375267875535022 0 0.0074824646428652431 0.00057840680752213418 0 0.0078622933266750614 0.00067375267875535022 0 0.0076677118888579853 0.00026228091934313861 0 0.0071735497313475749 0.00023539750713110006 0 0.0074458882954992608 0.00054705829327740237 0 0.0071356142960265767 0.00022553800991343363 0 0.0074824646428652431 0.00057840680752213418 0 0.0076677118888579853 0.00026228091934313861 0 0.0071356142960265767 0.00022553800991343363 0 0.0076677118888579853 0.00026228091934313861 0 0.0075538348158739436 -0.00011515313925129418 0 0.0071356142960265767 0.00022553800991343363 0 0.0071794938746432072 -0.00014391120007635209 0 0.0075538348158739436 -0.00011515313925129418 0 0.0076677118888579853 0.00026228091934313861 0 0.0075538348158739436 -0.00011515313925129418 0 0.0079356783699680508 -0.00010059499769293599 0 0.0075538348158739436 -0.00011515313925129418 0 0.0079356783699680508 -0.00010059499769293599 0 0.0077770832879168255 -0.00059647195409154676 0 0.0075538348158739436 -0.00011515313925129418 0 0.0073973902180591387 -0.0004502305670495335 0 0.0077770832879168255 -0.00059647195409154676 0 0.0071794938746432072 -0.00014391120007635209 0 0.0075538348158739436 -0.00011515313925129418 0 0.0073973902180591387 -0.0004502305670495335 0 0.0071794938746432072 -0.00014391120007635209 0 0.0073973902180591387 -0.0004502305670495335 0 0.0070731889660286713 -0.00049997396931362136 0 0.0082342856043962857 -0.00031116970559112153 0 0.0079356783699680508 -0.00010059499769293599 0 0.0077770832879168255 -0.00059647195409154676 0 0.0076677118888579853 0.00026228091934313861 0 0.0079356783699680508 -0.00010059499769293599 0 0.0080925211057270019 0.00034448557587537783 0 0.0079356783699680508 -0.00010059499769293599 0 0.0083033563254286853 5.671119638503438e-05 0 0.0080925211057270019 0.00034448557587537783 0 0.0082342856043962857 -0.00031116970559112153 0 0.0083033563254286853 5.671119638503438e-05 0 0.0086755032344251817 -1.6257071121954155e-05 0 0.0082342856043962857 -0.00031116970559112153 0 0.0079356783699680508 -0.00010059499769293599 0 0.0083033563254286853 5.671119638503438e-05 0 0.0083033563254286853 5.671119638503438e-05 0 0.0080925211057270019 0.00034448557587537783 0 0.0084869493778554489 0.00037696953141765972 0 0.0078622933266750614 0.00067375267875535022 0 0.0076677118888579853 0.00026228091934313861 0 0.0080925211057270019 0.00034448557587537783 0 0.0082893484197173409 0.00077690270477395827 0 0.0078622933266750614 0.00067375267875535022 0 0.0080925211057270019 0.00034448557587537783 0 0.0082893484197173409 0.00077690270477395827 0 0.0080925211057270019 0.00034448557587537783 0 0.0084869493778554489 0.00037696953141765972 0 0.0082893484197173409 0.00077690270477395827 0 0.0087604050988224769 0.00072231701124131006 0 0.0084869493778554489 0.00037696953141765972 0 0.0087604050988224769 0.00072231701124131006 0 0.0088107703758215881 0.00038750189924967061 0 0.0084869493778554489 0.00037696953141765972 0 0.0087604050988224769 0.00072231701124131006 0 0.0090363439236020825 0.00055704009733620232 0 0.0090738591781431462 0.00081550343629228298 0 0.0087604050988224769 0.00072231701124131006 0 0.0088107703758215881 0.00038750189924967061 0 0.0090363439236020825 0.00055704009733620232 0 0.0088107703758215881 0.00038750189924967061 0 0.0090783373553581116 0.00028027086994674956 0 0.0090363439236020825 0.00055704009733620232 0 0.0088107703758215881 0.00038750189924967061 0 0.0086755032344251817 -1.6257071121954155e-05 0 0.0090783373553581116 0.00028027086994674956 0 0.0088107703758215881 0.00038750189924967061 0 0.0084869493778554489 0.00037696953141765972 0 0.0086755032344251817 -1.6257071121954155e-05 0 0.0083033563254286853 5.671119638503438e-05 0 0.0084869493778554489 0.00037696953141765972 0 0.0086755032344251817 -1.6257071121954155e-05 0 0.0045978243868478345 0.0010583533957961035 0 0.0051543457351917524 0.00086190408146645254 0 0.0051029716263682251 0.0013270351298296725 0 0.0066526141219379296 0.00052312793279465442 0 0.0069883950605703045 0.00081691787015282567 0 0.0045978243868478345 0.0010583533957961035 0 0.0047346800636393896 0.00062232877815370121 0 0.0051543457351917524 0.00086190408146645254 0 0.0061374478964135361 0.00023168228807672993 0 0.0066526141219379296 0.00052312793279465442 0 0.0040684162950143637 0.00078695855930997175 0 0.0045978243868478345 0.0010583533957961035 0 0.0047346800636393896 0.00062232877815370121 0 0.0056536765679757869 0.00072482673232683256 0 0.0051543457351917524 0.00086190408146645254 0 0.0055592269940846727 0.0010375897058743173 0 0.0056536765679757869 0.00072482673232683256 0 0.0051543457351917524 0.00086190408146645254 0 0.0054459818741709265 0.00047294976686049293 0 0.005308558004547448 0.0011225223433581639 0 0.0054730454133200572 0.0012839315993640255 0 0.0051029716263682251 0.0013270351298296725 0 0.0051543457351917524 0.00086190408146645254 0 0.005308558004547448 0.0011225223433581639 0 0.0055592269940846727 0.0010375897058743173 0 0.0051543457351917524 0.00086190408146645254 0 0.005308558004547448 0.0011225223433581639 0 0.0051029716263682251 0.0013270351298296725 0 0.005308558004547448 0.0011225223433581639 0 0.0055592269940846727 0.0010375897058743173 0 0.0054730454133200572 0.0012839315993640255 0 0.0055592269940846727 0.0010375897058743173 0 0.0054730454133200572 0.0012839315993640255 0 0.0058337461235401693 0.0012487021569496336 0 0.0054730454133200572 0.0012839315993640255 0 0.0051029716263682251 0.0013270351298296725 0 0.0055956070479771577 0.0016069248324198382 0 0.0054730454133200572 0.0012839315993640255 0 0.0055956070479771577 0.0016069248324198382 0 0.0058337461235401693 0.0012487021569496336 0 0.0069883950605703045 0.00081691787015282567 0 0.0080680943683412946 0.00078520660802191384 0 0.0090783373553581116 0.00028027086994674956 0 0.0090363439236020825 0.00055704009733620232 0 0.0094045554593054064 0.00051920566002861999 0 0.0090363439236020825 0.00055704009733620232 0 0.0092635773051271235 0.00072237208328431498 0 0.0094339198180626548 0.00056185055948393024 0 0.0096241939024118948 0.0004821584173703722 0 0.0080680943683412946 0.00078520660802191384 0 0.0090363439236020825 0.00055704009733620232 0 0.0092635773051271235 0.00072237208328431498 0 0.0090738591781431462 0.00081550343629228298 0 0.0092635773051271235 0.00072237208328431498 0 0.0094339198180626548 0.00056185055948393024 0 0.0094309545003692218 0.00076595594535743342 0 0.0094339198180626548 0.00056185055948393024 0 0.0094309545003692218 0.00076595594535743342 0 0.0096286652301963149 0.00068911580949673984 0 0.0094309545003692218 0.00076595594535743342 0 0.0093122669497756917 0.00091113278702606351 0 0.0095379838396432385 0.00089646686585311453 0 0.0092635773051271235 0.00072237208328431498 0 0.0094309545003692218 0.00076595594535743342 0 0.0093122669497756917 0.00091113278702606351 0 0.0093122669497756917 0.00091113278702606351 0 0.0093827327585564672 0.0011198074101309531 0 0.0095379838396432385 0.00089646686585311453 0 0.0093827327585564672 0.0011198074101309531 0 0.009424933720330507 0.0014010642474440521 0 0.0096444421198667307 0.0010979949400410978 0 0.0093122669497756917 0.00091113278702606351 0 0.0093827327585564672 0.0011198074101309531 0 0.0092184533453421365 0.0011108715672811873 0 0.0093827327585564672 0.0011198074101309531 0 0.0092184533453421365 0.0011108715672811873 0 0.0092562678993968125 0.0012925039730742065 0 0.0092184533453421365 0.0011108715672811873 0 0.0092562678993968125 0.0012925039730742065 0 0.009200489239979277 0.0012720286345056192 0 0.0092184533453421365 0.0011108715672811873 0 0.0090125613319617642 0.0010516473635171044 0 0.009200489239979277 0.0012720286345056192 0 0.0093122669497756917 0.00091113278702606351 0 0.0092184533453421365 0.0011108715672811873 0 0.0090738591781431462 0.00081550343629228298 0 0.0092635773051271235 0.00072237208328431498 0 0.0093122669497756917 0.00091113278702606351 0 0.0090738591781431462 0.00081550343629228298 0 0.0092184533453421365 0.0011108715672811873 0 0.0090738591781431462 0.00081550343629228298 0 0.0090125613319617642 0.0010516473635171044 0 0.0087604050988224769 0.00072231701124131006 0 0.0086353586155874344 0.001096974734241235 0 0.0090125613319617642 0.0010516473635171044 0 0.0087604050988224769 0.00072231701124131006 0 0.0090738591781431462 0.00081550343629228298 0 0.0090125613319617642 0.0010516473635171044 0 0.0082893484197173409 0.00077690270477395827 0 0.0087604050988224769 0.00072231701124131006 0 0.0086353586155874344 0.001096974734241235 0 0.0082879940437295286 0.0012209370365709482 0 0.0086353586155874344 0.001096974734241235 0 0.0086664082541825609 0.0015448370280099508 0 0.0086353586155874344 0.001096974734241235 0 0.0090125613319617642 0.0010516473635171044 0 0.0089890796525695978 0.0012766089587515992 0 0.0090125613319617642 0.0010516473635171044 0 0.0089890796525695978 0.0012766089587515992 0 0.009200489239979277 0.0012720286345056192 0 0.0089890796525695978 0.0012766089587515992 0 0.009200489239979277 0.0012720286345056192 0 0.0092986577622686702 0.0014060179297805194 0 0.0095312863176528744 0.0015396217485037741 0 0.0093076380991791996 0.0014350186156448245 0 0.0089890796525695978 0.0012766089587515992 0 0.0086664082541825609 0.0015448370280099508 0 0.0092986577622686702 0.0014060179297805194 0 0.0086353586155874344 0.001096974734241235 0 0.0089890796525695978 0.0012766089587515992 0 0.0086664082541825609 0.0015448370280099508 0 0.010388949362908542 0.00058157495263058147 0 0.011020550597199908 0.001013718224866739 0 0.010405600506937245 0.0015620208155289312 0 0.0095966970242372645 0.0008032636307046862 0 0.010388949362908542 0.00058157495263058147 0 0.010405600506937245 0.0015620208155289312 0 0.0095966970242372645 0.0008032636307046862 0 0.010405600506937245 0.0015620208155289312 0 0.0092986577622686702 0.0014060179297805194 0 0.0095966970242372645 0.0008032636307046862 0 0.0090741015111581915 0.00098062723927959394 0 0.0092986577622686702 0.0014060179297805194 0 0.0090741015111581915 0.00098062723927959394 0 0.0092986577622686702 0.0014060179297805194 0 0.0092042182648453697 0.0012992532855084778 0 0.0090741015111581915 0.00098062723927959394 0 0.0091435720404994709 0.0013207034345906127 0 0.0092042182648453697 0.0012992532855084778 0 0.01151818256375539 0.00038188735743095639 0 0.011428670470445759 0.00038743319139775237 0 0.011430858362286769 0.0004932991523971498 0 0.010332059762488206 0.00067691302682154446 0 0.01032359407688371 0.00076001123396461894 0 0.0093827327585564672 0.0011198074101309531 0 0.009424933720330507 0.0014010642474440521 0 0.0092562678993968125 0.0012925039730742065 0 0.01032359407688371 0.00076001123396461894 0 0.0094444575456637328 0.00095512777883020362 0 0.0091435720404994709 0.0013207034345906127 0 0.0092562678993968125 0.0012925039730742065 0 0.0092042182648453697 0.0012992532855084778 0 0.0092562678993968125 0.0012925039730742065 0 0.009200489239979277 0.0012720286345056192 0 0.0092042182648453697 0.0012992532855084778 0 0.009200489239979277 0.0012720286345056192 0 0.0092986577622686702 0.0014060179297805194 0 0.0092042182648453697 0.0012992532855084778 0 0.010990704976674938 3.6514360462059083e-05 0 0.010928550460969886 3.5083383638813008e-05 0 0.010966802793435936 -1.3026858819718468e-05 0 0.010990704976674938 3.6514360462059083e-05 0 0.010928550460969886 3.5083383638813008e-05 0 0.010943416802688113 9.8968391173401117e-05 0 0.010862794143148316 5.2522095123376735e-05 0 0.010928550460969886 3.5083383638813008e-05 0 0.010908339506359747 -1.5571438901898719e-05 0 0.010862794143148316 5.2522095123376735e-05 0 0.010928550460969886 3.5083383638813008e-05 0 0.010943416802688113 9.8968391173401117e-05 0 0.01032359407688371 0.00076001123396461894 0 0.011254100052659215 0.00022987663218020381 0 0.011428670470445759 0.00038743319139775237 0 0.011430858362286769 0.0004932991523971498 0 0.011335240300539286 0.00040623067397495055 0 0.011114934995051029 0.00022244364870693269 0 0.011254100052659215 0.00022987663218020381 0 0.010990704976674938 3.6514360462059083e-05 0 0.010943416802688113 9.8968391173401117e-05 0 0.011042631028336662 7.787399586554082e-05 0 0.011028719432858087 0.0001435030559689967 0 0.010943416802688113 9.8968391173401117e-05 0 0.011042631028336662 7.787399586554082e-05 0 0.011028719432858087 0.0001435030559689967 0 0.011042631028336662 7.787399586554082e-05 0 0.011123195246584318 0.00010433530797268374 0 0.011042631028336662 7.787399586554082e-05 0 0.011123195246584318 0.00010433530797268374 0 0.011106430242362499 6.1380439325265727e-05 0 0.011042631028336662 7.787399586554082e-05 0 0.011106430242362499 6.1380439325265727e-05 0 0.011043182816926421 3.8796282764527748e-05 0 0.011106430242362499 6.1380439325265727e-05 0 0.011074150241711269 1.9282984441966028e-05 0 0.011155339271293726 3.6705681021859404e-05 0 0.011106430242362499 6.1380439325265727e-05 0 0.011074150241711269 1.9282984441966028e-05 0 0.011043182816926421 3.8796282764527748e-05 0 0.010990704976674938 3.6514360462059083e-05 0 0.011042631028336662 7.787399586554082e-05 0 0.011043182816926421 3.8796282764527748e-05 0 0.011074150241711269 1.9282984441966028e-05 0 0.011043182816926421 3.8796282764527748e-05 0 0.011021901698914777 -1.4164250586377122e-06 0 0.010990704976674938 3.6514360462059083e-05 0 0.011043182816926421 3.8796282764527748e-05 0 0.011021901698914777 -1.4164250586377122e-06 0 0.010990704976674938 3.6514360462059083e-05 0 0.011021901698914777 -1.4164250586377122e-06 0 0.010966802793435936 -1.3026858819718468e-05 0 0.0097280095857487318 0.00029291516963187803 0 0.0097252730671099647 0.00038008707097577943 0 0.011021901698914777 -1.4164250586377122e-06 0 0.011062445038871447 -1.9582724712644797e-05 0 0.011003863498191274 -5.0122705442583904e-05 0 0.011021901698914777 -1.4164250586377122e-06 0 0.011003863498191274 -5.0122705442583904e-05 0 0.010966802793435936 -1.3026858819718468e-05 0 0.0085413442399032424 0.00028628976172240191 0 0.0085627461184561368 0.00025118754522852524 0 0.0085993788497967238 0.0002728610930207279 0 0.011074150241711269 1.9282984441966028e-05 0 0.011064299107844374 -2.0792890557770967e-05 0 0.011155339271293726 3.6705681021859404e-05 0 0.010658714638826308 3.1380732056655864e-06 0 0.0097280095857487318 0.00029291516963187803 0 0.011074150241711269 1.9282984441966028e-05 0 0.011021901698914777 -1.4164250586377122e-06 0 0.011062445038871447 -1.9582724712644797e-05 0 0.0097280095857487318 0.00029291516963187803 0 0.0084995464175209538 0.00047873204581505287 0 0.0085413442399032424 0.00028628976172240191 0 0.0085330443117362792 0.00022627280690629267 0 0.0085627461184561368 0.00025118754522852524 0 0.0085330443117362792 0.00022627280690629267 0 0.0085627461184561368 0.00025118754522852524 0 0.0085693937048685054 0.00020096499429482636 0 0.0084665883218313035 0.0008174500757559144 0 0.0084190824279583697 0.00079667937934004539 0 0.0084589601579382855 0.00077319656942687867 0 0.0084977049006625428 0.00078839387043470757 0 0.0084665883218313035 0.0008174500757559144 0 0.0084589601579382855 0.00077319656942687867 0 0.008513952464982228 0.0008382492844903769 0 0.0084977049006625428 0.00078839387043470757 0 0.0084665883218313035 0.0008174500757559144 0 0.011003863498191274 -5.0122705442583904e-05 0 0.010946184009124147 -7.8278736712481166e-05 0 0.010966802793435936 -1.3026858819718468e-05 0 0.0097252730671099647 0.00038008707097577943 0 0.0098456688772515562 0.00043462242702173472 0 0.010928550460969886 3.5083383638813008e-05 0 0.010966802793435936 -1.3026858819718468e-05 0 0.010908339506359747 -1.5571438901898719e-05 0 0.010946184009124147 -7.8278736712481166e-05 0 0.010966802793435936 -1.3026858819718468e-05 0 0.010908339506359747 -1.5571438901898719e-05 0 0.01032359407688371 0.00076001123396461894 0 0.01032194820120997 0.00050432696060041652 0 0.0093827327585564672 0.0011198074101309531 0 0.0096444421198667307 0.0010979949400410978 0 0.0095379838396432385 0.00089646686585311453 0 0.0098337075915239675 0.00081490846782580548 0 0.0095379838396432385 0.00089646686585311453 0 0.0096286652301963149 0.00068911580949673984 0 0.0098456688772515562 0.00043462242702173472 0 0.01032194820120997 0.00050432696060041652 0 0.0098337075915239675 0.00081490846782580548 0 0.0096444421198667307 0.0010979949400410978 0 0.0095379838396432385 0.00089646686585311453 0 0.0094309545003692218 0.00076595594535743342 0 0.0095379838396432385 0.00089646686585311453 0 0.0096286652301963149 0.00068911580949673984 0 0.0083225327446485725 0.00074515665990342202 0 0.0083706144326362673 0.0007736405337192728 0 0.0084059079709233927 0.0007422862934667292 0 0.0080680943683412946 0.00078520660802191384 0 0.0069731303589381276 0.0012246760656151596 0 0.0098456688772515562 0.00043462242702173472 0 0.0090300355091116821 0.0007429854665379149 0 0.0080680943683412946 0.00078520660802191384 0 0.0090300355091116821 0.0007429854665379149 0 0.0084059079709233927 0.0007422862934667292 0 0.0084353129570205153 0.00075871814587667404 0 0.0084573382239381493 0.00074372355846874494 0 0.0084190824279583697 0.00079667937934004539 0 0.0084059079709233927 0.0007422862934667292 0 0.0084353129570205153 0.00075871814587667404 0 0.0084190824279583697 0.00079667937934004539 0 0.0083706144326362673 0.0007736405337192728 0 0.0084059079709233927 0.0007422862934667292 0 0.0084190824279583697 0.00079667937934004539 0 0.0084353129570205153 0.00075871814587667404 0 0.0084589601579382855 0.00077319656942687867 0 0.0061193282620299085 0.0015579315938446284 0 0.0058337461235401693 0.0012487021569496336 0 0.0062771557134835487 0.001156430197838957 0 0.0055956070479771577 0.0016069248324198382 0 0.0061193282620299085 0.0015579315938446284 0 0.0058337461235401693 0.0012487021569496336 0 0.0055592269940846727 0.0010375897058743173 0 0.0058337461235401693 0.0012487021569496336 0 0.0059872257511424717 0.00083588827938570578 0 0.0062771557134835487 0.001156430197838957 0 0.0059872257511424717 0.00083588827938570578 0 0.0063506053974955387 0.00075429559132531791 0 0.0058337461235401693 0.0012487021569496336 0 0.0062771557134835487 0.001156430197838957 0 0.0059872257511424717 0.00083588827938570578 0 0.0059872257511424717 0.00083588827938570578 0 0.0063506053974955387 0.00075429559132531791 0 0.0062073671955375984 0.00041636482989986748 0 0.0056536765679757869 0.00072482673232683256 0 0.0059872257511424717 0.00083588827938570578 0 0.0058292188510816077 0.00036132221849132949 0 0.0056536765679757869 0.00072482673232683256 0 0.0055592269940846727 0.0010375897058743173 0 0.0059872257511424717 0.00083588827938570578 0 0.0068497043499527906 0.00049031035856202337 0 0.006657539425271284 0.00074796269547878656 0 0.0066133078558205955 0.00039859340055582119 0 0.0065787090583074997 0.00094806088209120057 0 0.0066380744957731282 0.00039221629683118395 0 0.0063506053974955387 0.00075429559132531791 0 0.0066133078558205955 0.00039859340055582119 0 0.0062073671955375984 0.00041636482989986748 0 0.0063506053974955387 0.00075429559132531791 0 0.0066882722761507571 0.00097130676928724221 0 0.0066133078558205955 0.00039859340055582119 0 0.0062771557134835487 0.001156430197838957 0 0.0063506053974955387 0.00075429559132531791 0 0.0066882722761507571 0.00097130676928724221 0 0.0062771557134835487 0.001156430197838957 0 0.0066882722761507571 0.00097130676928724221 0 0.006664135883319545 0.0015121911981886235 0 0.0068497043499527906 0.00049031035856202337 0 0.006657539425271284 0.00074796269547878656 0 0.0069478222782106136 0.00081982345360463401 0 0.006657539425271284 0.00074796269547878656 0 0.006823984318680725 0.00094276901365550759 0 0.0069478222782106136 0.00081982345360463401 0 0.006823984318680725 0.00094276901365550759 0 0.0067006886014975399 0.0011336015141035155 0 0.0069720460336335031 0.0010692723653228317 0 0.0076275541870860558 0.00086803633911876365 0 0.0077816979495520366 0.00061426950478603781 0 0.006657539425271284 0.00074796269547878656 0 0.006823984318680725 0.00094276901365550759 0 0.0067006886014975399 0.0011336015141035155 0 0.0065787090583074997 0.00094806088209120057 0 0.0076275541870860558 0.00086803633911876365 0 0.0066882722761507571 0.00097130676928724221 0 0.0067360636193175517 0.0015061127345781017 0 0.006664135883319545 0.0015121911981886235 0 0.0076275541870860558 0.00086803633911876365 0 0.007829434802794983 0.00092687561284886559 0 0.0084059079709233927 0.0007422862934667292 0 0.0084746787828588622 0.00074145636162044706 0 0.0084573382239381493 0.00074372355846874494 0 0.0061193282620299085 0.0015579315938446284 0 0.0062771557134835487 0.001156430197838957 0 0.006664135883319545 0.0015121911981886235 0 0.0069731303589381276 0.0012246760656151596 0 0.007829434802794983 0.00092687561284886559 0 0.007829434802794983 0.00092687561284886559 0 0.0083492117922021533 0.00080036256970864494 0 0.0084977049006625428 0.00078839387043470757 0 0.0084747820242382383 0.00073972046668954131 0 0.0084589601579382855 0.00077319656942687867 0 0.0084353129570205153 0.00075871814587667404 0 0.0084573382239381493 0.00074372355846874494 0 0.0084589601579382855 0.00077319656942687867 0 0.0084747820242382383 0.00073972046668954131 0 0.0084573382239381493 0.00074372355846874494 0 0.0084589601579382855 0.00077319656942687867 0 0.0084977049006625428 0.00078839387043470757 0 0.0084826971951396466 0.00073903443218029249 0 0.0084747820242382383 0.00073972046668954131 0 0.0085330443117362792 0.00022627280690629267 0 0.0085232053805878345 0.00017406557705710367 0 0.0085693937048685054 0.00020096499429482636 0 0.0085232053805878345 0.00017406557705710367 0 0.0085693937048685054 0.00020096499429482636 0 0.0085735065549197523 0.00016057132780665449 0 0.0084995464175209538 0.00047873204581505287 0 0.0076275541870860558 0.00086803633911876365 0 0.0085693937048685054 0.00020096499429482636 0 0.0086178882715490703 0.00020578207289063125 0 0.0085938685847343418 0.00023470518129448684 0 0.0085693937048685054 0.00020096499429482636 0 0.008606294106114994 0.00017750821481980362 0 0.0086178882715490703 0.00020578207289063125 0 0.0085693937048685054 0.00020096499429482636 0 0.008606294106114994 0.00017750821481980362 0 0.0085735065549197523 0.00016057132780665449 0 0.0086178882715490703 0.00020578207289063125 0 0.0086360728765332555 0.00018570895412898939 0 0.0086556572094522669 0.00020442142940472953 0 0.0086004913651603707 0.00012745211878778461 0 0.0086509713314818441 0.00019956000371995885 0 0.008606294106114994 0.00017750821481980362 0 0.0086178882715490703 0.00020578207289063125 0 0.0086360728765332555 0.00018570895412898939 0 0.0079076663264808604 0.00043039251222231294 0 0.0081676075182255271 0.00017631430648114174 0 0.0086189399652414674 7.0407884408528161e-05 0 0.0086220500012609211 3.7974323497403554e-05 0 0.0086642933679963157 5.1479411486323049e-05 0 0.0086004913651603707 0.00012745211878778461 0 0.0079076663264808604 0.00043039251222231294 0 0.008606294106114994 0.00017750821481980362 0 0.0086360728765332555 0.00018570895412898939 0 0.0086191461651082962 0.00015160540818077241 0 0.0079076663264808604 0.00043039251222231294 0 0.0077816979495520366 0.00061426950478603781 0 0.0072497882297508347 0.0010108348991373127 0 0.0069720460336335031 0.0010692723653228317 0 0.0069478222782106136 0.00081982345360463401 0 0.008606294106114994 0.00017750821481980362 0 0.0086191461651082962 0.00015160540818077241 0 0.0085735065549197523 0.00016057132780665449 0 0.006823984318680725 0.00094276901365550759 0 0.0069720460336335031 0.0010692723653228317 0 0.0069478222782106136 0.00081982345360463401 0 0.0072497882297508347 0.0010108348991373127 0 0.0069478222782106136 0.00081982345360463401 0 0.0071250535316629091 0.00063951178587104689 0 0.0079076663264808604 0.00043039251222231294 0 0.0071046361453924265 0.00042414565617198189 0 0.00734681674940082 0.00038322157199447625 0 0.0074035113231979022 0.00016837189424118517 0 0.0076267439776717561 0.00034403170592476625 0 0.00734681674940082 0.00038322157199447625 0 0.0074035113231979022 0.00016837189424118517 0 0.0072424792194486646 0.00014225714457851484 0 0.0074035113231979022 0.00016837189424118517 0 0.0072424792194486646 0.00014225714457851484 0 0.0072058979400919029 0.00011799605349481636 0 0.0074035113231979022 0.00016837189424118517 0 0.0073606719568932227 3.386259886799884e-05 0 0.0072058979400919029 0.00011799605349481636 0 0.0068497043499527906 0.00049031035856202337 0 0.0071250535316629091 0.00063951178587104689 0 0.0069943778158704306 0.00018447085269051184 0 0.0071046361453924265 0.00042414565617198189 0 0.007030602456928838 0.00016483767252180645 0 0.0072424792194486646 0.00014225714457851484 0 0.0069943778158704306 0.00018447085269051184 0 0.0072058979400919029 0.00011799605349481636 0 0.0068497043499527906 0.00049031035856202337 0 0.0069478222782106136 0.00081982345360463401 0 0.0071250535316629091 0.00063951178587104689 0 0.0078797529084627047 -7.4127082323088838e-08 0 0.0076894445545063004 2.0874715689012262e-05 0 0.0074442507542509242 -3.6015978102871198e-05 0 0.0076894445545063004 2.0874715689012262e-05 0 0.0073606719568932227 3.386259886799884e-05 0 0.0074442507542509242 -3.6015978102871198e-05 0 0.0074035113231979022 0.00016837189424118517 0 0.0076894445545063004 2.0874715689012262e-05 0 0.0073606719568932227 3.386259886799884e-05 0 0.0074035113231979022 0.00016837189424118517 0 0.0076894445545063004 2.0874715689012262e-05 0 0.0076267439776717561 0.00034403170592476625 0 0.0076894445545063004 2.0874715689012262e-05 0 0.0082984910584413315 8.9161255774985998e-05 0 0.0076267439776717561 0.00034403170592476625 0 0.0078797529084627047 -7.4127082323088838e-08 0 0.0076894445545063004 2.0874715689012262e-05 0 0.0082984910584413315 8.9161255774985998e-05 0 0.0078797529084627047 -7.4127082323088838e-08 0 0.0082984910584413315 8.9161255774985998e-05 0 0.0086928682045072543 2.468538137303436e-07 0 0.0082984910584413315 8.9161255774985998e-05 0 0.0086668840808603268 -1.5354545106502782e-05 0 0.0086928682045072543 2.468538137303436e-07 0 0.0086668840808603268 -1.5354545106502782e-05 0 0.0086928682045072543 2.468538137303436e-07 0 0.0089482832921767303 2.6347710966439696e-05 0 0.0086668840808603268 -1.5354545106502782e-05 0 0.0086717193121416698 4.4926878341244711e-05 0 0.0086642933679963157 5.1479411486323049e-05 0 0.0082984910584413315 8.9161255774985998e-05 0 0.0086668840808603268 -1.5354545106502782e-05 0 0.0086717193121416698 4.4926878341244711e-05 0 0.0086220500012609211 3.7974323497403554e-05 0 0.0086717193121416698 4.4926878341244711e-05 0 0.0086642933679963157 5.1479411486323049e-05 0 0.0082702083581950286 0.0001202262521079899 0 0.0081676075182255271 0.00017631430648114174 0 0.0086189399652414674 7.0407884408528161e-05 0 0.0086642933679963157 5.1479411486323049e-05 0 0.0086556572094522669 0.00020442142940472953 0 0.0086642933679963157 5.1479411486323049e-05 0 0.0087221467923248846 0.00012510220471156403 0 0.0086556572094522669 0.00020442142940472953 0 0.0086668840808603268 -1.5354545106502782e-05 0 0.0086642933679963157 5.1479411486323049e-05 0 0.0087221467923248846 0.00012510220471156403 0 0.0086928682045072543 2.468538137303436e-07 0 0.0089482832921767303 2.6347710966439696e-05 0 0.0095063568247870985 1.1988151420870966e-07 0 0.0087221467923248846 0.00012510220471156403 0 0.0089482832921767303 2.6347710966439696e-05 0 0.0087907510859701922 0.00024861835715152253 0 0.0090535849888510652 2.7334473898020485e-06 0 0.0093298825711157565 8.4280850498482025e-05 0 0.0086668840808603268 -1.5354545106502782e-05 0 0.0087221467923248846 0.00012510220471156403 0 0.0089482832921767303 2.6347710966439696e-05 0 0.0089482832921767303 2.6347710966439696e-05 0 0.0095063568247870985 1.1988151420870966e-07 0 0.0098665375232378175 2.8018066589568679e-05 0 0.0095063568247870985 1.1988151420870966e-07 0 0.0098665375232378175 2.8018066589568679e-05 0 0.010114123854236788 4.9964713605453594e-06 0 0.0093298825711157565 8.4280850498482025e-05 0 0.0096151281973806697 0.00014559816104879156 0 0.0098665375232378175 2.8018066589568679e-05 0 0.010114123854236788 4.9964713605453594e-06 0 0.010538797492697649 3.2002127882335809e-06 0 0.010114123854236788 4.9964713605453594e-06 0 0.010538797492697649 3.2002127882335809e-06 0 0.010319245094123141 -1.3942200389062311e-08 0 0.0095063568247870985 1.1988151420870966e-07 0 0.010114123854236788 4.9964713605453594e-06 0 0.010319245094123141 -1.3942200389062311e-08 0 0.0087907510859701922 0.00024861835715152253 0 0.0087439664350972158 0.00032645784759873723 0 0.0087093218724721422 0.00027266668470043477 0 0.0087439664350972158 0.00032645784759873723 0 0.0087093218724721422 0.00027266668470043477 0 0.0086909607588671958 0.00033438214865605549 0 0.0087093218724721422 0.00027266668470043477 0 0.0087172134876241196 0.00021217812921609232 0 0.0086556572094522669 0.00020442142940472953 0 0.0087907510859701922 0.00024861835715152253 0 0.0087093218724721422 0.00027266668470043477 0 0.0087172134876241196 0.00021217812921609232 0 0.0087221467923248846 0.00012510220471156403 0 0.0087907510859701922 0.00024861835715152253 0 0.0087172134876241196 0.00021217812921609232 0 0.0087221467923248846 0.00012510220471156403 0 0.0087172134876241196 0.00021217812921609232 0 0.0086556572094522669 0.00020442142940472953 0 0.0086556572094522669 0.00020442142940472953 0 0.0086277465069563523 0.00024047040397025645 0 0.0086539492318188967 0.00028369590583550886 0 0.0087093218724721422 0.00027266668470043477 0 0.0086556572094522669 0.00020442142940472953 0 0.0086539492318188967 0.00028369590583550886 0 0.0086178882715490703 0.00020578207289063125 0 0.0086556572094522669 0.00020442142940472953 0 0.0086277465069563523 0.00024047040397025645 0 0.0085627461184561368 0.00025118754522852524 0 0.0085693937048685054 0.00020096499429482636 0 0.0085938685847343418 0.00023470518129448684 0 0.0086178882715490703 0.00020578207289063125 0 0.0086277465069563523 0.00024047040397025645 0 0.0085938685847343418 0.00023470518129448684 0 0.0086277465069563523 0.00024047040397025645 0 0.0085938685847343418 0.00023470518129448684 0 0.0085993788497967238 0.0002728610930207279 0 0.0085627461184561368 0.00025118754522852524 0 0.0085938685847343418 0.00023470518129448684 0 0.0085993788497967238 0.0002728610930207279 0 0.0085993788497967238 0.0002728610930207279 0 0.0086539492318188967 0.00028369590583550886 0 0.0086238359035268122 0.00034530624302431847 0 0.0097280095857487318 0.00029291516963187803 0 0.0098515679946997951 0.00017275179631799534 0 0.0085413442399032424 0.00028628976172240191 0 0.0085993788497967238 0.0002728610930207279 0 0.0086238359035268122 0.00034530624302431847 0 0.0086277465069563523 0.00024047040397025645 0 0.0085993788497967238 0.0002728610930207279 0 0.0086539492318188967 0.00028369590583550886 0 0.0086539492318188967 0.00028369590583550886 0 0.0086909607588671958 0.00033438214865605549 0 0.0086238359035268122 0.00034530624302431847 0 0.0087093218724721422 0.00027266668470043477 0 0.0086539492318188967 0.00028369590583550886 0 0.0086909607588671958 0.00033438214865605549 0 0.0098515679946997951 0.00017275179631799534 0 0.010214011368458587 0.00015257197419131995 0 0.0086909607588671958 0.00033438214865605549 0 0.0086238359035268122 0.00034530624302431847 0 0.0087287389345200705 0.00040737184537800795 0 0.011123195246584318 0.00010433530797268374 0 0.011106430242362499 6.1380439325265727e-05 0 0.011171673702658669 8.4585229012497758e-05 0 0.011106430242362499 6.1380439325265727e-05 0 0.011155339271293726 3.6705681021859404e-05 0 0.011171673702658669 8.4585229012497758e-05 0 0.011155339271293726 3.6705681021859404e-05 0 0.011171673702658669 8.4585229012497758e-05 0 0.011191106584829932 7.5224481234068203e-05 0 0.011203640368804736 7.8528794470570729e-05 0 0.011038152217576215 -8.8018494011579104e-05 0 0.011029976848710396 -9.2241191294695999e-05 0 0.011305398023894441 -4.467284865076029e-05 0 0.011038152217576215 -8.8018494011579104e-05 0 0.011042210692451173 -4.9411970858344563e-05 0 0.010284227480758235 0.00017190178165079893 0 0.010214011368458587 0.00015257197419131995 0 0.011038152217576215 -8.8018494011579104e-05 0 0.010880783176234787 -5.3840206884948991e-05 0 0.011042210692451173 -4.9411970858344563e-05 0 0.011038152217576215 -8.8018494011579104e-05 0 0.011046896752169234 -7.3026785908849855e-05 0 0.010880783176234787 -5.3840206884948991e-05 0 0.011305398023894441 -4.467284865076029e-05 0 0.011042210692451173 -4.9411970858344563e-05 0 0.01113256243377646 -3.8978970548251718e-07 0 0.011042210692451173 -4.9411970858344563e-05 0 0.01113256243377646 -3.8978970548251718e-07 0 0.010759393680700381 -4.108897453909368e-05 0 0.010880783176234787 -5.3840206884948991e-05 0 0.011042210692451173 -4.9411970858344563e-05 0 0.010759393680700381 -4.108897453909368e-05 0 0.010538797492697649 3.2002127882335809e-06 0 0.010880783176234787 -5.3840206884948991e-05 0 0.010759393680700381 -4.108897453909368e-05 0 0.01113256243377646 -3.8978970548251718e-07 0 0.010759393680700381 -4.108897453909368e-05 0 0.010319245094123141 -1.3942200389062311e-08 0 0.010538797492697649 3.2002127882335809e-06 0 0.010759393680700381 -4.108897453909368e-05 0 0.010319245094123141 -1.3942200389062311e-08 0 0.010538797492697649 3.2002127882335809e-06 0 0.011046896752169234 -7.3026785908849855e-05 0 0.010880783176234787 -5.3840206884948991e-05 0 0.0087439664350972158 0.00032645784759873723 0 0.0086909607588671958 0.00033438214865605549 0 0.0087287389345200705 0.00040737184537800795 0 0.0096151281973806697 0.00014559816104879156 0 0.010214011368458587 0.00015257197419131995 0 0.0057112492963387884 0.00071677541092870177 0 0.0054165550157103341 0.00047568882871650421 0 0.0057458453544458263 0.00028681611239897328 0 0.0057112492963387884 0.00071677541092870177 0 0.0059711212713508231 0.00045016058817648095 0 0.0057458453544458263 0.00028681611239897328 0 0.0049555480036922537 -4.1668067609386609e-08 0 0.0048495306256205314 0.00021659810392730418 0 0.0040054803593817462 -1.9801128017430128e-05 0 0.0039258758211235386 -5.2781270595434355e-06 0 0.0042522024427876183 5.1162903220396529e-05 0 0.0045141029461262059 1.0341970262820452e-06 0 0.0049555480036922537 -4.1668067609386609e-08 0 0.0042522024427876183 5.1162903220396529e-05 0 0.0042738557386346942 -2.0274448128659387e-07 0 0.0048981754440736609 4.0623455383537201e-07 0 0.0042522024427876183 5.1162903220396529e-05 0 0.0042738557386346942 -2.0274448128659387e-07 0 0.0041159624072138693 -7.5152644746519667e-06 0 0.0040054803593817462 -1.9801128017430128e-05 0 0.0042522024427876183 5.1162903220396529e-05 0 0.0041159624072138693 -7.5152644746519667e-06 0 0.0042738557386346942 -2.0274448128659387e-07 0 0.003944937696546193 -4.4130081339456722e-05 0 0.0036509150634693355 -3.6329071278770276e-08 0 0.003944937696546193 -4.4130081339456722e-05 0 0.003900713603825341 -4.2484164254200399e-06 0 0.0036509150634693355 -3.6329071278770276e-08 0 0.0040054803593817462 -1.9801128017430128e-05 0 0.003944937696546193 -4.4130081339456722e-05 0 0.003900713603825341 -4.2484164254200399e-06 0 0.0040054803593817462 -1.9801128017430128e-05 0 0.0041159624072138693 -7.5152644746519667e-06 0 0.003944937696546193 -4.4130081339456722e-05 0 0.0042738557386346942 -2.0274448128659387e-07 0 0.0041159624072138693 -7.5152644746519667e-06 0 0.003944937696546193 -4.4130081339456722e-05 0 0.0040054803593817462 -1.9801128017430128e-05 0 0.0039726255416527075 -1.1570689649662836e-05 0 0.003900713603825341 -4.2484164254200399e-06 0 0.0039726255416527075 -1.1570689649662836e-05 0 0.003844820710397422 1.9051191902553026e-05 0 0.003900713603825341 -4.2484164254200399e-06 0 0.0055233522187450885 -0.0003403536455406292 0 0.0052829108327113062 -0.00034119797338352348 0 0.0052816662035739216 -0.00060573417135463645 0 0.0049555480036922537 -4.1668067609386609e-08 0 0.0045151920334444524 -0.0003378109467847994 0 0.0050834943431036957 -0.00054365034493245382 0 0.0052829108327113062 -0.00034119797338352348 0 0.0052816662035739216 -0.00060573417135463645 0 0.0050834943431036957 -0.00054365034493245382 0 0.0050336890844915562 -0.00033800630425094374 0 0.0052829108327113062 -0.00034119797338352348 0 0.0065492132736490148 -0.00073189322542679426 0 0.0064695000148224822 -0.00047036148484215826 0 0.0065353965593767513 -0.00073615801044137074 0 0.0064695000148224822 -0.00047036148484215826 0 0.006416810655336753 -0.00035529902224412966 0 0.0065353965593767513 -0.00073615801044137074 0 0.006416810655336753 -0.00035529902224412966 0 0.0063192850383650256 -0.00062227479306877767 0 0.0063889256105114202 -0.00086317191350849685 0 0.0066499982090731935 0.00065650634783372304 0 0.0064117082848511291 0.00049844412356154849 0 0.0065055113185763956 0.00026763833652832214 0 0.006554342572371189 -0.00040706333044762135 0 0.0060427547718882426 -0.00066771571251462232 0 0.0066499982090731935 0.00065650634783372304 0 0.0064117082848511291 0.00049844412356154849 0 0.0061961236729022569 0.00067584281468694059 0 0.0057694260947086769 -0.00032998769979286494 0 0.0065316809794264781 -2.2028127065220863e-05 0 0.0057694260947086769 -0.00032998769979286494 0 0.0058741187611395735 0.00020354468858445085 0 0.0064117082848511291 0.00049844412356154849 0 0.006229650423085484 0.00036369496327480418 0 0.0065055113185763956 0.00026763833652832214 0 0.0049555480036922537 -4.1668067609386609e-08 0 0.0058741187611395735 0.00020354468858445085 0 0.0057112492963387884 0.00071677541092870177 0 0.0061961236729022569 0.00067584281468694059 0 0.0059711212713508231 0.00045016058817648095 0 0.0064117082848511291 0.00049844412356154849 0 0.0061961236729022569 0.00067584281468694059 0 0.006229650423085484 0.00036369496327480418 0 0.0061961236729022569 0.00067584281468694059 0 0.006229650423085484 0.00036369496327480418 0 0.0059711212713508231 0.00045016058817648095 0 0.006229650423085484 0.00036369496327480418 0 0.0059711212713508231 0.00045016058817648095 0 0.0060249109392458465 0.00016222525983012549 0 0.006229650423085484 0.00036369496327480418 0 0.0060249109392458465 0.00016222525983012549 0 0.0062209542828071916 0.00010513959201097824 0 0.0060249109392458465 0.00016222525983012549 0 0.0060666952030163568 -6.230651103777805e-05 0 0.0058362378711337513 -5.9860942822185964e-05 0 0.0060249109392458465 0.00016222525983012549 0 0.0062209542828071916 0.00010513959201097824 0 0.0060666952030163568 -6.230651103777805e-05 0 0.0065316809794264781 -2.2028127065220863e-05 0 0.0063437089487475683 -0.00023414193302239889 0 0.0064695000148224822 -0.00047036148484215826 0 0.006416810655336753 -0.00035529902224412966 0 0.0063266568388034069 -0.00018341612812534038 0 0.0062209542828071916 0.00010513959201097824 0 0.0065055113185763956 0.00026763833652832214 0 0.0063266568388034069 -0.00018341612812534038 0 0.006416810655336753 -0.00035529902224412966 0 0.0063339149156692058 -0.0004289130648669683 0 0.0063192850383650256 -0.00062227479306877767 0 0.006229650423085484 0.00036369496327480418 0 0.0062209542828071916 0.00010513959201097824 0 0.0065055113185763956 0.00026763833652832214 0 0.006416810655336753 -0.00035529902224412966 0 0.0063751225142930062 -0.00029616869934604589 0 0.0063339149156692058 -0.0004289130648669683 0 0.0063751225142930062 -0.00029616869934604589 0 0.0063266568388034069 -0.00018341612812534038 0 0.0064390795983776169 -0.00028347769577498154 0 0.006416810655336753 -0.00035529902224412966 0 0.0063751225142930062 -0.00029616869934604589 0 0.0063266568388034069 -0.00018341612812534038 0 0.0060666952030163568 -6.230651103777805e-05 0 0.0060693755626090645 -0.00019458471300543066 0 0.0058362378711337513 -5.9860942822185964e-05 0 0.0063266568388034069 -0.00018341612812534038 0 0.0060666952030163568 -6.230651103777805e-05 0 0.0060693755626090645 -0.00019458471300543066 0 0.0062209542828071916 0.00010513959201097824 0 0.0063266568388034069 -0.00018341612812534038 0 0.0060666952030163568 -6.230651103777805e-05 0 0.0058362378711337513 -5.9860942822185964e-05 0 0.0055890412827639974 -5.8420842066585046e-05 0 0.0059558090018900587 -0.0001762826203925366 0 0.0060693755626090645 -0.00019458471300543066 0 0.0058362378711337513 -5.9860942822185964e-05 0 0.0059558090018900587 -0.0001762826203925366 0 0.0058362378711337513 -5.9860942822185964e-05 0 0.0055304810789668576 7.8780986173866962e-05 0 0.0055890412827639974 -5.8420842066585046e-05 0 0.0058362378711337513 -5.9860942822185964e-05 0 0.0057458453544458263 0.00028681611239897328 0 0.0055304810789668576 7.8780986173866962e-05 0 0.0060249109392458465 0.00016222525983012549 0 0.0058362378711337513 -5.9860942822185964e-05 0 0.0057458453544458263 0.00028681611239897328 0 0.0059711212713508231 0.00045016058817648095 0 0.0060249109392458465 0.00016222525983012549 0 0.0057458453544458263 0.00028681611239897328 0 0.0048495306256205314 0.00021659810392730418 0 0.0048985381311900294 4.7864969817220377e-08 0 0.0054165550157103341 0.00047568882871650421 0 0.0057458453544458263 0.00028681611239897328 0 0.0055304810789668576 7.8780986173866962e-05 0 0.0054165550157103341 0.00047568882871650421 0 0.0048998955416586464 7.5013418074635125e-07 0 0.0055304810789668576 7.8780986173866962e-05 0 0.0048998955416586464 7.5013418074635125e-07 0 0.0055304810789668576 7.8780986173866962e-05 0 0.0055890412827639974 -5.8420842066585046e-05 0 0.0048998955416586464 7.5013418074635125e-07 0 0.0056214370606597966 -4.5095467521635404e-07 0 0.0055890412827639974 -5.8420842066585046e-05 0 0.0056214370606597966 -4.5095467521635404e-07 0 0.0055890412827639974 -5.8420842066585046e-05 0 0.0059558090018900587 -0.0001762826203925366 0 0.0056214370606597966 -4.5095467521635404e-07 0 0.0059558090018900587 -0.0001762826203925366 0 0.0063444767015999066 -3.5823552114807217e-07 0 0.0059558090018900587 -0.0001762826203925366 0 0.006140138516613448 -4.6122986572987045e-05 0 0.0061415433599905809 -0.00026930583525083482 0 0.0059558090018900587 -0.0001762826203925366 0 0.0063444767015999066 -3.5823552114807217e-07 0 0.006140138516613448 -4.6122986572987045e-05 0 0.0063444767015999066 -3.5823552114807217e-07 0 0.006140138516613448 -4.6122986572987045e-05 0 0.0070658837460596527 4.8413581730079078e-07 0 0.0073347146764495474 1.0772536458329449e-05 0 0.0074442507542509242 -3.6015978102871198e-05 0 0.007068376929308064 7.3949770901511655e-08 0 0.0067358034866822096 -4.7166114958169532e-05 0 0.0070668920435439774 -4.5175962968286344e-08 0 0.0073347146764495474 1.0772536458329449e-05 0 0.0073606719568932227 3.386259886799884e-05 0 0.0074442507542509242 -3.6015978102871198e-05 0 0.0078797529084627047 -7.4127082323088838e-08 0 0.0074442507542509242 -3.6015978102871198e-05 0 0.007068376929308064 7.3949770901511655e-08 0 0.0069943778158704306 0.00018447085269051184 0 0.0072058979400919029 0.00011799605349481636 0 0.0070950913852747917 6.5793011285646637e-05 0 0.0073606719568932227 3.386259886799884e-05 0 0.0072058979400919029 0.00011799605349481636 0 0.0070950913852747917 6.5793011285646637e-05 0 0.0073347146764495474 1.0772536458329449e-05 0 0.0073606719568932227 3.386259886799884e-05 0 0.0070950913852747917 6.5793011285646637e-05 0 0.0069943778158704306 0.00018447085269051184 0 0.0070950913852747917 6.5793011285646637e-05 0 0.0068121831656373193 9.2039130813555942e-05 0 0.0070950913852747917 6.5793011285646637e-05 0 0.0068121831656373193 9.2039130813555942e-05 0 0.0067189979150619489 -7.0428892466739193e-05 0 0.0069943778158704306 0.00018447085269051184 0 0.0068121831656373193 9.2039130813555942e-05 0 0.0067812728947153674 0.00021781244596589999 0 0.0070950913852747917 6.5793011285646637e-05 0 0.0067189979150619489 -7.0428892466739193e-05 0 0.0070108295682840931 -0.00018765423795968238 0 0.0073347146764495474 1.0772536458329449e-05 0 0.0070950913852747917 6.5793011285646637e-05 0 0.0070108295682840931 -0.00018765423795968238 0 0.0067358034866822096 -4.7166114958169532e-05 0 0.0065864818959796463 -0.00020445020953414967 0 0.0060693755626090645 -0.00019458471300543066 0 0.0059558090018900587 -0.0001762826203925366 0 0.0061415433599905809 -0.00026930583525083482 0 0.0063266568388034069 -0.00018341612812534038 0 0.0060693755626090645 -0.00019458471300543066 0 0.0061415433599905809 -0.00026930583525083482 0 0.0063266568388034069 -0.00018341612812534038 0 0.0061415433599905809 -0.00026930583525083482 0 0.0064390795983776169 -0.00028347769577498154 0 0.0067189979150619489 -7.0428892466739193e-05 0 0.0070108295682840931 -0.00018765423795968238 0 0.0064390795983776169 -0.00028347769577498154 0 0.0065864818959796463 -0.00020445020953414967 0 0.0064658488897831245 -0.00027554330354869887 0 0.0067189979150619489 -7.0428892466739193e-05 0 0.0063784573678211734 -0.00014729593110676079 0 0.0064390795983776169 -0.00028347769577498154 0 0.0063784573678211734 -0.00014729593110676079 0 0.0061492221007594825 -0.00019410019507524627 0 0.0064390795983776169 -0.00028347769577498154 0 0.0063784573678211734 -0.00014729593110676079 0 0.0061492221007594825 -0.00019410019507524627 0 0.0061725753887038378 -0.00010774641025263835 0 0.0063784573678211734 -0.00014729593110676079 0 0.0061725753887038378 -0.00010774641025263835 0 0.0064440832701263429 5.6775437747570401e-05 0 0.0063395570088528889 -0.00041583130632545147 0 0.006586224813328238 -6.7536048657607008e-05 0 0.0063008464522192695 -0.00012206425826983431 0 0.006275434306160307 -0.00026679699641320159 0 0.0065132179029042947 -1.3725829446536252e-05 0 0.0067189979150619489 -7.0428892466739193e-05 0 0.0063784573678211734 -0.00014729593110676079 0 0.0064440832701263429 5.6775437747570401e-05 0 0.0068121831656373193 9.2039130813555942e-05 0 0.0064440832701263429 5.6775437747570401e-05 0 0.0067812728947153674 0.00021781244596589999 0 0.0068121831656373193 9.2039130813555942e-05 0 0.0067189979150619489 -7.0428892466739193e-05 0 0.0064440832701263429 5.6775437747570401e-05 0 0.006586224813328238 -6.7536048657607008e-05 0 0.0065842585810647987 0.00017121487269099932 0 0.0067812728947153674 0.00021781244596589999 0 0.0065132179029042947 -1.3725829446536252e-05 0 0.0067411597243178332 0.00019920061641515377 0 0.006586224813328238 -6.7536048657607008e-05 0 0.0063497875576605982 0.00013870115693151138 0 0.0063008464522192695 -0.00012206425826983431 0 0.006586224813328238 -6.7536048657607008e-05 0 0.0063497875576605982 0.00013870115693151138 0 0.0065842585810647987 0.00017121487269099932 0 0.0063497875576605982 0.00013870115693151138 0 0.0066133078558205955 0.00039859340055582119 0 0.0062073671955375984 0.00041636482989986748 0 0.0063497875576605982 0.00013870115693151138 0 0.0065842585810647987 0.00017121487269099932 0 0.0066133078558205955 0.00039859340055582119 0 0.0068497043499527906 0.00049031035856202337 0 0.0066133078558205955 0.00039859340055582119 0 0.0067812728947153674 0.00021781244596589999 0 0.0068497043499527906 0.00049031035856202337 0 0.0069943778158704306 0.00018447085269051184 0 0.0067812728947153674 0.00021781244596589999 0 0.0065842585810647987 0.00017121487269099932 0 0.0066133078558205955 0.00039859340055582119 0 0.0067812728947153674 0.00021781244596589999 0 0.0059872257511424717 0.00083588827938570578 0 0.0058292188510816077 0.00036132221849132949 0 0.0062073671955375984 0.00041636482989986748 0 0.0058292188510816077 0.00036132221849132949 0 0.0062073671955375984 0.00041636482989986748 0 0.0060617277139827334 5.2337647274288446e-05 0 0.0063497875576605982 0.00013870115693151138 0 0.0062073671955375984 0.00041636482989986748 0 0.0060617277139827334 5.2337647274288446e-05 0 0.0063497875576605982 0.00013870115693151138 0 0.0060617277139827334 5.2337647274288446e-05 0 0.0063008464522192695 -0.00012206425826983431 0 0.0058292188510816077 0.00036132221849132949 0 0.0060617277139827334 5.2337647274288446e-05 0 0.0057903231057141622 -0.00011755117131117521 0 0.0058292188510816077 0.00036132221849132949 0 0.0057903231057141622 -0.00011755117131117521 0 0.0054938634259056257 1.7578473217952888e-05 0 0.0057903231057141622 -0.00011755117131117521 0 0.0059621244650549538 -0.00037441936147463356 0 0.0055376389623553691 -0.00040252989207344722 0 0.0060617277139827334 5.2337647274288446e-05 0 0.0057903231057141622 -0.00011755117131117521 0 0.0059621244650549538 -0.00037441936147463356 0 0.0060617277139827334 5.2337647274288446e-05 0 0.0059621244650549538 -0.00037441936147463356 0 0.0063008464522192695 -0.00012206425826983431 0 0.0063395570088528889 -0.00041583130632545147 0 0.0059621244650549538 -0.00037441936147463356 0 0.0063008464522192695 -0.00012206425826983431 0 0.0063395570088528889 -0.00041583130632545147 0 0.0059621244650549538 -0.00037441936147463356 0 0.0060824165043911714 -0.00076301984765428106 0 0.006275434306160307 -0.00026679699641320159 0 0.0058672993644432493 -0.00039494520350219666 0 0.0061492221007594825 -0.00019410019507524627 0 0.0061725753887038378 -0.00010774641025263835 0 0.0060658464598897658 -0.00020845628695944577 0 0.0059621244650549538 -0.00037441936147463356 0 0.0058161247928180809 -0.00063041702637153644 0 0.0060824165043911714 -0.00076301984765428106 0 0.0059621244650549538 -0.00037441936147463356 0 0.0058161247928180809 -0.00063041702637153644 0 0.0055376389623553691 -0.00040252989207344722 0 0.0058161247928180809 -0.00063041702637153644 0 0.0057631229190988516 -0.00081237272185645179 0 0.0060824165043911714 -0.00076301984765428106 0 0.0053427333587402941 -0.00069929835659771956 0 0.0053648879793112697 -0.00089502098836633382 0 0.0056005175980322957 -0.00051712301194285846 0 0.0053648879793112697 -0.00089502098836633382 0 0.0056794913197446726 -0.00047347682363277712 0 0.0056005175980322957 -0.00051712301194285846 0 0.0058161247928180809 -0.00063041702637153644 0 0.0057631229190988516 -0.00081237272185645179 0 0.005573082256718139 -0.00081473226650720832 0 0.0053763800995942322 -0.00052048567179000785 0 0.0053427333587402941 -0.00069929835659771956 0 0.0056005175980322957 -0.00051712301194285846 0 0.0053261840991807082 -0.00072418897052032726 0 0.0058672993644432493 -0.00039494520350219666 0 0.0053763800995942322 -0.00052048567179000785 0 0.0053427333587402941 -0.00069929835659771956 0 0.005198173526237396 -0.00052399475507145551 0 0.0055288491336543746 -0.00060591950612279408 0 0.0058672993644432493 -0.00039494520350219666 0 0.0055288491336543746 -0.00060591950612279408 0 0.0055262507708555234 -0.00054422068206588781 0 0.0053792908387502838 -0.00052154745358806904 0 0.0056794913197446726 -0.00047347682363277712 0 0.0056005175980322957 -0.00051712301194285846 0 0.0052845584058754816 -0.00055965912805751815 0 0.0057141946664888829 -0.00056288921596789939 0 0.0053341510567137852 -0.00088443743705977549 0 0.0052845584058754816 -0.00055965912805751815 0 0.0057141946664888829 -0.00056288921596789939 0 0.005719961646888168 -0.00014254137135906044 0 0.0053427333587402941 -0.00069929835659771956 0 0.0053648879793112697 -0.00089502098836633382 0 0.005234409454998235 -0.00099830977466999608 0 0.0057141946664888829 -0.00056288921596789939 0 0.0059260035300199082 -0.00032666019404478045 0 0.0060837840185609905 -0.00041648410491799921 0 0.0061234960067570949 -0.00018559125760193873 0 0.0058672993644432493 -0.00039494520350219666 0 0.0061492221007594825 -0.00019410019507524627 0 0.0059260035300199082 -0.00032666019404478045 0 0.005719961646888168 -0.00014254137135906044 0 0.0057141946664888829 -0.00056288921596789939 0 0.0059260035300199082 -0.00032666019404478045 0 0.005719961646888168 -0.00014254137135906044 0 0.0061492221007594825 -0.00019410019507524627 0 0.0059260035300199082 -0.00032666019404478045 0 0.0060837840185609905 -0.00041648410491799921 0 0.0061492221007594825 -0.00019410019507524627 0 0.0062887954065031009 -0.00035685646267286276 0 0.0060837840185609905 -0.00041648410491799921 0 0.0061492221007594825 -0.00019410019507524627 0 0.0064390795983776169 -0.00028347769577498154 0 0.0062887954065031009 -0.00035685646267286276 0 0.0063751225142930062 -0.00029616869934604589 0 0.0064390795983776169 -0.00028347769577498154 0 0.0062887954065031009 -0.00035685646267286276 0 0.0063751225142930062 -0.00029616869934604589 0 0.0062887954065031009 -0.00035685646267286276 0 0.0063339149156692058 -0.0004289130648669683 0 0.0062887954065031009 -0.00035685646267286276 0 0.0063339149156692058 -0.0004289130648669683 0 0.0062134851893096647 -0.00054809968656533857 0 0.0063339149156692058 -0.0004289130648669683 0 0.0062134851893096647 -0.00054809968656533857 0 0.0063192850383650256 -0.00062227479306877767 0 0.0057141946664888829 -0.00056288921596789939 0 0.0060837840185609905 -0.00041648410491799921 0 0.0059629675263124186 -0.00068342753546600738 0 0.0062887954065031009 -0.00035685646267286276 0 0.0062134851893096647 -0.00054809968656533857 0 0.0060837840185609905 -0.00041648410491799921 0 0.0062134851893096647 -0.00054809968656533857 0 0.0060837840185609905 -0.00041648410491799921 0 0.0059629675263124186 -0.00068342753546600738 0 0.0059629675263124186 -0.00068342753546600738 0 0.0060478351995409936 -0.00093833874704649654 0 0.0055586848309375049 -0.0010219092873374038 0 0.0062134851893096647 -0.00054809968656533857 0 0.0059629675263124186 -0.00068342753546600738 0 0.0060478351995409936 -0.00093833874704649654 0 0.0060012194387656865 -0.0010040099288480754 0 0.0060427547718882426 -0.00066771571251462232 0 0.0062134851893096647 -0.00054809968656533857 0 0.0060478351995409936 -0.00093833874704649654 0 0.0063192850383650256 -0.00062227479306877767 0 0.0060478351995409936 -0.00093833874704649654 0 0.0063192850383650256 -0.00062227479306877767 0 0.0063889256105114202 -0.00086317191350849685 0 0.0057694260947086769 -0.00032998769979286494 0 0.0060427547718882426 -0.00066771571251462232 0 0.0051351760731620831 -0.00034558054532736254 0 0.005104162785869548 -0.00034482888715276481 0 0.004935762208842444 -0.00063005492484599873 0 0.0057694260947086769 -0.00032998769979286494 0 0.0048274678174059305 -0.00070048934091346477 0 0.0060427547718882426 -0.00066771571251462232 0 0.0054633718378412077 -0.0010758425991809406 0 0.0058688514798230689 -0.0010418391969950383 0 0.0062650964953354926 -0.0010432034783194682 0 0.0060783139842807282 -0.0014656311133853556 0 0.0051351760731620831 -0.00034558054532736254 0 0.004935762208842444 -0.00063005492484599873 0 0.0049533326652104435 -0.00068384758735722374 0 0.0050834943431036957 -0.00054365034493245382 0 0.0050336890844915562 -0.00033800630425094374 0 0.0049002650870168521 -0.00065928593352114473 0 0.0058688514798230689 -0.0010418391969950383 0 0.0057082666597396137 -0.0013084504177869438 0 0.0060783139842807282 -0.0014656311133853556 0 0.0058688514798230689 -0.0010418391969950383 0 0.0057082666597396137 -0.0013084504177869438 0 0.0055586848309375049 -0.0010219092873374038 0 0.0057082666597396137 -0.0013084504177869438 0 0.0055586848309375049 -0.0010219092873374038 0 0.0054224070039663131 -0.0014213989800278268 0 0.0050947636736301625 -0.0012336425915515576 0 0.0054018447437378199 -0.0014127911235019392 0 0.0052253315766437264 -0.0012192950776424706 0 0.0055586848309375049 -0.0010219092873374038 0 0.0054224070039663131 -0.0014213989800278268 0 0.0052253315766437264 -0.0012192950776424706 0 0.0053341510567137852 -0.00088443743705977549 0 0.0055586848309375049 -0.0010219092873374038 0 0.0057141946664888829 -0.00056288921596789939 0 0.0059629675263124186 -0.00068342753546600738 0 0.0055586848309375049 -0.0010219092873374038 0 0.0057141946664888829 -0.00056288921596789939 0 0.0053341510567137852 -0.00088443743705977549 0 0.0055586848309375049 -0.0010219092873374038 0 0.0060012194387656865 -0.0010040099288480754 0 0.0055674589145150314 -0.0010109089476358377 0 0.0049782047812540128 -0.0010598707552629074 0 0.0050570834589449536 -0.0013074438520759358 0 0.0046634013549537254 -0.0010556552559183171 0 0.0048263752989158868 -0.0011247892926889733 0 0.0044148745830429386 -0.001056643904256501 0 0.0045058878179006726 -0.0012135869557975524 0 0.0042623395017477817 -0.0013049683884861841 0 0.0041410974875192644 -0.0010170141179051872 0 0.0045553381518387143 -0.0011458168598234677 0 0.0045058878179006726 -0.0012135869557975524 0 0.0041410974875192644 -0.0010170141179051872 0 0.0053261840991807082 -0.00072418897052032726 0 0.0048263752989158868 -0.0011247892926889733 0 0.0052253315766437264 -0.0012192950776424706 0 0.0053341510567137852 -0.00088443743705977549 0 0.0049164038998635437 -0.0010227135043182978 0 0.0053648879793112697 -0.00089502098836633382 0 0.0050570834589449536 -0.0013074438520759358 0 0.005234409454998235 -0.00099830977466999608 0 0.0052845584058754816 -0.00055965912805751815 0 0.0053341510567137852 -0.00088443743705977549 0 0.0049164038998635437 -0.0010227135043182978 0 0.0049782047812540128 -0.0010598707552629074 0 0.0050570834589449536 -0.0013074438520759358 0 0.005234409454998235 -0.00099830977466999608 0 0.0045867651498514694 -0.0010997835105802064 0 0.0045058878179006726 -0.0012135869557975524 0 0.0047005462279161607 -0.0013582180949083718 0 0.0049731496474267334 -0.0012437803929356657 0 0.0047005462279161607 -0.0013582180949083718 0 0.0049204431308878223 -0.0016335475583699297 0 0.0048263752989158868 -0.0011247892926889733 0 0.004693025862850809 -0.0012162775150997113 0 0.0050947636736301625 -0.0012336425915515576 0 0.0048263752989158868 -0.0011247892926889733 0 0.0049731496474267334 -0.0012437803929356657 0 0.0045867651498514694 -0.0010997835105802064 0 0.0047005462279161607 -0.0013582180949083718 0 0.0045058878179006726 -0.0012135869557975524 0 0.0047005462279161607 -0.0013582180949083718 0 0.0044768497040274706 -0.0013446785650642545 0 0.0047005462279161607 -0.0013582180949083718 0 0.0044768497040274706 -0.0013446785650642545 0 0.0044575767588601097 -0.0015070486610248017 0 0.0044768497040274706 -0.0013446785650642545 0 0.0042623395017477817 -0.0013049683884861841 0 0.0044575767588601097 -0.0015070486610248017 0 0.0042623395017477817 -0.0013049683884861841 0 0.0041321926438581931 -0.0015366642358283738 0 0.0044575767588601097 -0.0015070486610248017 0 0.0045058878179006726 -0.0012135869557975524 0 0.0044768497040274706 -0.0013446785650642545 0 0.0042623395017477817 -0.0013049683884861841 0 0.003917469790805604 -0.0012747519924972358 0 0.0038794002524124098 -0.0015459668526615958 0 0.0041321926438581931 -0.0015366642358283738 0 0.0042623395017477817 -0.0013049683884861841 0 0.003917469790805604 -0.0012747519924972358 0 0.0041321926438581931 -0.0015366642358283738 0 0.003917469790805604 -0.0012747519924972358 0 0.0035376937306257979 -0.0015081293725902128 0 0.0038794002524124098 -0.0015459668526615958 0 0.003917469790805604 -0.0012747519924972358 0 0.0035848963212139818 -0.0012645200752856071 0 0.0035376937306257979 -0.0015081293725902128 0 0.003917469790805604 -0.0012747519924972358 0 0.0038081414353303366 -0.00092372467659061438 0 0.0035848963212139818 -0.0012645200752856071 0 0.0042623395017477817 -0.0013049683884861841 0 0.003917469790805604 -0.0012747519924972358 0 0.0041410974875192644 -0.0010170141179051872 0 0.003917469790805604 -0.0012747519924972358 0 0.0041410974875192644 -0.0010170141179051872 0 0.0038081414353303366 -0.00092372467659061438 0 0.0046634013549537254 -0.0010556552559183171 0 0.0045120607604866633 -0.00081642032887774794 0 0.0047342146072982486 -0.00084296098956601628 0 0.0045120607604866633 -0.00081642032887774794 0 0.0042022750537566503 -0.00072212713505415051 0 0.0045862819405073016 -0.00074683697065493139 0 0.0044148745830429386 -0.001056643904256501 0 0.0040216428002794787 -0.00085117639277126542 0 0.0046634013549537254 -0.0010556552559183171 0 0.0045120607604866633 -0.00081642032887774794 0 0.0042712936738790843 -0.00081193389489290721 0 0.0045862819405073016 -0.00074683697065493139 0 0.0047335618041203197 -0.00074664552885620546 0 0.0047342146072982486 -0.00084296098956601628 0 0.0045120607604866633 -0.00081642032887774794 0 0.0045862819405073016 -0.00074683697065493139 0 0.0047342146072982486 -0.00084296098956601628 0 0.0045120607604866633 -0.00081642032887774794 0 0.0042712936738790843 -0.00081193389489290721 0 0.0042022750537566503 -0.00072212713505415051 0 0.0043216796771608189 -0.00054912256058958992 0 0.0042022750537566503 -0.00072212713505415051 0 0.00473637029379233 -0.0006491077128485984 0 0.0043216796771608189 -0.00054912256058958992 0 0.0042022750537566503 -0.00072212713505415051 0 0.0038670146105031608 -0.00056236904572688588 0 0.0043216796771608189 -0.00054912256058958992 0 0.00473637029379233 -0.0006491077128485984 0 0.0047971042566963083 -0.00054599638165356117 0 0.0042394312508659991 -0.00072085653940535857 0 0.0046905195998351735 -0.00063238091995278245 0 0.0042022750537566503 -0.00072212713505415051 0 0.0045862819405073016 -0.00074683697065493139 0 0.0046984317757902761 -0.00064063896726782705 0 0.0044268008021533757 -0.00069484561913143539 0 0.0049232282076122919 -0.00069221978638774539 0 0.0045862819405073016 -0.00074683697065493139 0 0.0046984317757902761 -0.00064063896726782705 0 0.0047335618041203197 -0.00074664552885620546 0 0.0046984317757902761 -0.00064063896726782705 0 0.0048642624339682106 -0.00074242964147110244 0 0.0051933558186782729 -0.0005386545934421528 0 0.00473637029379233 -0.0006491077128485984 0 0.0047971042566963083 -0.00054599638165356117 0 0.0052823995637652846 -0.00054484604172673609 0 0.0046905195998351735 -0.00063238091995278245 0 0.0053423381755343443 -0.00065141297555670885 0 0.0050297465020462786 -0.0008319024986746886 0 0.0055450278613841768 -0.00081943516944640133 0 0.0052774724130215502 -0.00059511476298147888 0 0.0049232282076122919 -0.00069221978638774539 0 0.0053423381755343443 -0.00065141297555670885 0 0.0046984317757902761 -0.00064063896726782705 0 0.0048642624339682106 -0.00074242964147110244 0 0.0047335618041203197 -0.00074664552885620546 0 0.0048642624339682106 -0.00074242964147110244 0 0.0047342146072982486 -0.00084296098956601628 0 0.0048830727148768249 -0.00090195857410473436 0 0.0049782047812540128 -0.0010598707552629074 0 0.0046634013549537254 -0.0010556552559183171 0 0.0048830727148768249 -0.00090195857410473436 0 0.0048642624339682106 -0.00074242964147110244 0 0.0047335618041203197 -0.00074664552885620546 0 0.0047342146072982486 -0.00084296098956601628 0 0.0048642624339682106 -0.00074242964147110244 0 0.0049844758781005744 -0.00079668305361648556 0 0.0048830727148768249 -0.00090195857410473436 0 0.0049844758781005744 -0.00079668305361648556 0 0.0048830727148768249 -0.00090195857410473436 0 0.0050759619588018126 -0.00091336386686036619 0 0.0049782047812540128 -0.0010598707552629074 0 0.0048830727148768249 -0.00090195857410473436 0 0.0050759619588018126 -0.00091336386686036619 0 0.0046634013549537254 -0.0010556552559183171 0 0.0047342146072982486 -0.00084296098956601628 0 0.0048830727148768249 -0.00090195857410473436 0 0.0051994069054805579 -0.00092006943520002839 0 0.0053423381755343443 -0.00065141297555670885 0 0.005234409454998235 -0.00099830977466999608 0 0.0050759619588018126 -0.00091336386686036619 0 0.0051933558186782729 -0.0005386545934421528 0 0.0049782047812540128 -0.0010598707552629074 0 0.005234409454998235 -0.00099830977466999608 0 0.0050759619588018126 -0.00091336386686036619 0 0.0048642624339682106 -0.00074242964147110244 0 0.0049844758781005744 -0.00079668305361648556 0 0.0051933558186782729 -0.0005386545934421528 0 0.0049844758781005744 -0.00079668305361648556 0 0.0050759619588018126 -0.00091336386686036619 0 0.0051933558186782729 -0.0005386545934421528 0 0.0053427333587402941 -0.00069929835659771956 0 0.005234409454998235 -0.00099830977466999608 0 0.005198173526237396 -0.00052399475507145551 0 0.0055288491336543746 -0.00060591950612279408 0 0.0053423381755343443 -0.00065141297555670885 0 0.0058161247928180809 -0.00063041702637153644 0 0.005573082256718139 -0.00081473226650720832 0 0.0055376389623553691 -0.00040252989207344722 0 0.0053423381755343443 -0.00065141297555670885 0 0.0055358010944291597 -0.00042497684405866138 0 0.0055450278613841768 -0.00081943516944640133 0 0.0052774724130215502 -0.00059511476298147888 0 0.0055077581007685851 -0.00037528865340955318 0 0.0052774724130215502 -0.00059511476298147888 0 0.0049931091135425668 -0.00026273314227666866 0 0.0055077581007685851 -0.00037528865340955318 0 0.0050297465020462786 -0.0008319024986746886 0 0.0052774724130215502 -0.00059511476298147888 0 0.0049931091135425668 -0.00026273314227666866 0 0.0049931091135425668 -0.00026273314227666866 0 0.0055077581007685851 -0.00037528865340955318 0 0.0054706588402660995 6.3556479784939398e-05 0 0.0055358010944291597 -0.00042497684405866138 0 0.0054809959939260558 5.6283631306560091e-05 0 0.0057903231057141622 -0.00011755117131117521 0 0.0055376389623553691 -0.00040252989207344722 0 0.0054938634259056257 1.7578473217952888e-05 0 0.0049931091135425668 -0.00026273314227666866 0 0.005152866351398503 0.00028233485123296592 0 0.0048001046430738437 0.00022109119290377065 0 0.0049931091135425668 -0.00026273314227666866 0 0.0054706588402660995 6.3556479784939398e-05 0 0.005152866351398503 0.00028233485123296592 0 0.0047346800636393896 0.00062232877815370121 0 0.0051543457351917524 0.00086190408146645254 0 0.005152866351398503 0.00028233485123296592 0 0.0051543457351917524 0.00086190408146645254 0 0.005152866351398503 0.00028233485123296592 0 0.0054459818741709265 0.00047294976686049293 0 0.0054809959939260558 5.6283631306560091e-05 0 0.0054493147543320866 0.00043312265510419358 0 0.0058292188510816077 0.00036132221849132949 0 0.0054938634259056257 1.7578473217952888e-05 0 0.0054459818741709265 0.00047294976686049293 0 0.0054706588402660995 6.3556479784939398e-05 0 0.005152866351398503 0.00028233485123296592 0 0.0054459818741709265 0.00047294976686049293 0 0.0056536765679757869 0.00072482673232683256 0 0.0058292188510816077 0.00036132221849132949 0 0.0054459818741709265 0.00047294976686049293 0 0.0040684162950143637 0.00078695855930997175 0 0.0047346800636393896 0.00062232877815370121 0 0.0043825046814636717 0.00029537762144737152 0 0.0047346800636393896 0.00062232877815370121 0 0.005152866351398503 0.00028233485123296592 0 0.0048001046430738437 0.00022109119290377065 0 0.0047346800636393896 0.00062232877815370121 0 0.0048001046430738437 0.00022109119290377065 0 0.0043825046814636717 0.00029537762144737152 0 0.0049931091135425668 -0.00026273314227666866 0 0.0048001046430738437 0.00022109119290377065 0 0.0045838536786780718 -4.8614888590399672e-05 0 0.0043825046814636717 0.00029537762144737152 0 0.0045838536786780718 -4.8614888590399672e-05 0 0.0041743890536162761 -8.9906161472657649e-05 0 0.0048001046430738437 0.00022109119290377065 0 0.0043825046814636717 0.00029537762144737152 0 0.0045838536786780718 -4.8614888590399672e-05 0 0.0045838536786780718 -4.8614888590399672e-05 0 0.0045560524176630974 -0.00041056307254917063 0 0.0041743890536162761 -8.9906161472657649e-05 0 0.0045560524176630974 -0.00041056307254917063 0 0.0040758192699185654 -0.000511777621142142 0 0.0041743890536162761 -8.9906161472657649e-05 0 0.0049931091135425668 -0.00026273314227666866 0 0.0045838536786780718 -4.8614888590399672e-05 0 0.0045560524176630974 -0.00041056307254917063 0 0.0050297465020462786 -0.0008319024986746886 0 0.0049931091135425668 -0.00026273314227666866 0 0.0045560524176630974 -0.00041056307254917063 0 0.0044958300480215626 -0.0008470494976484872 0 0.0050297465020462786 -0.0008319024986746886 0 0.0045560524176630974 -0.00041056307254917063 0 0.0044958300480215626 -0.0008470494976484872 0 0.0045560524176630974 -0.00041056307254917063 0 0.0040758192699185654 -0.000511777621142142 0 0.0040758192699185654 -0.000511777621142142 0 0.0036007859700942727 -0.00064936693400652595 0 0.0039270202259873667 -0.00086077897886789601 0 0.0044958300480215626 -0.0008470494976484872 0 0.0040758192699185654 -0.000511777621142142 0 0.0039270202259873667 -0.00086077897886789601 0 0.0040758192699185654 -0.000511777621142142 0 0.0036007859700942727 -0.00064936693400652595 0 0.0036606279420558939 -0.00022635283327026326 0 0.0036007859700942727 -0.00064936693400652595 0 0.0036606279420558939 -0.00022635283327026326 0 0.0032748374483372315 -0.00052454128582954493 0 0.0040758192699185654 -0.000511777621142142 0 0.0036606279420558939 -0.00022635283327026326 0 0.0041743890536162761 -8.9906161472657649e-05 0 0.0036606279420558939 -0.00022635283327026326 0 0.0041743890536162761 -8.9906161472657649e-05 0 0.0038818408201879064 0.00022711384059330181 0 0.0043825046814636717 0.00029537762144737152 0 0.0041743890536162761 -8.9906161472657649e-05 0 0.0038818408201879064 0.00022711384059330181 0 0.0036606279420558939 -0.00022635283327026326 0 0.0038818408201879064 0.00022711384059330181 0 0.0034545354782119842 9.5488256212912829e-05 0 0.0038818408201879064 0.00022711384059330181 0 0.0035164702475236976 0.00049342506310116874 0 0.0034545354782119842 9.5488256212912829e-05 0 0.0061374478964135361 0.00023168228807672993 0 0.0056818858783743873 -3.8427114452936389e-05 0 0.0040684162950143637 0.00078695855930997175 0 0.0038818408201879064 0.00022711384059330181 0 0.0035164702475236976 0.00049342506310116874 0 0.0040684162950143637 0.00078695855930997175 0 0.0043825046814636717 0.00029537762144737152 0 0.0038818408201879064 0.00022711384059330181 0 0.0073973902180591387 -0.0004502305670495335 0 0.0077770832879168255 -0.00059647195409154676 0 0.0073225875942824559 -0.00087047280946734272 0 0.0050033900660838128 -0.00038744166863903415 0 0.0069967483492561194 -0.00081192958912169172 0 0.0073973902180591387 -0.0004502305670495335 0 0.0073225875942824559 -0.00087047280946734272 0 0.0070731889660286713 -0.00049997396931362136 0 0.0056818858783743873 -3.8427114452936389e-05 0 0.0050033900660838128 -0.00038744166863903415 0 0.0035164702475236976 0.00049342506310116874 0 0.0034545354782119842 9.5488256212912829e-05 0 0.0030108743054483192 0.00018269046442846067 0 0.0034545354782119842 9.5488256212912829e-05 0 0.0030108743054483192 0.00018269046442846067 0 0.0032423665519787921 -0.00021052846663294767 0 0.0028782921502399075 0.0003700687182344445 0 0.0027839625983049213 -8.9295447090048311e-05 0 0.0032423665519787921 -0.00021052846663294767 0 0.0050033900660838128 -0.00038744166863903415 0 0.0026387882764887958 0.00026368631240668858 0 0.0027839625983049213 -8.9295447090048311e-05 0 0.0032423665519787921 -0.00021052846663294767 0 0.0029374585931288147 -0.0003634336508823848 0 0.0027839625983049213 -8.9295447090048311e-05 0 0.0029374585931288147 -0.0003634336508823848 0 0.0025138286835010557 -0.00032907139960268949 0 0.0036606279420558939 -0.00022635283327026326 0 0.0034545354782119842 9.5488256212912829e-05 0 0.0032423665519787921 -0.00021052846663294767 0 0.0036606279420558939 -0.00022635283327026326 0 0.0032423665519787921 -0.00021052846663294767 0 0.0032748374483372315 -0.00052454128582954493 0 0.0032748374483372315 -0.00052454128582954493 0 0.002814149714384396 -0.00066735808036980451 0 0.0031479476540271505 -0.00082403561296418709 0 0.0032423665519787921 -0.00021052846663294767 0 0.0032748374483372315 -0.00052454128582954493 0 0.0029374585931288147 -0.0003634336508823848 0 0.0036007859700942727 -0.00064936693400652595 0 0.0032748374483372315 -0.00052454128582954493 0 0.0031479476540271505 -0.00082403561296418709 0 0.0032748374483372315 -0.00052454128582954493 0 0.0029374585931288147 -0.0003634336508823848 0 0.002814149714384396 -0.00066735808036980451 0 0.0029374585931288147 -0.0003634336508823848 0 0.002814149714384396 -0.00066735808036980451 0 0.0025138286835010557 -0.00032907139960268949 0 0.002814149714384396 -0.00066735808036980451 0 0.0028763476391139948 -0.00093819576644864604 0 0.0023887946560596945 -0.00080858050356913196 0 0.002814149714384396 -0.00066735808036980451 0 0.0028763476391139948 -0.00093819576644864604 0 0.0031479476540271505 -0.00082403561296418709 0 0.002752070660076864 -0.0011580904970770079 0 0.0030805708063471543 -0.0011701250383898128 0 0.0027216181657854191 -0.0014184976008553467 0 0.0028763476391139948 -0.00093819576644864604 0 0.002752070660076864 -0.0011580904970770079 0 0.0030805708063471543 -0.0011701250383898128 0 0.0030805708063471543 -0.0011701250383898128 0 0.0031479476540271505 -0.00082403561296418709 0 0.0033167493966455306 -0.00096383569812262993 0 0.0028763476391139948 -0.00093819576644864604 0 0.0030805708063471543 -0.0011701250383898128 0 0.0031479476540271505 -0.00082403561296418709 0 0.0036007859700942727 -0.00064936693400652595 0 0.0031479476540271505 -0.00082403561296418709 0 0.0039576894420152867 -0.00088968702756398669 0 0.0031479476540271505 -0.00082403561296418709 0 0.0035306826137254201 -0.00079699454751823971 0 0.0033167493966455306 -0.00096383569812262993 0 0.0031590722180707591 -0.00085294718255398186 0 0.0037955419887589041 -0.00074741780922989761 0 0.0036959194171269799 -0.00070984145830926598 0 0.0037955419887589041 -0.00074741780922989761 0 0.0044268008021533757 -0.00069484561913143539 0 0.0037955419887589041 -0.00074741780922989761 0 0.0040216428002794787 -0.00085117639277126542 0 0.0037955419887589041 -0.00074741780922989761 0 0.0042712936738790843 -0.00081193389489290721 0 0.0042022750537566503 -0.00072212713505415051 0 0.0038670146105031608 -0.00056236904572688588 0 0.0038081414353303366 -0.00092372467659061438 0 0.0034839036642380938 -0.001096898870517334 0 0.0035848963212139818 -0.0012645200752856071 0 0.0038081414353303366 -0.00092372467659061438 0 0.0035306826137254201 -0.00079699454751823971 0 0.0034839036642380938 -0.001096898870517334 0 0.0035306826137254201 -0.00079699454751823971 0 0.0033167493966455306 -0.00096383569812262993 0 0.0034839036642380938 -0.001096898870517334 0 0.0030805708063471543 -0.0011701250383898128 0 0.0033167493966455306 -0.00096383569812262993 0 0.0034839036642380938 -0.001096898870517334 0 0.0030805708063471543 -0.0011701250383898128 0 0.0034839036642380938 -0.001096898870517334 0 0.0033563095720926849 -0.0015080193673480094 0 0.0034606805816218594 -0.0011508022606401716 0 0.00345561550289069 -0.0013493493591752307 0 0.0034839036642380938 -0.001096898870517334 0 0.003406707850273838 -0.0013119272505774688 0 0.0035848963212139818 -0.0012645200752856071 0 0.0035848963212139818 -0.0012645200752856071 0 0.0034606397485516119 -0.0014487203454952189 0 0.0035376937306257979 -0.0015081293725902128 0 0.003406707850273838 -0.0013119272505774688 0 0.0035848963212139818 -0.0012645200752856071 0 0.0034606397485516119 -0.0014487203454952189 0 0.00345561550289069 -0.0013493493591752307 0 0.0024803676297621632 -0.0017578535649291609 0 0.003406707850273838 -0.0013119272505774688 0 0.0034606397485516119 -0.0014487203454952189 0 0.0033958613698052615 -0.0014758226070234739 0 0.0033563095720926849 -0.0015080193673480094 0 0.0030115706541138649 -0.0017715778489696872 0 0.003204427474390857 -0.0018923996491821901 0 0.0033563095720926849 -0.0015080193673480094 0 0.0029510000039165906 -0.0015704918127605878 0 0.0030115706541138649 -0.0017715778489696872 0 0.0029510000039165906 -0.0015704918127605878 0 0.0028125744285410013 -0.0018157739149742434 0 0.0026524046268015947 -0.0016703467801241429 0 0.0029510000039165906 -0.0015704918127605878 0 0.0027216181657854191 -0.0014184976008553467 0 0.0026524046268015947 -0.0016703467801241429 0 0.0029510000039165906 -0.0015704918127605878 0 0.0030115706541138649 -0.0017715778489696872 0 0.0028125744285410013 -0.0018157739149742434 0 0.0028125744285410013 -0.0018157739149742434 0 0.0026524046268015947 -0.0016703467801241429 0 0.0025710637323785833 -0.0018916244719433077 0 0.0030805708063471543 -0.0011701250383898128 0 0.0029510000039165906 -0.0015704918127605878 0 0.0027216181657854191 -0.0014184976008553467 0 0.0030805708063471543 -0.0011701250383898128 0 0.0033563095720926849 -0.0015080193673480094 0 0.0029510000039165906 -0.0015704918127605878 0 0.0029998052204634131 -0.002368741191873064 0 0.0028136013826607137 -0.002246575395407807 0 0.002924592641372516 -0.0019739470132019497 0 0.00080524671575322375 -0.0020019941703446988 0 0.0024803676297621632 -0.0017578535649291609 0 0.00080524671575322375 -0.0020019941703446988 0 0.0019789314597041725 -0.0022973358910575591 0 0.0019789314597041725 -0.0022973358910575591 0 0.0027436294425633944 -0.0021611861118923637 0 0.00268929049071768 -0.0022619339247168333 0 0.0027120826488946678 -0.0021964273016269347 0 0.0025166452228084679 -0.0020465853507127675 0 0.00036462849019577647 -0.0021308671141136459 0 0.0010039873764441619 -0.0022236835747756214 0 0.00091650432168380433 -0.0024815084707139837 0 0.00059658596300317249 -0.0023243415255974225 0 0.0019789314597041725 -0.0022973358910575591 0 0.0019789314597041725 -0.0022973358910575591 0 0.0028848121394059573 -0.0019023448880379041 0 0.0028265891221309104 -0.0022530150619406884 0 0.0027251573216961859 -0.0019961564266824977 0 0.0025166452228084679 -0.0020465853507127675 0 0.0028265891221309104 -0.0022530150619406884 0 0.002924592641372516 -0.0019739470132019497 0 0.0027251573216961859 -0.0019961564266824977 0 0.0028125744285410013 -0.0018157739149742434 0 0.0027251573216961859 -0.0019961564266824977 0 0.0025710637323785833 -0.0018916244719433077 0 0.0030115706541138649 -0.0017715778489696872 0 0.0028125744285410013 -0.0018157739149742434 0 0.002924592641372516 -0.0019739470132019497 0 0.0028125744285410013 -0.0018157739149742434 0 0.002924592641372516 -0.0019739470132019497 0 0.0027251573216961859 -0.0019961564266824977 0 0.0030115706541138649 -0.0017715778489696872 0 0.002924592641372516 -0.0019739470132019497 0 0.0030605910409516731 -0.0019420018349016331 0 0.0029998052204634131 -0.002368741191873064 0 0.002924592641372516 -0.0019739470132019497 0 0.0030605910409516731 -0.0019420018349016331 0 0.0029998052204634131 -0.002368741191873064 0 0.0030605910409516731 -0.0019420018349016331 0 0.003204427474390857 -0.0018923996491821901 0 0.0030115706541138649 -0.0017715778489696872 0 0.0030605910409516731 -0.0019420018349016331 0 0.003204427474390857 -0.0018923996491821901 0 0.0024803676297621632 -0.0017578535649291609 0 0.0024099500611936965 -0.001672893580098364 0 0.0034606397485516119 -0.0014487203454952189 0 0.0033958613698052615 -0.0014758226070234739 0 0.0034800247046547859 -0.0015071267454877823 0 0.0034606397485516119 -0.0014487203454952189 0 0.0035376937306257979 -0.0015081293725902128 0 0.0034800247046547859 -0.0015071267454877823 0 0.0034344575125968301 -0.0014963686303376288 0 0.0034800247046547859 -0.0015071267454877823 0 0.0033715778340570684 -0.0014320996546807788 0 0.0035376937306257979 -0.0015081293725902128 0 0.0034344575125968301 -0.0014963686303376288 0 0.0034800247046547859 -0.0015071267454877823 0 0.0012540373268300228 -0.0017937060274904849 0 0.0011492838301003644 -0.0021138936443860961 0 0.00094470729228340888 -0.0018434818512885135 0 -0.001631608005527041 -0.0020153939288965156 0 -0.0015792740104975324 -0.0018983971294620665 0 -0.0012979282593474841 -0.002103811494054874 0 0.0012540373268300228 -0.0017937060274904849 0 0.00094470729228340888 -0.0018434818512885135 0 0.00098642535975892553 -0.0016247318150280328 0 0.0034800247046547859 -0.0015071267454877823 0 0.003401453926735006 -0.0013252637713641092 0 0.0033715778340570684 -0.0014320996546807788 0 0.0024099500611936965 -0.001672893580098364 0 0.00041115135416584336 -0.0018150252034318437 0 -0.00086988408182670938 -0.0018748017008341914 0 0.00041115135416584336 -0.0018150252034318437 0 0.00094470729228340888 -0.0018434818512885135 0 0.00098642535975892553 -0.0016247318150280328 0 0.00073648840593421147 -0.0015658542437819829 0 -0.0014732081917177675 -0.002006907366150354 0 -0.0017955400455810812 -0.0019339155451930791 0 -0.0017901584172692957 -0.0018320409283224053 0 -0.001631608005527041 -0.0020153939288965156 0 -0.0017901584172692957 -0.0018320409283224053 0 -0.0016807255762876787 -0.0018723825472828166 0 -0.00086988408182670938 -0.0018748017008341914 0 -0.0019752354177990329 -0.0018065736554175608 0 -0.0017221908971202674 -0.0017875805660927324 0 -0.0017901584172692957 -0.0018320409283224053 0 -0.0016807255762876787 -0.0018723825472828166 0 -0.0017221908971202674 -0.0017875805660927324 0 -0.0017901584172692957 -0.0018320409283224053 0 -0.0017823105555467703 -0.0017172947470829941 0 -0.001631608005527041 -0.0020153939288965156 0 -0.0015792740104975324 -0.0018983971294620665 0 -0.0016807255762876787 -0.0018723825472828166 0 -0.0015792740104975324 -0.0018983971294620665 0 -0.0016807255762876787 -0.0018723825472828166 0 -0.0016262980498708767 -0.0018127654241027408 0 -0.0017221908971202674 -0.0017875805660927324 0 -0.0016807255762876787 -0.0018723825472828166 0 -0.0016262980498708767 -0.0018127654241027408 0 -0.0015792740104975324 -0.0018983971294620665 0 -0.0016262980498708767 -0.0018127654241027408 0 -0.0015151776504652142 -0.0018621932614206035 0 -0.0015151776504652142 -0.0018621932614206035 0 -0.0013796063216554859 -0.0018736128479806698 0 -0.0014493460052780937 -0.0019732948450818673 0 -0.0015151776504652142 -0.0018621932614206035 0 -0.0013796063216554859 -0.0018736128479806698 0 -0.0015499155011985393 -0.0017571082273073158 0 -0.0013796063216554859 -0.0018736128479806698 0 -0.0014493460052780937 -0.0019732948450818673 0 -0.0013297390307650358 -0.0019851163042612086 0 -0.0014493460052780937 -0.0019732948450818673 0 -0.0013759249467294541 -0.0020457127616726649 0 -0.0013297390307650358 -0.0019851163042612086 0 -0.0015792740104975324 -0.0018983971294620665 0 -0.0015151776504652142 -0.0018621932614206035 0 -0.0014493460052780937 -0.0019732948450818673 0 0.00080524671575322375 -0.0020019941703446988 0 -0.00086988408182670938 -0.0018748017008341914 0 -0.0013288472377908794 -0.0022018483375815111 0 -0.001631608005527041 -0.0020153939288965156 0 -0.0012979282593474841 -0.002103811494054874 0 -0.001791288813765244 -0.0018724182055084274 0 -0.00057242246670773014 -0.0020152923332213703 0 -0.0015792740104975324 -0.0018983971294620665 0 -0.0014493460052780937 -0.0019732948450818673 0 -0.0013709833495057369 -0.0021587253554118929 0 -0.0013759249467294541 -0.0020457127616726649 0 -0.0013467556571571972 -0.0021038047499789361 0 -0.0013297390307650358 -0.0019851163042612086 0 -0.0014493460052780937 -0.0019732948450818673 0 -0.0013759249467294541 -0.0020457127616726649 0 -0.0013709833495057369 -0.0021587253554118929 0 -0.0013759249467294541 -0.0020457127616726649 0 -0.0013467556571571972 -0.0021038047499789361 0 -0.0013709833495057369 -0.0021587253554118929 0 0.00036462849019577647 -0.0021308671141136459 0 0.0010039873764441619 -0.0022236835747756214 0 0.00049770226496039383 -0.0017635892577595395 0 -0.00073923413700614305 -0.0021441985618009837 0 -0.00057242246670773014 -0.0020152923332213703 0 0.00080524671575322375 -0.0020019941703446988 0 -0.00057242246670773014 -0.0020152923332213703 0 -0.00057947796472654399 -0.0022618016810154982 0 -0.000466750880343926 -0.0019076855147874632 0 -0.00036723155704815243 -0.002133484727238814 0 -0.0012454363369084308 -0.0022486914449163045 0 -0.0013467556571571972 -0.0021038047499789361 0 -0.0011611564317973689 -0.0019932620982893077 0 0.00059658596300317249 -0.0023243415255974225 0 -0.00098529996499296946 -0.0019903985486843831 0 0.00059658596300317249 -0.0023243415255974225 0 -0.00057242246670773014 -0.0020152923332213703 0 -0.0012454363369084308 -0.0022486914449163045 0 -0.0013467556571571972 -0.0021038047499789361 0 -0.0013607045033409058 -0.00214945850073749 0 -0.0013467556571571972 -0.0021038047499789361 0 -0.0011611564317973689 -0.0019932620982893077 0 -0.0013297390307650358 -0.0019851163042612086 0 -0.0013796063216554859 -0.0018736128479806698 0 -0.0011611564317973689 -0.0019932620982893077 0 -0.0012989753472199932 -0.0017384314736661269 0 -0.0013796063216554859 -0.0018736128479806698 0 -0.0011611564317973689 -0.0019932620982893077 0 -0.0013297390307650358 -0.0019851163042612086 0 -0.0011611564317973689 -0.0019932620982893077 0 -0.0012989753472199932 -0.0017384314736661269 0 -0.0010023370914147263 -0.0017738507176899892 0 -0.0013796063216554859 -0.0018736128479806698 0 -0.0012989753472199932 -0.0017384314736661269 0 -0.0015499155011985393 -0.0017571082273073158 0 -0.0012989753472199932 -0.0017384314736661269 0 -0.0015499155011985393 -0.0017571082273073158 0 -0.0016040692747135044 -0.0015861800639742089 0 -0.0012989753472199932 -0.0017384314736661269 0 -0.0014795999802091652 -0.0014954554811347641 0 -0.0016040692747135044 -0.0015861800639742089 0 -0.0014795999802091652 -0.0014954554811347641 0 -0.0017098198215764462 -0.0014120578781463356 0 -0.0016040692747135044 -0.0015861800639742089 0 -0.0012989753472199932 -0.0017384314736661269 0 -0.0014795999802091652 -0.0014954554811347641 0 -0.0012001544346645341 -0.0014526559167447387 0 -0.0012989753472199932 -0.0017384314736661269 0 -0.0012001544346645341 -0.0014526559167447387 0 -0.0010023370914147263 -0.0017738507176899892 0 -0.0012001544346645341 -0.0014526559167447387 0 -0.0015409758458220467 -0.0013399137144437204 0 -0.0012336577266854288 -0.0010884948753547548 0 -0.0014795999802091652 -0.0014954554811347641 0 -0.0012001544346645341 -0.0014526559167447387 0 -0.0015409758458220467 -0.0013399137144437204 0 -0.0015409758458220467 -0.0013399137144437204 0 -0.001856192786150846 -0.0012178294490949007 0 -0.0017098198215764462 -0.0014120578781463356 0 -0.0014795999802091652 -0.0014954554811347641 0 -0.0015409758458220467 -0.0013399137144437204 0 -0.0017098198215764462 -0.0014120578781463356 0 -0.0015409758458220467 -0.0013399137144437204 0 -0.001856192786150846 -0.0012178294490949007 0 -0.0012336577266854288 -0.0010884948753547548 0 -0.001856192786150846 -0.0012178294490949007 0 -0.0012336577266854288 -0.0010884948753547548 0 -0.0016280709465696474 -0.00085255727384310411 0 -0.0018217036002087714 -0.0013655201241520882 0 -0.001837272581854194 -0.0013704346648882879 0 -0.0018184515514679178 -0.0013514465717358723 0 -0.0018046499247579447 -0.0013440443770283211 0 -0.0018217036002087714 -0.0013655201241520882 0 -0.0018184515514679178 -0.0013514465717358723 0 -0.0018046499247579447 -0.0013440443770283211 0 -0.0018217036002087714 -0.0013655201241520882 0 -0.0018260545128259377 -0.0014142262922295769 0 -0.001856192786150846 -0.0012178294490949007 0 -0.0018046499247579447 -0.0013440443770283211 0 -0.0017098198215764462 -0.0014120578781463356 0 -0.001856192786150846 -0.0012178294490949007 0 -0.0018046499247579447 -0.0013440443770283211 0 -0.0018184515514679178 -0.0013514465717358723 0 -0.0018046499247579447 -0.0013440443770283211 0 -0.0017098198215764462 -0.0014120578781463356 0 -0.0017909505461051259 -0.0014559043361409656 0 -0.0018046499247579447 -0.0013440443770283211 0 -0.0017909505461051259 -0.0014559043361409656 0 -0.0018260545128259377 -0.0014142262922295769 0 -0.0017909505461051259 -0.0014559043361409656 0 -0.0018290566471147018 -0.0014937571864356337 0 -0.0018260545128259377 -0.0014142262922295769 0 -0.0017909505461051259 -0.0014559043361409656 0 -0.0017978952058841423 -0.001586549470862275 0 -0.0017259220818463283 -0.0015498539387200909 0 -0.0017909505461051259 -0.0014559043361409656 0 -0.0017978952058841423 -0.001586549470862275 0 -0.0018290566471147018 -0.0014937571864356337 0 -0.0017098198215764462 -0.0014120578781463356 0 -0.0017909505461051259 -0.0014559043361409656 0 -0.0017259220818463283 -0.0015498539387200909 0 -0.0017098198215764462 -0.0014120578781463356 0 -0.0017259220818463283 -0.0015498539387200909 0 -0.0016040692747135044 -0.0015861800639742089 0 -0.0017259220818463283 -0.0015498539387200909 0 -0.0016040692747135044 -0.0015861800639742089 0 -0.001701924142496929 -0.0017037687184151542 0 -0.0015499155011985393 -0.0017571082273073158 0 -0.0016040692747135044 -0.0015861800639742089 0 -0.001701924142496929 -0.0017037687184151542 0 -0.0016262980498708767 -0.0018127654241027408 0 -0.0015499155011985393 -0.0017571082273073158 0 -0.001701924142496929 -0.0017037687184151542 0 -0.0017221908971202674 -0.0017875805660927324 0 -0.0016262980498708767 -0.0018127654241027408 0 -0.001701924142496929 -0.0017037687184151542 0 -0.0016262980498708767 -0.0018127654241027408 0 -0.0015151776504652142 -0.0018621932614206035 0 -0.0015499155011985393 -0.0017571082273073158 0 -0.0017978952058841423 -0.001586549470862275 0 -0.001701924142496929 -0.0017037687184151542 0 -0.0017823105555467703 -0.0017172947470829941 0 -0.0017978952058841423 -0.001586549470862275 0 -0.0017259220818463283 -0.0015498539387200909 0 -0.001701924142496929 -0.0017037687184151542 0 -0.0017221908971202674 -0.0017875805660927324 0 -0.001701924142496929 -0.0017037687184151542 0 -0.0017823105555467703 -0.0017172947470829941 0 -0.0017978952058841423 -0.001586549470862275 0 -0.0018906558706451642 -0.0016898178604618026 0 -0.0018518707947041599 -0.0015489225650145422 0 -0.0018906558706451642 -0.0016898178604618026 0 -0.001859149821632678 -0.0015289974206464036 0 -0.0018518707947041599 -0.0015489225650145422 0 -0.0017978952058841423 -0.001586549470862275 0 -0.0017823105555467703 -0.0017172947470829941 0 -0.0018906558706451642 -0.0016898178604618026 0 -0.0015807364765203045 -0.0017640581327744622 0 -0.0017894046632792068 -0.0017228313050527448 0 -0.001859149821632678 -0.0015289974206464036 0 -0.0017894046632792068 -0.0017228313050527448 0 -0.0019461193801169577 -0.0015560420389433636 0 -0.001816353848912972 -0.0019608268622628698 0 -0.0019288657192681113 -0.0017258677637799773 0 0.00071744833885322996 -0.0016057651092747783 0 -0.0019350097961399228 -0.001633163392110702 0 -0.0017881685623857655 -0.0016119590182090762 0 -0.0015807364765203045 -0.0017640581327744622 0 -0.0017894046632792068 -0.0017228313050527448 0 -0.0016922479203312364 -0.0018523751165463746 0 -0.0017894046632792068 -0.0017228313050527448 0 -0.001859149821632678 -0.0015289974206464036 0 -0.0019461193801169577 -0.0015560420389433636 0 -0.001859149821632678 -0.0015289974206464036 0 -0.0018938905189766918 -0.0014790270056104411 0 -0.0019461193801169577 -0.0015560420389433636 0 -0.001859149821632678 -0.0015289974206464036 0 -0.0018938905189766918 -0.0014790270056104411 0 -0.0018549908165906006 -0.0014720106206222434 0 -0.001859149821632678 -0.0015289974206464036 0 -0.0018518707947041599 -0.0015489225650145422 0 -0.0018549908165906006 -0.0014720106206222434 0 -0.0017978952058841423 -0.001586549470862275 0 -0.0018518707947041599 -0.0015489225650145422 0 -0.0018290566471147018 -0.0014937571864356337 0 -0.0018518707947041599 -0.0015489225650145422 0 -0.0018290566471147018 -0.0014937571864356337 0 -0.0018549908165906006 -0.0014720106206222434 0 -0.0018260545128259377 -0.0014142262922295769 0 -0.0018549908165906006 -0.0014720106206222434 0 -0.0018483908064045717 -0.0013991176166422486 0 -0.0018290566471147018 -0.0014937571864356337 0 -0.0018260545128259377 -0.0014142262922295769 0 -0.0018549908165906006 -0.0014720106206222434 0 -0.0018729946275766972 -0.0014367122392362696 0 -0.0018483908064045717 -0.0013991176166422486 0 -0.0018672079201900609 -0.0013986975925132745 0 -0.0018549908165906006 -0.0014720106206222434 0 -0.0018729946275766972 -0.0014367122392362696 0 -0.0018483908064045717 -0.0013991176166422486 0 -0.0018938905189766918 -0.0014790270056104411 0 -0.0018729946275766972 -0.0014367122392362696 0 -0.001881049928714449 -0.0014260197777838069 0 -0.0018938905189766918 -0.0014790270056104411 0 -0.0018549908165906006 -0.0014720106206222434 0 -0.0018729946275766972 -0.0014367122392362696 0 -0.0018729946275766972 -0.0014367122392362696 0 -0.0018672079201900609 -0.0013986975925132745 0 -0.001881049928714449 -0.0014260197777838069 0 -0.0018487494177563248 -0.0013796918997082375 0 -0.0018483908064045717 -0.0013991176166422486 0 -0.0018672079201900609 -0.0013986975925132745 0 -0.0018487494177563248 -0.0013796918997082375 0 -0.0018483257013007408 -0.001384279914409514 0 -0.0018672079201900609 -0.0013986975925132745 0 -0.0018217036002087714 -0.0013655201241520882 0 -0.0018260545128259377 -0.0014142262922295769 0 -0.0018483908064045717 -0.0013991176166422486 0 -0.0018487494177563248 -0.0013796918997082375 0 -0.001837272581854194 -0.0013704346648882879 0 -0.0018483908064045717 -0.0013991176166422486 0 -0.0018217036002087714 -0.0013655201241520882 0 -0.001837272581854194 -0.0013704346648882879 0 -0.0018483908064045717 -0.0013991176166422486 0 -0.0016452591834339989 -0.0015319238514195403 0 -0.0017406195765919323 -0.0014139223776308001 0 -0.0017579417510597286 -0.0013881745060829948 0 -0.0016402980571524836 -0.0015369286365324204 0 -0.0017544992671350982 -0.0014015795319668033 0 -0.0017406195765919323 -0.0014139223776308001 0 -0.0016845907946267766 -0.0015921088659833927 0 -0.0017757444559424577 -0.0015940481203653117 0 -0.0016452591834339989 -0.0015319238514195403 0 -0.0017406195765919323 -0.0014139223776308001 0 -0.0016845907946267766 -0.0015921088659833927 0 -0.0016452591834339989 -0.0015319238514195403 0 -0.00146453695256285 -0.0016311819173546202 0 -0.0017579417510597286 -0.0013881745060829948 0 -0.0018448468609489554 -0.0013880898135614729 0 -0.0018913028638768506 -0.0013991501752435005 0 -0.0017579417510597286 -0.0013881745060829948 0 -0.0018448468609489554 -0.0013880898135614729 0 -0.0018483257013007408 -0.001384279914409514 0 -0.0018219838608059696 -0.0013876378126963572 0 -0.0018448468609489554 -0.0013880898135614729 0 -0.0018483257013007408 -0.001384279914409514 0 -0.0018672079201900609 -0.0013986975925132745 0 -0.0018448468609489554 -0.0013880898135614729 0 -0.0018672079201900609 -0.0013986975925132745 0 -0.0018913028638768506 -0.0013991501752435005 0 -0.00146453695256285 -0.0016311819173546202 0 -0.0014934319197199555 -0.0017599134752754391 0 -0.0014359500923325004 -0.0018141309414848466 0 -0.0018672079201900609 -0.0013986975925132745 0 -0.0018913028638768506 -0.0013991501752435005 0 -0.001881049928714449 -0.0014260197777838069 0 -0.0018938905189766918 -0.0014790270056104411 0 -0.0018913028638768506 -0.0013991501752435005 0 -0.001881049928714449 -0.0014260197777838069 0 -0.00146453695256285 -0.0016311819173546202 0 -0.0015902344445873338 -0.0016782080747010893 0 -0.0014934319197199555 -0.0017599134752754391 0 -0.0015902344445873338 -0.0016782080747010893 0 -0.0015428973476242982 -0.0017648917175364682 0 -0.0014934319197199555 -0.0017599134752754391 0 -0.0016452591834339989 -0.0015319238514195403 0 -0.00146453695256285 -0.0016311819173546202 0 -0.0015902344445873338 -0.0016782080747010893 0 -0.0016845907946267766 -0.0015921088659833927 0 -0.0017053101955219194 -0.0017879988907337787 0 -0.0017757444559424577 -0.0015940481203653117 0 -0.0016452591834339989 -0.0015319238514195403 0 -0.0015902344445873338 -0.0016782080747010893 0 -0.0016845907946267766 -0.0015921088659833927 0 -0.0015902344445873338 -0.0016782080747010893 0 -0.0016845907946267766 -0.0015921088659833927 0 -0.0017053101955219194 -0.0017879988907337787 0 -0.0015357680464974958 -0.0017934407045530104 0 -0.0013001021118353672 -0.001932175266110421 0 -0.0015902344445873338 -0.0016782080747010893 0 -0.0016228844867718513 -0.0017653820854386759 0 -0.0015428973476242982 -0.0017648917175364682 0 -0.0013001021118353672 -0.001932175266110421 0 -0.0014366321536738219 -0.0020378375034330633 0 -0.0016228844867718513 -0.0017653820854386759 0 -0.0015428973476242982 -0.0017648917175364682 0 -0.0014659788737178161 -0.0018484652375011222 0 -0.0016228844867718513 -0.0017653820854386759 0 -0.0014666931195343764 -0.0018776692083655941 0 -0.0013945537824725 -0.0019729925618560446 0 -0.0012460522763165125 -0.002442639334539426 0 -0.0012729541967165627 -0.0021593787245318087 0 -0.0012057102974346596 -0.0022539980900145016 0 -0.0014934319197199555 -0.0017599134752754391 0 -0.0014659788737178161 -0.0018484652375011222 0 -0.0014359500923325004 -0.0018141309414848466 0 -0.0015428973476242982 -0.0017648917175364682 0 -0.0014934319197199555 -0.0017599134752754391 0 -0.0014659788737178161 -0.0018484652375011222 0 -0.0016228844867718513 -0.0017653820854386759 0 -0.0014659788737178161 -0.0018484652375011222 0 -0.0014666931195343764 -0.0018776692083655941 0 -0.0018938905189766918 -0.0014790270056104411 0 -0.0018913028638768506 -0.0013991501752435005 0 -0.0019461193801169577 -0.0015560420389433636 0 -0.00146453695256285 -0.0016311819173546202 0 -0.0014359500923325004 -0.0018141309414848466 0 -0.0013357161133343599 -0.0018787358484061302 0 -0.0016402980571524836 -0.0015369286365324204 0 -0.0019288657192681113 -0.0017258677637799773 0 -0.0014359500923325004 -0.0018141309414848466 0 -0.0013357161133343599 -0.0018787358484061302 0 -0.0014030047979732307 -0.0019196647526781589 0 -0.0014659788737178161 -0.0018484652375011222 0 -0.0014359500923325004 -0.0018141309414848466 0 -0.0014030047979732307 -0.0019196647526781589 0 -0.0013357161133343599 -0.0018787358484061302 0 -0.0013947018154204884 -0.0019889391182978601 0 -0.0012631066894382896 -0.0020181711954521601 0 -0.0013357161133343599 -0.0018787358484061302 0 -0.0014030047979732307 -0.0019196647526781589 0 -0.0013947018154204884 -0.0019889391182978601 0 -0.0014030047979732307 -0.0019196647526781589 0 -0.0013945537824725 -0.0019729925618560446 0 -0.0013947018154204884 -0.0019889391182978601 0 -0.0012460522763165125 -0.002442639334539426 0 -0.0012729541967165627 -0.0021593787245318087 0 -0.0013945537824725 -0.0019729925618560446 0 -0.0012729541967165627 -0.0021593787245318087 0 -0.0012838808557377342 -0.0020386259721125381 0 -0.0011905753371480015 -0.0021319552578044684 0 -0.0014030047979732307 -0.0019196647526781589 0 -0.0014666931195343764 -0.0018776692083655941 0 -0.0013945537824725 -0.0019729925618560446 0 -0.0014659788737178161 -0.0018484652375011222 0 -0.0014030047979732307 -0.0019196647526781589 0 -0.0014666931195343764 -0.0018776692083655941 0 -0.0012729541967165627 -0.0021593787245318087 0 -0.0013945537824725 -0.0019729925618560446 0 -0.0012838808557377342 -0.0020386259721125381 0 -0.0013945537824725 -0.0019729925618560446 0 -0.0012838808557377342 -0.0020386259721125381 0 -0.0013164649845073375 -0.0019392654136295585 0 0.0028167519762776561 -0.0020113771712279402 0 0.0024289262893305197 -0.0019087161960193886 0 0.0048661836204352297 -0.0027208277274352161 0 0.0048255333409622679 -0.0027141971533517573 0 0.0048805632224455968 -0.0026721245691128945 0 0.004868471410342046 -0.0025726777289894693 0 0.0048807065240566334 -0.0023831945971480922 0 0.0043688984194858267 -0.0023085244709363686 0 0.0024289262893305197 -0.0019087161960193886 0 0.00052096770924259304 -0.0015190328919362497 0 0.0048255333409622679 -0.0027141971533517573 0 0.004868471410342046 -0.0025726777289894693 0 0.0048805632224455968 -0.0026721245691128945 0 0.0048255333409622679 -0.0027141971533517573 0 0.004868471410342046 -0.0025726777289894693 0 0.0043688984194858267 -0.0023085244709363686 0 0.0024289262893305197 -0.0019087161960193886 0 0.0039449713241186471 -0.0018974851415926128 0 -0.0013945537824725 -0.0019729925618560446 0 -0.0013164649845073375 -0.0019392654136295585 0 -0.0013947018154204884 -0.0019889391182978601 0 0.0047703441424295917 -0.0021397047565930491 0 0.0043688984194858267 -0.0023085244709363686 0 0.0045242260708893813 -0.0019949316600723186 0 0.0048807065240566334 -0.0023831945971480922 0 0.0047703441424295917 -0.0021397047565930491 0 0.0043688984194858267 -0.0023085244709363686 0 0.0043688984194858267 -0.0023085244709363686 0 0.0045242260708893813 -0.0019949316600723186 0 0.0042813980699998406 -0.0019574130147135631 0 0.00052096770924259304 -0.0015190328919362497 0 0.00071744833885322996 -0.0016057651092747783 0 0.0030089796323583573 -0.0013675552454514347 0 0.0029490697908247012 -0.0011801925518643379 0 0.0031097062929575136 -0.0013230648977342011 0 0.0029490697908247012 -0.0011801925518643379 0 0.0031665172937349511 -0.0012334381852673174 0 0.0031097062929575136 -0.0013230648977342011 0 0.0027135591289038996 -0.0011354119185162592 0 0.0030089796323583573 -0.0013675552454514347 0 0.0029490697908247012 -0.0011801925518643379 0 -0.0017894046632792068 -0.0017228313050527448 0 -0.0016922479203312364 -0.0018523751165463746 0 -0.001816353848912972 -0.0019608268622628698 0 0.00071744833885322996 -0.0016057651092747783 0 0.002129106260110915 -0.0017258364145366256 0 0.0031665172937349511 -0.0012334381852673174 0 0.0031097062929575136 -0.0013230648977342011 0 0.003208150733360247 -0.0013278201677259078 0 -0.0017955400455810812 -0.0019339155451930791 0 -0.0017901584172692957 -0.0018320409283224053 0 -0.0018906558706451642 -0.0016898178604618026 0 0.00041115135416584336 -0.0018150252034318437 0 0.00071744833885322996 -0.0016057651092747783 0 0.003401453926735006 -0.0013252637713641092 0 0.0031684891503635216 -0.0012516037775703345 0 0.003208150733360247 -0.0013278201677259078 0 0.00041115135416584336 -0.0018150252034318437 0 -0.0019350097961399228 -0.001633163392110702 0 -0.0013247997000020535 -0.0020915538478482563 0 -0.0016922479203312364 -0.0018523751165463746 0 -0.001816353848912972 -0.0019608268622628698 0 -0.0013247997000020535 -0.0020915538478482563 0 -0.0015807364765203045 -0.0017640581327744622 0 -0.0016922479203312364 -0.0018523751165463746 0 -0.0017901584172692957 -0.0018320409283224053 0 -0.0017823105555467703 -0.0017172947470829941 0 -0.0018906558706451642 -0.0016898178604618026 0 0.0033715778340570684 -0.0014320996546807788 0 0.003208150733360247 -0.0013278201677259078 0 0.0032909794054729567 -0.0015240721769323297 0 0.003401453926735006 -0.0013252637713641092 0 0.0033715778340570684 -0.0014320996546807788 0 0.003208150733360247 -0.0013278201677259078 0 0.0039449713241186471 -0.0018974851415926128 0 0.0035557490870938031 -0.0016763103117717749 0 0.0030089796323583573 -0.0013675552454514347 0 0.0031097062929575136 -0.0013230648977342011 0 0.0032909794054729567 -0.0015240721769323297 0 0.0031097062929575136 -0.0013230648977342011 0 0.003208150733360247 -0.0013278201677259078 0 0.0032909794054729567 -0.0015240721769323297 0 0.0043688984194858267 -0.0023085244709363686 0 0.0039311055797954519 -0.0018966995503857452 0 0.0042813980699998406 -0.0019574130147135631 0 0.0039311055797954519 -0.0018966995503857452 0 0.0043467525926364804 -0.0016927361142415865 0 0.0042813980699998406 -0.0019574130147135631 0 0.0034344575125968301 -0.0014963686303376288 0 0.0033715778340570684 -0.0014320996546807788 0 0.0032909794054729567 -0.0015240721769323297 0 0.0035376937306257979 -0.0015081293725902128 0 0.0034344575125968301 -0.0014963686303376288 0 0.0032909794054729567 -0.0015240721769323297 0 0.0035376937306257979 -0.0015081293725902128 0 0.0039311055797954519 -0.0018966995503857452 0 0.0038794002524124098 -0.0015459668526615958 0 0.0035494138203812239 -0.0015339219669965234 0 0.0035557490870938031 -0.0016763103117717749 0 0.0039311055797954519 -0.0018966995503857452 0 0.0041321926438581931 -0.0015366642358283738 0 0.0043467525926364804 -0.0016927361142415865 0 0.0039311055797954519 -0.0018966995503857452 0 0.0038794002524124098 -0.0015459668526615958 0 0.0041321926438581931 -0.0015366642358283738 0 0.0041321926438581931 -0.0015366642358283738 0 0.0043467525926364804 -0.0016927361142415865 0 0.0044575767588601097 -0.0015070486610248017 0 0.0043467525926364804 -0.0016927361142415865 0 0.0044575767588601097 -0.0015070486610248017 0 0.0045917987487546453 -0.0017663651642469244 0 0.0047005462279161607 -0.0013582180949083718 0 0.0044575767588601097 -0.0015070486610248017 0 0.0046664633794455046 -0.0015661600046386547 0 0.0047005462279161607 -0.0013582180949083718 0 0.0046664633794455046 -0.0015661600046386547 0 0.0049204431308878223 -0.0016335475583699297 0 0.0046664633794455046 -0.0015661600046386547 0 0.0045917987487546453 -0.0017663651642469244 0 0.0049204431308878223 -0.0016335475583699297 0 0.0044575767588601097 -0.0015070486610248017 0 0.0046664633794455046 -0.0015661600046386547 0 0.0045917987487546453 -0.0017663651642469244 0 0.0045917987487546453 -0.0017663651642469244 0 0.0047709241895465253 -0.0019245714824626225 0 0.0045242260708893813 -0.0019949316600723186 0 0.0045917987487546453 -0.0017663651642469244 0 0.0047709241895465253 -0.0019245714824626225 0 0.0049204431308878223 -0.0016335475583699297 0 0.0047703441424295917 -0.0021397047565930491 0 0.0047709241895465253 -0.0019245714824626225 0 0.0050359366850352884 -0.0019711171155062232 0 0.0047703441424295917 -0.0021397047565930491 0 0.0047709241895465253 -0.0019245714824626225 0 0.0045242260708893813 -0.0019949316600723186 0 0.0043467525926364804 -0.0016927361142415865 0 0.0045242260708893813 -0.0019949316600723186 0 0.0042813980699998406 -0.0019574130147135631 0 0.0043467525926364804 -0.0016927361142415865 0 0.0045917987487546453 -0.0017663651642469244 0 0.0045242260708893813 -0.0019949316600723186 0 0.0053902581968215809 -0.0020559139887859246 0 0.0056374462483802217 -0.0016546936894580543 0 0.0058557309309880982 -0.0019445228729466839 0 0.0052918360449541778 -0.001751822060801304 0 0.0053902581968215809 -0.0020559139887859246 0 0.0056374462483802217 -0.0016546936894580543 0 0.0052918360449541778 -0.001751822060801304 0 0.0050359366850352884 -0.0019711171155062232 0 0.0049204431308878223 -0.0016335475583699297 0 0.0052918360449541778 -0.001751822060801304 0 0.0053902581968215809 -0.0020559139887859246 0 0.0050359366850352884 -0.0019711171155062232 0 0.0047709241895465253 -0.0019245714824626225 0 0.0050359366850352884 -0.0019711171155062232 0 0.0049204431308878223 -0.0016335475583699297 0 0.0052918360449541778 -0.001751822060801304 0 0.0049204431308878223 -0.0016335475583699297 0 0.0054224070039663131 -0.0014213989800278268 0 0.0049731496474267334 -0.0012437803929356657 0 0.0049204431308878223 -0.0016335475583699297 0 0.0054224070039663131 -0.0014213989800278268 0 0.0057082666597396137 -0.0013084504177869438 0 0.0054224070039663131 -0.0014213989800278268 0 0.0056374462483802217 -0.0016546936894580543 0 0.0052918360449541778 -0.001751822060801304 0 0.0054224070039663131 -0.0014213989800278268 0 0.0056374462483802217 -0.0016546936894580543 0 0.0056374462483802217 -0.0016546936894580543 0 0.0060783139842807282 -0.0014656311133853556 0 0.0058557309309880982 -0.0019445228729466839 0 0.0054633718378412077 -0.0010758425991809406 0 0.0053180015976236972 -0.0013926392980446207 0 0.0057082666597396137 -0.0013084504177869438 0 0.0056374462483802217 -0.0016546936894580543 0 0.0060783139842807282 -0.0014656311133853556 0 0.004935762208842444 -0.00063005492484599873 0 0.0049533326652104435 -0.00068384758735722374 0 0.0047716239209809903 -0.00089382414607270427 0 0.0050834943431036957 -0.00054365034493245382 0 0.0049002650870168521 -0.00065928593352114473 0 0.0050296457782316407 -0.00088371478695170949 0 0.0048274678174059305 -0.00070048934091346477 0 0.0048163213726488789 -0.00095905601113987972 0 0.0049002650870168521 -0.00065928593352114473 0 0.0047765320481218173 -0.00099492109840261717 0 0.0050296457782316407 -0.00088371478695170949 0 0.0049533326652104435 -0.00068384758735722374 0 0.0047716239209809903 -0.00089382414607270427 0 0.0047765320481218173 -0.00099492109840261717 0 0.0053180015976236972 -0.0013926392980446207 0 0.0051573251706901833 -0.0019085348222189565 0 0.0053902581968215809 -0.0020559139887859246 0 0.0058557309309880982 -0.0019445228729466839 0 0.0055877284971100269 -0.0024181748672265856 0 0.0047716239209809903 -0.00089382414607270427 0 0.0047765320481218173 -0.00099492109840261717 0 0.0046282002869018945 -0.0011629893643414282 0 0.0047765320481218173 -0.00099492109840261717 0 0.0046282002869018945 -0.0011629893643414282 0 0.00477228696894822 -0.0011635779689515252 0 0.0041761310530507812 -0.00053164217220507315 0 0.0043891811959401754 -0.00044787128954426765 0 0.0047765320481218173 -0.00099492109840261717 0 0.00477228696894822 -0.0011635779689515252 0 0.0050296457782316407 -0.00088371478695170949 0 0.0036028619294393594 -7.3495733804793934e-05 0 0.0037376120058813089 -6.3081646203168898e-05 0 0.0037360439098418599 6.7592926476589916e-06 0 0.0036028619294393594 -7.3495733804793934e-05 0 0.0036792845030445566 -0.00016607517741993718 0 0.0036194600384848656 -0.00018313212613481751 0 0.0036028619294393594 -7.3495733804793934e-05 0 0.0036792845030445566 -0.00016607517741993718 0 0.0037376120058813089 -6.3081646203168898e-05 0 0.0041761310530507812 -0.00053164217220507315 0 0.004148171729189745 -0.0013372672561077598 0 0.0046282002869018945 -0.0011629893643414282 0 0.00477228696894822 -0.0011635779689515252 0 0.0044908233368659897 -0.0014483144833436297 0 0.0051573251706901833 -0.0019085348222189565 0 0.004148171729189745 -0.0013372672561077598 0 0.0055877284971100269 -0.0024181748672265856 0 0.0052448066731895946 -0.0024024885417714497 0 0.0053451146557247919 -0.0028474977938662935 0 0.0053902581968215809 -0.0020559139887859246 0 0.0055877284971100269 -0.0024181748672265856 0 0.0052448066731895946 -0.0024024885417714497 0 0.0053902581968215809 -0.0020559139887859246 0 0.0052448066731895946 -0.0024024885417714497 0 0.0050628534735088484 -0.0022161608007758389 0 0.0048807065240566334 -0.0023831945971480922 0 0.0052448066731895946 -0.0024024885417714497 0 0.0050628534735088484 -0.0022161608007758389 0 0.0047703441424295917 -0.0021397047565930491 0 0.0050359366850352884 -0.0019711171155062232 0 0.0050628534735088484 -0.0022161608007758389 0 0.0053902581968215809 -0.0020559139887859246 0 0.0050359366850352884 -0.0019711171155062232 0 0.0050628534735088484 -0.0022161608007758389 0 0.0048807065240566334 -0.0023831945971480922 0 0.0047703441424295917 -0.0021397047565930491 0 0.0050628534735088484 -0.0022161608007758389 0 0.0052448066731895946 -0.0024024885417714497 0 0.0050125313514499314 -0.0025610134811536196 0 0.0050412912412721471 -0.0027124982039688243 0 0.0057748911780592547 -0.002780132437945608 0 0.0032699284481472386 -0.0021363889519520687 0 0.004868471410342046 -0.0025726777289894693 0 0.0048807065240566334 -0.0023831945971480922 0 0.0050125313514499314 -0.0025610134811536196 0 0.0052448066731895946 -0.0024024885417714497 0 0.0050412912412721471 -0.0027124982039688243 0 0.0051153359998927419 -0.0029912735186122912 0 0.0048807065240566334 -0.0023831945971480922 0 0.0052448066731895946 -0.0024024885417714497 0 0.0050125313514499314 -0.0025610134811536196 0 0.0050125313514499314 -0.0025610134811536196 0 0.0049565784886813962 -0.0026788961066629416 0 0.0050412912412721471 -0.0027124982039688243 0 0.004868471410342046 -0.0025726777289894693 0 0.0050125313514499314 -0.0025610134811536196 0 0.0049565784886813962 -0.0026788961066629416 0 0.004868471410342046 -0.0025726777289894693 0 0.0049565784886813962 -0.0026788961066629416 0 0.0048805632224455968 -0.0026721245691128945 0 0.0048661836204352297 -0.0027208277274352161 0 0.0049565784886813962 -0.0026788961066629416 0 0.0048805632224455968 -0.0026721245691128945 0 0.0048661836204352297 -0.0027208277274352161 0 0.0049565784886813962 -0.0026788961066629416 0 0.004933494596913857 -0.0027731717266651669 0 0.004933494596913857 -0.0027731717266651669 0 0.0050412912412721471 -0.0027124982039688243 0 0.0049954757414342865 -0.0028673348289756416 0 0.0048661836204352297 -0.0027208277274352161 0 0.0048289275893458232 -0.0027124816210246446 0 0.004933494596913857 -0.0027731717266651669 0 0.0024289262893305197 -0.0019087161960193886 0 0.002761024322274768 -0.0024040582770376772 0 0.0048289275893458232 -0.0027124816210246446 0 0.004933494596913857 -0.0027731717266651669 0 0.004988142195720969 -0.0028549858718185479 0 -0.0012838808557377342 -0.0020386259721125381 0 -0.0013164649845073375 -0.0019392654136295585 0 -0.0010961276396409595 -0.0020635809902148556 0 0.0037322691786514199 -0.0030705893255801925 0 0.002761024322274768 -0.0024040582770376772 0 0.0049565784886813962 -0.0026788961066629416 0 0.004933494596913857 -0.0027731717266651669 0 0.0050412912412721471 -0.0027124982039688243 0 0.0050412912412721471 -0.0027124982039688243 0 0.0051153359998927419 -0.0029912735186122912 0 0.0049954757414342865 -0.0028673348289756416 0 0.0032699284481472386 -0.0021363889519520687 0 0.002761024322274768 -0.0024040582770376772 0 0.0020177600189206497 -0.0020630302262191441 0 0.0026466668936282272 -0.0026430957978712689 0 0.0021589321975347083 -0.0019161847471115816 0 -0.0011029910798716993 -0.0021844589263687987 0 -0.0010961276396409595 -0.0020635809902148556 0 -0.00098305332846710812 -0.0022141046342295553 0 0.002761024322274768 -0.0024040582770376772 0 0.0016689206469629604 -0.0020737238737075629 0 0.0032699284481472386 -0.0021363889519520687 0 0.0016689206469629604 -0.0020737238737075629 0 -0.0012838808557377342 -0.0020386259721125381 0 -0.0011905753371480015 -0.0021319552578044684 0 -0.0010961276396409595 -0.0020635809902148556 0 -0.0012729541967165627 -0.0021593787245318087 0 -0.0011905753371480015 -0.0021319552578044684 0 -0.0012057102974346596 -0.0022539980900145016 0 -0.0011029910798716993 -0.0021844589263687987 0 -0.0011905753371480015 -0.0021319552578044684 0 -0.0012057102974346596 -0.0022539980900145016 0 -0.0011029910798716993 -0.0021844589263687987 0 -0.0011905753371480015 -0.0021319552578044684 0 -0.0010961276396409595 -0.0020635809902148556 0 0.0052448066731895946 -0.0024024885417714497 0 0.0051703199405866056 -0.0030142016953733411 0 0.0053451146557247919 -0.0028474977938662935 0 0.0028872536206843136 -0.0018634907097195962 0 0.0036246525055730152 -0.0011056145497012977 0 0.0031595461932278071 -0.0021144507436750217 0 0.0034692838599891607 -0.00018528563629348433 0 0.0034905238433561533 -0.00023380981096429127 0 0.0034259035380978173 -0.00025940145323417294 0 0.0032699284481472386 -0.0021363889519520687 0 0.004148171729189745 -0.0013372672561077598 0 0.004148171729189745 -0.0013372672561077598 0 0.0022831434036849545 -0.0011671163455228642 0 0.0034692838599891607 -0.00018528563629348433 0 0.0034905238433561533 -0.00023380981096429127 0 0.003547590017562881 -0.00020982480696297263 0 0.0023071603054470474 -0.00087199430385730234 0 0.0018528186089647064 -0.00045311569453331674 0 0.0016666930237763044 -0.00085641286088758244 0 0.0034905238433561533 -0.00023380981096429127 0 0.0034377805434528527 -0.00027000986633397427 0 0.0035860596224796168 -0.00026519293753182559 0 0.00093534105405834625 -0.0014826327452710363 0 0.00020964164959273805 -0.00087702733677210906 0 -0.00025221111338439938 -0.0013219399680193509 0 -0.00021637593568990917 -0.001234218953673242 0 -0.00041528338674925915 -0.0010838003383727272 0 0.0012198696219969665 -0.0014416145243228205 0 0.0013398345695182527 -0.0013797202238194429 0 0.00086762432762290266 -0.00068820320756916289 0 0.0021751923108331741 -0.0010894351257449727 0 0.0012493351631693574 -0.00069752606562749288 0 0.0021751923108331741 -0.0010894351257449727 0 0.0028740022362613409 -0.00034494210197587885 0 0.0012198696219969665 -0.0014416145243228205 0 0.00086762432762290266 -0.00068820320756916289 0 0.00064604983091529457 -0.00091656033829014272 0 0.0034905238433561533 -0.00023380981096429127 0 0.0034377805434528527 -0.00027000986633397427 0 0.0034259035380978173 -0.00025940145323417294 0 0.0019778735796111687 -0.0008675724148903798 0 0.0023540723928912651 -0.0012145176035793217 0 0.0025062836343664433 -0.00087867975007746655 0 0.0021751923108331741 -0.0010894351257449727 0 0.0016440245233735613 -0.00134364650458169 0 0.0022831434036849545 -0.0011671163455228642 0 0.0016440245233735613 -0.00134364650458169 0 0.0019092433081305681 -0.001466826745618462 0 0.001998687773467905 -0.0012688469423513824 0 0.0021391396864979353 -0.0014770383974804264 0 0.0021751923108331741 -0.0010894351257449727 0 0.0022831434036849545 -0.0011671163455228642 0 0.0012198696219969665 -0.0014416145243228205 0 0.0013113766730348266 -0.0014438774892198229 0 0.0013398345695182527 -0.0013797202238194429 0 -0.0011029910798716993 -0.0021844589263687987 0 -0.0012057102974346596 -0.0022539980900145016 0 -0.0010368451699573301 -0.0022668401081818706 0 -0.0011131651432838884 -0.0021896891553723295 0 0.00011858937845507125 -0.0021539650283611189 0 -0.0012460522763165125 -0.002442639334539426 0 -0.0012057102974346596 -0.0022539980900145016 0 -0.0010522548433509321 -0.0022565203752713896 0 -0.0011029910798716993 -0.0021844589263687987 0 -0.0010368451699573301 -0.0022668401081818706 0 -0.00098305332846710812 -0.0022141046342295553 0 0.00052842250848338167 -0.0014900529560901562 0 0.00056248478203880148 -0.001517078927804544 0 0.00051146641986262343 -0.0016220214708891204 0 -0.00050944874592193155 -0.0017031346593237835 0 -0.0004924830456814965 -0.0017033753677398562 0 -0.00050092960495585895 -0.001744549289073581 0 0.00011858937845507125 -0.0021539650283611189 0 0.0016689206469629604 -0.0020737238737075629 0 0.0012557771484204105 -0.0019581361814012014 0 0.0012686072452806473 -0.0019468268774117455 0 0.0012708781215018073 -0.0019577468521964391 0 0.00011858937845507125 -0.0021539650283611189 0 0.0010065146975285354 -0.0017005716867799601 0 0.0032699284481472386 -0.0021363889519520687 0 0.0022831434036849545 -0.0011671163455228642 0 0.0022818554301545679 -0.0018101567550772516 0 0.0019092433081305681 -0.001466826745618462 0 0.0021391396864979353 -0.0014770383974804264 0 0.0022818554301545679 -0.0018101567550772516 0 0.0021391396864979353 -0.0014770383974804264 0 0.0024730917581551842 -0.0016108946500179254 0 0.0021391396864979353 -0.0014770383974804264 0 0.0024730917581551842 -0.0016108946500179254 0 0.0023843502209975991 -0.0012773415571562074 0 0.0016689206469629604 -0.0020737238737075629 0 0.0010065146975285354 -0.0017005716867799601 0 0.001998687773467905 -0.0012688469423513824 0 0.0021391396864979353 -0.0014770383974804264 0 0.0023843502209975991 -0.0012773415571562074 0 0.0016440245233735613 -0.00134364650458169 0 0.0010065146975285354 -0.0017005716867799601 0 0.0010065146975285354 -0.0017005716867799601 0 0.00093534105405834625 -0.0014826327452710363 0 0.00081402197143834313 -0.0018287569951069365 0 0.0012029190707401225 -0.0018372910749152652 0 0.000913491019847753 -0.0016089604760590344 0 0.0016440245233735613 -0.00134364650458169 0 0.00093534105405834625 -0.0014826327452710363 0 0.0010065146975285354 -0.0017005716867799601 0 2.0598103381885414e-05 -0.0015531529550341764 0 0.00093534105405834625 -0.0014826327452710363 0 2.0598103381885414e-05 -0.0015531529550341764 0 -0.0013001021118353672 -0.001932175266110421 0 0.00011858937845507125 -0.0021539650283611189 0 -0.00056504592086439084 -0.0017525026243645049 0 -0.00050944874592193155 -0.0017031346593237835 0 -0.00050092960495585895 -0.001744549289073581 0 2.0598103381885414e-05 -0.0015531529550341764 0 -0.0011884501914765464 -0.0015365265110646987 0 -0.00064219348626748428 -0.0014213800915262992 0 -0.00062431148575997121 -0.0013573069220271551 0 -0.00064537200431651466 -0.0013631163295440372 0 -0.0013001021118353672 -0.001932175266110421 0 -0.0011884501914765464 -0.0015365265110646987 0 -0.00056504592086439084 -0.0017525026243645049 0 -0.00050092960495585895 -0.001744549289073581 0 -0.00054477777846238535 -0.0018210572691840421 0 2.0598103381885414e-05 -0.0015531529550341764 0 -0.00042711257529869513 -0.0011467635416399715 0 -0.00020722164640902876 -0.0010488145418158545 0 -0.00041528338674925915 -0.0010838003383727272 0 -0.00038301351742159328 -0.0008943660243266149 0 -0.00021637593568990917 -0.001234218953673242 0 -0.00020722164640902876 -0.0010488145418158545 0 -0.00041528338674925915 -0.0010838003383727272 0 -0.00038301351742159328 -0.0008943660243266149 0 -0.0001987431730662922 -0.00087014095257347446 0 -0.00044077269450298125 -0.00069946702054452198 0 -0.0017877203002951317 -0.0014140249572104726 0 -0.0011884501914765464 -0.0015365265110646987 0 -0.0017836536267888971 -0.001360630802465774 0 -0.0017690404011502124 -0.0013449935226336029 0 -0.0017684049759299594 -0.001357551747687031 0 -0.00020722164640902876 -0.0010488145418158545 0 -0.00038301351742159328 -0.0008943660243266149 0 -0.0001987431730662922 -0.00087014095257347446 0 -0.0011884501914765464 -0.0015365265110646987 0 -0.0010690221580916138 -0.0012503306429508618 0 -0.00062431148575997121 -0.0013573069220271551 0 -0.00064537200431651466 -0.0013631163295440372 0 -0.0006466028565625027 -0.0013052846046167433 0 -0.00042711257529869513 -0.0011467635416399715 0 -0.0010690221580916138 -0.0012503306429508618 0 0.0003880285170780837 -0.00015069110819301986 0 -0.00029373908959104135 0.00014444474462578028 0 0.00079895159165788263 -0.00014539616055972158 0 0.00042830232756153793 -5.8743837177637296e-05 0 0.00031982179318546162 0.00029173444858573527 0 -0.00070487169616815387 0.00017550719115989047 0 -0.00070063103676887056 0.00013413110658603037 0 -0.00062786234308225908 0.00010822177698530335 0 -0.00070487169616815387 0.00017550719115989047 0 -0.00070063103676887056 0.00013413110658603037 0 -0.00074154472540495628 0.00013453502499242531 0 -0.00041528338674925915 -0.0010838003383727272 0 -0.00038301351742159328 -0.0008943660243266149 0 -0.00056740431431572729 -0.00085361236098668251 0 0.00020964164959273805 -0.00087702733677210906 0 -0.00033842132006182805 -0.00031217100492239808 0 0.00086762432762290266 -0.00068820320756916289 0 8.0829160426680954e-05 -0.00039735290171250399 0 0.00040302009070820936 -6.1269605080809732e-06 0 0.0003880285170780837 -0.00015069110819301986 0 -0.00033842132006182805 -0.00031217100492239808 0 0.0003880285170780837 -0.00015069110819301986 0 0.0012493351631693574 -0.00069752606562749288 0 0.00086762432762290266 -0.00068820320756916289 0 8.0829160426680954e-05 -0.00039735290171250399 0 0.00064604983091529457 -0.00091656033829014272 0 0.0013935127055692787 -3.3765066362054801e-05 0 0.0018528186089647064 -0.00045311569453331674 0 0.0012013589122225874 -0.00026900585937312036 0 0.00079895159165788263 -0.00014539616055972158 0 0.00064575724429953704 -0.0003328939910606756 0 0.00042830232756153793 -5.8743837177637296e-05 0 0.0003880285170780837 -0.00015069110819301986 0 0.0014098424705465216 -0.0001425353939389347 0 0.0014098424705465216 -0.0001425353939389347 0 0.00093367047285967237 -5.6315062351830085e-05 0 0.0024368926128329194 -0.00015442002022789423 0 0.0024415416662565879 -0.0002726385656107624 0 0.0023482296133418902 -0.00026991937343031572 0 0.0024368926128329194 -0.00015442002022789423 0 0.0024415416662565879 -0.0002726385656107624 0 0.00253872982987086 -0.00027546619369911326 0 0.0031323609802263708 -0.00024755976968257473 0 0.0028740022362613409 -0.00034494210197587885 0 0.0014098424705465216 -0.0001425353939389347 0 0.0028740022362613409 -0.00034494210197587885 0 0.0018528186089647064 -0.00045311569453331674 0 0.0012013589122225874 -0.00026900585937312036 0 0.0016666930237763044 -0.00085641286088758244 0 0.0036028619294393594 -7.3495733804793934e-05 0 0.003547590017562881 -0.00020982480696297263 0 0.0036194600384848656 -0.00018313212613481751 0 0.0036028619294393594 -7.3495733804793934e-05 0 0.0034692838599891607 -0.00018528563629348433 0 0.003547590017562881 -0.00020982480696297263 0 0.0034905238433561533 -0.00023380981096429127 0 0.0035860596224796168 -0.00026519293753182559 0 0.003547590017562881 -0.00020982480696297263 0 0.0028740022362613409 -0.00034494210197587885 0 0.0034000576126691617 -0.00039195497763284124 0 0.0035820872347158529 -0.00023614872759983505 0 0.003547590017562881 -0.00020982480696297263 0 0.0036194600384848656 -0.00018313212613481751 0 0.0036513343643275633 -0.00021590130152012563 0 0.0036792845030445566 -0.00016607517741993718 0 0.0036194600384848656 -0.00018313212613481751 0 0.0036513343643275633 -0.00021590130152012563 0 0.0035820872347158529 -0.00023614872759983505 0 0.0036194600384848656 -0.00018313212613481751 0 0.0036513343643275633 -0.00021590130152012563 0 0.0036792845030445566 -0.00016607517741993718 0 0.0036706663244852984 -0.0001861728494855364 0 0.0037911915386980204 -0.00017175847195935302 0 0.0034733532263396464 -0.00022570620306360765 0 0.0036706663244852984 -0.0001861728494855364 0 0.0036543450205886942 -0.0001965501010251664 0 0.0036652076822137883 -0.00018868435979518431 0 0.0036792845030445566 -0.00016607517741993718 0 0.0038303500633124271 -0.00019872070424104704 0 0.0037618516973394142 -0.00012033668393881698 0 0.0036792845030445566 -0.00016607517741993718 0 0.0036706663244852984 -0.0001861728494855364 0 0.0036543450205886942 -0.0001965501010251664 0 0.0038045955443550953 -8.2009875653840948e-05 0 0.0038160096166526096 -7.0922102591311107e-05 0 0.0038113669820556599 -6.8558517289827689e-05 0 0.0034733532263396464 -0.00022570620306360765 0 0.0038654001439219509 -4.8228057674360642e-05 0 0.0013933634090090379 -5.4063862996572703e-05 0 0.0014164005053936162 -5.4649993947883605e-05 0 0.0014001168529749804 -3.139655900271791e-05 0 0.0023432236234792124 3.6003782937742485e-05 0 0.0026191892642476624 -0.00021519533601942206 0 0.0036480039043294628 -0.00018599595791134931 0 0.0036652076822137883 -0.00018868435979518431 0 0.0036659218514984789 -0.00018640749724649637 0 0.0034733532263396464 -0.00022570620306360765 0 0.0023432236234792124 3.6003782937742485e-05 0 0.0036543450205886942 -0.0001965501010251664 0 0.0036480039043294628 -0.00018599595791134931 0 0.0036652076822137883 -0.00018868435979518431 0 0.0014098424705465216 -0.0001425353939389347 0 0.0026191892642476624 -0.00021519533601942206 0 0.0036513343643275633 -0.00021590130152012563 0 0.0036706663244852984 -0.0001861728494855364 0 0.0036685715250171615 -0.00019059552726504738 0 0.0031323609802263708 -0.00024755976968257473 0 0.0026191892642476624 -0.00021519533601942206 0 0.0036706663244852984 -0.0001861728494855364 0 0.0036652076822137883 -0.00018868435979518431 0 0.0036685715250171615 -0.00019059552726504738 0 0.0027952584093468066 -0.00010598442828025377 0 0.0026191892642476624 -0.00021519533601942206 0 0.00143221211545384 -2.7256507846413507e-05 0 0.0014164005053936162 -5.4649993947883605e-05 0 0.0014132507034930793 -2.6756825047238176e-05 0 0.0014164005053936162 -5.4649993947883605e-05 0 0.0014132507034930793 -2.6756825047238176e-05 0 0.0014001168529749804 -3.139655900271791e-05 0 0.00143221211545384 -2.7256507846413507e-05 0 0.0014132507034930793 -2.6756825047238176e-05 0 0.001415151495464332 -8.6000501107415745e-06 0 0.0014132507034930793 -2.6756825047238176e-05 0 0.0014001168529749804 -3.139655900271791e-05 0 0.0013958426144556446 -1.2889197084497644e-05 0 0.0013933634090090379 -5.4063862996572703e-05 0 0.0014001168529749804 -3.139655900271791e-05 0 0.0013747732682263547 -1.3630279814545185e-05 0 0.0023432236234792124 3.6003782937742485e-05 0 0.00075396219786397645 1.3775688351294289e-05 0 0.0014001168529749804 -3.139655900271791e-05 0 0.0013958426144556446 -1.2889197084497644e-05 0 0.0013747732682263547 -1.3630279814545185e-05 0 -0.00039635130931240195 4.5930596390634247e-05 0 -0.00038548678073328134 5.2970413850717221e-05 0 -0.00038426709231277395 -5.5695483154362277e-05 0 0.00036064086983434118 7.5686935915779304e-05 0 0.00024937532920883161 0.00015327831399145449 0 0.0003770069663413947 3.8044135516205574e-05 0 -0.00032305094048765143 -1.9663311802394489e-05 0 0.00036064086983434118 7.5686935915779304e-05 0 -0.0004850187172180034 6.8435115995209287e-06 0 0.0013958426144556446 -1.2889197084497644e-05 0 0.0013748013793178353 -7.7703953195585876e-06 0 0.001394538942695133 1.028028823781961e-05 0 0.0013958426144556446 -1.2889197084497644e-05 0 0.0013747732682263547 -1.3630279814545185e-05 0 0.0013748013793178353 -7.7703953195585876e-06 0 0.00075396219786397645 1.3775688351294289e-05 0 0.0003770069663413947 3.8044135516205574e-05 0 0.00075396219786397645 1.3775688351294289e-05 0 0.00036064086983434118 7.5686935915779304e-05 0 0.00057190282308021586 5.6157803938722327e-05 0 0.00055264857700815999 -6.2709435567451073e-06 0 0.00057567004336345261 9.4480159515328243e-06 0 0.00036064086983434118 7.5686935915779304e-05 0 0.0003770069663413947 3.8044135516205574e-05 0 0.0013958426144556446 -1.2889197084497644e-05 0 0.001415151495464332 -8.6000501107415745e-06 0 0.001394538942695133 1.028028823781961e-05 0 0.00042830232756153793 -5.8743837177637296e-05 0 0.00031982179318546162 0.00029173444858573527 0 0.000210791904335958 0.00021615504632541182 0 0.00093367047285967237 -5.6315062351830085e-05 0 0.00024937532920883161 0.00015327831399145449 0 0.0014132507034930793 -2.6756825047238176e-05 0 0.0013958426144556446 -1.2889197084497644e-05 0 0.001415151495464332 -8.6000501107415745e-06 0 0.00020106385352100666 -2.2857234116879171e-07 0 -0.00012132909122674999 -1.1478753788727616e-05 0 0.00011467458655045092 0.00010863283734003527 0 0.001015196837570876 -1.5157219116388395e-05 0 0.0010147605381127134 -1.8181869434033433e-05 0 0.0010310642061084696 -6.1227708672407932e-06 0 -0.00029927534654558091 6.022410600837154e-05 0 -0.00012132909122674999 -1.1478753788727616e-05 0 0.00011467458655045092 0.00010863283734003527 0 -0.00029927534654558091 6.022410600837154e-05 0 -0.00027895269475717639 -2.2497449174707098e-05 0 -0.00038426709231277395 -5.5695483154362277e-05 0 -0.00029927534654558091 6.022410600837154e-05 0 -0.00012132909122674999 -1.1478753788727616e-05 0 -0.00027895269475717639 -2.2497449174707098e-05 0 0.0003770069663413947 3.8044135516205574e-05 0 0.00055784206692965812 1.0944443659491454e-05 0 0.001015196837570876 -1.5157219116388395e-05 0 0.0010310642061084696 -6.1227708672407932e-06 0 0.001026270747796057 -5.1685880533073549e-06 0 0.001015196837570876 -1.5157219116388395e-05 0 0.001026270747796057 -5.1685880533073549e-06 0 0.0010170730812283238 9.3217030898182733e-06 0 0.00075396219786397645 1.3775688351294289e-05 0 0.0018036239186385624 1.8389482203492765e-05 0 0.0010310642061084696 -6.1227708672407932e-06 0 0.00097531827451860021 -1.8138474124740106e-08 0 0.0010262292133397476 -1.4928637767150089e-05 0 0.00055784206692965812 1.0944443659491454e-05 0 0.00097418966569119583 7.009670925041159e-09 0 0.0010310642061084696 -6.1227708672407932e-06 0 0.0010262292133397476 -1.4928637767150089e-05 0 0.001026270747796057 -5.1685880533073549e-06 0 0.00020106385352100666 -2.2857234116879171e-07 0 0.00011467458655045092 0.00010863283734003527 0 0.0009733245103515964 6.5982509373293093e-07 0 0.0010262292133397476 -1.4928637767150089e-05 0 0.0011980616821825486 1.9152600624517459e-08 0 0.0010554358461364163 3.2189776053578048e-05 0 0.00097531827451860021 -1.8138474124740106e-08 0 0.0010262292133397476 -1.4928637767150089e-05 0 0.0011980616821825486 1.9152600624517459e-08 0 0.001295289021848585 8.3642211208305507e-05 0 0.0018036239186385624 1.8389482203492765e-05 0 0.0010262292133397476 -1.4928637767150089e-05 0 0.0010554358461364163 3.2189776053578048e-05 0 0.001026270747796057 -5.1685880533073549e-06 0 0.001295289021848585 8.3642211208305507e-05 0 0.0024670175661045618 9.7728906136965521e-05 0 0.0011998915197125948 4.1655938929796933e-07 0 0.0015886260825069931 7.5972501960558809e-05 0 0.0017509627101528695 -2.1438009165934776e-05 0 0.0011990960721627076 1.0029023682915114e-07 0 0.001295289021848585 8.3642211208305507e-05 0 0.0014046483042069373 0.00016601282949263262 0 0.0020699598433864251 -3.5166149746950295e-05 0 0.0021343103989333602 0.00018205645073997664 0 0.0015459397043637376 7.8537440835996027e-05 0 0.0015436695529798775 -3.5930018653042974e-05 0 0.0015896714622608452 7.7645941220329194e-05 0 0.0010554358461364163 3.2189776053578048e-05 0 0.001026270747796057 -5.1685880533073549e-06 0 0.0010170730812283238 9.3217030898182733e-06 0 0.0024670175661045618 9.7728906136965521e-05 0 0.0018036239186385624 1.8389482203492765e-05 0 0.0027419701435208699 0.00011479073888207566 0 0.002286386845319253 -5.7752431069138195e-05 0 0.0023395730344472972 0.00012315606940568706 0 0.0027729351896783492 -0.00020485709968922058 0 0.0027419701435208699 0.00011479073888207566 0 0.002286386845319253 -5.7752431069138195e-05 0 0.0023432236234792124 3.6003782937742485e-05 0 0.0018036239186385624 1.8389482203492765e-05 0 0.0038147323845601371 -9.0361577675747838e-05 0 0.0038160096166526096 -7.0922102591311107e-05 0 0.0038362476259482846 -4.9891679151460697e-05 0 0.0024670175661045618 9.7728906136965521e-05 0 0.0029916358264596233 -8.3629013695976423e-05 0 0.0038045955443550953 -8.2009875653840948e-05 0 0.0038147323845601371 -9.0361577675747838e-05 0 0.0038160096166526096 -7.0922102591311107e-05 0 0.0034733532263396464 -0.00022570620306360765 0 0.0024670175661045618 9.7728906136965521e-05 0 0.0018243660808112884 2.4495746013355347e-05 0 0.0017509627101528695 -2.1438009165934776e-05 0 0.0020384724544149704 -4.0934226083918796e-05 0 0.0011998915197125948 4.1655938929796933e-07 0 0.0017509627101528695 -2.1438009165934776e-05 0 0.002015763714418578 -3.2242209684536549e-07 0 0.0015886260825069931 7.5972501960558809e-05 0 0.0018243660808112884 2.4495746013355347e-05 0 0.0017509627101528695 -2.1438009165934776e-05 0 0.0017509627101528695 -2.1438009165934776e-05 0 0.002015763714418578 -3.2242209684536549e-07 0 0.0020384724544149704 -4.0934226083918796e-05 0 0.002015763714418578 -3.2242209684536549e-07 0 0.0020384724544149704 -4.0934226083918796e-05 0 0.0028325860243675794 8.6415139856185599e-08 0 0.0029916358264596233 -8.3629013695976423e-05 0 0.0032810720902065969 -2.608875350109503e-05 0 0.0020384724544149704 -4.0934226083918796e-05 0 0.0028325860243675794 8.6415139856185599e-08 0 0.0027764445773782219 1.6724065826355893e-05 0 0.0038362476259482846 -4.9891679151460697e-05 0 0.0038316343755874765 -5.0201824674966534e-06 0 0.0038301283466566252 3.6531328695497212e-05 0 0.0038362476259482846 -4.9891679151460697e-05 0 0.0038113669820556599 -6.8558517289827689e-05 0 0.0038316343755874765 -5.0201824674966534e-06 0 0.0038160096166526096 -7.0922102591311107e-05 0 0.0038362476259482846 -4.9891679151460697e-05 0 0.0038113669820556599 -6.8558517289827689e-05 0 0.0038303500633124271 -0.00019872070424104704 0 0.0038113669820556599 -6.8558517289827689e-05 0 0.0037618516973394142 -0.00012033668393881698 0 0.0036792845030445566 -0.00016607517741993718 0 0.0037618516973394142 -0.00012033668393881698 0 0.0037376120058813089 -6.3081646203168898e-05 0 0.0038113669820556599 -6.8558517289827689e-05 0 0.0037618516973394142 -0.00012033668393881698 0 0.0037376120058813089 -6.3081646203168898e-05 0 0.0037376120058813089 -6.3081646203168898e-05 0 0.0038316343755874765 -5.0201824674966534e-06 0 0.0037360439098418599 6.7592926476589916e-06 0 0.0038113669820556599 -6.8558517289827689e-05 0 0.0037376120058813089 -6.3081646203168898e-05 0 0.0038316343755874765 -5.0201824674966534e-06 0 0.0038316343755874765 -5.0201824674966534e-06 0 0.0037360439098418599 6.7592926476589916e-06 0 0.003844820710397422 1.9051191902553026e-05 0 0.0043891811959401754 -0.00044787128954426765 0 0.0045151920334444524 -0.0003378109467847994 0 0.0050834943431036957 -0.00054365034493245382 0 0.0050296457782316407 -0.00088371478695170949 0 0.0052816662035739216 -0.00060573417135463645 0 0.0038316343755874765 -5.0201824674966534e-06 0 0.003844820710397422 1.9051191902553026e-05 0 0.003900713603825341 -4.2484164254200399e-06 0 0.003900713603825341 -4.2484164254200399e-06 0 0.0036509150634693355 -3.6329071278770276e-08 0 0.0038301283466566252 3.6531328695497212e-05 0 0.0036494844546050252 5.7249614781364755e-08 0 0.0028325860243675794 8.6415139856185599e-08 0 0.0027764445773782219 1.6724065826355893e-05 0 0.0036495642097645054 -1.3301388847150851e-07 0 0.0032810720902065969 -2.608875350109503e-05 0 0.0038316343755874765 -5.0201824674966534e-06 0 0.003900713603825341 -4.2484164254200399e-06 0 0.0038301283466566252 3.6531328695497212e-05 0 0.0024741752931971696 -0.001580205049560308 0 0.0030851311055836868 -0.0010669914733174325 0 0.0031762523989899254 -0.0019697263233775224 0 0.002558237664996116 -0.0017300482494386586 0 0.0025533415440060791 -0.0021262076740110516 0 0.0024741752931971696 -0.001580205049560308 0 0.0020709416251750079 -0.0014124200590441447 0 0.0020179011498168802 -0.0016602505527297884 0 0.0024741752931971696 -0.001580205049560308 0 0.0020709416251750079 -0.0014124200590441447 0 0.0021193243836271575 -0.00094377644749814239 0 0.0020709416251750079 -0.0014124200590441447 0 0.0021193243836271575 -0.00094377644749814239 0 0.0018205028459902081 -0.0014458209576308559 0 0.0020709416251750079 -0.0014124200590441447 0 0.0020179011498168802 -0.0016602505527297884 0 0.0018205028459902081 -0.0014458209576308559 0 0.0020561417350155663 -0.0013089545266866036 0 0.0018205028459902081 -0.0014458209576308559 0 0.0019416751484987566 -0.00118665648967297 0 0.0021492759239504821 -0.0010944993121982996 0 0.0018194020983150062 -0.0014176611301739903 0 0.0024741752931971696 -0.001580205049560308 0 0.0021193243836271575 -0.00094377644749814239 0 0.0030851311055836868 -0.0010669914733174325 0 0.0021193243836271575 -0.00094377644749814239 0 0.0030851311055836868 -0.0010669914733174325 0 0.0030986805029126203 -0.00010219473313236165 0 0.0021492759239504821 -0.0010944993121982996 0 0.0024483523187529108 -0.00075784875769368816 0 0.0030851311055836868 -0.0010669914733174325 0 0.0039929635512107875 -0.00033594203977763576 0 0.0030986805029126203 -0.00010219473313236165 0 0.0030851311055836868 -0.0010669914733174325 0 0.0039292416885605228 -0.0014433493227520905 0 0.0039929635512107875 -0.00033594203977763576 0 0.0047405414641178588 -0.00084735204803802939 0 0.0039292416885605228 -0.0014433493227520905 0 0.0039929635512107875 -0.00033594203977763576 0 0.0042141205716717872 -0.0016464662986582685 0 0.0038749619155613443 -0.0017198146746702624 0 0.0040300095580574147 -0.0018203172719614773 0 0.0036271287205382231 -0.0021814406786013116 0 0.0035248948491297832 -0.0026285792705333568 0 0.0042141205716717872 -0.0016464662986582685 0 0.0034571169881732087 -0.0027207054585243317 0 0.0040479972822047823 -0.0024402502765929457 0 0.0035248948491297832 -0.0026285792705333568 0 0.0038611987751612127 -0.0026782083788079712 0 0.0039677818026613819 -0.0019935217483393179 0 0.0040479972822047823 -0.0024402502765929457 0 0.0035248948491297832 -0.0026285792705333568 0 0.0030851311055836868 -0.0010669914733174325 0 0.0039292416885605228 -0.0014433493227520905 0 0.0031762523989899254 -0.0019697263233775224 0 0.0038749619155613443 -0.0017198146746702624 0 0.0025533415440060791 -0.0021262076740110516 0 0.0036271287205382231 -0.0021814406786013116 0 0.0032475058189420192 -0.0025458334672193283 0 0.0035248948491297832 -0.0026285792705333568 0 0.0014835792480541682 -0.0024082605719832474 0 0.0014670944136471898 -0.0022564804726178497 0 0.0013347369461247211 -0.0023214178323033878 0 0.0014670944136471898 -0.0022564804726178497 0 0.0013347369461247211 -0.0023214178323033878 0 0.0013863557571494114 -0.0021395922585287961 0 0.0032475058189420192 -0.0025458334672193283 0 0.0035248948491297832 -0.0026285792705333568 0 0.0036789507890138697 -0.0027356701506421012 0 0.0025533415440060791 -0.0021262076740110516 0 0.0026496884564267591 -0.0025838538791523808 0 0.0013347369461247211 -0.0023214178323033878 0 0.0013863557571494114 -0.0021395922585287961 0 0.0012239611364829209 -0.0022706894022202842 0 0.0040479972822047823 -0.0024402502765929457 0 0.0038611987751612127 -0.0026782083788079712 0 0.0040578714088905796 -0.0028987766838438232 0 0.0038611987751612127 -0.0026782083788079712 0 0.0036789507890138697 -0.0027356701506421012 0 0.0040578714088905796 -0.0028987766838438232 0 0.0035248948491297832 -0.0026285792705333568 0 0.0038611987751612127 -0.0026782083788079712 0 0.0036789507890138697 -0.0027356701506421012 0 0.0026496884564267591 -0.0025838538791523808 0 0.00168410889446705 -0.002253707590923268 0 0.0011536016745638804 -0.0022259810456770599 0 0.00168410889446705 -0.002253707590923268 0 0.0013863557571494114 -0.0021395922585287961 0 0.0010266145445446684 -0.0024265322371189398 0 0.00093421457004170096 -0.0022315504436447877 0 0.0014670944136471898 -0.0022564804726178497 0 0.0013863557571494114 -0.0021395922585287961 0 0.0015831650232315511 -0.0021303661566206924 0 0.0013863557571494114 -0.0021395922585287961 0 0.0015831650232315511 -0.0021303661566206924 0 0.0016346640268920143 -0.001999394483289858 0 0.0015831650232315511 -0.0021303661566206924 0 0.0018914480597532388 -0.0020064143464255525 0 0.0016346640268920143 -0.001999394483289858 0 0.0015831650232315511 -0.0021303661566206924 0 0.0016389163308566602 -0.0022991917688178847 0 0.0018914480597532388 -0.0020064143464255525 0 0.0014670944136471898 -0.0022564804726178497 0 0.0015831650232315511 -0.0021303661566206924 0 0.0016389163308566602 -0.0022991917688178847 0 0.0019756763371977537 -0.0020880211290430265 0 0.00194705213917697 -0.0020185069912173133 0 0.0024741752931971696 -0.001580205049560308 0 0.0023736973382994498 -0.0018268534594092227 0 0.0020179011498168802 -0.0016602505527297884 0 0.0024741752931971696 -0.001580205049560308 0 0.002617549287915859 -0.001666367422841481 0 0.0023736973382994498 -0.0018268534594092227 0 0.0025533415440060791 -0.0021262076740110516 0 0.0019756763371977537 -0.0020880211290430265 0 0.0014835792480541682 -0.0024082605719832474 0 0.0014670944136471898 -0.0022564804726178497 0 0.0016389163308566602 -0.0022991917688178847 0 0.0023736973382994498 -0.0018268534594092227 0 0.0020179011498168802 -0.0016602505527297884 0 0.0018914480597532388 -0.0020064143464255525 0 0.0020179011498168802 -0.0016602505527297884 0 0.0018914480597532388 -0.0020064143464255525 0 0.001809953359865219 -0.0017645605016476608 0 0.0018914480597532388 -0.0020064143464255525 0 0.0017910891031406447 -0.0018885686483267939 0 0.001809953359865219 -0.0017645605016476608 0 0.0018914480597532388 -0.0020064143464255525 0 0.0017722854181992729 -0.0019435875701354854 0 0.0016346640268920143 -0.001999394483289858 0 0.0018914480597532388 -0.0020064143464255525 0 0.0017910891031406447 -0.0018885686483267939 0 0.0017722854181992729 -0.0019435875701354854 0 0.0017910891031406447 -0.0018885686483267939 0 0.0017175230207569629 -0.0017961671846320594 0 0.0017371597246661765 -0.0018853622978930392 0 0.0017910891031406447 -0.0018885686483267939 0 0.0017175230207569629 -0.0017961671846320594 0 0.001809953359865219 -0.0017645605016476608 0 0.0017175230207569629 -0.0017961671846320594 0 0.0016494406588933228 -0.001710724059740869 0 0.0017120651013947531 -0.0016428123434101909 0 0.0017175230207569629 -0.0017961671846320594 0 0.0016494406588933228 -0.001710724059740869 0 0.0016400177148982295 -0.0017825527569119261 0 0.0017120651013947531 -0.0016428123434101909 0 0.0016166284522666744 -0.0015977016681895859 0 0.0016983516935105054 -0.0014447153347164929 0 0.0016494406588933228 -0.001710724059740869 0 0.0017120651013947531 -0.0016428123434101909 0 0.0016166284522666744 -0.0015977016681895859 0 0.0017175230207569629 -0.0017961671846320594 0 0.0017120651013947531 -0.0016428123434101909 0 0.001809953359865219 -0.0017645605016476608 0 0.0020179011498168802 -0.0016602505527297884 0 0.001809953359865219 -0.0017645605016476608 0 0.0018205028459902081 -0.0014458209576308559 0 0.0017120651013947531 -0.0016428123434101909 0 0.001809953359865219 -0.0017645605016476608 0 0.0018205028459902081 -0.0014458209576308559 0 0.0014463351205808682 -0.001671722029784724 0 0.0015560556417587061 -0.0017184123889751369 0 0.0015093791606909457 -0.0015612495909018305 0 0.0013870736565208585 -0.0015331748975464438 0 0.0014463351205808682 -0.001671722029784724 0 0.0015093791606909457 -0.0015612495909018305 0 0.0016494406588933228 -0.001710724059740869 0 0.0015560556417587061 -0.0017184123889751369 0 0.0016166284522666744 -0.0015977016681895859 0 0.0015560556417587061 -0.0017184123889751369 0 0.0016166284522666744 -0.0015977016681895859 0 0.0015093791606909457 -0.0015612495909018305 0 0.0016494406588933228 -0.001710724059740869 0 0.0015560556417587061 -0.0017184123889751369 0 0.0016400177148982295 -0.0017825527569119261 0 0.0016166284522666744 -0.0015977016681895859 0 0.0015093791606909457 -0.0015612495909018305 0 0.0015784293130694147 -0.0014021765370925265 0 0.0014665598057378192 -0.0014160600208424862 0 0.0015093791606909457 -0.0015612495909018305 0 0.0015784293130694147 -0.0014021765370925265 0 0.0013870736565208585 -0.0015331748975464438 0 0.0014665598057378192 -0.0014160600208424862 0 0.0015093791606909457 -0.0015612495909018305 0 0.0014665598057378192 -0.0014160600208424862 0 0.0015120321923281469 -0.0012247376067586599 0 0.0015784293130694147 -0.0014021765370925265 0 0.0015784293130694147 -0.0014021765370925265 0 0.0016831869732627865 -0.0012684886666212783 0 0.0016983516935105054 -0.0014447153347164929 0 0.0016166284522666744 -0.0015977016681895859 0 0.0015784293130694147 -0.0014021765370925265 0 0.0016983516935105054 -0.0014447153347164929 0 0.0015120321923281469 -0.0012247376067586599 0 0.0015784293130694147 -0.0014021765370925265 0 0.0016831869732627865 -0.0012684886666212783 0 0.0015120321923281469 -0.0012247376067586599 0 0.0016831869732627865 -0.0012684886666212783 0 0.0016593088446061417 -0.0011310832921085073 0 0.0018205028459902081 -0.0014458209576308559 0 0.0016983516935105054 -0.0014447153347164929 0 0.0017944534240083071 -0.0012497191917407769 0 0.0017120651013947531 -0.0016428123434101909 0 0.0018205028459902081 -0.0014458209576308559 0 0.0016983516935105054 -0.0014447153347164929 0 0.0016831869732627865 -0.0012684886666212783 0 0.0016983516935105054 -0.0014447153347164929 0 0.0017944534240083071 -0.0012497191917407769 0 0.0018205028459902081 -0.0014458209576308559 0 0.0017944534240083071 -0.0012497191917407769 0 0.0019416751484987566 -0.00118665648967297 0 0.0017944534240083071 -0.0012497191917407769 0 0.0019416751484987566 -0.00118665648967297 0 0.0018723298243750524 -0.0010862914146390565 0 0.0016831869732627865 -0.0012684886666212783 0 0.0017944534240083071 -0.0012497191917407769 0 0.0017582457006376753 -0.0011178016363766106 0 0.0017944534240083071 -0.0012497191917407769 0 0.0018723298243750524 -0.0010862914146390565 0 0.0017582457006376753 -0.0011178016363766106 0 0.0018723298243750524 -0.0010862914146390565 0 0.0017582457006376753 -0.0011178016363766106 0 0.0018234288417235136 -0.0010024325997630562 0 0.0018723298243750524 -0.0010862914146390565 0 0.0019133662539312186 -0.00097733815770395722 0 0.0018234288417235136 -0.0010024325997630562 0 0.0018723298243750524 -0.0010862914146390565 0 0.0019133662539312186 -0.00097733815770395722 0 0.0019877892635077371 -0.0010521593636670572 0 0.0019416751484987566 -0.00118665648967297 0 0.0018723298243750524 -0.0010862914146390565 0 0.0019877892635077371 -0.0010521593636670572 0 0.0015120321923281469 -0.0012247376067586599 0 0.001630100734116897 -0.0010415262188818179 0 0.0016593088446061417 -0.0011310832921085073 0 0.0016831869732627865 -0.0012684886666212783 0 0.0016593088446061417 -0.0011310832921085073 0 0.0017582457006376753 -0.0011178016363766106 0 0.0017582457006376753 -0.0011178016363766106 0 0.0017341633988781362 -0.0010090628093779267 0 0.0018234288417235136 -0.0010024325997630562 0 0.0016593088446061417 -0.0011310832921085073 0 0.0017582457006376753 -0.0011178016363766106 0 0.0017341633988781362 -0.0010090628093779267 0 0.001630100734116897 -0.0010415262188818179 0 0.0016593088446061417 -0.0011310832921085073 0 0.0017341633988781362 -0.0010090628093779267 0 0.001630100734116897 -0.0010415262188818179 0 0.0017341633988781362 -0.0010090628093779267 0 0.0017418297804496709 -0.00092819727270513751 0 0.0017341633988781362 -0.0010090628093779267 0 0.0017418297804496709 -0.00092819727270513751 0 0.0018034421763702178 -0.00092047075778918313 0 0.0018034421763702178 -0.00092047075778918313 0 0.0018234288417235136 -0.0010024325997630562 0 0.0018590896981681561 -0.00092957425806198374 0 0.0017341633988781362 -0.0010090628093779267 0 0.0018034421763702178 -0.00092047075778918313 0 0.0018234288417235136 -0.0010024325997630562 0 0.0018257254523727376 -0.00085948315959031186 0 0.0018626062974538404 -0.00086329293171803583 0 0.0018034421763702178 -0.00092047075778918313 0 0.0018626062974538404 -0.00086329293171803583 0 0.0018034421763702178 -0.00092047075778918313 0 0.0018590896981681561 -0.00092957425806198374 0 0.0018257254523727376 -0.00085948315959031186 0 0.0017418297804496709 -0.00092819727270513751 0 0.0018034421763702178 -0.00092047075778918313 0 0.0019133662539312186 -0.00097733815770395722 0 0.0020090621951988968 -0.00092951676622762087 0 0.0019877892635077371 -0.0010521593636670572 0 0.0019133662539312186 -0.00097733815770395722 0 0.0018234288417235136 -0.0010024325997630562 0 0.0018590896981681561 -0.00092957425806198374 0 0.0018626062974538404 -0.00086329293171803583 0 0.0018590896981681561 -0.00092957425806198374 0 0.0019206655004786726 -0.00089180310612939665 0 0.0019133662539312186 -0.00097733815770395722 0 0.0018590896981681561 -0.00092957425806198374 0 0.0019206655004786726 -0.00089180310612939665 0 0.0020114266006545237 -0.0008277086642345103 0 0.0019206655004786726 -0.00089180310612939665 0 0.0020090621951988968 -0.00092951676622762087 0 0.0019133662539312186 -0.00097733815770395722 0 0.0019206655004786726 -0.00089180310612939665 0 0.0020090621951988968 -0.00092951676622762087 0 0.0020114266006545237 -0.0008277086642345103 0 0.0021156815986516473 -0.00087468301220781496 0 0.0020090621951988968 -0.00092951676622762087 0 0.0041652662265540619 0.00015771944143264059 0 0.0041485814687077975 0.00015871003684728274 0 0.0021156815986516473 -0.00087468301220781496 0 0.0021095606408534171 -0.0009966084334700634 0 0.0022424390425090117 -0.00095917709911585037 0 0.0021095606408534171 -0.0009966084334700634 0 0.0022373333872002595 -0.001072653153870499 0 0.0022424390425090117 -0.00095917709911585037 0 0.0021156815986516473 -0.00087468301220781496 0 0.0021095606408534171 -0.0009966084334700634 0 0.0020090621951988968 -0.00092951676622762087 0 0.0021095606408534171 -0.0009966084334700634 0 0.0020090621951988968 -0.00092951676622762087 0 0.0019877892635077371 -0.0010521593636670572 0 0.0021095606408534171 -0.0009966084334700634 0 0.0019877892635077371 -0.0010521593636670572 0 0.0020815078560047994 -0.0011572646682293142 0 0.0021095606408534171 -0.0009966084334700634 0 0.0020815078560047994 -0.0011572646682293142 0 0.0022373333872002595 -0.001072653153870499 0 0.0020561417350155663 -0.0013089545266866036 0 0.0020815078560047994 -0.0011572646682293142 0 0.0022132040316955076 -0.0011917101007122867 0 0.0020815078560047994 -0.0011572646682293142 0 0.0022132040316955076 -0.0011917101007122867 0 0.0022373333872002595 -0.001072653153870499 0 0.0019416751484987566 -0.00118665648967297 0 0.0019877892635077371 -0.0010521593636670572 0 0.0020815078560047994 -0.0011572646682293142 0 0.0020561417350155663 -0.0013089545266866036 0 0.0019416751484987566 -0.00118665648967297 0 0.0020815078560047994 -0.0011572646682293142 0 0.0047250485603988783 0.0002974126325902587 0 0.0039929635512107875 -0.00033594203977763576 0 0.0043373748931119106 0.00075302773009044261 0 0.0047405414641178588 -0.00084735204803802939 0 0.0047250485603988783 0.0002974126325902587 0 0.0039929635512107875 -0.00033594203977763576 0 0.0024483523187529108 -0.00075784875769368816 0 0.0044758369988948474 0.00017072327748189075 0 0.0039929635512107875 -0.00033594203977763576 0 0.0030986805029126203 -0.00010219473313236165 0 0.0043373748931119106 0.00075302773009044261 0 0.0022132040316955076 -0.0011917101007122867 0 0.0022373333872002595 -0.001072653153870499 0 0.0023753363998558629 -0.0010803105349790798 0 0.0044758369988948474 0.00017072327748189075 0 0.0041485814687077975 0.00015871003684728274 0 0.0022373333872002595 -0.001072653153870499 0 0.0023753363998558629 -0.0010803105349790798 0 0.0022424390425090117 -0.00095917709911585037 0 0.0060272272782701782 0.0013935025437080669 0 0.0059929775548582332 0.0012464419304343555 0 0.0057914007544229776 0.0012220375265738427 0 0.0047250485603988783 0.0002974126325902587 0 0.0044835890630789263 0.0006488896422355443 0 0.005581738757396806 0.00038446410416102323 0 0.0045221562942011706 0.00034984283765576425 0 0.0044758369988948474 0.00017072327748189075 0 0.0060272272782701782 0.0013935025437080669 0 0.0059929775548582332 0.0012464419304343555 0 0.006123168000632671 0.0012523194353638095 0 0.0059929775548582332 0.0012464419304343555 0 0.006023751003137681 0.0011842468612923978 0 0.0059446737160151926 0.001192042927191915 0 0.0059929775548582332 0.0012464419304343555 0 0.006123168000632671 0.0012523194353638095 0 0.0061036713966510746 0.0011958935364525525 0 0.0061982811880433846 0.0011891179097204905 0 0.006123168000632671 0.0012523194353638095 0 0.0061036713966510746 0.0011958935364525525 0 0.0061123260100409572 0.0011487069216176479 0 0.0061982811880433846 0.0011891179097204905 0 0.0061036713966510746 0.0011958935364525525 0 0.0060098572139174779 0.0011582061162895708 0 0.0061123260100409572 0.0011487069216176479 0 0.006023751003137681 0.0011842468612923978 0 0.0059929775548582332 0.0012464419304343555 0 0.0061036713966510746 0.0011958935364525525 0 0.006023751003137681 0.0011842468612923978 0 0.0061123260100409572 0.0011487069216176479 0 0.0061036713966510746 0.0011958935364525525 0 0.006023751003137681 0.0011842468612923978 0 0.0060098572139174779 0.0011582061162895708 0 0.006023751003137681 0.0011842468612923978 0 0.0059446737160151926 0.001192042927191915 0 0.0060098572139174779 0.0011582061162895708 0 0.0059574444017335901 0.0012035279450619866 0 0.0059446737160151926 0.001192042927191915 0 0.0059574444017335901 0.0012035279450619866 0 0.0059446737160151926 0.001192042927191915 0 0.0057914007544229776 0.0012220375265738427 0 0.0059929775548582332 0.0012464419304343555 0 0.0059446737160151926 0.001192042927191915 0 0.0057914007544229776 0.0012220375265738427 0 0.0059574444017335901 0.0012035279450619866 0 0.0057914007544229776 0.0012220375265738427 0 0.0060155738404913247 0.0012097161608262586 0 0.0047164905032729939 -0.0010335229937260076 0 0.0049828402143992168 -0.00096568392571452831 0 0.0049422778267957596 -0.0011933066719269012 0 0.0059574444017335901 0.0012035279450619866 0 0.0060155738404913247 0.0012097161608262586 0 0.0059547280391391635 0.0011675595068290601 0 0.0053477552929868753 5.5531848719787335e-05 0 0.0055013184836252777 0.00028605014618376457 0 0.0060075036179989445 0.001123154606505152 0 0.0059574444017335901 0.0012035279450619866 0 0.0059547280391391635 0.0011675595068290601 0 0.0050384235840852049 -0.00060273740988725912 0 0.0055103170677458626 -0.00068964913666636754 0 0.0052340357289912213 -0.0010381655109870311 0 0.0055103170677458626 -0.00068964913666636754 0 0.0055299977419174268 -0.0010653602457673227 0 0.0052340357289912213 -0.0010381655109870311 0 0.0055103170677458626 -0.00068964913666636754 0 0.0055299977419174268 -0.0010653602457673227 0 0.005722841383185971 -0.00091355844233592632 0 0.0055299977419174268 -0.0010653602457673227 0 0.0052340357289912213 -0.0010381655109870311 0 0.0053677885317844959 -0.0013498463516050593 0 0.0050384235840852049 -0.00060273740988725912 0 0.0049828402143992168 -0.00096568392571452831 0 0.0052340357289912213 -0.0010381655109870311 0 0.0047164905032729939 -0.0010335229937260076 0 0.0050384235840852049 -0.00060273740988725912 0 0.0049828402143992168 -0.00096568392571452831 0 0.0049828402143992168 -0.00096568392571452831 0 0.0052340357289912213 -0.0010381655109870311 0 0.0049422778267957596 -0.0011933066719269012 0 0.0049422778267957596 -0.0011933066719269012 0 0.0051340746187252964 -0.0013030806079491685 0 0.0048921275032939079 -0.0013920662202131717 0 0.0052340357289912213 -0.0010381655109870311 0 0.0049422778267957596 -0.0011933066719269012 0 0.0051340746187252964 -0.0013030806079491685 0 0.0051340746187252964 -0.0013030806079491685 0 0.0053677885317844959 -0.0013498463516050593 0 0.0050576479367845303 -0.0015225968576545396 0 0.0051340746187252964 -0.0013030806079491685 0 0.0048921275032939079 -0.0013920662202131717 0 0.0050576479367845303 -0.0015225968576545396 0 0.0048921275032939079 -0.0013920662202131717 0 0.0050576479367845303 -0.0015225968576545396 0 0.0048452496214914766 -0.0015518297955718601 0 0.0052340357289912213 -0.0010381655109870311 0 0.0051340746187252964 -0.0013030806079491685 0 0.0053677885317844959 -0.0013498463516050593 0 0.0052971674915897292 -0.0016497556705007278 0 0.0051094469257220859 -0.0017784466594911617 0 0.0053400841132063602 -0.0020741700865036443 0 0.0052971674915897292 -0.0016497556705007278 0 0.0056059272753045614 -0.0016086382236029015 0 0.0053400841132063602 -0.0020741700865036443 0 0.0057064016216307788 -0.0015216232554102701 0 0.0029897670097094754 -0.0016915669157450955 0 0.0053677885317844959 -0.0013498463516050593 0 0.0052971674915897292 -0.0016497556705007278 0 0.0056059272753045614 -0.0016086382236029015 0 0.0053677885317844959 -0.0013498463516050593 0 0.0052971674915897292 -0.0016497556705007278 0 0.0050576479367845303 -0.0015225968576545396 0 0.0050576479367845303 -0.0015225968576545396 0 0.0049177449841289805 -0.0017212663532070634 0 0.0048452496214914766 -0.0015518297955718601 0 0.0052971674915897292 -0.0016497556705007278 0 0.0050576479367845303 -0.0015225968576545396 0 0.0051094469257220859 -0.0017784466594911617 0 0.0050576479367845303 -0.0015225968576545396 0 0.0051094469257220859 -0.0017784466594911617 0 0.0049177449841289805 -0.0017212663532070634 0 0.0051094469257220859 -0.0017784466594911617 0 0.0049177449841289805 -0.0017212663532070634 0 0.0050012883967729248 -0.0019220170429141911 0 0.0049177449841289805 -0.0017212663532070634 0 0.0046870667510349228 -0.0016613556320935207 0 0.0048147871004327464 -0.0018927743080808695 0 0.0046870667510349228 -0.0016613556320935207 0 0.0045832794419975922 -0.0018448211192281197 0 0.0048147871004327464 -0.0018927743080808695 0 0.0046870667510349228 -0.0016613556320935207 0 0.0048452496214914766 -0.0015518297955718601 0 0.0047390304823285876 -0.0014693022203983363 0 0.0049177449841289805 -0.0017212663532070634 0 0.0046870667510349228 -0.0016613556320935207 0 0.0048452496214914766 -0.0015518297955718601 0 0.0046870667510349228 -0.0016613556320935207 0 0.0045928880390671981 -0.0015005811954021035 0 0.0044392616863950926 -0.0016315022091527495 0 0.0046870667510349228 -0.0016613556320935207 0 0.0045928880390671981 -0.0015005811954021035 0 0.0047390304823285876 -0.0014693022203983363 0 0.0046870667510349228 -0.0016613556320935207 0 0.0044392616863950926 -0.0016315022091527495 0 0.0045832794419975922 -0.0018448211192281197 0 0.0042141205716717872 -0.0016464662986582685 0 0.0050204289919603736 -0.0004974833362380623 0 0.0047405414641178588 -0.00084735204803802939 0 0.0047250485603988783 0.0002974126325902587 0 0.005581738757396806 0.00038446410416102323 0 0.0041455350010122906 -0.0018982547952996777 0 0.0044392616863950926 -0.0016315022091527495 0 0.0043780974702424379 -0.0015054100142724469 0 0.0042141205716717872 -0.0016464662986582685 0 0.00432694876331548 -0.0017514831590493014 0 0.0045928880390671981 -0.0015005811954021035 0 0.0044392616863950926 -0.0016315022091527495 0 0.0043780974702424379 -0.0015054100142724469 0 0.0044835890630789263 0.0006488896422355443 0 0.0057914007544229776 0.0012220375265738427 0 0.005581738757396806 0.00038446410416102323 0 0.0044758369988948474 0.00017072327748189075 0 0.0061028758185288469 0.0015485016055781814 0 0.0057914007544229776 0.0012220375265738427 0 0.0060155738404913247 0.0012097161608262586 0 0.005581738757396806 0.00038446410416102323 0 0.0053477552929868753 5.5531848719787335e-05 0 0.0050204289919603736 -0.0004974833362380623 0 0.0047164905032729939 -0.0010335229937260076 0 0.0043780974702424379 -0.0015054100142724469 0 0.004708067661197554 -0.0013478195686675066 0 0.0047164905032729939 -0.0010335229937260076 0 0.0049422778267957596 -0.0011933066719269012 0 0.004708067661197554 -0.0013478195686675066 0 0.0049422778267957596 -0.0011933066719269012 0 0.0048921275032939079 -0.0013920662202131717 0 0.004708067661197554 -0.0013478195686675066 0 0.0048921275032939079 -0.0013920662202131717 0 0.004708067661197554 -0.0013478195686675066 0 0.0047390304823285876 -0.0014693022203983363 0 0.0048921275032939079 -0.0013920662202131717 0 0.0048452496214914766 -0.0015518297955718601 0 0.0047390304823285876 -0.0014693022203983363 0 0.0045928880390671981 -0.0015005811954021035 0 0.0043780974702424379 -0.0015054100142724469 0 0.004708067661197554 -0.0013478195686675066 0 0.0045928880390671981 -0.0015005811954021035 0 0.004708067661197554 -0.0013478195686675066 0 0.0047390304823285876 -0.0014693022203983363 0 0.0050033900660838128 -0.00038744166863903415 0 0.0042106617733383873 -0.00056998482222302257 0 0.0065291994082035572 -0.00094994491435270053 0 0.0063371523240317376 -0.00094608658451309738 0 0.006363018701103936 -0.00071226102362547934 0 0.0065291994082035572 -0.00094994491435270053 0 0.0063371523240317376 -0.00094608658451309738 0 0.0062925351580299174 -0.0011330883690073149 0 0.0063371523240317376 -0.00094608658451309738 0 0.0061547548303549464 -0.0010276673513701438 0 0.0062925351580299174 -0.0011330883690073149 0 0.0063371523240317376 -0.00094608658451309738 0 0.006363018701103936 -0.00071226102362547934 0 0.0061985394909235131 -0.00088209550365790158 0 0.0061887878931183547 -0.00064500109834580185 0 0.006363018701103936 -0.00071226102362547934 0 0.0061142894903320729 -0.00075849517617166339 0 0.006363018701103936 -0.00071226102362547934 0 0.0061142894903320729 -0.00075849517617166339 0 0.0061985394909235131 -0.00088209550365790158 0 0.0060556421581078341 -0.00064057136065146176 0 0.0061887878931183547 -0.00064500109834580185 0 0.0061142894903320729 -0.00075849517617166339 0 0.0061142894903320729 -0.00075849517617166339 0 0.0060823153086047421 -0.00088095879206804119 0 0.0061985394909235131 -0.00088209550365790158 0 0.0060823153086047421 -0.00088095879206804119 0 0.0061985394909235131 -0.00088209550365790158 0 0.0061547548303549464 -0.0010276673513701438 0 0.0063371523240317376 -0.00094608658451309738 0 0.0061985394909235131 -0.00088209550365790158 0 0.0061547548303549464 -0.0010276673513701438 0 0.0060823153086047421 -0.00088095879206804119 0 0.0061547548303549464 -0.0010276673513701438 0 0.0059814495126396874 -0.0010187823359542316 0 0.0059814495126396874 -0.0010187823359542316 0 0.0059999677308056575 -0.0007906316425799455 0 0.0056769925596484626 -0.0010874574895568632 0 0.0059824529298706953 -0.00080889572462186155 0 0.0057314506268981392 -0.0011504297074804107 0 0.0060823153086047421 -0.00088095879206804119 0 0.0059814495126396874 -0.0010187823359542316 0 0.0059999677308056575 -0.0007906316425799455 0 0.0059999677308056575 -0.0007906316425799455 0 0.0059518157156142311 -0.00076788890303908924 0 0.0058518270335282327 -0.0011604422607746324 0 0.0061142894903320729 -0.00075849517617166339 0 0.0060823153086047421 -0.00088095879206804119 0 0.0059999677308056575 -0.0007906316425799455 0 0.0061730311845892161 -0.000593188504537689 0 0.0060015984155679051 -0.00073799950345731895 0 0.0060556421581078341 -0.00064057136065146176 0 0.0059999677308056575 -0.0007906316425799455 0 0.0059518157156142311 -0.00076788890303908924 0 0.0060556421581078341 -0.00064057136065146176 0 0.0061142894903320729 -0.00075849517617166339 0 0.0059999677308056575 -0.0007906316425799455 0 0.0060130923703717509 -0.00050671474608268718 0 0.0063403851065855985 -0.00050680790433980255 0 0.0059518157156142311 -0.00076788890303908924 0 0.0057852446523725155 -0.00036887281601417535 0 0.0055103170677458626 -0.00068964913666636754 0 0.0057960371696465524 -0.00065736161916249793 0 0.0059518157156142311 -0.00076788890303908924 0 0.0057960371696465524 -0.00065736161916249793 0 0.005722841383185971 -0.00091355844233592632 0 0.0060130923703717509 -0.00050671474608268718 0 0.0059518157156142311 -0.00076788890303908924 0 0.0057960371696465524 -0.00065736161916249793 0 0.0055103170677458626 -0.00068964913666636754 0 0.0057960371696465524 -0.00065736161916249793 0 0.005722841383185971 -0.00091355844233592632 0 0.0059518157156142311 -0.00076788890303908924 0 0.005722841383185971 -0.00091355844233592632 0 0.0058518270335282327 -0.0011604422607746324 0 0.0055299977419174268 -0.0010653602457673227 0 0.005722841383185971 -0.00091355844233592632 0 0.0058518270335282327 -0.0011604422607746324 0 0.0057314506268981392 -0.0011504297074804107 0 0.0057064016216307788 -0.0015216232554102701 0 0.0055299977419174268 -0.0010653602457673227 0 0.0053677885317844959 -0.0013498463516050593 0 0.0058518270335282327 -0.0011604422607746324 0 0.0053677885317844959 -0.0013498463516050593 0 0.0058518270335282327 -0.0011604422607746324 0 0.0056059272753045614 -0.0016086382236029015 0 0.0056769925596484626 -0.0010874574895568632 0 0.0056778373783639702 -0.0013835304316488859 0 0.005337809472955821 -0.0015100645689178798 0 0.005337809472955821 -0.0015100645689178798 0 0.0055551440521928955 -0.0017151017948845264 0 0.0049754270260315555 -0.0020689616798760663 0 0.0056778373783639702 -0.0013835304316488859 0 0.005337809472955821 -0.0015100645689178798 0 0.0055551440521928955 -0.0017151017948845264 0 0.00096233530196139126 -0.00088987174931772265 0 0.0014140625756275211 -0.0009124990881792639 0 0.0015118120427397813 -0.00043424220199209394 0 0.0032254536203130428 -0.00130561545199182 0 0.0037706215699000738 -0.00090865105462066998 0 0.0056778373783639702 -0.0013835304316488859 0 0.0055551440521928955 -0.0017151017948845264 0 0.0059942623389680118 -0.0013872412578069936 0 0.0059814495126396874 -0.0010187823359542316 0 0.0056769925596484626 -0.0010874574895568632 0 0.0059942623389680118 -0.0013872412578069936 0 0.0056769925596484626 -0.0010874574895568632 0 0.0056778373783639702 -0.0013835304316488859 0 0.0059942623389680118 -0.0013872412578069936 0 0.0015118120427397813 -0.00043424220199209394 0 0.0019310398587005391 -0.00055814987557434119 0 0.0022376469542677922 1.6843216837219636e-05 0 0.0061547548303549464 -0.0010276673513701438 0 0.0059814495126396874 -0.0010187823359542316 0 0.0059942623389680118 -0.0013872412578069936 0 0.0061547548303549464 -0.0010276673513701438 0 0.0059942623389680118 -0.0013872412578069936 0 0.0062925351580299174 -0.0011330883690073149 0 0.0037706215699000738 -0.00090865105462066998 0 0.0042106617733383873 -0.00056998482222302257 0 0.0014140625756275211 -0.0009124990881792639 0 0.0015118120427397813 -0.00043424220199209394 0 0.0019310398587005391 -0.00055814987557434119 0 0.0014140625756275211 -0.0009124990881792639 0 0.0019310398587005391 -0.00055814987557434119 0 0.0020391461892886199 -0.0010825419173572267 0 0.002814149714384396 -0.00066735808036980451 0 0.0025138286835010557 -0.00032907139960268949 0 0.0023887946560596945 -0.00080858050356913196 0 0.0025006397819875409 -0.00034892131714139526 0 0.0022045508737431009 -0.00094379838267423315 0 0.0019310398587005391 -0.00055814987557434119 0 0.0025138286835010557 -0.00032907139960268949 0 0.0020391461892886199 -0.0010825419173572267 0 0.0027839625983049213 -8.9295447090048311e-05 0 0.0025138286835010557 -0.00032907139960268949 0 0.0022376469542677922 1.6843216837219636e-05 0 0.0019310398587005391 -0.00055814987557434119 0 0.0025138286835010557 -0.00032907139960268949 0 0.0022376469542677922 1.6843216837219636e-05 0 0.0028782921502399075 0.0003700687182344445 0 0.0027839625983049213 -8.9295447090048311e-05 0 0.0022376469542677922 1.6843216837219636e-05 0 0.002752070660076864 -0.0011580904970770079 0 0.0023887946560596945 -0.00080858050356913196 0 0.0024872641668235184 -0.0012857010193720788 0 0.0028763476391139948 -0.00093819576644864604 0 0.002752070660076864 -0.0011580904970770079 0 0.0023887946560596945 -0.00080858050356913196 0 0.0014140625756275211 -0.0009124990881792639 0 0.0020391461892886199 -0.0010825419173572267 0 0.0013577572846026253 -0.001348205802971017 0 0.0022045508737431009 -0.00094379838267423315 0 0.0019960475736939139 -0.0013351605306549867 0 0.0023887946560596945 -0.00080858050356913196 0 0.0022166951128413013 -0.0012146613947632034 0 0.0024872641668235184 -0.0012857010193720788 0 0.0020391461892886199 -0.0010825419173572267 0 0.0016051574783294835 -0.0016405003875641436 0 0.0013577572846026253 -0.001348205802971017 0 0.0016051574783294835 -0.0016405003875641436 0 0.0012193679706209194 -0.0016259158473359359 0 0.0013577572846026253 -0.001348205802971017 0 0.0012193679706209194 -0.0016259158473359359 0 0.0010461188513667848 -0.0014934682054244738 0 0.00099938076678086538 -0.0017331148726806435 0 0.0013577572846026253 -0.001348205802971017 0 0.0011167428686059534 -0.0012104421562932259 0 0.0010461188513667848 -0.0014934682054244738 0 0.0012193679706209194 -0.0016259158473359359 0 0.0013577572846026253 -0.001348205802971017 0 0.0010461188513667848 -0.0014934682054244738 0 0.0014140625756275211 -0.0009124990881792639 0 0.0013577572846026253 -0.001348205802971017 0 0.0011167428686059534 -0.0012104421562932259 0 0.00096233530196139126 -0.00088987174931772265 0 0.0014140625756275211 -0.0009124990881792639 0 0.0011167428686059534 -0.0012104421562932259 0 0.00096233530196139126 -0.00088987174931772265 0 0.00084669730624518924 -0.0013633399499578499 0 0.00057659632748002115 -0.0012588277999688578 0 0.00096233530196139126 -0.00088987174931772265 0 0.0011167428686059534 -0.0012104421562932259 0 0.00084669730624518924 -0.0013633399499578499 0 0.0032254536203130428 -0.00130561545199182 0 0.0029897670097094754 -0.0016915669157450955 0 0.00084669730624518924 -0.0013633399499578499 0 0.0010461188513667848 -0.0014934682054244738 0 0.00085554977973422461 -0.0016546552814297427 0 0.0011167428686059534 -0.0012104421562932259 0 0.00084669730624518924 -0.0013633399499578499 0 0.0010461188513667848 -0.0014934682054244738 0 0.0010461188513667848 -0.0014934682054244738 0 0.00085554977973422461 -0.0016546552814297427 0 0.00099938076678086538 -0.0017331148726806435 0 0.00084669730624518924 -0.0013633399499578499 0 0.00085554977973422461 -0.0016546552814297427 0 0.00066978877453358521 -0.0015989339043924859 0 0.00085554977973422461 -0.0016546552814297427 0 0.00099938076678086538 -0.0017331148726806435 0 0.00080459239234944831 -0.0018417848007634009 0 0.00085554977973422461 -0.0016546552814297427 0 0.00080459239234944831 -0.0018417848007634009 0 0.00073067938732873162 -0.0017379647981882571 0 0.00099938076678086538 -0.0017331148726806435 0 0.00094434681021731792 -0.0018944767816942566 0 0.00080459239234944831 -0.0018417848007634009 0 0.00080459239234944831 -0.0018417848007634009 0 0.00075516738310551243 -0.002035540735459035 0 0.00066109920763966106 -0.0018653174834110157 0 0.00094434681021731792 -0.0018944767816942566 0 0.00080459239234944831 -0.0018417848007634009 0 0.00075516738310551243 -0.002035540735459035 0 0.00075516738310551243 -0.002035540735459035 0 0.00095511754797819614 -0.0020847946636641476 0 0.00076445041233556051 -0.0021375603245783231 0 0.00075516738310551243 -0.002035540735459035 0 0.00096739856861939393 -0.001993989407245197 0 0.00095511754797819614 -0.0020847946636641476 0 0.00094434681021731792 -0.0018944767816942566 0 0.00075516738310551243 -0.002035540735459035 0 0.00096739856861939393 -0.001993989407245197 0 0.00096739856861939393 -0.001993989407245197 0 0.0011466566125788692 -0.0020049613525432407 0 0.0010514420837571482 -0.001927235111977114 0 0.0001950845308703232 -0.0029913586021519277 0 7.0883144456892498e-05 -0.0026922911081975003 0 0.00034666215856533677 -0.0026586417286665644 0 0.00095511754797819614 -0.0020847946636641476 0 0.0011559754838194227 -0.0020276700726306017 0 0.00086102655996737182 -0.0021791905538344632 0 0.00096739856861939393 -0.001993989407245197 0 0.00095511754797819614 -0.0020847946636641476 0 0.0011466566125788692 -0.0020049613525432407 0 0.0010275791033044291 -0.0021261451245136931 0 0.00056535050289873378 -0.0024791641732124559 0 0.00095511754797819614 -0.0020847946636641476 0 0.0011559754838194227 -0.0020276700726306017 0 0.0011466566125788692 -0.0020049613525432407 0 0.0010275791033044291 -0.0021261451245136931 0 0.0010411140020532476 -0.0021186029810783785 0 0.0016051574783294835 -0.0016405003875641436 0 0.0011926839263583324 -0.0020489251929784185 0 0.0011466566125788692 -0.0020049613525432407 0 0.0016051574783294835 -0.0016405003875641436 0 0.0011466566125788692 -0.0020049613525432407 0 0.0011545766531105826 -0.0018131496202486775 0 0.0011466566125788692 -0.0020049613525432407 0 0.0010514420837571482 -0.001927235111977114 0 0.0011545766531105826 -0.0018131496202486775 0 0.00094434681021731792 -0.0018944767816942566 0 0.0010514420837571482 -0.001927235111977114 0 0.0011545766531105826 -0.0018131496202486775 0 0.00094434681021731792 -0.0018944767816942566 0 0.00096739856861939393 -0.001993989407245197 0 0.0010514420837571482 -0.001927235111977114 0 0.0012193679706209194 -0.0016259158473359359 0 0.00099938076678086538 -0.0017331148726806435 0 0.0011545766531105826 -0.0018131496202486775 0 0.00099938076678086538 -0.0017331148726806435 0 0.00094434681021731792 -0.0018944767816942566 0 0.0011545766531105826 -0.0018131496202486775 0 0.0016051574783294835 -0.0016405003875641436 0 0.0012193679706209194 -0.0016259158473359359 0 0.0011545766531105826 -0.0018131496202486775 0 0.0022166951128413013 -0.0012146613947632034 0 0.0022988216439786178 -0.0016270280479126901 0 0.002457512351116126 -0.0015221139045542833 0 0.0022166951128413013 -0.0012146613947632034 0 0.0020282661638705971 -0.0016274839110739171 0 0.0022988216439786178 -0.0016270280479126901 0 0.0019960475736939139 -0.0013351605306549867 0 0.0010275791033044291 -0.0021261451245136931 0 0.0020282661638705971 -0.0016274839110739171 0 0.0022988216439786178 -0.0016270280479126901 0 0.0024238112009463205 -0.0019783369298353864 0 0.0010275791033044291 -0.0021261451245136931 0 0.0012027037876296532 -0.0023356084621209308 0 0.0022988216439786178 -0.0016270280479126901 0 0.0024663438281353365 -0.0017465760520677192 0 0.0024238112009463205 -0.0019783369298353864 0 0.0022988216439786178 -0.0016270280479126901 0 0.0024663438281353365 -0.0017465760520677192 0 0.002457512351116126 -0.0015221139045542833 0 0.0024663438281353365 -0.0017465760520677192 0 0.0026524046268015947 -0.0016703467801241429 0 0.0025710637323785833 -0.0018916244719433077 0 0.0024663438281353365 -0.0017465760520677192 0 0.0026524046268015947 -0.0016703467801241429 0 0.002457512351116126 -0.0015221139045542833 0 0.0027216181657854191 -0.0014184976008553467 0 0.0026524046268015947 -0.0016703467801241429 0 0.002457512351116126 -0.0015221139045542833 0 0.0022166951128413013 -0.0012146613947632034 0 0.002457512351116126 -0.0015221139045542833 0 0.0024872641668235184 -0.0012857010193720788 0 0.0027216181657854191 -0.0014184976008553467 0 0.002457512351116126 -0.0015221139045542833 0 0.0024872641668235184 -0.0012857010193720788 0 0.002752070660076864 -0.0011580904970770079 0 0.0027216181657854191 -0.0014184976008553467 0 0.0024872641668235184 -0.0012857010193720788 0 0.0044637354090505494 -0.0023364600805027146 0 0.0046972218505925215 -0.0021697629283805812 0 0.0049384620394072442 -0.0023387427373988924 0 0.0044637354090505494 -0.0023364600805027146 0 0.0049384620394072442 -0.0023387427373988924 0 0.0045092116035401909 -0.0026182388015385171 0 0.00054202928392025848 -0.0016166380968263611 0 0.00048463277936822776 -0.0017878600646150252 0 0.00033497282496330422 -0.0017933478356315232 0 0.0027501085903242442 -0.0019803388858302307 0 0.0024809588388119467 -0.0021876852522896366 0 0.0040479972822047823 -0.0024402502765929457 0 0.0044637354090505494 -0.0023364600805027146 0 0.0044040754680172711 -0.0020563275093119708 0 0.0040479972822047823 -0.0024402502765929457 0 0.0044637354090505494 -0.0023364600805027146 0 0.0045092116035401909 -0.0026182388015385171 0 0.0039677818026613819 -0.0019935217483393179 0 0.0040479972822047823 -0.0024402502765929457 0 0.0044040754680172711 -0.0020563275093119708 0 0.0044392616863950926 -0.0016315022091527495 0 0.0044040754680172711 -0.0020563275093119708 0 0.0045832794419975922 -0.0018448211192281197 0 0.0039677818026613819 -0.0019935217483393179 0 0.0044392616863950926 -0.0016315022091527495 0 0.0044040754680172711 -0.0020563275093119708 0 0.0044040754680172711 -0.0020563275093119708 0 0.0045832794419975922 -0.0018448211192281197 0 0.0046528292144965896 -0.0019880642777338011 0 0.0044637354090505494 -0.0023364600805027146 0 0.0044040754680172711 -0.0020563275093119708 0 0.0046972218505925215 -0.0021697629283805812 0 0.0044040754680172711 -0.0020563275093119708 0 0.0046528292144965896 -0.0019880642777338011 0 0.0046972218505925215 -0.0021697629283805812 0 0.0046528292144965896 -0.0019880642777338011 0 0.0046972218505925215 -0.0021697629283805812 0 0.0049289517530915067 -0.0020981536409604498 0 0.0046528292144965896 -0.0019880642777338011 0 0.0048147871004327464 -0.0018927743080808695 0 0.0049289517530915067 -0.0020981536409604498 0 0.0045832794419975922 -0.0018448211192281197 0 0.0046528292144965896 -0.0019880642777338011 0 0.0048147871004327464 -0.0018927743080808695 0 0.0029897670097094754 -0.0016915669157450955 0 0.0027501085903242442 -0.0019803388858302307 0 0.0049177449841289805 -0.0017212663532070634 0 0.0048147871004327464 -0.0018927743080808695 0 0.0050012883967729248 -0.0019220170429141911 0 0.0049289517530915067 -0.0020981536409604498 0 0.0053400841132063602 -0.0020741700865036443 0 0.0049384620394072442 -0.0023387427373988924 0 0.0048147871004327464 -0.0018927743080808695 0 0.0050012883967729248 -0.0019220170429141911 0 0.0049289517530915067 -0.0020981536409604498 0 0.0050012883967729248 -0.0019220170429141911 0 0.0049289517530915067 -0.0020981536409604498 0 0.0053400841132063602 -0.0020741700865036443 0 0.0051094469257220859 -0.0017784466594911617 0 0.0050012883967729248 -0.0019220170429141911 0 0.0053400841132063602 -0.0020741700865036443 0 0.0046972218505925215 -0.0021697629283805812 0 0.0049289517530915067 -0.0020981536409604498 0 0.0049384620394072442 -0.0023387427373988924 0 0.00084669730624518924 -0.0013633399499578499 0 0.00057659632748002115 -0.0012588277999688578 0 0.00066978877453358521 -0.0015989339043924859 0 0.0029897670097094754 -0.0016915669157450955 0 0.00041245691791228558 -0.0017653621991447115 0 0.00057659632748002115 -0.0012588277999688578 0 0.00066978877453358521 -0.0015989339043924859 0 0.00046462789307011299 -0.0016474235373491091 0 0.00066978877453358521 -0.0015989339043924859 0 0.00046462789307011299 -0.0016474235373491091 0 0.00059848885096534376 -0.001736170186220508 0 0.00066978877453358521 -0.0015989339043924859 0 0.00073067938732873162 -0.0017379647981882571 0 0.00059848885096534376 -0.001736170186220508 0 0.00085554977973422461 -0.0016546552814297427 0 0.00066978877453358521 -0.0015989339043924859 0 0.00073067938732873162 -0.0017379647981882571 0 0.0008908541922995122 -0.0014041442413479965 0 0.00054202928392025848 -0.0016166380968263611 0 0.00066748974365095685 -0.0017273470417939743 0 0.00054202928392025848 -0.0016166380968263611 0 0.00066748974365095685 -0.0017273470417939743 0 0.00048463277936822776 -0.0017878600646150252 0 0.00066748974365095685 -0.0017273470417939743 0 0.00048463277936822776 -0.0017878600646150252 0 0.00045718697453853076 -0.0019219237778212795 0 0.00041245691791228558 -0.0017653621991447115 0 0.00050576372726798629 -0.0018414978587138796 0 0.00046462789307011299 -0.0016474235373491091 0 0.00054822446398049187 -0.0018355887553149841 0 0.00045718697453853076 -0.0019219237778212795 0 0.00046462789307011299 -0.0016474235373491091 0 0.00054822446398049187 -0.0018355887553149841 0 0.00059848885096534376 -0.001736170186220508 0 0.00054822446398049187 -0.0018355887553149841 0 0.00045718697453853076 -0.0019219237778212795 0 0.00059489813679768598 -0.0019721347593991473 0 0.00080459239234944831 -0.0018417848007634009 0 0.00073067938732873162 -0.0017379647981882571 0 0.00066109920763966106 -0.0018653174834110157 0 0.00073067938732873162 -0.0017379647981882571 0 0.00059848885096534376 -0.001736170186220508 0 0.00066109920763966106 -0.0018653174834110157 0 0.00054822446398049187 -0.0018355887553149841 0 0.00059848885096534376 -0.001736170186220508 0 0.00066109920763966106 -0.0018653174834110157 0 0.00054822446398049187 -0.0018355887553149841 0 0.00066109920763966106 -0.0018653174834110157 0 0.00059489813679768598 -0.0019721347593991473 0 0.00075516738310551243 -0.002035540735459035 0 0.00059489813679768598 -0.0019721347593991473 0 0.00057812451351506452 -0.0021269517632356823 0 0.00075516738310551243 -0.002035540735459035 0 0.00057812451351506452 -0.0021269517632356823 0 0.00064052849509073449 -0.0021745075173191628 0 0.00075516738310551243 -0.002035540735459035 0 0.00066109920763966106 -0.0018653174834110157 0 0.00059489813679768598 -0.0019721347593991473 0 0.00045718697453853076 -0.0019219237778212795 0 0.00057812451351506452 -0.0021269517632356823 0 0.00036472137540020732 -0.001986366354747139 0 0.00066663080245142527 -0.002163769861030132 0 0.00034213002928197247 -0.0020761057829308612 0 0.00045718697453853076 -0.0019219237778212795 0 0.00059489813679768598 -0.0019721347593991473 0 0.00057812451351506452 -0.0021269517632356823 0 0.00074046961488403291 -0.0022847485315352889 0 0.00093421457004170096 -0.0022315504436447877 0 0.00070387234327849517 -0.0021355508676136614 0 0.00057812451351506452 -0.0021269517632356823 0 0.00074046961488403291 -0.0022847485315352889 0 0.00070387234327849517 -0.0021355508676136614 0 0.00048463277936822776 -0.0017878600646150252 0 0.00045718697453853076 -0.0019219237778212795 0 0.00036801153257223681 -0.0018854766347896914 0 0.00045718697453853076 -0.0019219237778212795 0 0.00036472137540020732 -0.001986366354747139 0 0.00036801153257223681 -0.0018854766347896914 0 0.00048463277936822776 -0.0017878600646150252 0 0.00036801153257223681 -0.0018854766347896914 0 0.00033497282496330422 -0.0017933478356315232 0 0.0040479972822047823 -0.0024402502765929457 0 0.0045092116035401909 -0.0026182388015385171 0 0.0040578714088905796 -0.0028987766838438232 0 0.00036472137540020732 -0.001986366354747139 0 0.00036801153257223681 -0.0018854766347896914 0 0.00020648237354374907 -0.0018993052149792683 0 0.0024809588388119467 -0.0021876852522896366 0 0.00168410889446705 -0.002253707590923268 0 0.00036801153257223681 -0.0018854766347896914 0 0.00033497282496330422 -0.0017933478356315232 0 0.00020648237354374907 -0.0018993052149792683 0 0.00034213002928197247 -0.0020761057829308612 0 0.00168410889446705 -0.002253707590923268 0 0.00074046961488403291 -0.0022847485315352889 0 0.0010266145445446684 -0.0024265322371189398 0 0.00093421457004170096 -0.0022315504436447877 0 0.00093421457004170096 -0.0022315504436447877 0 0.00096083584259573618 -0.0020611107509360517 0 0.00070387234327849517 -0.0021355508676136614 0 0.00096083584259573618 -0.0020611107509360517 0 0.00064014690831155777 -0.0020473512774773386 0 0.00094494021171189922 -0.0018909001462905351 0 0.00096083584259573618 -0.0020611107509360517 0 0.00064014690831155777 -0.0020473512774773386 0 0.00070387234327849517 -0.0021355508676136614 0 0.00064014690831155777 -0.0020473512774773386 0 0.00070387234327849517 -0.0021355508676136614 0 0.00061083140242031012 -0.0021232325736778167 0 0.00057812451351506452 -0.0021269517632356823 0 0.00070387234327849517 -0.0021355508676136614 0 0.00061083140242031012 -0.0021232325736778167 0 0.00057812451351506452 -0.0021269517632356823 0 0.00064052849509073449 -0.0021745075173191628 0 0.00061083140242031012 -0.0021232325736778167 0 0.00064052849509073449 -0.0021745075173191628 0 0.00059802328751016622 -0.0021602409727361216 0 0.00061083140242031012 -0.0021232325736778167 0 0.00059802328751016622 -0.0021602409727361216 0 0.00061083140242031012 -0.0021232325736778167 0 0.00065256939649179792 -0.002053455527196049 0 0.00064014690831155777 -0.0020473512774773386 0 0.00061083140242031012 -0.0021232325736778167 0 0.00065256939649179792 -0.002053455527196049 0 0.00062207633028944233 -0.0020450648623706958 0 0.00045332459573926311 -0.0019358637451219838 0 0.00025572751302953045 -0.0018373420988384639 0 0.0004157741911546288 -0.0016105865390138162 0 0.000744258598199032 -0.0017163177800600879 0 0.00064014690831155777 -0.0020473512774773386 0 0.00025572751302953045 -0.0018373420988384639 0 0.000744258598199032 -0.0017163177800600879 0 0.00059802328751016622 -0.0021602409727361216 0 0.00065256939649179792 -0.002053455527196049 0 0.00046576280128488132 -0.0020537493771854397 0 0.00045332459573926311 -0.0019358637451219838 0 0.00019298157373387611 -0.0017158825291858676 0 0.00025572751302953045 -0.0018373420988384639 0 -4.8291423113696642e-05 -0.0016485523822671109 0 0.00021661946733376238 -0.001469036323843959 0 0.00025572751302953045 -0.0018373420988384639 0 0.0004157741911546288 -0.0016105865390138162 0 0.00021661946733376238 -0.001469036323843959 0 0.000744258598199032 -0.0017163177800600879 0 0.00091047866827495257 -0.00146937496540505 0 0.0011575322691783508 -0.0016907694919564183 0 0.000744258598199032 -0.0017163177800600879 0 0.00094494021171189922 -0.0018909001462905351 0 0.0011575322691783508 -0.0016907694919564183 0 0.00064014690831155777 -0.0020473512774773386 0 0.000744258598199032 -0.0017163177800600879 0 0.00094494021171189922 -0.0018909001462905351 0 -0.00031269589088668966 -0.0023246216632970568 0 -0.0002243315710983125 -0.0026051994973783888 0 -0.00014096052375335544 -0.0024015748335761001 0 -0.00057947796472654399 -0.0022618016810154982 0 -0.00031269589088668966 -0.0023246216632970568 0 -0.00036723155704815243 -0.002133484727238814 0 -0.00057947796472654399 -0.0022618016810154982 0 -0.00031269589088668966 -0.0023246216632970568 0 -0.0002243315710983125 -0.0026051994973783888 0 0.00268929049071768 -0.0022619339247168333 0 0.0025166452228084679 -0.0020465853507127675 0 0.0024238112009463205 -0.0019783369298353864 0 0.00059658596300317249 -0.0023243415255974225 0 0.0012027037876296532 -0.0023356084621209308 0 -0.00031269589088668966 -0.0023246216632970568 0 -0.00016890469371757231 -0.0021774000391702295 0 -0.00036723155704815243 -0.002133484727238814 0 -0.00031269589088668966 -0.0023246216632970568 0 -0.00014096052375335544 -0.0024015748335761001 0 -0.00016890469371757231 -0.0021774000391702295 0 0.0027251573216961859 -0.0019961564266824977 0 0.0025166452228084679 -0.0020465853507127675 0 0.0025710637323785833 -0.0018916244719433077 0 0.0025166452228084679 -0.0020465853507127675 0 0.0025710637323785833 -0.0018916244719433077 0 0.0024238112009463205 -0.0019783369298353864 0 0.0024663438281353365 -0.0017465760520677192 0 0.0025710637323785833 -0.0018916244719433077 0 0.0024238112009463205 -0.0019783369298353864 0 -0.0002243315710983125 -0.0026051994973783888 0 -1.8568963691386083e-05 -0.0025203485982677469 0 -0.00014096052375335544 -0.0024015748335761001 0 0.0001950845308703232 -0.0029913586021519277 0 -0.0002243315710983125 -0.0026051994973783888 0 7.0883144456892498e-05 -0.0026922911081975003 0 -0.0002243315710983125 -0.0026051994973783888 0 7.0883144456892498e-05 -0.0026922911081975003 0 -1.8568963691386083e-05 -0.0025203485982677469 0 7.0883144456892498e-05 -0.0026922911081975003 0 -1.8568963691386083e-05 -0.0025203485982677469 0 0.00016907067463299308 -0.0025314801583857256 0 -1.8568963691386083e-05 -0.0025203485982677469 0 5.8088862718331449e-05 -0.0023458182605940467 0 0.00016907067463299308 -0.0025314801583857256 0 5.8088862718331449e-05 -0.0023458182605940467 0 0.0001554268451985871 -0.0021027462022886767 0 -0.00016890469371757231 -0.0021774000391702295 0 -1.8568963691386083e-05 -0.0025203485982677469 0 5.8088862718331449e-05 -0.0023458182605940467 0 -0.00014096052375335544 -0.0024015748335761001 0 5.8088862718331449e-05 -0.0023458182605940467 0 -0.00014096052375335544 -0.0024015748335761001 0 -0.00016890469371757231 -0.0021774000391702295 0 5.8088862718331449e-05 -0.0023458182605940467 0 0.0005257853461165552 -0.0022593900303544841 0 0.0001554268451985871 -0.0021027462022886767 0 5.8088862718331449e-05 -0.0023458182605940467 0 0.00016907067463299308 -0.0025314801583857256 0 0.0005257853461165552 -0.0022593900303544841 0 0.00016907067463299308 -0.0025314801583857256 0 0.00034666215856533677 -0.0026586417286665644 0 0.0005257853461165552 -0.0022593900303544841 0 0.00056535050289873378 -0.0024791641732124559 0 0.00057826385686419025 -0.0022386652591983372 0 7.0883144456892498e-05 -0.0026922911081975003 0 0.00016907067463299308 -0.0025314801583857256 0 0.00034666215856533677 -0.0026586417286665644 0 0.00095511754797819614 -0.0020847946636641476 0 0.00086102655996737182 -0.0021791905538344632 0 0.00076445041233556051 -0.0021375603245783231 0 0.00086102655996737182 -0.0021791905538344632 0 0.00076445041233556051 -0.0021375603245783231 0 0.0005257853461165552 -0.0022593900303544841 0 0.00075516738310551243 -0.002035540735459035 0 0.00064052849509073449 -0.0021745075173191628 0 0.00076445041233556051 -0.0021375603245783231 0 0.00064052849509073449 -0.0021745075173191628 0 0.00076445041233556051 -0.0021375603245783231 0 0.0005257853461165552 -0.0022593900303544841 0 0.00064052849509073449 -0.0021745075173191628 0 0.00059802328751016622 -0.0021602409727361216 0 0.0005257853461165552 -0.0022593900303544841 0 0.00059802328751016622 -0.0021602409727361216 0 0.0005257853461165552 -0.0022593900303544841 0 0.00046576280128488132 -0.0020537493771854397 0 0.00046576280128488132 -0.0020537493771854397 0 0.00045329184020654516 -0.0017807579730287494 0 0.00018980345579293505 -0.0018913010500069371 0 0.00065256939649179792 -0.002053455527196049 0 0.00046576280128488132 -0.0020537493771854397 0 0.00045329184020654516 -0.0017807579730287494 0 0.00018980345579293505 -0.0018913010500069371 0 0.0001554268451985871 -0.0021027462022886767 0 -0.00014600684566408326 -0.0018355082297027156 0 0.00046576280128488132 -0.0020537493771854397 0 0.00018980345579293505 -0.0018913010500069371 0 0.0001554268451985871 -0.0021027462022886767 0 0.0005257853461165552 -0.0022593900303544841 0 0.00046576280128488132 -0.0020537493771854397 0 0.0001554268451985871 -0.0021027462022886767 0 -0.00016890469371757231 -0.0021774000391702295 0 -0.00014600684566408326 -0.0018355082297027156 0 -0.00029735634206873318 -0.0020085308514284821 0 0.0001554268451985871 -0.0021027462022886767 0 -0.00016890469371757231 -0.0021774000391702295 0 -0.00014600684566408326 -0.0018355082297027156 0 -0.000466750880343926 -0.0019076855147874632 0 -0.00014600684566408326 -0.0018355082297027156 0 -0.00029735634206873318 -0.0020085308514284821 0 -0.000466750880343926 -0.0019076855147874632 0 -0.00014600684566408326 -0.0018355082297027156 0 -0.00042289697762867736 -0.00158947871947314 0 -0.000466750880343926 -0.0019076855147874632 0 -0.00029735634206873318 -0.0020085308514284821 0 -0.00036723155704815243 -0.002133484727238814 0 -0.00016890469371757231 -0.0021774000391702295 0 -0.00029735634206873318 -0.0020085308514284821 0 -0.00036723155704815243 -0.002133484727238814 0 -0.00068612825762346394 -0.0016429506638659546 0 -0.00061153446912342213 -0.0013312004541103572 0 -0.0012001544346645341 -0.0014526559167447387 0 -0.0010023370914147263 -0.0017738507176899892 0 -0.00061128254392248333 -0.0013257275496001458 0 -0.00042289697762867736 -0.00158947871947314 0 -0.00032171047432377813 -0.0014911558474484435 0 -0.00061128254392248333 -0.0013257275496001458 0 -0.00098529996499296946 -0.0019903985486843831 0 -0.00068612825762346394 -0.0016429506638659546 0 -0.00014600684566408326 -0.0018355082297027156 0 -0.00042289697762867736 -0.00158947871947314 0 -0.00032171047432377813 -0.0014911558474484435 0 -0.00014600684566408326 -0.0018355082297027156 0 -0.00032171047432377813 -0.0014911558474484435 0 3.0743072704240923e-05 -0.0015015424173826849 0 -0.00016714675094205324 -0.0015058646724346878 0 -0.00066256214570346438 -0.0013191909785460042 0 -0.00036022160842375282 -0.0014927577661766887 0 -0.00054442106484043652 -0.0012957931036587879 0 -0.00074969854451550195 -0.0013166915428635942 0 -0.00032171047432377813 -0.0014911558474484435 0 3.0743072704240923e-05 -0.0015015424173826849 0 -0.00056321985293074632 -0.0013164595251754924 0 -0.00032171047432377813 -0.0014911558474484435 0 -0.00056321985293074632 -0.0013164595251754924 0 -0.00061128254392248333 -0.0013257275496001458 0 -0.00036022160842375282 -0.0014927577661766887 0 -0.00036910734672169305 -0.0012505942815539972 0 -0.00054442106484043652 -0.0012957931036587879 0 -0.00036022160842375282 -0.0014927577661766887 0 -0.00014240639132866956 -0.0012675014311229705 0 -0.00036910734672169305 -0.0012505942815539972 0 0.00019298157373387611 -0.0017158825291858676 0 -0.00016714675094205324 -0.0015058646724346878 0 0.00045329184020654516 -0.0017807579730287494 0 0.00018980345579293505 -0.0018913010500069371 0 3.0743072704240923e-05 -0.0015015424173826849 0 0.00018980345579293505 -0.0018913010500069371 0 -0.00014600684566408326 -0.0018355082297027156 0 3.0743072704240923e-05 -0.0015015424173826849 0 -4.8291423113696642e-05 -0.0016485523822671109 0 -0.00036022160842375282 -0.0014927577661766887 0 1.8774119659846925e-05 -0.0013877216581975884 0 -0.00014240639132866956 -0.0012675014311229705 0 1.8774119659846925e-05 -0.0013877216581975884 0 9.2981905654895231e-05 -0.0011938562606611356 0 -0.00036022160842375282 -0.0014927577661766887 0 -0.00014240639132866956 -0.0012675014311229705 0 1.8774119659846925e-05 -0.0013877216581975884 0 -0.00014240639132866956 -0.0012675014311229705 0 -6.8370102864066804e-05 -0.0011362156120582388 0 9.2981905654895231e-05 -0.0011938562606611356 0 -0.00014240639132866956 -0.0012675014311229705 0 -0.00022529717493088397 -0.0011442846037811392 0 -6.8370102864066804e-05 -0.0011362156120582388 0 -0.00022529717493088397 -0.0011442846037811392 0 -6.8370102864066804e-05 -0.0011362156120582388 0 -0.0001293978681079576 -0.0010305232821051986 0 -6.8370102864066804e-05 -0.0011362156120582388 0 -0.0001293978681079576 -0.0010305232821051986 0 3.1310555745196719e-05 -0.0010045669912084226 0 -8.6682128944260442e-05 -0.00092408998895408367 0 -0.0001293978681079576 -0.0010305232821051986 0 3.1310555745196719e-05 -0.0010045669912084226 0 -8.6682128944260442e-05 -0.00092408998895408367 0 -3.1482901014430702e-06 -0.00089981478775524328 0 3.1310555745196719e-05 -0.0010045669912084226 0 -8.6682128944260442e-05 -0.00092408998895408367 0 -0.00017278933858615449 -0.00084648472418630207 0 -5.9134092570951555e-05 -0.00082408515762993754 0 -8.6682128944260442e-05 -0.00092408998895408367 0 -3.1482901014430702e-06 -0.00089981478775524328 0 -5.9134092570951555e-05 -0.00082408515762993754 0 -0.00017278933858615449 -0.00084648472418630207 0 -0.00018839200547443805 -0.00094992761323109149 0 -0.00029622477231525563 -0.00091724475973692637 0 -8.6682128944260442e-05 -0.00092408998895408367 0 -0.00017278933858615449 -0.00084648472418630207 0 -0.00018839200547443805 -0.00094992761323109149 0 -8.6682128944260442e-05 -0.00092408998895408367 0 -0.00018839200547443805 -0.00094992761323109149 0 -0.0001293978681079576 -0.0010305232821051986 0 -0.00022529717493088397 -0.0011442846037811392 0 -0.0001293978681079576 -0.0010305232821051986 0 -0.00026170065794781788 -0.0010280042847580619 0 -0.00018839200547443805 -0.00094992761323109149 0 -0.0001293978681079576 -0.0010305232821051986 0 -0.00026170065794781788 -0.0010280042847580619 0 -0.00022529717493088397 -0.0011442846037811392 0 -0.00026170065794781788 -0.0010280042847580619 0 -0.00037180542359126201 -0.0011067118117902642 0 -0.00035479016883493394 -0.00101076758970516 0 -0.00026170065794781788 -0.0010280042847580619 0 -0.00037180542359126201 -0.0011067118117902642 0 -0.00035479016883493394 -0.00101076758970516 0 -0.00026170065794781788 -0.0010280042847580619 0 -0.00029622477231525563 -0.00091724475973692637 0 -0.00029622477231525563 -0.00091724475973692637 0 -0.00043168718524492339 -0.00083541147920144728 0 -0.00027934403785302513 -0.00079541272953616597 0 -0.00018839200547443805 -0.00094992761323109149 0 -0.00026170065794781788 -0.0010280042847580619 0 -0.00029622477231525563 -0.00091724475973692637 0 -0.00035479016883493394 -0.00101076758970516 0 -0.00029622477231525563 -0.00091724475973692637 0 -0.00041788954930403537 -0.00095245825779593184 0 -0.00017278933858615449 -0.00084648472418630207 0 -0.00029622477231525563 -0.00091724475973692637 0 -0.00027934403785302513 -0.00079541272953616597 0 -0.00052764581931044759 -0.00095184977886874354 0 -0.00059027380710489365 -0.0008559265120410051 0 -0.00043168718524492339 -0.00083541147920144728 0 -0.00041788954930403537 -0.00095245825779593184 0 -0.00052764581931044759 -0.00095184977886874354 0 -0.00043168718524492339 -0.00083541147920144728 0 -0.00029622477231525563 -0.00091724475973692637 0 -0.00041788954930403537 -0.00095245825779593184 0 -0.00043168718524492339 -0.00083541147920144728 0 -0.00041788954930403537 -0.00095245825779593184 0 -0.00046941678231531079 -0.0010365261634102041 0 -0.00052764581931044759 -0.00095184977886874354 0 -0.00046941678231531079 -0.0010365261634102041 0 -0.00037180542359126201 -0.0011067118117902642 0 -0.00056394260486263394 -0.0011514301086767184 0 -0.00035479016883493394 -0.00101076758970516 0 -0.00041788954930403537 -0.00095245825779593184 0 -0.00046941678231531079 -0.0010365261634102041 0 -0.00035479016883493394 -0.00101076758970516 0 -0.00046941678231531079 -0.0010365261634102041 0 -0.00037180542359126201 -0.0011067118117902642 0 -0.00037180542359126201 -0.0011067118117902642 0 -0.00036910734672169305 -0.0012505942815539972 0 -0.00056394260486263394 -0.0011514301086767184 0 -0.00022529717493088397 -0.0011442846037811392 0 -0.00037180542359126201 -0.0011067118117902642 0 -0.00036910734672169305 -0.0012505942815539972 0 -0.00014240639132866956 -0.0012675014311229705 0 -0.00022529717493088397 -0.0011442846037811392 0 -0.00036910734672169305 -0.0012505942815539972 0 -0.00036910734672169305 -0.0012505942815539972 0 -0.00054442106484043652 -0.0012957931036587879 0 -0.00056394260486263394 -0.0011514301086767184 0 -0.00054442106484043652 -0.0012957931036587879 0 -0.00074969854451550195 -0.0013166915428635942 0 -0.00064242040639305841 -0.0012328858091723907 0 -0.00074969854451550195 -0.0013166915428635942 0 -0.00071292896003473621 -0.0011648195064548285 0 -0.00089780499475366224 -0.0011082242223456641 0 -0.00074969854451550195 -0.0013166915428635942 0 -0.00071292896003473621 -0.0011648195064548285 0 -0.00064242040639305841 -0.0012328858091723907 0 -0.00071292896003473621 -0.0011648195064548285 0 -0.00056394260486263394 -0.0011514301086767184 0 -0.00065689646988373253 -0.0010961923587306721 0 -0.00071292896003473621 -0.0011648195064548285 0 -0.00064242040639305841 -0.0012328858091723907 0 -0.00056394260486263394 -0.0011514301086767184 0 -0.00054442106484043652 -0.0012957931036587879 0 -0.00064242040639305841 -0.0012328858091723907 0 -0.00056394260486263394 -0.0011514301086767184 0 -0.00046941678231531079 -0.0010365261634102041 0 -0.00056394260486263394 -0.0011514301086767184 0 -0.00059560795024607362 -0.0010342181493981325 0 -0.00056394260486263394 -0.0011514301086767184 0 -0.00065689646988373253 -0.0010961923587306721 0 -0.00059560795024607362 -0.0010342181493981325 0 -0.00046941678231531079 -0.0010365261634102041 0 -0.00059560795024607362 -0.0010342181493981325 0 -0.00052764581931044759 -0.00095184977886874354 0 -0.00059560795024607362 -0.0010342181493981325 0 -0.00052764581931044759 -0.00095184977886874354 0 -0.00067004535889671679 -0.00094610041226267762 0 -0.00052764581931044759 -0.00095184977886874354 0 -0.00067004535889671679 -0.00094610041226267762 0 -0.00059027380710489365 -0.0008559265120410051 0 -0.00067004535889671679 -0.00094610041226267762 0 -0.0007999569715351556 -0.00085396753845871562 0 -0.00059027380710489365 -0.0008559265120410051 0 -0.00067004535889671679 -0.00094610041226267762 0 -0.00075710111189123839 -0.0010321618727202673 0 -0.0007999569715351556 -0.00085396753845871562 0 -0.00071292896003473621 -0.0011648195064548285 0 -0.00075710111189123839 -0.0010321618727202673 0 -0.00089780499475366224 -0.0011082242223456641 0 -0.00059560795024607362 -0.0010342181493981325 0 -0.00067004535889671679 -0.00094610041226267762 0 -0.00075710111189123839 -0.0010321618727202673 0 -0.00071292896003473621 -0.0011648195064548285 0 -0.00065689646988373253 -0.0010961923587306721 0 -0.00075710111189123839 -0.0010321618727202673 0 -0.00065689646988373253 -0.0010961923587306721 0 -0.00059560795024607362 -0.0010342181493981325 0 -0.00075710111189123839 -0.0010321618727202673 0 -0.00075710111189123839 -0.0010321618727202673 0 -0.001002621816957903 -0.00093418710852026781 0 -0.0007999569715351556 -0.00085396753845871562 0 -0.00075710111189123839 -0.0010321618727202673 0 -0.00089780499475366224 -0.0011082242223456641 0 -0.001002621816957903 -0.00093418710852026781 0 -0.0012336577266854288 -0.0010884948753547548 0 -0.00089780499475366224 -0.0011082242223456641 0 -0.001002621816957903 -0.00093418710852026781 0 -0.0012336577266854288 -0.0010884948753547548 0 -0.00074969854451550195 -0.0013166915428635942 0 -0.00089780499475366224 -0.0011082242223456641 0 -0.0012001544346645341 -0.0014526559167447387 0 -0.0012336577266854288 -0.0010884948753547548 0 -0.00061128254392248333 -0.0013257275496001458 0 -0.0012336577266854288 -0.0010884948753547548 0 -0.00056321985293074632 -0.0013164595251754924 0 -0.00061128254392248333 -0.0013257275496001458 0 -0.0011778813008701393 -0.0010847366728131431 0 -0.00066256214570346438 -0.0013191909785460042 0 0.00048021258743201789 -0.0013455566630040758 0 0.00029656687356456596 -0.0012655668866284765 0 0.00038848603149185357 -0.0012365511399792834 0 0.00035035384042285557 -0.0012320421214936275 0 0.00048021258743201789 -0.0013455566630040758 0 0.00038848603149185357 -0.0012365511399792834 0 0.00061107341036200594 -0.001220544953225512 0 0.00047009551922108157 -0.0013354181578273199 0 0.00086523020507700533 -0.0011891950325598082 0 0.00091047866827495257 -0.00146937496540505 0 0.00048021258743201789 -0.0013455566630040758 0 0.00086523020507700533 -0.0011891950325598082 0 0.00091047866827495257 -0.00146937496540505 0 0.0010640177062096051 -0.0012819413615701276 0 0.000744258598199032 -0.0017163177800600879 0 0.00091047866827495257 -0.00146937496540505 0 0.00048021258743201789 -0.0013455566630040758 0 0.0004157741911546288 -0.0016105865390138162 0 0.000744258598199032 -0.0017163177800600879 0 0.00048021258743201789 -0.0013455566630040758 0 0.0004157741911546288 -0.0016105865390138162 0 0.00048021258743201789 -0.0013455566630040758 0 0.00021661946733376238 -0.001469036323843959 0 -4.8291423113696642e-05 -0.0016485523822671109 0 0.00021661946733376238 -0.001469036323843959 0 1.8774119659846925e-05 -0.0013877216581975884 0 1.8774119659846925e-05 -0.0013877216581975884 0 0.00029656687356456596 -0.0012655668866284765 0 9.2981905654895231e-05 -0.0011938562606611356 0 0.00021661946733376238 -0.001469036323843959 0 1.8774119659846925e-05 -0.0013877216581975884 0 0.00029656687356456596 -0.0012655668866284765 0 0.00048021258743201789 -0.0013455566630040758 0 0.00021661946733376238 -0.001469036323843959 0 0.00029656687356456596 -0.0012655668866284765 0 0.00029656687356456596 -0.0012655668866284765 0 0.00025532964774434275 -0.0011749405105180373 0 9.2981905654895231e-05 -0.0011938562606611356 0 0.00029656687356456596 -0.0012655668866284765 0 0.00025532964774434275 -0.0011749405105180373 0 0.00034891341175291747 -0.0011471563515483762 0 0.00029656687356456596 -0.0012655668866284765 0 0.00034891341175291747 -0.0011471563515483762 0 0.00038848603149185357 -0.0012365511399792834 0 0.00025532964774434275 -0.0011749405105180373 0 9.2981905654895231e-05 -0.0011938562606611356 0 0.00016732006070601101 -0.0010489324305597452 0 -6.8370102864066804e-05 -0.0011362156120582388 0 9.2981905654895231e-05 -0.0011938562606611356 0 3.1310555745196719e-05 -0.0010045669912084226 0 9.2981905654895231e-05 -0.0011938562606611356 0 3.1310555745196719e-05 -0.0010045669912084226 0 0.00016732006070601101 -0.0010489324305597452 0 3.1310555745196719e-05 -0.0010045669912084226 0 0.00016732006070601101 -0.0010489324305597452 0 0.00015151482926230748 -0.00093171862335742199 0 0.00016732006070601101 -0.0010489324305597452 0 0.00015151482926230748 -0.00093171862335742199 0 0.00029304671342177542 -0.00092519976794784098 0 0.00015151482926230748 -0.00093171862335742199 0 0.00029304671342177542 -0.00092519976794784098 0 0.00017271526624361956 -0.0008281129458617665 0 0.00015151482926230748 -0.00093171862335742199 0 8.3434703427713052e-05 -0.00084965077036927691 0 0.00017271526624361956 -0.0008281129458617665 0 3.1310555745196719e-05 -0.0010045669912084226 0 0.00015151482926230748 -0.00093171862335742199 0 8.3434703427713052e-05 -0.00084965077036927691 0 -3.1482901014430702e-06 -0.00089981478775524328 0 3.1310555745196719e-05 -0.0010045669912084226 0 8.3434703427713052e-05 -0.00084965077036927691 0 0.00025532964774434275 -0.0011749405105180373 0 0.00034891341175291747 -0.0011471563515483762 0 0.00029304671342177542 -0.00092519976794784098 0 0.00025532964774434275 -0.0011749405105180373 0 0.00016732006070601101 -0.0010489324305597452 0 0.00029304671342177542 -0.00092519976794784098 0 0.00034891341175291747 -0.0011471563515483762 0 0.00036747617074540137 -0.0012031531018994273 0 0.00032968986414964977 -0.001220792630234888 0 0.00034420345674480404 -0.0011210283606888517 0 0.0003367937846171113 -0.0010859698849076985 0 0.00021082722238656236 -0.0011809202801758274 0 0.00010660430068498838 -0.0011633309415884014 0 0.00034891341175291747 -0.0011471563515483762 0 0.0002342023741113258 -0.0011852625276443335 0 0.00032968986414964977 -0.001220792630234888 0 0.00034891341175291747 -0.0011471563515483762 0 0.00038848603149185357 -0.0012365511399792834 0 0.00031683234056730203 -0.0012141569988039251 0 0.00034891341175291747 -0.0011471563515483762 0 0.00031683234056730203 -0.0012141569988039251 0 0.0002342023741113258 -0.0011852625276443335 0 0.00035035384042285557 -0.0012320421214936275 0 0.00038848603149185357 -0.0012365511399792834 0 0.00031683234056730203 -0.0012141569988039251 0 0.00035035384042285557 -0.0012320421214936275 0 0.00031683234056730203 -0.0012141569988039251 0 0.00034209451294048212 -0.0012168384663957304 0 0.00031683234056730203 -0.0012141569988039251 0 0.00032323241975598194 -0.0011917775381648287 0 0.00034209451294048212 -0.0012168384663957304 0 0.00031683234056730203 -0.0012141569988039251 0 0.0002342023741113258 -0.0011852625276443335 0 0.00032323241975598194 -0.0011917775381648287 0 0.0002342023741113258 -0.0011852625276443335 0 0.00032323241975598194 -0.0011917775381648287 0 0.00025221277048955815 -0.0010808864030973941 0 0.00032323241975598194 -0.0011917775381648287 0 0.00036614066639045181 -0.00114737756816376 0 0.00025221277048955815 -0.0010808864030973941 0 0.00036614066639045181 -0.00114737756816376 0 0.00039629181804854368 -0.0010905047347225289 0 0.00025221277048955815 -0.0010808864030973941 0 0.00032323241975598194 -0.0011917775381648287 0 0.00037776106968967033 -0.0011781399168306682 0 0.00036045951436986938 -0.0012061287861715353 0 0.00032323241975598194 -0.0011917775381648287 0 0.00037776106968967033 -0.0011781399168306682 0 0.00036614066639045181 -0.00114737756816376 0 0.00037776106968967033 -0.0011781399168306682 0 0.00036614066639045181 -0.00114737756816376 0 0.00040242289530476228 -0.0011513937848108911 0 0.00036614066639045181 -0.00114737756816376 0 0.00040242289530476228 -0.0011513937848108911 0 0.00039629181804854368 -0.0010905047347225289 0 0.00021342969033743571 -0.00090274760713819938 0 0.0001936407722444687 -0.00087638600238432987 0 0.00019272025047083937 -0.00088354580063789356 0 0.00020626805618729772 -0.00090688834755922468 0 0.00021342969033743571 -0.00090274760713819938 0 0.00019272025047083937 -0.00088354580063789356 0 -0.00027748515523831786 -0.0010277895436581971 0 0.00037774720341852215 -0.00087330346379860843 0 0.00021556978810135795 -0.0012135339877479086 0 0.00029449942470515151 -0.00096939180824231943 0 0.00040242289530476228 -0.0011513937848108911 0 0.00046883149191674736 -0.0011999874351770179 0 0.00039629181804854368 -0.0010905047347225289 0 0.00024117890032592225 -0.00090187558836358074 0 0.00022553161411130833 -0.00087937612054407577 0 0.0001936407722444687 -0.00087638600238432987 0 0.00040242289530476228 -0.0011513937848108911 0 0.00041103844417513918 -0.0011810633965700465 0 0.00046883149191674736 -0.0011999874351770179 0 0.00037776106968967033 -0.0011781399168306682 0 0.00040242289530476228 -0.0011513937848108911 0 0.00041103844417513918 -0.0011810633965700465 0 0.00037776106968967033 -0.0011781399168306682 0 0.00041103844417513918 -0.0011810633965700465 0 0.00039485879316744984 -0.0012054757170144007 0 0.00039485879316744984 -0.0012054757170144007 0 0.00046883149191674736 -0.0011999874351770179 0 0.00038438280247970617 -0.0012338826481907725 0 0.00041103844417513918 -0.0011810633965700465 0 0.00039485879316744984 -0.0012054757170144007 0 0.00046883149191674736 -0.0011999874351770179 0 0.00072601258532148307 -0.0011734235641760141 0 0.0010794480630449859 -0.0012327593341815153 0 0.00055198962898419439 -0.0012536737061153828 0 0.00062555772245404093 -0.0012133437607451372 0 0.00052796277714129108 -0.0011753068467617227 0 0.00021556978810135795 -0.0012135339877479086 0 0.00072601258532148307 -0.0011734235641760141 0 0.00035035384042285557 -0.0012320421214936275 0 0.00037108542941179914 -0.0012274706475278059 0 0.00036894511384940882 -0.001226535695215372 0 0.00035035384042285557 -0.0012320421214936275 0 0.00034209451294048212 -0.0012168384663957304 0 0.00036894511384940882 -0.001226535695215372 0 0.00061107341036200594 -0.001220544953225512 0 0.00072601258532148307 -0.0011734235641760141 0 0.00072601258532148307 -0.0011734235641760141 0 0.00067544921823640513 -0.0011618753713239002 0 0.00032323241975598194 -0.0011917775381648287 0 0.00034209451294048212 -0.0012168384663957304 0 0.00036045951436986938 -0.0012061287861715353 0 0.00034209451294048212 -0.0012168384663957304 0 0.00036045951436986938 -0.0012061287861715353 0 0.00036894511384940882 -0.001226535695215372 0 0.00037776106968967033 -0.0011781399168306682 0 0.00039485879316744984 -0.0012054757170144007 0 0.00036045951436986938 -0.0012061287861715353 0 0.00039485879316744984 -0.0012054757170144007 0 0.00038438280247970617 -0.0012338826481907725 0 0.00036894511384940882 -0.001226535695215372 0 0.00039485879316744984 -0.0012054757170144007 0 0.00036045951436986938 -0.0012061287861715353 0 0.00036894511384940882 -0.001226535695215372 0 -0.0011959142914457709 -0.00094555375407226428 0 -0.0011598886631015543 -0.0009410108785862304 0 -0.0011470065957297345 -0.00089687848366246646 0 -0.0011907375008762286 -0.00095950139309351713 0 -0.0011887324927822341 -0.00097760888956743711 0 -0.0012243612141467548 -0.00096093594329274144 0 -0.0011706075069814329 -0.00095776093935658958 0 -0.0011637777147498049 -0.00098190928027424912 0 -0.0011406177329574552 -0.0009787102379000968 0 -0.0011706075069814329 -0.00095776093935658958 0 -0.0011887324927822341 -0.00097760888956743711 0 -0.0011637777147498049 -0.00098190928027424912 0 -0.0011706075069814329 -0.00095776093935658958 0 -0.0011907375008762286 -0.00095950139309351713 0 -0.0011887324927822341 -0.00097760888956743711 0 -0.0011706075069814329 -0.00095776093935658958 0 -0.0011959142914457709 -0.00094555375407226428 0 -0.0011598886631015543 -0.0009410108785862304 0 -0.00090955831504149266 -0.00089020046569509887 0 -0.00098899369253993108 -0.00087969979467004717 0 -0.0011706075069814329 -0.00095776093935658958 0 -0.0011959142914457709 -0.00094555375407226428 0 -0.0011907375008762286 -0.00095950139309351713 0 -0.00090955831504149266 -0.00089020046569509887 0 -0.00027748515523831786 -0.0010277895436581971 0 -0.0011954404244469146 -0.00094784947614764666 0 -0.0011907375008762286 -0.00095950139309351713 0 -0.0012243612141467548 -0.00096093594329274144 0 0.00025703432416663657 -0.00088993212099836125 0 0.00024117890032592225 -0.00090187558836358074 0 0.00024407618205276102 -0.00088016743992354231 0 0.00024117890032592225 -0.00090187558836358074 0 0.00024407618205276102 -0.00088016743992354231 0 0.00022553161411130833 -0.00087937612054407577 0 0.00021556978810135795 -0.0012135339877479086 0 -0.00027748515523831786 -0.0010277895436581971 0 -0.00057325122826401586 -0.0014666993841087996 0 -0.00062068067998210597 -0.0013253083713307731 0 -0.00076479509436510446 -0.0013337102591496485 0 -0.0005027496229285471 -0.0014285062478649807 0 -0.00057325122826401586 -0.0014666993841087996 0 -0.00062068067998210597 -0.0013253083713307731 0 0.00055198962898419439 -0.0012536737061153828 0 0.00049153585023142658 -0.0011952510972516918 0 0.00052796277714129108 -0.0011753068467617227 0 0.00021556978810135795 -0.0012135339877479086 0 -0.00012934313219923254 -0.0012049441997310294 0 -0.0011887324927822341 -0.00097760888956743711 0 -0.0012243612141467548 -0.00096093594329274144 0 -0.0011865368886408985 -0.0010318440479710957 0 -0.00027748515523831786 -0.0010277895436581971 0 -0.0010790009763685391 -0.001180682788344321 0 -0.0011865368886408985 -0.0010318440479710957 0 -0.0011637777147498049 -0.00098190928027424912 0 -0.0011469747748811703 -0.00099716863593203912 0 -0.0011887324927822341 -0.00097760888956743711 0 -0.0011865368886408985 -0.0010318440479710957 0 -0.0011637777147498049 -0.00098190928027424912 0 -0.00076479509436510446 -0.0013337102591496485 0 -0.00073183244775513068 -0.0012419257414683106 0 -0.00087390320430199848 -0.001212210566851482 0 -0.00062068067998210597 -0.0013253083713307731 0 -0.00076479509436510446 -0.0013337102591496485 0 -0.00073183244775513068 -0.0012419257414683106 0 0.0016049475779145797 -0.0013684990921470721 0 0.0015833209145517705 -0.0014765181903776917 0 0.001659669602457819 -0.0014631557081526084 0 -0.00012934313219923254 -0.0012049441997310294 0 0.00047841266950337998 -0.0012078811706348462 0 0.00047841266950337998 -0.0012078811706348462 0 0.0010794480630449859 -0.0012327593341815153 0 0.00049153585023142658 -0.0011952510972516918 0 0.00043160468610204121 -0.0011401035455157042 0 0.00052796277714129108 -0.0011753068467617227 0 0.0013890663712177434 -0.0012258730308122739 0 0.0014880969623274928 -0.0014911229075859837 0 0.0013298272755259072 -0.0015026085682427045 0 0.0016049475779145797 -0.0013684990921470721 0 0.0013890663712177434 -0.0012258730308122739 0 0.0014880969623274928 -0.0014911229075859837 0 0.0014880969623274928 -0.0014911229075859837 0 0.0013298272755259072 -0.0015026085682427045 0 0.0014472766662143725 -0.0016836011150267742 0 0.0014880969623274928 -0.0014911229075859837 0 0.0014472766662143725 -0.0016836011150267742 0 0.0016197588753645478 -0.0016535060159791311 0 0.0016049475779145797 -0.0013684990921470721 0 0.0014880969623274928 -0.0014911229075859837 0 0.0015833209145517705 -0.0014765181903776917 0 0.0014880969623274928 -0.0014911229075859837 0 0.0015833209145517705 -0.0014765181903776917 0 0.0016197588753645478 -0.0016535060159791311 0 0.0015833209145517705 -0.0014765181903776917 0 0.0016708689628739868 -0.001511497590030474 0 0.0016197588753645478 -0.0016535060159791311 0 0.0016708689628739868 -0.001511497590030474 0 0.0016197588753645478 -0.0016535060159791311 0 0.0017089360404981542 -0.0015445575132298636 0 0.0015833209145517705 -0.0014765181903776917 0 0.0016708689628739868 -0.001511497590030474 0 0.001659669602457819 -0.0014631557081526084 0 0.0011472260085725616 -0.0010859628451093133 0 0.0010640177062096051 -0.0012819413615701276 0 0.0012190091719691614 -0.0013104953632344287 0 0.00086523020507700533 -0.0011891950325598082 0 0.0011472260085725616 -0.0010859628451093133 0 0.0010640177062096051 -0.0012819413615701276 0 0.0010640177062096051 -0.0012819413615701276 0 0.0012190091719691614 -0.0013104953632344287 0 0.0011434368929728038 -0.001441114193223683 0 0.0013890663712177434 -0.0012258730308122739 0 0.0012190091719691614 -0.0013104953632344287 0 0.0013298272755259072 -0.0015026085682427045 0 0.0011472260085725616 -0.0010859628451093133 0 0.0013890663712177434 -0.0012258730308122739 0 0.0012190091719691614 -0.0013104953632344287 0 0.0013298272755259072 -0.0015026085682427045 0 0.0011434368929728038 -0.001441114193223683 0 0.0011575322691783508 -0.0016907694919564183 0 0.0012190091719691614 -0.0013104953632344287 0 0.0013298272755259072 -0.0015026085682427045 0 0.0011434368929728038 -0.001441114193223683 0 0.00091047866827495257 -0.00146937496540505 0 0.0010640177062096051 -0.0012819413615701276 0 0.0011434368929728038 -0.001441114193223683 0 0.00091047866827495257 -0.00146937496540505 0 0.0011434368929728038 -0.001441114193223683 0 0.0011575322691783508 -0.0016907694919564183 0 0.00094494021171189922 -0.0018909001462905351 0 0.0011575322691783508 -0.0016907694919564183 0 0.0012261930264548361 -0.0019193275172308317 0 0.0011575322691783508 -0.0016907694919564183 0 0.0013546418278139432 -0.0017944473608440753 0 0.0012261930264548361 -0.0019193275172308317 0 0.0011575322691783508 -0.0016907694919564183 0 0.0013546418278139432 -0.0017944473608440753 0 0.0014472766662143725 -0.0016836011150267742 0 0.0013298272755259072 -0.0015026085682427045 0 0.0011575322691783508 -0.0016907694919564183 0 0.0014472766662143725 -0.0016836011150267742 0 0.0014472766662143725 -0.0016836011150267742 0 0.0016197588753645478 -0.0016535060159791311 0 0.0016036875882857013 -0.0017653214966141112 0 0.0016197588753645478 -0.0016535060159791311 0 0.0016036875882857013 -0.0017653214966141112 0 0.0016600500711938314 -0.001773188130784204 0 0.0016036875882857013 -0.0017653214966141112 0 0.001653027993603731 -0.0018099322559962275 0 0.0016600500711938314 -0.001773188130784204 0 0.0016036875882857013 -0.0017653214966141112 0 0.0016393524845036086 -0.0018318226098728064 0 0.001653027993603731 -0.0018099322559962275 0 0.0016036875882857013 -0.0017653214966141112 0 0.0016393524845036086 -0.0018318226098728064 0 0.0015331504250726217 -0.001824851136519321 0 0.0014472766662143725 -0.0016836011150267742 0 0.0016036875882857013 -0.0017653214966141112 0 0.0015331504250726217 -0.001824851136519321 0 0.0013546418278139432 -0.0017944473608440753 0 0.0014472766662143725 -0.0016836011150267742 0 0.0015331504250726217 -0.001824851136519321 0 0.0013546418278139432 -0.0017944473608440753 0 0.0015331504250726217 -0.001824851136519321 0 0.0015218617765716655 -0.0019179450660679912 0 0.0015331504250726217 -0.001824851136519321 0 0.0015218617765716655 -0.0019179450660679912 0 0.0016239200316489656 -0.001870394765180884 0 0.0015218617765716655 -0.0019179450660679912 0 0.0016239200316489656 -0.001870394765180884 0 0.0016924747476837175 -0.0019112183188828642 0 0.0016393524845036086 -0.0018318226098728064 0 0.0016239200316489656 -0.001870394765180884 0 0.0016840289360434395 -0.0018691329135729663 0 0.0016393524845036086 -0.0018318226098728064 0 0.0015331504250726217 -0.001824851136519321 0 0.0016239200316489656 -0.001870394765180884 0 0.0016239200316489656 -0.001870394765180884 0 0.0016924747476837175 -0.0019112183188828642 0 0.0016840289360434395 -0.0018691329135729663 0 0.0016924747476837175 -0.0019112183188828642 0 0.0017371597246661765 -0.0018853622978930392 0 0.0016840289360434395 -0.0018691329135729663 0 0.0016924747476837175 -0.0019112183188828642 0 0.0017722854181992729 -0.0019435875701354854 0 0.0016346640268920143 -0.001999394483289858 0 0.0016924747476837175 -0.0019112183188828642 0 0.0017722854181992729 -0.0019435875701354854 0 0.0017371597246661765 -0.0018853622978930392 0 0.0015218617765716655 -0.0019179450660679912 0 0.0016924747476837175 -0.0019112183188828642 0 0.0016346640268920143 -0.001999394483289858 0 0.0013863557571494114 -0.0021395922585287961 0 0.0015218617765716655 -0.0019179450660679912 0 0.0016346640268920143 -0.001999394483289858 0 0.0013863557571494114 -0.0021395922585287961 0 0.0015218617765716655 -0.0019179450660679912 0 0.0012261930264548361 -0.0019193275172308317 0 0.0013863557571494114 -0.0021395922585287961 0 0.00096083584259573618 -0.0020611107509360517 0 0.0012261930264548361 -0.0019193275172308317 0 0.0013863557571494114 -0.0021395922585287961 0 0.00093421457004170096 -0.0022315504436447877 0 0.00096083584259573618 -0.0020611107509360517 0 0.00096083584259573618 -0.0020611107509360517 0 0.00094494021171189922 -0.0018909001462905351 0 0.0012261930264548361 -0.0019193275172308317 0 0.0013546418278139432 -0.0017944473608440753 0 0.0015218617765716655 -0.0019179450660679912 0 0.0012261930264548361 -0.0019193275172308317 0 0.001622419342918797 -0.001832323587313086 0 0.0015566605213039647 -0.0018703375634075764 0 0.0015150614484505886 -0.0018035300569265475 0 0.001622419342918797 -0.001832323587313086 0 0.0016204536252115026 -0.0018606366446855555 0 0.0015566605213039647 -0.0018703375634075764 0 0.0015566605213039647 -0.0018703375634075764 0 0.0014566947045081796 -0.0018650352417508848 0 0.0015150614484505886 -0.0018035300569265475 0 0.0014566947045081796 -0.0018650352417508848 0 0.0014272473913088004 -0.0018160674623807411 0 0.0015150614484505886 -0.0018035300569265475 0 0.0013818780545650762 -0.0017468944524970183 0 0.0014463351205808682 -0.001671722029784724 0 0.0015150614484505886 -0.0018035300569265475 0 0.0013818780545650762 -0.0017468944524970183 0 0.0014272473913088004 -0.0018160674623807411 0 0.0015150614484505886 -0.0018035300569265475 0 0.0014463351205808682 -0.001671722029784724 0 0.0015560556417587061 -0.0017184123889751369 0 0.0015150614484505886 -0.0018035300569265475 0 0.0015560556417587061 -0.0017184123889751369 0 0.0015150614484505886 -0.0018035300569265475 0 0.0015860458332939286 -0.0017856030880510363 0 0.0015560556417587061 -0.0017184123889751369 0 0.0015860458332939286 -0.0017856030880510363 0 0.0016400177148982295 -0.0017825527569119261 0 0.001622419342918797 -0.001832323587313086 0 0.0015150614484505886 -0.0018035300569265475 0 0.0015860458332939286 -0.0017856030880510363 0 0.001622419342918797 -0.001832323587313086 0 0.0015860458332939286 -0.0017856030880510363 0 0.0016400177148982295 -0.0017825527569119261 0 0.0017175230207569629 -0.0017961671846320594 0 0.0016400177148982295 -0.0017825527569119261 0 0.0016836551943766227 -0.0018408205265334618 0 0.001622419342918797 -0.001832323587313086 0 0.0016400177148982295 -0.0017825527569119261 0 0.0016836551943766227 -0.0018408205265334618 0 0.0017175230207569629 -0.0017961671846320594 0 0.0016836551943766227 -0.0018408205265334618 0 0.0017371597246661765 -0.0018853622978930392 0 0.0017910891031406447 -0.0018885686483267939 0 0.0017722854181992729 -0.0019435875701354854 0 0.0017371597246661765 -0.0018853622978930392 0 0.0016836551943766227 -0.0018408205265334618 0 0.0017371597246661765 -0.0018853622978930392 0 0.0016885133955928295 -0.0018585860066472823 0 0.0017371597246661765 -0.0018853622978930392 0 0.0016840289360434395 -0.0018691329135729663 0 0.0016885133955928295 -0.0018585860066472823 0 0.0016885133955928295 -0.0018585860066472823 0 0.0016584898725820736 -0.0018557230613747389 0 0.0016725390351650597 -0.0018425292575339385 0 0.0016840289360434395 -0.0018691329135729663 0 0.0016885133955928295 -0.0018585860066472823 0 0.0016725390351650597 -0.0018425292575339385 0 0.0016393524845036086 -0.0018318226098728064 0 0.0016840289360434395 -0.0018691329135729663 0 0.0016725390351650597 -0.0018425292575339385 0 0.001622419342918797 -0.001832323587313086 0 0.0016836551943766227 -0.0018408205265334618 0 0.0016619506073469301 -0.0018507251778653855 0 0.0016836551943766227 -0.0018408205265334618 0 0.0016885133955928295 -0.0018585860066472823 0 0.0016619506073469301 -0.0018507251778653855 0 0.0016885133955928295 -0.0018585860066472823 0 0.0016619506073469301 -0.0018507251778653855 0 0.0016584898725820736 -0.0018557230613747389 0 0.001622419342918797 -0.001832323587313086 0 0.0016204536252115026 -0.0018606366446855555 0 0.0016619506073469301 -0.0018507251778653855 0 0.0016204536252115026 -0.0018606366446855555 0 0.0016619506073469301 -0.0018507251778653855 0 0.0016584898725820736 -0.0018557230613747389 0 0.0016204536252115026 -0.0018606366446855555 0 0.0016584898725820736 -0.0018557230613747389 0 0.0016050318164278483 -0.0018832309029838518 0 0.0016584898725820736 -0.0018557230613747389 0 0.0016408623137156015 -0.0018617061784006661 0 0.0016625251425966994 -0.0018298817807050763 0 0.0016584898725820736 -0.0018557230613747389 0 0.0016408623137156015 -0.0018617061784006661 0 0.0016050318164278483 -0.0018832309029838518 0 0.0016408623137156015 -0.0018617061784006661 0 0.0016160862104423184 -0.001883465293785397 0 0.0016050318164278483 -0.0018832309029838518 0 0.0016393524845036086 -0.0018318226098728064 0 0.0016725390351650597 -0.0018425292575339385 0 0.001653027993603731 -0.0018099322559962275 0 0.0016584898725820736 -0.0018557230613747389 0 0.0016725390351650597 -0.0018425292575339385 0 0.0016625251425966994 -0.0018298817807050763 0 0.0016725390351650597 -0.0018425292575339385 0 0.0016625251425966994 -0.0018298817807050763 0 0.001653027993603731 -0.0018099322559962275 0 0.0016625251425966994 -0.0018298817807050763 0 0.0016600500711938314 -0.001773188130784204 0 0.0016400880665547238 -0.0018607256826544819 0 0.0016600500711938314 -0.001773188130784204 0 0.0016400880665547238 -0.0018607256826544819 0 0.0016600284949050748 -0.001818119117308161 0 0.0016197588753645478 -0.0016535060159791311 0 0.0016600500711938314 -0.001773188130784204 0 0.0016600284949050748 -0.001818119117308161 0 0.0016625251425966994 -0.0018298817807050763 0 0.001653027993603731 -0.0018099322559962275 0 0.0016600500711938314 -0.001773188130784204 0 0.0016400880665547238 -0.0018607256826544819 0 0.0015715042034245949 -0.0019286818709008426 0 0.0016158110714193791 -0.0019131301089135137 0 0.0016160862104423184 -0.001883465293785397 0 0.0016400880665547238 -0.0018607256826544819 0 0.0015715042034245949 -0.0019286818709008426 0 0.0016408623137156015 -0.0018617061784006661 0 0.0016160862104423184 -0.001883465293785397 0 0.0016400880665547238 -0.0018607256826544819 0 0.0016408623137156015 -0.0018617061784006661 0 0.0016625251425966994 -0.0018298817807050763 0 0.0016400880665547238 -0.0018607256826544819 0 0.0015715042034245949 -0.0019286818709008426 0 0.0014891254844399682 -0.0019997471716329978 0 0.0016158110714193791 -0.0019131301089135137 0 0.0015715042034245949 -0.0019286818709008426 0 0.0016050318164278483 -0.0018832309029838518 0 0.0015367021472847528 -0.0019240220546268955 0 0.0015715042034245949 -0.0019286818709008426 0 0.0015367021472847528 -0.0019240220546268955 0 0.001522769949149568 -0.0019525282903318812 0 0.0016160862104423184 -0.001883465293785397 0 0.0015715042034245949 -0.0019286818709008426 0 0.0016050318164278483 -0.0018832309029838518 0 0.0015566605213039647 -0.0018703375634075764 0 0.0016050318164278483 -0.0018832309029838518 0 0.0015367021472847528 -0.0019240220546268955 0 0.0016204536252115026 -0.0018606366446855555 0 0.0015566605213039647 -0.0018703375634075764 0 0.0016050318164278483 -0.0018832309029838518 0 0.0013882930444789592 -0.0019255344675312015 0 0.0014566947045081796 -0.0018650352417508848 0 0.0014712790404046807 -0.0019217162582256823 0 0.0015566605213039647 -0.0018703375634075764 0 0.0015367021472847528 -0.0019240220546268955 0 0.0014712790404046807 -0.0019217162582256823 0 0.0015566605213039647 -0.0018703375634075764 0 0.0014566947045081796 -0.0018650352417508848 0 0.0014712790404046807 -0.0019217162582256823 0 0.0015367021472847528 -0.0019240220546268955 0 0.0014712790404046807 -0.0019217162582256823 0 0.0014883551180925934 -0.0019553043086737928 0 0.0014126733692738623 -0.0019716540224217916 0 0.0014712790404046807 -0.0019217162582256823 0 0.0014883551180925934 -0.0019553043086737928 0 0.0014126733692738623 -0.0019716540224217916 0 0.0013882930444789592 -0.0019255344675312015 0 0.0014712790404046807 -0.0019217162582256823 0 0.0014126733692738623 -0.0019716540224217916 0 0.0014883551180925934 -0.0019553043086737928 0 0.0014891254844399682 -0.0019997471716329978 0 0.0015715042034245949 -0.0019286818709008426 0 0.001522769949149568 -0.0019525282903318812 0 0.0014891254844399682 -0.0019997471716329978 0 0.0014883551180925934 -0.0019553043086737928 0 0.001522769949149568 -0.0019525282903318812 0 0.0014891254844399682 -0.0019997471716329978 0 0.0015367021472847528 -0.0019240220546268955 0 0.0014883551180925934 -0.0019553043086737928 0 0.001522769949149568 -0.0019525282903318812 0 -0.00091984688984396033 -0.0011700807923431622 0 -0.00091636309666893166 -0.0012948814337697169 0 -0.0010734506245822213 -0.0012038973464095206 0 -0.00061481702565144053 -0.0014722727226926244 0 -0.00050888890307886861 -0.0014121281047885356 0 -0.00044481055002703706 -0.001592452772388879 0 -0.0007385418410995264 -0.0014005406503695013 0 -0.00087447911446505403 -0.0013114064543944908 0 -0.00091607990398931579 -0.0011684196858730328 0 -0.00087447911446505403 -0.0013114064543944908 0 -0.00065641089492650872 -0.0012653060700116101 0 -0.00080293903175394151 -0.0012872691806092766 0 -0.00081720702011258361 -0.0012386801893038387 0 0.00052220981120585882 -0.0017342657673648262 0 0.00057338530232799449 -0.0015746932508021066 0 -0.00050888890307886861 -0.0014121281047885356 0 -0.00044481055002703706 -0.001592452772388879 0 -0.00015464921540934949 -0.0015347932402693255 0 -0.00087447911446505403 -0.0013114064543944908 0 0.00057338530232799449 -0.0015746932508021066 0 -0.00097726035868284642 -0.0011557556644099399 0 -0.001009063036114997 -0.0010624764981220032 0 -0.0010837694911807426 -0.0010630868056756048 0 -0.001009063036114997 -0.0010624764981220032 0 -0.0010837694911807426 -0.0010630868056756048 0 -0.0010497465583898507 -0.0010073263260652835 0 -0.00087447911446505403 -0.0013114064543944908 0 -0.00093773792302295116 -0.0011033308577563482 0 -0.00065641089492650872 -0.0012653060700116101 0 -0.00081720702011258361 -0.0012386801893038387 0 -0.00080236514449264114 -0.0011691020461829726 0 -0.00097726035868284642 -0.0011557556644099399 0 -0.001009063036114997 -0.0010624764981220032 0 -0.00093222351879366518 -0.0010810456162457331 0 -0.001009063036114997 -0.0010624764981220032 0 -0.00093222351879366518 -0.0010810456162457331 0 -0.00097671871204246005 -0.001009506368911053 0 -0.00088720873926148027 -0.0011507661612450866 0 -0.00097726035868284642 -0.0011557556644099399 0 -0.00093222351879366518 -0.0010810456162457331 0 0.0015506357719870267 -0.0016853825265490351 0 0.0018895927961612019 -0.0016528789923797257 0 0.0016197588753645478 -0.0016535060159791311 0 0.0017089360404981542 -0.0015445575132298636 0 0.0017668929541078484 -0.0015591992278451954 0 0.0016708689628739868 -0.001511497590030474 0 0.001659669602457819 -0.0014631557081526084 0 0.0017610439524825051 -0.0014887998274486912 0 0.0016708689628739868 -0.001511497590030474 0 0.0017089360404981542 -0.0015445575132298636 0 0.0017610439524825051 -0.0014887998274486912 0 0.0017089360404981542 -0.0015445575132298636 0 0.0017668929541078484 -0.0015591992278451954 0 0.0017610439524825051 -0.0014887998274486912 0 0.0016400880665547238 -0.0018607256826544819 0 0.0016600284949050748 -0.001818119117308161 0 0.0016158110714193791 -0.0019131301089135137 0 -0.00087390320430199848 -0.001212210566851482 0 -0.00080293903175394151 -0.0012872691806092766 0 -0.00081720702011258361 -0.0012386801893038387 0 0.0017668929541078484 -0.0015591992278451954 0 0.0017610439524825051 -0.0014887998274486912 0 0.0018308259356103844 -0.0015384068811746252 0 0.0004267596717735634 -0.0013414998697923136 0 0.00057338530232799449 -0.0015746932508021066 0 0.0018895927961612019 -0.0016528789923797257 0 0.00057338530232799449 -0.0015746932508021066 0 -0.00093773792302295116 -0.0011033308577563482 0 -0.0010990834719811367 -0.0010215091373705881 0 -0.00087390320430199848 -0.001212210566851482 0 -0.00081720702011258361 -0.0012386801893038387 0 -0.00089023570950402754 -0.0012212364040643583 0 -0.00080236514449264114 -0.0011691020461829726 0 -0.00089023570950402754 -0.0012212364040643583 0 -0.0011081982260465514 -0.0010102834261612609 0 -0.00081720702011258361 -0.0012386801893038387 0 -0.00080236514449264114 -0.0011691020461829726 0 -0.00089023570950402754 -0.0012212364040643583 0 -0.00076479509436510446 -0.0013337102591496485 0 -0.00087390320430199848 -0.001212210566851482 0 -0.00089023570950402754 -0.0012212364040643583 0 0.0016049475779145797 -0.0013684990921470721 0 0.001659669602457819 -0.0014631557081526084 0 0.0017610439524825051 -0.0014887998274486912 0 0.00047841266950337998 -0.0012078811706348462 0 0.0004267596717735634 -0.0013414998697923136 0 -0.0010790009763685391 -0.001180682788344321 0 -0.00085882057960511363 -0.001230890345969161 0 -0.0011865368886408985 -0.0010318440479710957 0 -0.00089023570950402754 -0.0012212364040643583 0 -0.0011081982260465514 -0.0010102834261612609 0 -0.0011406177329574552 -0.0009787102379000968 0 -0.0011081982260465514 -0.0010102834261612609 0 -0.0011151188050633068 -0.00099450539130880667 0 -0.0011406177329574552 -0.0009787102379000968 0 -0.0011469747748811703 -0.00099716863593203912 0 -0.0011081982260465514 -0.0010102834261612609 0 -0.0011637777147498049 -0.00098190928027424912 0 -0.0011406177329574552 -0.0009787102379000968 0 -0.0011469747748811703 -0.00099716863593203912 0 -0.0011865368886408985 -0.0010318440479710957 0 -0.0011469747748811703 -0.00099716863593203912 0 -0.0011081982260465514 -0.0010102834261612609 0 -0.0011081982260465514 -0.0010102834261612609 0 -0.0011151188050633068 -0.00099450539130880667 0 -0.0010966241026388935 -0.0010175807395479632 0 -0.0011151188050633068 -0.00099450539130880667 0 -0.0010966241026388935 -0.0010175807395479632 0 -0.0011197681396609084 -0.00096325402662675687 0 -0.0010837694911807426 -0.0010630868056756048 0 -0.0011081982260465514 -0.0010102834261612609 0 -0.0010966241026388935 -0.0010175807395479632 0 -0.0010837694911807426 -0.0010630868056756048 0 -0.0010966241026388935 -0.0010175807395479632 0 -0.0010497465583898507 -0.0010073263260652835 0 -0.0010966241026388935 -0.0010175807395479632 0 -0.0010830791643604498 -0.00096664858932862883 0 -0.0010497465583898507 -0.0010073263260652835 0 -0.0010966241026388935 -0.0010175807395479632 0 -0.0010830791643604498 -0.00096664858932862883 0 -0.0011197681396609084 -0.00096325402662675687 0 -0.0010830791643604498 -0.00096664858932862883 0 -0.0011197681396609084 -0.00096325402662675687 0 -0.0011016773906753583 -0.0009030105490656097 0 -0.0011197681396609084 -0.00096325402662675687 0 -0.0011598886631015543 -0.0009410108785862304 0 -0.0011470065957297345 -0.00089687848366246646 0 -0.0011406177329574552 -0.0009787102379000968 0 -0.0011151188050633068 -0.00099450539130880667 0 -0.0011197681396609084 -0.00096325402662675687 0 -0.0011406177329574552 -0.0009787102379000968 0 -0.0011197681396609084 -0.00096325402662675687 0 -0.0011598886631015543 -0.0009410108785862304 0 -0.0011706075069814329 -0.00095776093935658958 0 -0.0011406177329574552 -0.0009787102379000968 0 -0.0011598886631015543 -0.0009410108785862304 0 -0.00087970003070964769 -0.0010200078905561781 0 -0.00093222351879366518 -0.0010810456162457331 0 -0.00097671871204246005 -0.001009506368911053 0 -0.00087970003070964769 -0.0010200078905561781 0 -0.00097671871204246005 -0.001009506368911053 0 -0.00093895294123825807 -0.00095054909078060002 0 -0.00097671871204246005 -0.001009506368911053 0 -0.0010497465583898507 -0.0010073263260652835 0 -0.0010255006590474255 -0.00092755624782420219 0 -0.001009063036114997 -0.0010624764981220032 0 -0.00097671871204246005 -0.001009506368911053 0 -0.0010497465583898507 -0.0010073263260652835 0 -0.0010830791643604498 -0.00096664858932862883 0 -0.0010497465583898507 -0.0010073263260652835 0 -0.0010255006590474255 -0.00092755624782420219 0 -0.0010830791643604498 -0.00096664858932862883 0 -0.0010255006590474255 -0.00092755624782420219 0 -0.0011016773906753583 -0.0009030105490656097 0 -0.00097671871204246005 -0.001009506368911053 0 -0.0010255006590474255 -0.00092755624782420219 0 -0.00093895294123825807 -0.00095054909078060002 0 -0.0010255006590474255 -0.00092755624782420219 0 -0.00093895294123825807 -0.00095054909078060002 0 -0.00093792000457233141 -0.00089250211044366614 0 -0.0010255006590474255 -0.00092755624782420219 0 -0.0010131734777645482 -0.00084462339032250497 0 -0.00093792000457233141 -0.00089250211044366614 0 -0.0010255006590474255 -0.00092755624782420219 0 -0.0010905155674570492 -0.00085003248940296403 0 -0.0010131734777645482 -0.00084462339032250497 0 -0.0010255006590474255 -0.00092755624782420219 0 -0.0010905155674570492 -0.00085003248940296403 0 -0.0011016773906753583 -0.0009030105490656097 0 -0.0010905155674570492 -0.00085003248940296403 0 -0.0010131734777645482 -0.00084462339032250497 0 -0.0011268283945942449 -0.00079482052750439738 0 -0.0010905155674570492 -0.00085003248940296403 0 -0.0011480550126500588 -0.0008434734009514325 0 -0.0011268283945942449 -0.00079482052750439738 0 -0.0011470065957297345 -0.00089687848366246646 0 -0.0011480550126500588 -0.0008434734009514325 0 -0.0011910770250994009 -0.00088759064388566576 0 -0.0011197681396609084 -0.00096325402662675687 0 -0.0011470065957297345 -0.00089687848366246646 0 -0.0011016773906753583 -0.0009030105490656097 0 -0.0011470065957297345 -0.00089687848366246646 0 -0.0011016773906753583 -0.0009030105490656097 0 -0.0011480550126500588 -0.0008434734009514325 0 -0.0010905155674570492 -0.00085003248940296403 0 -0.0011016773906753583 -0.0009030105490656097 0 -0.0011480550126500588 -0.0008434734009514325 0 -0.0011480550126500588 -0.0008434734009514325 0 -0.0011601733568492934 -0.00079615808955261331 0 -0.0011995979834962269 -0.00081850727333402133 0 -0.0014678808635516715 -0.0009760564250067545 0 -0.0020322994868199442 -0.0012158436717456709 0 -0.0011480550126500588 -0.0008434734009514325 0 -0.0011601733568492934 -0.00079615808955261331 0 -0.0011268283945942449 -0.00079482052750439738 0 -0.0018564229797367988 -0.0012104837765714921 0 -0.0012319876521033884 -0.0007878408765763478 0 -0.0017211531437736096 -0.0007641675007429154 0 -0.0014678808635516715 -0.0009760564250067545 0 -0.0012659747317845299 -0.00082192957207183272 0 -0.0018564229797367988 -0.0012104837765714921 0 -0.0017211531437736096 -0.0007641675007429154 0 -0.0022567112767745627 -0.00089661998068159092 0 -0.0018564229797367988 -0.0012104837765714921 0 -0.0022567112767745627 -0.00089661998068159092 0 -0.002490802718656376 -0.0014738422737009245 0 -0.0010131734777645482 -0.00084462339032250497 0 -0.0011268283945942449 -0.00079482052750439738 0 -0.00098693861928728435 -0.00077829871977603345 0 -0.0011268283945942449 -0.00079482052750439738 0 -0.0010926677450202515 -0.00075024082520802138 0 -0.00098693861928728435 -0.00077829871977603345 0 -0.0011601733568492934 -0.00079615808955261331 0 -0.0011268283945942449 -0.00079482052750439738 0 -0.0012319876521033884 -0.0007878408765763478 0 -0.0011268283945942449 -0.00079482052750439738 0 -0.0012319876521033884 -0.0007878408765763478 0 -0.0010926677450202515 -0.00075024082520802138 0 -0.0012319876521033884 -0.0007878408765763478 0 -0.0010926677450202515 -0.00075024082520802138 0 -0.0010996001335931169 -0.00066470285656128987 0 -0.0012319876521033884 -0.0007878408765763478 0 -0.0010996001335931169 -0.00066470285656128987 0 -0.0012117123583763095 -0.00053426037549985197 0 -0.0010996001335931169 -0.00066470285656128987 0 -0.0012117123583763095 -0.00053426037549985197 0 -0.00097796381214488985 -0.00056005686642941754 0 -0.0012117123583763095 -0.00053426037549985197 0 -0.0013101351849732956 -0.00013268513651949415 0 -0.0010956400203282208 -0.00024173236880855115 0 -0.0012117123583763095 -0.00053426037549985197 0 -0.0013101351849732956 -0.00013268513651949415 0 -0.00174778219950637 -0.00015462623606163467 0 -0.0012549851401655362 -0.00053062922130193014 0 -0.0017357462024645822 -0.00044335525086633128 0 -0.0012117123583763095 -0.00053426037549985197 0 -0.0019312173866391916 -0.00051496543019573866 0 -0.00174778219950637 -0.00015462623606163467 0 -0.0012319876521033884 -0.0007878408765763478 0 -0.0012117123583763095 -0.00053426037549985197 0 -0.0015317064381965054 -0.0003808273623113177 0 -0.0012319876521033884 -0.0007878408765763478 0 -0.0017211531437736096 -0.0007641675007429154 0 -0.0015317064381965054 -0.0003808273623113177 0 -0.0017211531437736096 -0.0007641675007429154 0 -0.0019641269062813508 -0.00056015432609822806 0 -0.0015317064381965054 -0.0003808273623113177 0 -0.0017211531437736096 -0.0007641675007429154 0 -0.0022567112767745627 -0.00089661998068159092 0 -0.0019641269062813508 -0.00056015432609822806 0 -0.0022567112767745627 -0.00089661998068159092 0 -0.0019641269062813508 -0.00056015432609822806 0 -0.0023469769136475228 -0.00053355120196222836 0 -0.0019641269062813508 -0.00056015432609822806 0 -0.0021572196655440922 -0.00021012302632759475 0 -0.0023469769136475228 -0.00053355120196222836 0 -0.0024074102635864153 -0.00029080126195020028 0 -0.0017357462024645822 -0.00044335525086633128 0 -0.0019641269062813508 -0.00056015432609822806 0 -0.0021572196655440922 -0.00021012302632759475 0 -0.0015317064381965054 -0.0003808273623113177 0 -0.0026569796564186073 -0.00037741623229121306 0 -0.0019312173866391916 -0.00051496543019573866 0 -0.0022475102233156996 -0.00020242034212869604 0 -0.0019312173866391916 -0.00051496543019573866 0 -0.0022475102233156996 -0.00020242034212869604 0 -0.00174778219950637 -0.00015462623606163467 0 -0.0022475102233156996 -0.00020242034212869604 0 -0.0021826345579304012 5.5973225215579212e-05 0 -0.00174778219950637 -0.00015462623606163467 0 -0.0022475102233156996 -0.00020242034212869604 0 -0.0021826345579304012 5.5973225215579212e-05 0 -0.0025463535867807289 1.6113438968265999e-06 0 -0.0021826345579304012 5.5973225215579212e-05 0 -0.0019169375466655438 0.00023336952867309037 0 -0.00174778219950637 -0.00015462623606163467 0 -0.0025463535867807289 1.6113438968265999e-06 0 -0.0027156417479820122 0.0003853171795021745 0 -0.0029577072268817868 -0.000171683818180174 0 -0.0026569796564186073 -0.00037741623229121306 0 -0.0025463535867807289 1.6113438968265999e-06 0 -0.0029577072268817868 -0.000171683818180174 0 -0.0026569796564186073 -0.00037741623229121306 0 -0.0022475102233156996 -0.00020242034212869604 0 -0.0025463535867807289 1.6113438968265999e-06 0 -0.0021826345579304012 5.5973225215579212e-05 0 -0.0025463535867807289 1.6113438968265999e-06 0 -0.0024314602627206585 0.00024779054831044269 0 -0.0024314602627206585 0.00024779054831044269 0 -0.0027156417479820122 0.0003853171795021745 0 -0.0022860040576497521 0.00049725295055374423 0 -0.0025463535867807289 1.6113438968265999e-06 0 -0.0024314602627206585 0.00024779054831044269 0 -0.0027156417479820122 0.0003853171795021745 0 -0.0021826345579304012 5.5973225215579212e-05 0 -0.0022860040576497521 0.00049725295055374423 0 -0.0019169375466655438 0.00023336952867309037 0 -0.0022860040576497521 0.00049725295055374423 0 -0.0019169375466655438 0.00023336952867309037 0 -0.0018547443449247205 0.0006561310764339333 0 -0.0021826345579304012 5.5973225215579212e-05 0 -0.0024314602627206585 0.00024779054831044269 0 -0.0022860040576497521 0.00049725295055374423 0 -0.0019169375466655438 0.00023336952867309037 0 -0.0015203746515610435 0.00013003862880494081 0 -0.0018547443449247205 0.0006561310764339333 0 -0.0028539555340786052 0.00016288446161801529 0 -0.00335085078686641 5.939995328352733e-05 0 -0.0015203746515610435 0.00013003862880494081 0 -0.0012087527627044359 0.00026292711046249092 0 -0.0018547443449247205 0.0006561310764339333 0 -0.0042265143202735913 -0.0005652683858984039 0 -0.004555173586783038 -0.00034164445169123411 0 -0.0041573362605200805 -0.00048937337859792989 0 -0.0028539555340786052 0.00016288446161801529 0 -0.0038725440129118945 7.3521945212262358e-05 0 -0.0012087527627044359 0.00026292711046249092 0 -0.0012170912961307445 0.00012628286326184647 0 -0.0011517449498259706 4.7875923362264245e-05 0 -0.0012087527627044359 0.00026292711046249092 0 -0.0012170912961307445 0.00012628286326184647 0 -0.001309335219385709 8.2940939104236543e-05 0 -0.0012170912961307445 0.00012628286326184647 0 -0.0012169750350953903 1.3025911097981052e-06 0 -0.0011517449498259706 4.7875923362264245e-05 0 -0.0012170912961307445 0.00012628286326184647 0 -0.001309335219385709 8.2940939104236543e-05 0 -0.0012169750350953903 1.3025911097981052e-06 0 -0.0015203746515610435 0.00013003862880494081 0 -0.0012087527627044359 0.00026292711046249092 0 -0.001309335219385709 8.2940939104236543e-05 0 -0.0015203746515610435 0.00013003862880494081 0 -0.001309335219385709 8.2940939104236543e-05 0 -0.0013101351849732956 -0.00013268513651949415 0 -0.0012169750350953903 1.3025911097981052e-06 0 -0.0013101351849732956 -0.00013268513651949415 0 -0.0011219430631705812 -9.7187074933308937e-05 0 -0.001309335219385709 8.2940939104236543e-05 0 -0.0012169750350953903 1.3025911097981052e-06 0 -0.0013101351849732956 -0.00013268513651949415 0 -0.0013101351849732956 -0.00013268513651949415 0 -0.0011219430631705812 -9.7187074933308937e-05 0 -0.0010956400203282208 -0.00024173236880855115 0 -0.0015203746515610435 0.00013003862880494081 0 -0.0013101351849732956 -0.00013268513651949415 0 -0.00174778219950637 -0.00015462623606163467 0 -0.0019169375466655438 0.00023336952867309037 0 -0.0015203746515610435 0.00013003862880494081 0 -0.00174778219950637 -0.00015462623606163467 0 -0.0039559491207339873 4.2997205453026474e-05 0 -0.004013269744145463 -0.00035384100620733302 0 -0.0046442298716098396 -5.9701448471786437e-05 0 -0.0039559491207339873 4.2997205453026474e-05 0 -0.0044396461058347908 0.00043397598590276233 0 -0.0046442298716098396 -5.9701448471786437e-05 0 -0.0039559491207339873 4.2997205453026474e-05 0 -0.0044396461058347908 0.00043397598590276233 0 -0.0039215310390212999 0.0005026254194705755 0 -0.0044396461058347908 0.00043397598590276233 0 -0.0039215310390212999 0.0005026254194705755 0 -0.0041089799238333904 0.00093774662024520355 0 -0.0039559491207339873 4.2997205453026474e-05 0 -0.0039215310390212999 0.0005026254194705755 0 -0.0036067394546562626 0.00024078934581774709 0 -0.0039215310390212999 0.0005026254194705755 0 -0.003649208459856155 0.00055919834570874528 0 -0.0036067394546562626 0.00024078934581774709 0 -0.003649208459856155 0.00055919834570874528 0 -0.0034362119975627397 0.00051586229374145029 0 -0.0036067394546562626 0.00024078934581774709 0 -0.0034362119975627397 0.00051586229374145029 0 -0.0036067394546562626 0.00024078934581774709 0 -0.0032420476257919188 0.00016020875821505038 0 -0.0030658447131034412 0.00047749221831286224 0 -0.0030973649969558443 0.00030771496754897703 0 -0.0031769406594601272 0.00059645964538499797 0 -0.0030973649969558443 0.00030771496754897703 0 -0.0032420476257919188 0.00016020875821505038 0 -0.0031769406594601272 0.00059645964538499797 0 -0.0029412054472670477 0.00039451021287655069 0 -0.0030973649969558443 0.00030771496754897703 0 -0.0029577072268817868 -0.000171683818180174 0 -0.0034362119975627397 0.00051586229374145029 0 -0.0032420476257919188 0.00016020875821505038 0 -0.00319143909510953 0.00078803641328876258 0 -0.0032667388869719949 0.00015607820361775558 0 -0.0030532194579177647 0.00077113596047254595 0 -0.0029412054472670477 0.00039451021287655069 0 -0.0030658447131034412 0.00047749221831286224 0 -0.0030973649969558443 0.00030771496754897703 0 -0.0026569796564186073 -0.00037741623229121306 0 -0.0029577072268817868 -0.000171683818180174 0 -0.0033987483679299236 -0.00015980751411790378 0 -0.0027627876700276402 0.00041996866724496615 0 -0.002973226416321017 -0.00016599978688710586 0 -0.0030973649969558443 0.00030771496754897703 0 -0.0032420476257919188 0.00016020875821505038 0 -0.0029577072268817868 -0.000171683818180174 0 -0.0032420476257919188 0.00016020875821505038 0 -0.0029577072268817868 -0.000171683818180174 0 -0.0033987483679299236 -0.00015980751411790378 0 -0.0038927249681318622 3.6921687255875596e-05 0 -0.003170308842639 -0.00010253176328026119 0 -0.0039559491207339873 4.2997205453026474e-05 0 -0.0029311077318387758 -3.2681350949046836e-05 0 -0.0031622155024315698 -0.0004017229019103953 0 -0.0039559491207339873 4.2997205453026474e-05 0 -0.0036067394546562626 0.00024078934581774709 0 -0.0033987483679299236 -0.00015980751411790378 0 -0.0036067394546562626 0.00024078934581774709 0 -0.0032420476257919188 0.00016020875821505038 0 -0.0033987483679299236 -0.00015980751411790378 0 -0.0029311077318387758 -3.2681350949046836e-05 0 -0.0031622155024315698 -0.0004017229019103953 0 -0.0026520292409183488 -0.00036231322494533819 0 -0.0031622155024315698 -0.0004017229019103953 0 -0.0026520292409183488 -0.00036231322494533819 0 -0.002821305745062409 -0.0006535411469369138 0 -0.0031622155024315698 -0.0004017229019103953 0 -0.0034609661423169544 -0.0009495357837326885 0 -0.0035768609698923438 -0.00056232403432864085 0 -0.0026520292409183488 -0.00036231322494533819 0 -0.0023469769136475228 -0.00053355120196222836 0 -0.002821305745062409 -0.0006535411469369138 0 -0.0024074102635864153 -0.00029080126195020028 0 -0.003170308842639 -0.00010253176328026119 0 -0.0021572196655440922 -0.00021012302632759475 0 -0.0029311077318387758 -3.2681350949046836e-05 0 -0.0026520292409183488 -0.00036231322494533819 0 -0.0021572196655440922 -0.00021012302632759475 0 -0.0026520292409183488 -0.00036231322494533819 0 -0.0023469769136475228 -0.00053355120196222836 0 -0.0022567112767745627 -0.00089661998068159092 0 -0.002821305745062409 -0.0006535411469369138 0 -0.0027868081990497047 -0.0010411760922951136 0 -0.0022567112767745627 -0.00089661998068159092 0 -0.0023469769136475228 -0.00053355120196222836 0 -0.002821305745062409 -0.0006535411469369138 0 -0.002821305745062409 -0.0006535411469369138 0 -0.0030896247613137156 -0.00080428034154829582 0 -0.0027868081990497047 -0.0010411760922951136 0 -0.0031622155024315698 -0.0004017229019103953 0 -0.002821305745062409 -0.0006535411469369138 0 -0.0034609661423169544 -0.0009495357837326885 0 -0.0027771227761033386 -0.00064313921418285313 0 -0.0035600602036185598 -0.00099834680234025521 0 -0.0030896247613137156 -0.00080428034154829582 0 -0.0033953725201634052 -0.00094514790707176364 0 -0.0030485820690637848 -0.0010813324930314565 0 -0.0034609661423169544 -0.0009495357837326885 0 -0.003794873007544964 -0.0008210755982675169 0 -0.003925982121557107 -0.0011224340563129793 0 -0.0035600602036185598 -0.00099834680234025521 0 -0.0017165772899193769 -0.00075878251485565437 0 -0.0034609661423169544 -0.0009495357837326885 0 -0.003794873007544964 -0.0008210755982675169 0 -0.0035768609698923438 -0.00056232403432864085 0 -0.0039559491207339873 4.2997205453026474e-05 0 -0.004013269744145463 -0.00035384100620733302 0 -0.0035768609698923438 -0.00056232403432864085 0 -0.0039559491207339873 4.2997205453026474e-05 0 -0.0031622155024315698 -0.0004017229019103953 0 -0.0035768609698923438 -0.00056232403432864085 0 -0.003794873007544964 -0.0008210755982675169 0 -0.0035768609698923438 -0.00056232403432864085 0 -0.004184634189661301 -0.00061340054570455712 0 -0.0040623494515323313 -0.00056336437008249396 0 -0.0031629544733726644 -0.0007252797959901527 0 -0.004013269744145463 -0.00035384100620733302 0 -0.0035768609698923438 -0.00056232403432864085 0 -0.0043751542302912791 -0.00060881156126491281 0 -0.0031629544733726644 -0.0007252797959901527 0 -0.0047969275907909668 9.0141406353437745e-05 0 -0.004013269744145463 -0.00035384100620733302 0 -0.0043751542302912791 -0.00060881156126491281 0 -0.0046442298716098396 -5.9701448471786437e-05 0 -0.00022135725789497283 -0.00051577306933006033 0 -0.00021465416962145891 -0.0005300098783251482 0 -0.00021175528502698663 -0.0005263215254527558 0 -0.0031629544733726644 -0.0007252797959901527 0 -0.0017165772899193769 -0.00075878251485565437 0 -0.003794873007544964 -0.0008210755982675169 0 -0.004184634189661301 -0.00061340054570455712 0 -0.003925982121557107 -0.0011224340563129793 0 0.00017860013816304332 -0.00054229263027792034 0 0.0001509042286312389 -0.00065259019412297419 0 0.00023679981231461208 -0.00066857569143157587 0 0.00017860013816304332 -0.00054229263027792034 0 0.0001509042286312389 -0.00065259019412297419 0 4.9519806172409677e-05 -0.00057419677283951831 0 -0.00021465416962145891 -0.0005300098783251482 0 -0.00020113277101686694 -0.00055180482977166428 0 -0.00021175528502698663 -0.0005263215254527558 0 -0.0017165772899193769 -0.00075878251485565437 0 0.00024653492177917379 -0.00045989679677121666 0 -0.0033953725201634052 -0.00094514790707176364 0 -0.003219488075072021 -0.001304820872033082 0 -0.0030485820690637848 -0.0010813324930314565 0 -0.0017165772899193769 -0.00075878251485565437 0 -0.0014785756350587512 -0.0010212051588027219 0 -0.003219488075072021 -0.001304820872033082 0 -0.0030485820690637848 -0.0010813324930314565 0 -0.0029150868988184228 -0.0013324985527242992 0 0.00023679981231461208 -0.00066857569143157587 0 0.00026874402038082329 -0.00078965316574797348 0 0.00024338056981560585 -0.00080162589644694341 0 -0.0014785756350587512 -0.0010212051588027219 0 -0.0012708339192461957 -0.00098493881344051122 0 -0.003219488075072021 -0.001304820872033082 0 -0.0029150868988184228 -0.0013324985527242992 0 -0.003028772012387943 -0.0016791716759760628 0 0.00023679981231461208 -0.00066857569143157587 0 0.00020092150533110114 -0.00074893170394474569 0 0.00024338056981560585 -0.00080162589644694341 0 0.0001509042286312389 -0.00065259019412297419 0 0.00023679981231461208 -0.00066857569143157587 0 0.00020092150533110114 -0.00074893170394474569 0 0.00020092150533110114 -0.00074893170394474569 0 0.00018208836533933662 -0.00082637759395415495 0 9.4883262525476638e-05 -0.00073210394936572363 0 0.0001509042286312389 -0.00065259019412297419 0 4.9519806172409677e-05 -0.00057419677283951831 0 9.4883262525476638e-05 -0.00073210394936572363 0 0.0001509042286312389 -0.00065259019412297419 0 0.00020092150533110114 -0.00074893170394474569 0 9.4883262525476638e-05 -0.00073210394936572363 0 -0.0022567112767745627 -0.00089661998068159092 0 -0.0027868081990497047 -0.0010411760922951136 0 -0.002490802718656376 -0.0014738422737009245 0 -0.0027868081990497047 -0.0010411760922951136 0 -0.0029150868988184228 -0.0013324985527242992 0 -0.002490802718656376 -0.0014738422737009245 0 -0.0030896247613137156 -0.00080428034154829582 0 -0.0027868081990497047 -0.0010411760922951136 0 -0.0030485820690637848 -0.0010813324930314565 0 -0.0027868081990497047 -0.0010411760922951136 0 -0.0030485820690637848 -0.0010813324930314565 0 -0.0029150868988184228 -0.0013324985527242992 0 -0.0011995979834962269 -0.00081850727333402133 0 -0.0012101765801335223 -0.00085163440610216403 0 -0.0012529596022076981 -0.00084371335613276852 0 -0.0029150868988184228 -0.0013324985527242992 0 -0.002490802718656376 -0.0014738422737009245 0 -0.003028772012387943 -0.0016791716759760628 0 -0.0020322994868199442 -0.0012158436717456709 0 -0.0012708339192461957 -0.00098493881344051122 0 -0.0011480550126500588 -0.0008434734009514325 0 -0.0011995979834962269 -0.00081850727333402133 0 -0.0012101765801335223 -0.00085163440610216403 0 -0.0012101765801335223 -0.00085163440610216403 0 -0.0012306006844608713 -0.00088416124386094354 0 -0.0011910770250994009 -0.00088759064388566576 0 -0.0011480550126500588 -0.0008434734009514325 0 -0.0012101765801335223 -0.00085163440610216403 0 -0.0011910770250994009 -0.00088759064388566576 0 -0.0012708339192461957 -0.00098493881344051122 0 -0.00042117380173502971 -0.00091898277871314609 0 0.00024818442712030997 -0.00079993298008265549 0 0.00025343221421088969 -0.00085545825376882184 0 0.00023731743689103712 -0.0008312929228615957 0 -0.0012101765801335223 -0.00085163440610216403 0 -0.0012529596022076981 -0.00084371335613276852 0 -0.0012306006844608713 -0.00088416124386094354 0 -0.00090955831504149266 -0.00089020046569509887 0 -0.00042117380173502971 -0.00091898277871314609 0 0.00025703432416663657 -0.00088993212099836125 0 0.00024407618205276102 -0.00088016743992354231 0 0.00025343221421088969 -0.00085545825376882184 0 0.00025343221421088969 -0.00085545825376882184 0 0.00023731743689103712 -0.0008312929228615957 0 0.00023309990226004566 -0.0008613902328209335 0 0.00024407618205276102 -0.00088016743992354231 0 0.00023309990226004566 -0.0008613902328209335 0 0.00022553161411130833 -0.00087937612054407577 0 0.00024407618205276102 -0.00088016743992354231 0 0.00025343221421088969 -0.00085545825376882184 0 0.00023309990226004566 -0.0008613902328209335 0 -0.00090955831504149266 -0.00089020046569509887 0 -0.0012616127606160867 -0.00093636397658992737 0 -0.0012087287366430869 -0.00092895554759216494 0 -0.0012306006844608713 -0.00088416124386094354 0 -0.0011910770250994009 -0.00088759064388566576 0 -0.0012087287366430869 -0.00092895554759216494 0 -0.0011470065957297345 -0.00089687848366246646 0 -0.0011910770250994009 -0.00088759064388566576 0 0.00018208836533933662 -0.00082637759395415495 0 0.00015027761848720688 -0.0008816824832915312 0 9.4883262525476638e-05 -0.00073210394936572363 0 0.00018208836533933662 -0.00082637759395415495 0 0.00021531360969944988 -0.00082029629588221671 0 0.00019934438079240434 -0.00084613988698698883 0 0.00018208836533933662 -0.00082637759395415495 0 0.00019934438079240434 -0.00084613988698698883 0 0.00017775403601109541 -0.00086818006942230241 0 0.00018208836533933662 -0.00082637759395415495 0 0.00017775403601109541 -0.00086818006942230241 0 0.00015027761848720688 -0.0008816824832915312 0 0.00020092150533110114 -0.00074893170394474569 0 0.00024338056981560585 -0.00080162589644694341 0 0.00021531360969944988 -0.00082029629588221671 0 0.00020092150533110114 -0.00074893170394474569 0 0.00018208836533933662 -0.00082637759395415495 0 0.00021531360969944988 -0.00082029629588221671 0 0.00024818442712030997 -0.00079993298008265549 0 0.00024338056981560585 -0.00080162589644694341 0 0.00023731743689103712 -0.0008312929228615957 0 0.00024338056981560585 -0.00080162589644694341 0 0.00023731743689103712 -0.0008312929228615957 0 0.00021531360969944988 -0.00082029629588221671 0 -0.0012708339192461957 -0.00098493881344051122 0 -0.00051270919443976873 -0.00074373271720014073 0 0.00023731743689103712 -0.0008312929228615957 0 0.00021531360969944988 -0.00082029629588221671 0 0.00021737941142984608 -0.0008488807824606863 0 0.00021531360969944988 -0.00082029629588221671 0 0.00019934438079240434 -0.00084613988698698883 0 0.00021737941142984608 -0.0008488807824606863 0 0.00021481371878214243 -0.00086597739763985375 0 0.00020253333847550622 -0.00086232245437106096 0 0.0001936407722444687 -0.00087638600238432987 0 0.00019934438079240434 -0.00084613988698698883 0 0.00021737941142984608 -0.0008488807824606863 0 0.00020253333847550622 -0.00086232245437106096 0 0.00021737941142984608 -0.0008488807824606863 0 0.00021481371878214243 -0.00086597739763985375 0 0.00020253333847550622 -0.00086232245437106096 0 0.00023731743689103712 -0.0008312929228615957 0 0.00021737941142984608 -0.0008488807824606863 0 0.00023309990226004566 -0.0008613902328209335 0 0.00021737941142984608 -0.0008488807824606863 0 0.00021481371878214243 -0.00086597739763985375 0 0.00023309990226004566 -0.0008613902328209335 0 0.00021481371878214243 -0.00086597739763985375 0 0.00023309990226004566 -0.0008613902328209335 0 0.00022553161411130833 -0.00087937612054407577 0 0.00021481371878214243 -0.00086597739763985375 0 0.00022553161411130833 -0.00087937612054407577 0 0.0001936407722444687 -0.00087638600238432987 0 0.0001936407722444687 -0.00087638600238432987 0 0.00019272025047083937 -0.00088354580063789356 0 0.00017775403601109541 -0.00086818006942230241 0 0.00029449942470515151 -0.00096939180824231943 0 0.00016387111992796071 -0.00089046662076141452 0 0.00019272025047083937 -0.00088354580063789356 0 0.00017775403601109541 -0.00086818006942230241 0 0.00015027761848720688 -0.0008816824832915312 0 0.00039629181804854368 -0.0010905047347225289 0 0.00025221277048955815 -0.0010808864030973941 0 0.00015027761848720688 -0.0008816824832915312 0 0.00020253333847550622 -0.00086232245437106096 0 0.0001936407722444687 -0.00087638600238432987 0 0.00017775403601109541 -0.00086818006942230241 0 0.00019934438079240434 -0.00084613988698698883 0 0.00020253333847550622 -0.00086232245437106096 0 0.00017775403601109541 -0.00086818006942230241 0 0.0002342023741113258 -0.0011852625276443335 0 0.00025221277048955815 -0.0010808864030973941 0 -5.6590710181804623e-06 -0.00093274110936992344 0 0.00025221277048955815 -0.0010808864030973941 0 0.00015027761848720688 -0.0008816824832915312 0 -5.6590710181804623e-06 -0.00093274110936992344 0 0.00015027761848720688 -0.0008816824832915312 0 -4.87430116937329e-05 -0.00077216982291815296 0 9.4883262525476638e-05 -0.00073210394936572363 0 0.00015027761848720688 -0.0008816824832915312 0 -4.87430116937329e-05 -0.00077216982291815296 0 -5.6590710181804623e-06 -0.00093274110936992344 0 -4.87430116937329e-05 -0.00077216982291815296 0 -5.6590710181804623e-06 -0.00093274110936992344 0 -0.00019088003881499437 -0.00079879174962493025 0 -5.6590710181804623e-06 -0.00093274110936992344 0 -0.00019735603717095285 -0.00091237508570208854 0 -0.00019088003881499437 -0.00079879174962493025 0 -5.6590710181804623e-06 -0.00093274110936992344 0 -0.00014025241035822532 -0.0010813030703039387 0 -0.00019735603717095285 -0.00091237508570208854 0 0.0002342023741113258 -0.0011852625276443335 0 -5.6590710181804623e-06 -0.00093274110936992344 0 -0.00014025241035822532 -0.0010813030703039387 0 0.00010660430068498838 -0.0011633309415884014 0 1.3506101721897048e-05 -0.00093608019876882155 0 -0.00014025241035822532 -0.0010813030703039387 0 -0.00025552226967028198 -0.00094979276138812613 0 -0.00036925170885293145 -0.0009583294491809103 0 0.00036747617074540137 -0.0012031531018994273 0 0.00032968986414964977 -0.001220792630234888 0 0.00038786717645987511 -0.0012395213909894118 0 0.0003367937846171113 -0.0010859698849076985 0 1.3506101721897048e-05 -0.00093608019876882155 0 -0.00025552226967028198 -0.00094979276138812613 0 -0.00036925170885293145 -0.0009583294491809103 0 -0.00031179698731640629 -0.00085573041228308199 0 -0.00014025241035822532 -0.0010813030703039387 0 -0.00025552226967028198 -0.00094979276138812613 0 -0.00019735603717095285 -0.00091237508570208854 0 5.5179722890741348e-05 -0.0007383526716628556 0 1.055830788291129e-05 -0.00080294615713495806 0 -2.5139740943230105e-05 -0.00071990215431743342 0 5.5179722890741348e-05 -0.0007383526716628556 0 1.055830788291129e-05 -0.00080294615713495806 0 8.3434703427713052e-05 -0.00084965077036927691 0 -3.1482901014430702e-06 -0.00089981478775524328 0 1.055830788291129e-05 -0.00080294615713495806 0 8.3434703427713052e-05 -0.00084965077036927691 0 5.5179722890741348e-05 -0.0007383526716628556 0 8.3434703427713052e-05 -0.00084965077036927691 0 0.00012919586369023616 -0.00072834180695552169 0 0.00029304671342177542 -0.00092519976794784098 0 0.00017271526624361956 -0.0008281129458617665 0 0.00020003958730783488 -0.00068367928069989928 0 0.00017271526624361956 -0.0008281129458617665 0 0.00020003958730783488 -0.00068367928069989928 0 0.00012919586369023616 -0.00072834180695552169 0 8.3434703427713052e-05 -0.00084965077036927691 0 0.00017271526624361956 -0.0008281129458617665 0 0.00012919586369023616 -0.00072834180695552169 0 -7.9598937472960622e-05 -0.00090154891199352753 0 -0.00017338832769340438 -0.00085711517488763799 0 -0.00020028128363661535 -0.00070078187181484876 0 1.3506101721897048e-05 -0.00093608019876882155 0 -9.8546593536505387e-05 -0.00077435685807633679 0 0.00020003958730783488 -0.00068367928069989928 0 0.00013229500183913547 -0.00064270249789665391 0 0.00012919586369023616 -0.00072834180695552169 0 0.00013229500183913547 -0.00064270249789665391 0 3.9412810532709697e-05 -0.00066548760452114092 0 -7.1904537900809419e-05 -0.00055719204066574017 0 5.5179722890741348e-05 -0.0007383526716628556 0 0.00012919586369023616 -0.00072834180695552169 0 3.9412810532709697e-05 -0.00066548760452114092 0 0.00013229500183913547 -0.00064270249789665391 0 0.00012919586369023616 -0.00072834180695552169 0 3.9412810532709697e-05 -0.00066548760452114092 0 5.5179722890741348e-05 -0.0007383526716628556 0 3.9412810532709697e-05 -0.00066548760452114092 0 -2.5139740943230105e-05 -0.00071990215431743342 0 -0.00029900254959416145 -0.00071506223517534386 0 -0.0004695771409883854 -0.00059921228593633202 0 -0.00013933028571556921 -0.00074876267022656981 0 -0.00016649757155196427 -0.00058862826781703732 0 -0.00049790620760449197 -0.00056929964674842348 0 -9.8546593536505387e-05 -0.00077435685807633679 0 -0.00029900254959416145 -0.00071506223517534386 0 1.3506101721897048e-05 -0.00093608019876882155 0 -0.00029900254959416145 -0.00071506223517534386 0 -0.00036925170885293145 -0.0009583294491809103 0 -0.00042200047833096757 -0.00085006201391647686 0 -0.00031179698731640629 -0.00085573041228308199 0 -0.00042200047833096757 -0.00085006201391647686 0 -0.00031179698731640629 -0.00085573041228308199 0 -0.0003293853390902187 -0.00072897544650010412 0 -0.00029900254959416145 -0.00071506223517534386 0 -0.00045952970280223408 -0.00042227744382138501 0 -0.00025552226967028198 -0.00094979276138812613 0 -0.00019735603717095285 -0.00091237508570208854 0 -0.00031179698731640629 -0.00085573041228308199 0 -0.00019735603717095285 -0.00091237508570208854 0 -0.00031179698731640629 -0.00085573041228308199 0 -0.00019088003881499437 -0.00079879174962493025 0 -0.00031179698731640629 -0.00085573041228308199 0 -0.00019088003881499437 -0.00079879174962493025 0 -0.0003293853390902187 -0.00072897544650010412 0 -0.00019088003881499437 -0.00079879174962493025 0 -0.0003293853390902187 -0.00072897544650010412 0 -0.00017646467639562168 -0.00062182923212155425 0 -0.0003293853390902187 -0.00072897544650010412 0 -0.00033425696633298336 -0.00061251916159048357 0 -0.00017646467639562168 -0.00062182923212155425 0 -0.00045989835994496027 -0.0007518264890558938 0 -0.00050754009968147749 -0.00048779422066522405 0 -0.00059721280933941283 -0.00052677333503591689 0 -0.00042200047833096757 -0.00085006201391647686 0 -0.0003293853390902187 -0.00072897544650010412 0 -0.00043690809174848355 -0.00068729669877508359 0 -0.0003293853390902187 -0.00072897544650010412 0 -0.00043690809174848355 -0.00068729669877508359 0 -0.00033425696633298336 -0.00061251916159048357 0 -0.00043690809174848355 -0.00068729669877508359 0 -0.00044729042045258999 -0.00056701155657763616 0 -0.00033425696633298336 -0.00061251916159048357 0 -0.00069474897116029565 -0.00043514338598373481 0 -0.00031256000934126038 -0.00055943318251227799 0 -0.0004695771409883854 -0.00059921228593633202 0 -0.00069474897116029565 -0.00043514338598373481 0 -0.00050754009968147749 -0.00048779422066522405 0 -0.00055386381207464313 -0.00022513079533300348 0 -0.00060309150229339063 -0.00038319130354137103 0 -0.00044729042045258999 -0.00056701155657763616 0 -0.00033425696633298336 -0.00061251916159048357 0 -0.00033733240246015166 -0.00052558852718838736 0 -0.00026745501366685123 -0.00057260475616907624 0 -0.00033425696633298336 -0.00061251916159048357 0 -0.00033733240246015166 -0.00052558852718838736 0 -0.00026745501366685123 -0.00057260475616907624 0 -0.00033425696633298336 -0.00061251916159048357 0 -0.00017646467639562168 -0.00062182923212155425 0 -0.00026745501366685123 -0.00057260475616907624 0 -0.00017646467639562168 -0.00062182923212155425 0 -0.00022862354206321797 -0.00054005677938118949 0 -0.00020113277101686694 -0.00055180482977166428 0 -0.00017646467639562168 -0.00062182923212155425 0 -0.00022862354206321797 -0.00054005677938118949 0 0.00024653492177917379 -0.00045989679677121666 0 -0.00030057003190376951 -0.0006671400287243071 0 4.9519806172409677e-05 -0.00057419677283951831 0 9.4883262525476638e-05 -0.00073210394936572363 0 -0.00017646467639562168 -0.00062182923212155425 0 -4.87430116937329e-05 -0.00077216982291815296 0 9.4883262525476638e-05 -0.00073210394936572363 0 -0.00017646467639562168 -0.00062182923212155425 0 -4.87430116937329e-05 -0.00077216982291815296 0 -0.00019088003881499437 -0.00079879174962493025 0 -0.00017646467639562168 -0.00062182923212155425 0 -0.0009724086991604058 -0.00042579766592705385 0 -0.0012908840608156335 -0.0006782847142770942 0 -0.0013072851326570642 -0.00016591429245977176 0 -0.0009724086991604058 -0.00042579766592705385 0 -0.00098575536802297217 -9.277252694503589e-05 0 -0.0013072851326570642 -0.00016591429245977176 0 -0.0009724086991604058 -0.00042579766592705385 0 -0.00075376525853549964 -0.00021319180655137059 0 -0.00098575536802297217 -9.277252694503589e-05 0 -0.0012336577266854288 -0.0010884948753547548 0 -0.001002621816957903 -0.00093418710852026781 0 -0.0012908840608156335 -0.0006782847142770942 0 -0.0009724086991604058 -0.00042579766592705385 0 -0.00096654439840804544 -0.00071768296163880773 0 -0.0012908840608156335 -0.0006782847142770942 0 -0.001002621816957903 -0.00093418710852026781 0 -0.00096654439840804544 -0.00071768296163880773 0 -0.0012908840608156335 -0.0006782847142770942 0 -0.001002621816957903 -0.00093418710852026781 0 -0.00096654439840804544 -0.00071768296163880773 0 -0.0007999569715351556 -0.00085396753845871562 0 -0.0009724086991604058 -0.00042579766592705385 0 -0.00096654439840804544 -0.00071768296163880773 0 -0.00076408173186610776 -0.00064889386690393091 0 -0.00096654439840804544 -0.00071768296163880773 0 -0.00076408173186610776 -0.00064889386690393091 0 -0.0007999569715351556 -0.00085396753845871562 0 -0.00076408173186610776 -0.00064889386690393091 0 -0.0007999569715351556 -0.00085396753845871562 0 -0.00055625152639222659 -0.00068304218352424324 0 -0.0007999569715351556 -0.00085396753845871562 0 -0.00059027380710489365 -0.0008559265120410051 0 -0.00055625152639222659 -0.00068304218352424324 0 -0.00076408173186610776 -0.00064889386690393091 0 -0.00055625152639222659 -0.00068304218352424324 0 -0.00062495875965563712 -0.000532128070466474 0 -0.00055625152639222659 -0.00068304218352424324 0 -0.00062495875965563712 -0.000532128070466474 0 -0.00046158697200644115 -0.00054507288585619522 0 -0.00062495875965563712 -0.000532128070466474 0 -0.00076767211245243501 -0.00042017018588134855 0 -0.00058650365774673234 -0.00035736891868889026 0 -0.00062495875965563712 -0.000532128070466474 0 -0.00058650365774673234 -0.00035736891868889026 0 -0.00046158697200644115 -0.00054507288585619522 0 -0.00076408173186610776 -0.00064889386690393091 0 -0.00062495875965563712 -0.000532128070466474 0 -0.00076767211245243501 -0.00042017018588134855 0 -0.0009724086991604058 -0.00042579766592705385 0 -0.00076408173186610776 -0.00064889386690393091 0 -0.00076767211245243501 -0.00042017018588134855 0 -0.00076767211245243501 -0.00042017018588134855 0 -0.00075376525853549964 -0.00021319180655137059 0 -0.00058650365774673234 -0.00035736891868889026 0 -0.0009724086991604058 -0.00042579766592705385 0 -0.00076767211245243501 -0.00042017018588134855 0 -0.00075376525853549964 -0.00021319180655137059 0 -0.00058650365774673234 -0.00035736891868889026 0 -0.0004541250750785715 -0.0003048016538515642 0 -0.00056788617671913485 -0.00014359268080522752 0 -0.00075376525853549964 -0.00021319180655137059 0 -0.00058650365774673234 -0.00035736891868889026 0 -0.00056788617671913485 -0.00014359268080522752 0 -0.0004541250750785715 -0.0003048016538515642 0 -0.00017628658181400856 -0.00041743906717640384 0 -0.00056788617671913485 -0.00014359268080522752 0 -0.00022144924657593179 -0.00039163794401586832 0 -0.00053558087534818838 -0.00016060405451497864 0 -0.0004541250750785715 -0.0003048016538515642 0 -0.00030580492967054954 -0.00039954122730150602 0 -0.00044332920919133955 -0.000409183298190137 0 -0.00058650365774673234 -0.00035736891868889026 0 -0.0004541250750785715 -0.0003048016538515642 0 -0.00044332920919133955 -0.000409183298190137 0 -0.0004541250750785715 -0.0003048016538515642 0 -0.00030580492967054954 -0.00039954122730150602 0 -0.00017628658181400856 -0.00041743906717640384 0 -0.00035935793618954964 -0.00049369420726854058 0 -0.00046158697200644115 -0.00054507288585619522 0 -0.00031623397493694104 -0.0006073815683460312 0 -0.00030580492967054954 -0.00039954122730150602 0 -0.00035935793618954964 -0.00049369420726854058 0 -0.00044332920919133955 -0.000409183298190137 0 -0.00030580492967054954 -0.00039954122730150602 0 -0.00023569574832116286 -0.00045172242265059242 0 -0.00017628658181400856 -0.00041743906717640384 0 -0.00030580492967054954 -0.00039954122730150602 0 -0.00026114194948202409 -0.00050867177919566701 0 -0.00023569574832116286 -0.00045172242265059242 0 -0.00030580492967054954 -0.00039954122730150602 0 -0.00026114194948202409 -0.00050867177919566701 0 -0.00035935793618954964 -0.00049369420726854058 0 -0.00026114194948202409 -0.00050867177919566701 0 -0.00035935793618954964 -0.00049369420726854058 0 -0.00031623397493694104 -0.0006073815683460312 0 -0.00058650365774673234 -0.00035736891868889026 0 -0.00044332920919133955 -0.000409183298190137 0 -0.00046158697200644115 -0.00054507288585619522 0 -0.00035935793618954964 -0.00049369420726854058 0 -0.00044332920919133955 -0.000409183298190137 0 -0.00046158697200644115 -0.00054507288585619522 0 -0.00046158697200644115 -0.00054507288585619522 0 -0.00038140727121809475 -0.0006946352460921333 0 -0.00031623397493694104 -0.0006073815683460312 0 -0.00055625152639222659 -0.00068304218352424324 0 -0.00046158697200644115 -0.00054507288585619522 0 -0.00038140727121809475 -0.0006946352460921333 0 -0.00059027380710489365 -0.0008559265120410051 0 -0.00055625152639222659 -0.00068304218352424324 0 -0.00043168718524492339 -0.00083541147920144728 0 -0.00055625152639222659 -0.00068304218352424324 0 -0.00038140727121809475 -0.0006946352460921333 0 -0.00043168718524492339 -0.00083541147920144728 0 -0.00038140727121809475 -0.0006946352460921333 0 -0.00043168718524492339 -0.00083541147920144728 0 -0.00027934403785302513 -0.00079541272953616597 0 -0.00038140727121809475 -0.0006946352460921333 0 -0.00027934403785302513 -0.00079541272953616597 0 -0.00025627947201085628 -0.00069196415783162818 0 -0.00027934403785302513 -0.00079541272953616597 0 -0.00025627947201085628 -0.00069196415783162818 0 -0.00020003337821112037 -0.00074978998754282947 0 -0.00038140727121809475 -0.0006946352460921333 0 -0.00025627947201085628 -0.00069196415783162818 0 -0.00031623397493694104 -0.0006073815683460312 0 -0.00025627947201085628 -0.00069196415783162818 0 -0.00031623397493694104 -0.0006073815683460312 0 -0.00023589163096283128 -0.00059910928911154993 0 -0.00026114194948202409 -0.00050867177919566701 0 -0.00031623397493694104 -0.0006073815683460312 0 -0.00023589163096283128 -0.00059910928911154993 0 -0.00023589163096283128 -0.00059910928911154993 0 -0.00017697441687291392 -0.00066917905658756037 0 -0.00016654145944603396 -0.00056165372689327242 0 -0.00017697441687291392 -0.00066917905658756037 0 -9.6911487902665082e-05 -0.00064654342988827338 0 -0.00016654145944603396 -0.00056165372689327242 0 -0.00017697441687291392 -0.00066917905658756037 0 -0.00011805442546060072 -0.00074370076068909692 0 -9.6911487902665082e-05 -0.00064654342988827338 0 -0.00025627947201085628 -0.00069196415783162818 0 -0.00017697441687291392 -0.00066917905658756037 0 -0.00020003337821112037 -0.00074978998754282947 0 -0.00025627947201085628 -0.00069196415783162818 0 -0.00023589163096283128 -0.00059910928911154993 0 -0.00017697441687291392 -0.00066917905658756037 0 -0.00017697441687291392 -0.00066917905658756037 0 -0.00020003337821112037 -0.00074978998754282947 0 -0.00011805442546060072 -0.00074370076068909692 0 -0.00017278933858615449 -0.00084648472418630207 0 -0.00020003337821112037 -0.00074978998754282947 0 -0.00011805442546060072 -0.00074370076068909692 0 -0.00017278933858615449 -0.00084648472418630207 0 -0.00027934403785302513 -0.00079541272953616597 0 -0.00020003337821112037 -0.00074978998754282947 0 -3.1482901014430702e-06 -0.00089981478775524328 0 1.055830788291129e-05 -0.00080294615713495806 0 -5.9134092570951555e-05 -0.00082408515762993754 0 -0.00017278933858615449 -0.00084648472418630207 0 -0.00011805442546060072 -0.00074370076068909692 0 -5.9134092570951555e-05 -0.00082408515762993754 0 -0.00011805442546060072 -0.00074370076068909692 0 -5.9134092570951555e-05 -0.00082408515762993754 0 -2.5139740943230105e-05 -0.00071990215431743342 0 1.055830788291129e-05 -0.00080294615713495806 0 -5.9134092570951555e-05 -0.00082408515762993754 0 -2.5139740943230105e-05 -0.00071990215431743342 0 -2.5139740943230105e-05 -0.00071990215431743342 0 -9.6911487902665082e-05 -0.00064654342988827338 0 -3.5858957746885768e-05 -0.00064098880761072233 0 3.9412810532709697e-05 -0.00066548760452114092 0 -2.5139740943230105e-05 -0.00071990215431743342 0 -3.5858957746885768e-05 -0.00064098880761072233 0 -0.00011805442546060072 -0.00074370076068909692 0 -2.5139740943230105e-05 -0.00071990215431743342 0 -9.6911487902665082e-05 -0.00064654342988827338 0 -9.6911487902665082e-05 -0.00064654342988827338 0 -3.5858957746885768e-05 -0.00064098880761072233 0 -7.1904537900809419e-05 -0.00055719204066574017 0 -9.6911487902665082e-05 -0.00064654342988827338 0 -7.1904537900809419e-05 -0.00055719204066574017 0 -0.00016654145944603396 -0.00056165372689327242 0 3.9412810532709697e-05 -0.00066548760452114092 0 -3.5858957746885768e-05 -0.00064098880761072233 0 -7.1904537900809419e-05 -0.00055719204066574017 0 -0.00016649757155196427 -0.00058862826781703732 0 -0.00049790620760449197 -0.00056929964674842348 0 -0.0003547474723215775 -0.00027346562265873119 0 -9.8546593536505387e-05 -0.00077435685807633679 0 -0.00022091303740338116 -0.00043380601237903249 0 0.00013229500183913547 -0.00064270249789665391 0 -7.1904537900809419e-05 -0.00055719204066574017 0 -0.0001275746348579276 -0.00045512567565332947 0 -7.1904537900809419e-05 -0.00055719204066574017 0 -0.0001537364238924932 -0.00050356880513389665 0 -0.00016654145944603396 -0.00056165372689327242 0 -0.0001537364238924932 -0.00050356880513389665 0 -0.00016654145944603396 -0.00056165372689327242 0 -0.00020067478117596443 -0.00048050987278483914 0 -0.00026114194948202409 -0.00050867177919566701 0 -0.00016654145944603396 -0.00056165372689327242 0 -0.00020067478117596443 -0.00048050987278483914 0 -0.00026114194948202409 -0.00050867177919566701 0 -0.00023589163096283128 -0.00059910928911154993 0 -0.00016654145944603396 -0.00056165372689327242 0 -0.0001537364238924932 -0.00050356880513389665 0 -0.00020067478117596443 -0.00048050987278483914 0 -0.00017628658181400856 -0.00041743906717640384 0 -0.00026114194948202409 -0.00050867177919566701 0 -0.00020067478117596443 -0.00048050987278483914 0 -0.00023569574832116286 -0.00045172242265059242 0 -0.00020067478117596443 -0.00048050987278483914 0 -0.00023569574832116286 -0.00045172242265059242 0 -0.00017628658181400856 -0.00041743906717640384 0 -7.1904537900809419e-05 -0.00055719204066574017 0 -0.0001275746348579276 -0.00045512567565332947 0 -0.00017628658181400856 -0.00041743906717640384 0 -7.1904537900809419e-05 -0.00055719204066574017 0 -0.0001537364238924932 -0.00050356880513389665 0 -0.00017628658181400856 -0.00041743906717640384 0 -0.00022091303740338116 -0.00043380601237903249 0 -0.00022144924657593179 -0.00039163794401586832 0 -0.00011608811439775657 -0.00036123015048274268 0 -0.00017690086738769952 -0.00033064382319283707 0 -0.00029895013019670371 -0.00010693068558251732 0 -0.00011608811439775657 -0.00036123015048274268 0 -0.00020966389138346071 0.00017079012153454272 0 -0.00029895013019670371 -0.00010693068558251732 0 -0.00049790620760449197 -0.00056929964674842348 0 -0.0003547474723215775 -0.00027346562265873119 0 -0.00060331880140581209 1.675459656330355e-05 0 -0.00022091303740338116 -0.00043380601237903249 0 -0.00056802721360064317 0.00010275537833604653 0 -0.0003547474723215775 -0.00027346562265873119 0 -0.00060331880140581209 1.675459656330355e-05 0 -0.00054450841305476799 4.2437036983290915e-05 0 -0.00045952970280223408 -0.00042227744382138501 0 -0.00095115744059984307 -7.5373514862398576e-05 0 -0.00059721280933941283 -0.00052677333503591689 0 -0.00060309150229339063 -0.00038319130354137103 0 -0.00073287734657327783 -0.00030190620900950627 0 -0.00050754009968147749 -0.00048779422066522405 0 -0.00059721280933941283 -0.00052677333503591689 0 -0.00060309150229339063 -0.00038319130354137103 0 -0.00055386381207464313 -0.00022513079533300348 0 -0.00060309150229339063 -0.00038319130354137103 0 -0.00073287734657327783 -0.00030190620900950627 0 -0.00069474897116029565 -0.00043514338598373481 0 -0.00095115744059984307 -7.5373514862398576e-05 0 -0.001546984004932555 6.9167792086272247e-05 0 -0.0017051543597609436 6.6958212374323902e-05 0 -0.0017267448001312023 -3.8349273414642972e-06 0 -0.001546984004932555 6.9167792086272247e-05 0 -0.0016540128054335695 0.00011879954421483937 0 -0.0017051543597609436 6.6958212374323902e-05 0 -0.0016540128054335695 0.00011879954421483937 0 -0.0017051543597609436 6.6958212374323902e-05 0 -0.0017747189605469699 7.9750626649021411e-05 0 -0.0017099105521928809 6.0077197235838008e-05 0 -0.0011138546661061471 0.00018768279338781445 0 -0.0016540128054335695 0.00011879954421483937 0 -0.0017966012108749342 7.6480153647826463e-05 0 -0.0018127759375150959 0.00010309778280444632 0 -0.0011138546661061471 0.00018768279338781445 0 -0.0013123263870738727 0.00027173101130219046 0 -0.0017051543597609436 6.6958212374323902e-05 0 -0.0017747189605469699 7.9750626649021411e-05 0 -0.0017267448001312023 -3.8349273414642972e-06 0 -0.0011138546661061471 0.00018768279338781445 0 -0.00095115744059984307 -7.5373514862398576e-05 0 -0.00094652473746532581 0.0001890694014610868 0 -0.00091742188298725056 -0.00013426037415412284 0 -0.00078715932963396547 -7.7402401066485377e-05 0 -0.0011138546661061471 0.00018768279338781445 0 -0.00056802721360064317 0.00010275537833604653 0 -0.00056802721360064317 0.00010275537833604653 0 -0.00095115744059984307 -7.5373514862398576e-05 0 -0.00025472287568809764 0.00028780664006800515 0 -0.00057758373456638266 0.00013195862391845984 0 -0.00055259117743058569 0.00032693033833541433 0 -0.00026755415950551338 0.00040832621072710464 0 -0.00025472287568809764 0.00028780664006800515 0 -0.00055259117743058569 0.00032693033833541433 0 -0.0011138546661061471 0.00018768279338781445 0 -0.00080795537515318929 0.00042698491372935026 0 -0.0011987120187910644 0.00048072396632730177 0 -0.0012340509857824188 0.00049435929254871788 0 -0.0012555167330144225 0.00046500342255714744 0 -0.0011987120187910644 0.00048072396632730177 0 -0.0012021380401321395 0.0004865784414336592 0 -0.0012340509857824188 0.00049435929254871788 0 -0.0012340509857824188 0.00049435929254871788 0 -0.0012555167330144225 0.00046500342255714744 0 -0.0012734755679336257 0.00049565981683984302 0 -0.00056802721360064317 0.00010275537833604653 0 -0.00051720323757907831 0.00010190178999656503 0 -0.00017690086738769952 -0.00033064382319283707 0 -0.00029895013019670371 -0.00010693068558251732 0 -0.00056788617671913485 -0.00014359268080522752 0 -0.00020966389138346071 0.00017079012153454272 0 -0.00044157370168699601 -6.0954229319894772e-05 0 -0.0005649576845731918 2.2936891859490948e-05 0 -0.00020966389138346071 0.00017079012153454272 0 -0.00029895013019670371 -0.00010693068558251732 0 -0.00044157370168699601 -6.0954229319894772e-05 0 -0.00044157370168699601 -6.0954229319894772e-05 0 -0.00056788617671913485 -0.00014359268080522752 0 -0.0005649576845731918 2.2936891859490948e-05 0 -0.00029895013019670371 -0.00010693068558251732 0 -0.00044157370168699601 -6.0954229319894772e-05 0 -0.00056788617671913485 -0.00014359268080522752 0 -0.00051720323757907831 0.00010190178999656503 0 -0.00098091440547227386 -9.3484290635190192e-05 0 -0.00057758373456638266 0.00013195862391845984 0 -0.00088360827625480443 0.00024824992622132655 0 -0.00094012668061850015 0.00018267229829896676 0 -0.00075376525853549964 -0.00021319180655137059 0 -0.0005649576845731918 2.2936891859490948e-05 0 -0.00098575536802297217 -9.277252694503589e-05 0 -0.00057758373456638266 0.00013195862391845984 0 -0.00094012668061850015 0.00018267229829896676 0 -0.00098575536802297217 -9.277252694503589e-05 0 -0.00075376525853549964 -0.00021319180655137059 0 -0.00056788617671913485 -0.00014359268080522752 0 -0.0005649576845731918 2.2936891859490948e-05 0 -0.00080795537515318929 0.00042698491372935026 0 -0.001276443026964235 0.00033780653164313144 0 -0.0012555167330144225 0.00046500342255714744 0 -0.0012734755679336257 0.00049565981683984302 0 -0.0013094454301654892 0.0004486215320566629 0 -0.0015994308979706199 0.00065247007674596824 0 -0.0017516245636085329 0.00041749542802926642 0 -0.0018523772605136841 0.00060667861959711703 0 -0.00057758373456638266 0.00013195862391845984 0 -0.00055259117743058569 0.00032693033833541433 0 -0.00088360827625480443 0.00024824992622132655 0 -0.0014347782335964834 0.00057292813393806268 0 -0.001276443026964235 0.00033780653164313144 0 -0.0017516245636085329 0.00041749542802926642 0 -0.0019782922662930557 0.00046526550617396767 0 -0.0021511289259019198 0.0002090038785007723 0 -0.0017516245636085329 0.00041749542802926642 0 -0.0018523772605136841 0.00060667861959711703 0 -0.0019782922662930557 0.00046526550617396767 0 -0.0018523772605136841 0.00060667861959711703 0 -0.0019642757923619631 0.00074752546466374972 0 -0.0020150217012611551 0.00061782678065088392 0 -0.0018523772605136841 0.00060667861959711703 0 -0.0019782922662930557 0.00046526550617396767 0 -0.0020150217012611551 0.00061782678065088392 0 -0.001276443026964235 0.00033780653164313144 0 -0.0018796077937976439 0.00017043561347884 0 -0.00087000638066441751 0.00025497690639943236 0 -0.00094012668061850015 0.00018267229829896676 0 -0.0015425729731658791 0.0001606778043200934 0 -0.001276443026964235 0.00033780653164313144 0 -0.0011962535051650305 0.00034814879878582145 0 -0.00094012668061850015 0.00018267229829896676 0 -0.00098575536802297217 -9.277252694503589e-05 0 -0.0013072851326570642 -0.00016591429245977176 0 -0.001907777818655127 0.0010217667730032618 0 -0.0018887021828880603 0.0010869226182365578 0 -0.0021410423849072416 0.0010476299160153359 0 -0.0018887021828880603 0.0010869226182365578 0 -0.0018205453250137486 0.0011885433235578979 0 -0.0021410423849072416 0.0010476299160153359 0 -0.001907777818655127 0.0010217667730032618 0 -0.0018887021828880603 0.0010869226182365578 0 -0.001760905033408087 0.0010663653739218023 0 -0.001907777818655127 0.0010217667730032618 0 -0.001913112086320546 0.0008780002197344627 0 -0.0017273685601621033 0.00090935297130052915 0 -0.001907777818655127 0.0010217667730032618 0 -0.0017273685601621033 0.00090935297130052915 0 -0.001760905033408087 0.0010663653739218023 0 -0.001907777818655127 0.0010217667730032618 0 -0.001913112086320546 0.0008780002197344627 0 -0.0020309058013208083 0.00096087318600460039 0 -0.001913112086320546 0.0008780002197344627 0 -0.002065640941530287 0.00087685961289787743 0 -0.0020309058013208083 0.00096087318600460039 0 -0.001913112086320546 0.0008780002197344627 0 -0.0019642757923619631 0.00074752546466374972 0 -0.0017956676740293331 0.00077115845881330373 0 -0.001913112086320546 0.0008780002197344627 0 -0.0019642757923619631 0.00074752546466374972 0 -0.002065640941530287 0.00087685961289787743 0 -0.0018523772605136841 0.00060667861959711703 0 -0.0019642757923619631 0.00074752546466374972 0 -0.0017956676740293331 0.00077115845881330373 0 -0.001913112086320546 0.0008780002197344627 0 -0.0017956676740293331 0.00077115845881330373 0 -0.0017273685601621033 0.00090935297130052915 0 -0.0015994308979706199 0.00065247007674596824 0 -0.0018523772605136841 0.00060667861959711703 0 -0.0017956676740293331 0.00077115845881330373 0 -0.0015994308979706199 0.00065247007674596824 0 -0.0017273685601621033 0.00090935297130052915 0 -0.0014324357082200034 0.00092073299818689453 0 -0.0016623238952152887 0.0009141842411283063 0 -0.001636003742126312 0.00087823982927904892 0 -0.0015994308979706199 0.00065247007674596824 0 -0.0017956676740293331 0.00077115845881330373 0 -0.0017273685601621033 0.00090935297130052915 0 -0.0017273685601621033 0.00090935297130052915 0 -0.0016403434292288348 0.0010238216626852804 0 -0.0015869359565887134 0.00093496232547740209 0 -0.0017273685601621033 0.00090935297130052915 0 -0.001760905033408087 0.0010663653739218023 0 -0.0016403434292288348 0.0010238216626852804 0 -0.001760905033408087 0.0010663653739218023 0 -0.0016403434292288348 0.0010238216626852804 0 -0.0016806483909151048 0.0011528078910175263 0 -0.0026754483540408374 0.0008811233773243774 0 -0.0027277278725005558 0.00096455615760236799 0 -0.0015380999880236785 0.00098918060863807363 0 -0.0015870716159608455 0.00099182586957767527 0 -0.0015732261680623061 0.0011565292333519728 0 -0.0016403434292288348 0.0010238216626852804 0 -0.0015870716159608455 0.00099182586957767527 0 -0.0015732261680623061 0.0011565292333519728 0 -0.0026754483540408374 0.0008811233773243774 0 -0.0022873435785362756 0.00070850723268227084 0 -0.0023656014568844701 0.00075508269004531572 0 -0.0022948293134545665 0.00084074168246770474 0 -0.002379933157911962 0.00083754329282627142 0 -0.0015380999880236785 0.00098918060863807363 0 -0.0015870716159608455 0.00099182586957767527 0 -0.0015749216268034685 0.00094449641703205577 0 -0.0026754483540408374 0.0008811233773243774 0 -0.0018333050973878648 0.00086477897530518901 0 -0.0016517141276688363 0.00099199532524049845 0 -0.001636003742126312 0.00087823982927904892 0 -0.0016403434292288348 0.0010238216626852804 0 -0.0015870716159608455 0.00099182586957767527 0 -0.0015965721556762962 0.00094423604102376109 0 -0.0015870716159608455 0.00099182586957767527 0 -0.0015749216268034685 0.00094449641703205577 0 -0.0015965721556762962 0.00094423604102376109 0 -0.0013123263870738727 0.00027173101130219046 0 -0.0022873435785362756 0.00070850723268227084 0 -0.0015994308979706199 0.00065247007674596824 0 -0.0014324357082200034 0.00092073299818689453 0 -0.0014150513345388615 0.00089165321356034395 0 -0.0013123263870738727 0.00027173101130219046 0 -0.0016109240967345706 0.00083095822845358712 0 -0.0012021380401321395 0.0004865784414336592 0 -0.0012340509857824188 0.00049435929254871788 0 -0.0012376951794035853 0.00054507617408583128 0 -0.0015681984745123917 0.00025313691060697985 0 -0.0018975721942595726 0.00080266973354759527 0 -0.0016832136973098594 0.00086872892515665412 0 -0.0016092417415387078 0.00094218178342822707 0 -0.0016853834168374454 0.00093953139291161336 0 -0.0016538811479028489 0.00088657803894333267 0 -0.0018333050973878648 0.00086477897530518901 0 -0.001636003742126312 0.00087823982927904892 0 -0.0018333050973878648 0.00086477897530518901 0 -0.0016109240967345706 0.00083095822845358712 0 -0.001636003742126312 0.00087823982927904892 0 -0.0016109240967345706 0.00083095822845358712 0 -0.0014347782335964834 0.00057292813393806268 0 -0.0016109240967345706 0.00083095822845358712 0 -0.0012340509857824188 0.00049435929254871788 0 -0.0012734755679336257 0.00049565981683984302 0 -0.0012376951794035853 0.00054507617408583128 0 -0.0018492153146045503 0.00086297157683800903 0 -0.0018975721942595726 0.00080266973354759527 0 -0.0016832136973098594 0.00086872892515665412 0 -0.0018333050973878648 0.00086477897530518901 0 -0.0022873435785362756 0.00070850723268227084 0 -0.0016540128054335695 0.00011879954421483937 0 -0.0017415352481046356 0.00025772040957292697 0 -0.0016108020739470257 0.00040067730043680212 0 -0.0018127759375150959 0.00010309778280444632 0 -0.0018712899918597113 0.00039508446581379907 0 -0.0017415352481046356 0.00025772040957292697 0 -0.001546984004932555 6.9167792086272247e-05 0 -0.0016540128054335695 0.00011879954421483937 0 -0.0016108020739470257 0.00040067730043680212 0 -0.0018712899918597113 0.00039508446581379907 0 -0.0017415352481046356 0.00025772040957292697 0 -0.0016108020739470257 0.00040067730043680212 0 -0.00069474897116029565 -0.00043514338598373481 0 -0.0030875506873026281 0.00018741952777731136 0 -0.0016540128054335695 0.00011879954421483937 0 -0.0018127759375150959 0.00010309778280444632 0 -0.0017415352481046356 0.00025772040957292697 0 -0.0022873435785362756 0.00070850723268227084 0 -0.0030875506873026281 0.00018741952777731136 0 -0.0031747359593061598 0.00055808320495649255 0 -0.0037183211328101931 0.00068871279984363573 0 -0.0036173424681373734 2.3794251112155371e-05 0 -0.0031747359593061598 0.00055808320495649255 0 -0.0032006616323067196 0.00070890535317017541 0 -0.0037183211328101931 0.00068871279984363573 0 -0.0026754483540408374 0.0008811233773243774 0 -0.005075506711026012 0.00026534024179042658 0 -0.0030875506873026281 0.00018741952777731136 0 -0.005075506711026012 0.00026534024179042658 0 -0.005075506711026012 0.00026534024179042658 0 -0.0062128137419435814 3.014565444440111e-06 0 -0.0060616153548975127 0.0003023352668056759 0 -0.0064103886240300875 0.00069400693666864949 0 -0.0061868576555611727 0.00064867338689303974 0 -0.005075506711026012 0.00026534024179042658 0 -0.0053657669911006877 0.00059540296696628913 0 -0.0041600412516180785 0.00078013186112626436 0 -0.003844462835699333 0.00051160025214162124 0 -0.0040956962814509106 0.00034472455984196931 0 -0.0062832953340877396 1.7264256137759798e-05 0 -0.0060616153548975127 0.0003023352668056759 0 -0.0064103886240300875 0.00069400693666864949 0 -0.0032878942107410695 0.00098204139375665956 0 -0.0053657669911006877 0.00059540296696628913 0 -0.0032878942107410695 0.00098204139375665956 0 -0.0047514977919511162 0.0010679016735947648 0 -0.0032878942107410695 0.00098204139375665956 0 -0.0027277278725005558 0.00096455615760236799 0 -0.0041600412516180785 0.00078013186112626436 0 -0.003844462835699333 0.00051160025214162124 0 -0.0038882296461657919 0.00077978182683456447 0 -0.003929632477952554 0.0010495215903490772 0 -0.0041600412516180785 0.00078013186112626436 0 -0.0038882296461657919 0.00077978182683456447 0 -0.0016129804152656205 0.0013135734543125348 0 -0.0015732261680623061 0.0011565292333519728 0 -0.0016806483909151048 0.0011528078910175263 0 -0.0016403434292288348 0.0010238216626852804 0 -0.0015732261680623061 0.0011565292333519728 0 -0.0016806483909151048 0.0011528078910175263 0 -0.0016129804152656205 0.0013135734543125348 0 -0.0016806483909151048 0.0011528078910175263 0 -0.0018205453250137486 0.0011885433235578979 0 -0.001760905033408087 0.0010663653739218023 0 -0.0016806483909151048 0.0011528078910175263 0 -0.0018205453250137486 0.0011885433235578979 0 -0.0038944385625393984 0.00092094419351159405 0 -0.0038926323801850952 0.00097038401404880999 0 -0.0037977323848721414 0.0010068726676034155 0 -0.0033868360644344654 0.0010603961487779712 0 -0.0034646667710494673 0.0010412768936427172 0 -0.0034562299154779863 0.00099048935279880362 0 -0.0033868360644344654 0.0010603961487779712 0 -0.0034646667710494673 0.0010412768936427172 0 -0.0034011362157942162 0.0011029975107108374 0 -0.0034618965889500739 0.0010319507453315402 0 -0.0047514977919511162 0.0010679016735947648 0 -0.0032878942107410695 0.00098204139375665956 0 -0.0024801473829688401 0.001156225229264208 0 -0.0038944385625393984 0.00092094419351159405 0 -0.0038926323801850952 0.00097038401404880999 0 -0.0039190013571439421 0.00093230674412545672 0 -0.0038926323801850952 0.00097038401404880999 0 -0.0039190013571439421 0.00093230674412545672 0 -0.0039333771955546775 0.00097490619484326651 0 -0.0038944385625393984 0.00092094419351159405 0 -0.0039190013571439421 0.00093230674412545672 0 -0.003919711994263041 0.00090171675633240046 0 -0.0034646667710494673 0.0010412768936427172 0 -0.0034562299154779863 0.00099048935279880362 0 -0.003606629139410145 0.00093099166951198724 0 -0.0024801473829688401 0.001156225229264208 0 -0.0029161721974962098 0.00094410266247939648 0 -0.0034618965889500739 0.0010319507453315402 0 -0.003811456222730966 0.0008695118766225159 0 -0.0038944385625393984 0.00092094419351159405 0 -0.0039242011031897306 0.000865242371498363 0 -0.003919711994263041 0.00090171675633240046 0 -0.0018887021828880603 0.0010869226182365578 0 -0.001760905033408087 0.0010663653739218023 0 -0.0018205453250137486 0.0011885433235578979 0 -0.0050143810037057805 -0.0005140429633556183 0 -0.0054760318978123923 -0.00017215644108322482 0 -0.0051054375420512554 -6.9102524697206829e-05 0 -0.0024316940137235695 -0.00046689222235336527 0 -0.0030994304759162966 -0.00052568119179524718 0 -0.0050143810037057805 -0.0005140429633556183 0 -0.0051054375420512554 -6.9102524697206829e-05 0 -0.0046442298716098396 -5.9701448471786437e-05 0 -0.0031629544733726644 -0.0007252797959901527 0 -0.0024316940137235695 -0.00046689222235336527 0 -0.0043970264333145761 -0.00050359552721306803 0 -0.0050143810037057805 -0.0005140429633556183 0 -0.0046442298716098396 -5.9701448471786437e-05 0 -0.00020113277101686694 -0.00055180482977166428 0 -0.00021175528502698663 -0.0005263215254527558 0 -0.00022862354206321797 -0.00054005677938118949 0 -0.00022135725789497283 -0.00051577306933006033 0 -0.00023487571589182109 -0.00048231250488782809 0 -0.00021175528502698663 -0.0005263215254527558 0 -0.00023487571589182109 -0.00048231250488782809 0 -0.00021175528502698663 -0.0005263215254527558 0 -0.00022862354206321797 -0.00054005677938118949 0 -0.00023487571589182109 -0.00048231250488782809 0 -0.00022862354206321797 -0.00054005677938118949 0 -0.00036295009066088902 -0.00041770244223671599 0 -0.00022862354206321797 -0.00054005677938118949 0 -0.00033733240246015166 -0.00052558852718838736 0 -0.00036295009066088902 -0.00041770244223671599 0 -0.00026745501366685123 -0.00057260475616907624 0 -0.00022862354206321797 -0.00054005677938118949 0 -0.00033733240246015166 -0.00052558852718838736 0 -0.00033733240246015166 -0.00052558852718838736 0 -0.00050776710955178442 -0.0004861785298172217 0 -0.00036295009066088902 -0.00041770244223671599 0 -0.0006922492550644467 -0.00037608575870869717 0 -0.00050776710955178442 -0.0004861785298172217 0 -0.00036295009066088902 -0.00041770244223671599 0 -0.00063555211632543556 -0.0006787451035770622 0 -0.0006922492550644467 -0.00037608575870869717 0 -0.00050776710955178442 -0.0004861785298172217 0 -0.00063555211632543556 -0.0006787451035770622 0 -0.00033733240246015166 -0.00052558852718838736 0 -0.00050776710955178442 -0.0004861785298172217 0 -0.0030875506873026281 0.00018741952777731136 0 -0.0030994304759162966 -0.00052568119179524718 0 -0.0061613333770711848 -0.00051195682471215061 0 -0.0056044719881055112 -0.0005080417772695136 0 -0.0058810442513063639 -0.00012809731021381211 0 -0.0061613333770711848 -0.00051195682471215061 0 -0.0062705092993573207 5.7898435134097842e-06 0 -0.0058810442513063639 -0.00012809731021381211 0 -0.0056044719881055112 -0.0005080417772695136 0 -0.0054760318978123923 -0.00017215644108322482 0 -0.0058810442513063639 -0.00012809731021381211 0 -0.0050143810037057805 -0.0005140429633556183 0 -0.0056044719881055112 -0.0005080417772695136 0 -0.0054760318978123923 -0.00017215644108322482 0 -0.0054760318978123923 -0.00017215644108322482 0 -0.005686317058737028 0.00012980906940444008 0 -0.0058810442513063639 -0.00012809731021381211 0 -0.0054760318978123923 -0.00017215644108322482 0 -0.005686317058737028 0.00012980906940444008 0 -0.0054007103035431823 0.00018170556956745678 0 -0.005686317058737028 0.00012980906940444008 0 -0.0058810442513063639 -0.00012809731021381211 0 -0.0060616153548975127 0.0003023352668056759 0 -0.0062705092993573207 5.7898435134097842e-06 0 -0.0058810442513063639 -0.00012809731021381211 0 -0.0060616153548975127 0.0003023352668056759 0 -0.005686317058737028 0.00012980906940444008 0 -0.0060616153548975127 0.0003023352668056759 0 -0.005731986983016535 0.00043978802069824941 0 -0.0060616153548975127 0.0003023352668056759 0 -0.005731986983016535 0.00043978802069824941 0 -0.0059880634571704118 0.00061947687238918074 0 -0.0060616153548975127 0.0003023352668056759 0 -0.0059880634571704118 0.00061947687238918074 0 -0.0061868576555611727 0.00064867338689303974 0 -0.0054007103035431823 0.00018170556956745678 0 -0.005731986983016535 0.00043978802069824941 0 -0.005370238854461043 0.0006559378950182186 0 -0.005686317058737028 0.00012980906940444008 0 -0.0054007103035431823 0.00018170556956745678 0 -0.005731986983016535 0.00043978802069824941 0 -0.0054007103035431823 0.00018170556956745678 0 -0.004978796790589741 0.00021788017675704855 0 -0.005370238854461043 0.0006559378950182186 0 -0.004978796790589741 0.00021788017675704855 0 -0.0048979304451840762 0.00060798167566876904 0 -0.005370238854461043 0.0006559378950182186 0 -0.0054007103035431823 0.00018170556956745678 0 -0.0051054375420512554 -6.9102524697206829e-05 0 -0.004978796790589741 0.00021788017675704855 0 -0.0054760318978123923 -0.00017215644108322482 0 -0.0054007103035431823 0.00018170556956745678 0 -0.0051054375420512554 -6.9102524697206829e-05 0 -0.0051054375420512554 -6.9102524697206829e-05 0 -0.004978796790589741 0.00021788017675704855 0 -0.0046442298716098396 -5.9701448471786437e-05 0 -0.0044396461058347908 0.00043397598590276233 0 -0.004978796790589741 0.00021788017675704855 0 -0.0046442298716098396 -5.9701448471786437e-05 0 -0.0044396461058347908 0.00043397598590276233 0 -0.004978796790589741 0.00021788017675704855 0 -0.0048979304451840762 0.00060798167566876904 0 -0.0044396461058347908 0.00043397598590276233 0 -0.0048979304451840762 0.00060798167566876904 0 -0.0046523346106332715 0.0010317282138650743 0 -0.0048979304451840762 0.00060798167566876904 0 -0.0046523346106332715 0.0010317282138650743 0 -0.0053487314833132772 0.0011258682890346356 0 -0.0046523346106332715 0.0010317282138650743 0 -0.0053487314833132772 0.0011258682890346356 0 -0.0048660069806929253 0.0016134861458179232 0 -0.0055268794563963679 0.00098996010471213329 0 -0.0044735600599431873 0.0018815218714836523 0 -0.0048979304451840762 0.00060798167566876904 0 -0.0053487314833132772 0.0011258682890346356 0 -0.005370238854461043 0.0006559378950182186 0 -0.0053487314833132772 0.0011258682890346356 0 -0.005370238854461043 0.0006559378950182186 0 -0.0057950113307644159 0.00084398172926774162 0 -0.005731986983016535 0.00043978802069824941 0 -0.005370238854461043 0.0006559378950182186 0 -0.0057950113307644159 0.00084398172926774162 0 -0.005731986983016535 0.00043978802069824941 0 -0.0057950113307644159 0.00084398172926774162 0 -0.0059880634571704118 0.00061947687238918074 0 -0.0059880634571704118 0.00061947687238918074 0 -0.0061238237951610937 0.00081158423301283197 0 -0.0061868576555611727 0.00064867338689303974 0 -0.0057950113307644159 0.00084398172926774162 0 -0.0059880634571704118 0.00061947687238918074 0 -0.0061238237951610937 0.00081158423301283197 0 -0.0057950113307644159 0.00084398172926774162 0 -0.0061238237951610937 0.00081158423301283197 0 -0.0061107196279640199 0.0010309774146076047 0 -0.0057950113307644159 0.00084398172926774162 0 -0.0061107196279640199 0.0010309774146076047 0 -0.0057639069491493781 0.0012010407982550894 0 -0.0061107196279640199 0.0010309774146076047 0 -0.0057639069491493781 0.0012010407982550894 0 -0.0060346723741903918 0.0014614829897125238 0 -0.0053487314833132772 0.0011258682890346356 0 -0.0057639069491493781 0.0012010407982550894 0 -0.0055557052362961148 0.0016199992001969001 0 -0.0053487314833132772 0.0011258682890346356 0 -0.0057950113307644159 0.00084398172926774162 0 -0.0057639069491493781 0.0012010407982550894 0 -0.0057639069491493781 0.0012010407982550894 0 -0.0055557052362961148 0.0016199992001969001 0 -0.0060346723741903918 0.0014614829897125238 0 -0.0055557052362961148 0.0016199992001969001 0 -0.0060346723741903918 0.0014614829897125238 0 -0.0062040847536581345 0.0019055571169843727 0 -0.0055557052362961148 0.0016199992001969001 0 -0.0062040847536581345 0.0019055571169843727 0 -0.0058125486149571103 0.0022212345205538998 0 -0.0055557052362961148 0.0016199992001969001 0 -0.0053133430877714523 0.0019807969294128218 0 -0.0058125486149571103 0.0022212345205538998 0 -0.0055557052362961148 0.0016199992001969001 0 -0.0051444898427415436 0.0014699154457439923 0 -0.0053133430877714523 0.0019807969294128218 0 -0.0096258708706154286 0.00084312381172963673 0 -0.0078068558407499121 0.00097760874700731672 0 -0.0051444898427415436 0.0014699154457439923 0 -0.0053133430877714523 0.0019807969294128218 0 -0.0048991935375588573 0.0017829881302447873 0 -0.013342018811009331 -0.00028422050261093791 0 -0.013443545054464637 -0.00032004222393108264 0 -0.013216639816907487 -0.00041150309883037826 0 -0.0044735600599431873 0.0018815218714836523 0 -0.0078068558407499121 0.00097760874700731672 0 -0.0053487314833132772 0.0011258682890346356 0 -0.0055557052362961148 0.0016199992001969001 0 -0.0051444898427415436 0.0014699154457439923 0 -0.0039336228688273593 0.0011250476630130534 0 -0.0039006905927179173 0.0010276533464866535 0 -0.0038624529644441176 0.0010816235987821635 0 -0.0039336228688273593 0.0011250476630130534 0 -0.0039006905927179173 0.0010276533464866535 0 -0.0039925359902561325 0.0010398616803257289 0 -0.0039333771955546775 0.00097490619484326651 0 -0.0039006905927179173 0.0010276533464866535 0 -0.0039925359902561325 0.0010398616803257289 0 -0.0038926323801850952 0.00097038401404880999 0 -0.0039333771955546775 0.00097490619484326651 0 -0.0039006905927179173 0.0010276533464866535 0 -0.0038926323801850952 0.00097038401404880999 0 -0.0039006905927179173 0.0010276533464866535 0 -0.0037977323848721414 0.0010068726676034155 0 -0.0039006905927179173 0.0010276533464866535 0 -0.0038624529644441176 0.0010816235987821635 0 -0.0037977323848721414 0.0010068726676034155 0 -0.0038624529644441176 0.0010816235987821635 0 -0.0037977323848721414 0.0010068726676034155 0 -0.00382070908905574 0.0011736215228100792 0 -0.0039336228688273593 0.0011250476630130534 0 -0.0038624529644441176 0.0010816235987821635 0 -0.00382070908905574 0.0011736215228100792 0 -0.0047514977919511162 0.0010679016735947648 0 -0.0055615160980915773 0.0011159322753462773 0 -0.0070188673616382122 0.00090439453215878372 0 -0.0069237409302682342 0.00099877582496831494 0 -0.0070891664744040135 0.0011031697916256994 0 -0.0046186408416639142 0.00082847736493594332 0 -0.0052426831695819272 0.00092172882048879347 0 -0.0051563991635164589 0.00036999323810133053 0 -0.0046970302512590253 0.0012912928095161207 0 -0.0046186408416639142 0.00082847736493594332 0 -0.0052426831695819272 0.00092172882048879347 0 -0.0047514977919511162 0.0010679016735947648 0 -0.0063007288404517631 0.00083531953078334637 0 -0.0053657669911006877 0.00059540296696628913 0 -0.0063007288404517631 0.00083531953078334637 0 -0.0064036313807294366 0.0006996929898223606 0 -0.006298857591432094 0.0009143030359158509 0 -0.0064548962299756252 0.0010499440238741309 0 -0.0064036313807294366 0.0006996929898223606 0 -0.006336770430261077 0.00074587172365729181 0 -0.006298857591432094 0.0009143030359158509 0 -0.0053657669911006877 0.00059540296696628913 0 -0.0056655795287055104 0.00049435292743685094 0 -0.0064103886240300875 0.00069400693666864949 0 -0.0061868576555611727 0.00064867338689303974 0 -0.006336770430261077 0.00074587172365729181 0 -0.0061238237951610937 0.00081158423301283197 0 -0.0061868576555611727 0.00064867338689303974 0 -0.006336770430261077 0.00074587172365729181 0 -0.0061238237951610937 0.00081158423301283197 0 -0.0061107196279640199 0.0010309774146076047 0 -0.006298857591432094 0.0009143030359158509 0 -0.0061238237951610937 0.00081158423301283197 0 -0.006336770430261077 0.00074587172365729181 0 -0.006298857591432094 0.0009143030359158509 0 -0.0061107196279640199 0.0010309774146076047 0 -0.006298857591432094 0.0009143030359158509 0 -0.0064548962299756252 0.0010499440238741309 0 -0.0063007288404517631 0.00083531953078334637 0 -0.0069206076335271913 0.0013843893793170814 0 -0.0061107196279640199 0.0010309774146076047 0 -0.0060346723741903918 0.0014614829897125238 0 -0.0064548962299756252 0.0010499440238741309 0 -0.0061204390407025855 0.0014835462842989274 0 -0.0063007288404517631 0.00083531953078334637 0 -0.0060346723741903918 0.0014614829897125238 0 -0.0062040847536581345 0.0019055571169843727 0 -0.0066936071606229072 0.0015628229006759869 0 -0.0060346723741903918 0.0014614829897125238 0 -0.006588816778635858 0.00096222453543189058 0 -0.0066936071606229072 0.0015628229006759869 0 -0.0062040847536581345 0.0019055571169843727 0 -0.0066936071606229072 0.0015628229006759869 0 -0.0068191301940112945 0.0021145388683547353 0 -0.0069206076335271913 0.0013843893793170814 0 -0.0065851278279174573 0.0018952207127209866 0 -0.0070657181599512783 0.0012656927851589644 0 -0.0069761927522290464 0.0011828725340775961 0 -0.00704164713562747 0.0013784089522384108 0 -0.0070657181599512783 0.0012656927851589644 0 -0.0071816981212643885 0.0013282366339425699 0 -0.00704164713562747 0.0013784089522384108 0 -0.0069237409302682342 0.00099877582496831494 0 -0.0069761927522290464 0.0011828725340775961 0 -0.0070891664744040135 0.0011031697916256994 0 -0.0070657181599512783 0.0012656927851589644 0 -0.0069761927522290464 0.0011828725340775961 0 -0.0070891664744040135 0.0011031697916256994 0 -0.0039336228688273593 0.0011250476630130534 0 -0.00382070908905574 0.0011736215228100792 0 -0.0039315766040054724 0.0012602886288978006 0 -0.00382070908905574 0.0011736215228100792 0 -0.0038704210166714392 0.0014001746970378742 0 -0.0039315766040054724 0.0012602886288978006 0 -0.0070657181599512783 0.0012656927851589644 0 -0.0070891664744040135 0.0011031697916256994 0 -0.0071816981212643885 0.0013282366339425699 0 -0.0055615160980915773 0.0011159322753462773 0 -0.0053761915072375677 0.0014303544615782882 0 -0.0038704210166714392 0.0014001746970378742 0 -0.0040203067753650252 0.0014916250584933947 0 -0.0040775548191458221 0.0013232981993818408 0 -0.0038704210166714392 0.0014001746970378742 0 -0.0039315766040054724 0.0012602886288978006 0 -0.0040775548191458221 0.0013232981993818408 0 -0.0039424747757436512 0.0011368173279256394 0 -0.0040413707373762849 0.0013111409029193913 0 -0.0039336228688273593 0.0011250476630130534 0 -0.0039315766040054724 0.0012602886288978006 0 -0.0040775548191458221 0.0013232981993818408 0 -0.0040203067753650252 0.0014916250584933947 0 -0.0039369877201914406 0.0016205156558779757 0 -0.004103692417378531 0.0017138331096271876 0 -0.0071816981212643885 0.0013282366339425699 0 -0.0071496607913432604 0.0014371544184140109 0 -0.007208453338670217 0.0015203069468087342 0 -0.0038704210166714392 0.0014001746970378742 0 -0.0040203067753650252 0.0014916250584933947 0 -0.0039369877201914406 0.0016205156558779757 0 -0.0053761915072375677 0.0014303544615782882 0 -0.0066678858397387726 0.0012206096731624859 0 -0.0071816981212643885 0.0013282366339425699 0 -0.007208453338670217 0.0015203069468087342 0 -0.007262620544450725 0.001547308608869564 0 -0.0071496607913432604 0.0014371544184140109 0 -0.007208453338670217 0.0015203069468087342 0 -0.0072604596438888801 0.0016193057460596265 0 -0.0071496607913432604 0.0014371544184140109 0 -0.0071192795004284591 0.0016400392866713757 0 -0.0073224753553312941 0.0017128188710456521 0 -0.00655036925324428 0.0014886378181595875 0 -0.0098897421322313907 0.0011318885351990452 0 -0.007187362243495591 0.0014971176003508522 0 -0.0066678858397387726 0.0012206096731624859 0 -0.007208453338670217 0.0015203069468087342 0 -0.007275373288128606 0.0015435590179510457 0 -0.0072604596438888801 0.0016193057460596265 0 -0.006959569285024881 0.0026752749955438939 0 -0.0068191301940112945 0.0021145388683547353 0 -0.0063730656461383631 0.0024576741442705503 0 -0.010417615478343108 0.0011340486242646878 0 -0.0065851278279174573 0.0018952207127209866 0 -0.0071496607913432604 0.0014371544184140109 0 -0.0071192795004284591 0.0016400392866713757 0 -0.00704164713562747 0.0013784089522384108 0 -0.0071816981212643885 0.0013282366339425699 0 -0.0071496607913432604 0.0014371544184140109 0 -0.00704164713562747 0.0013784089522384108 0 -0.0062040847536581345 0.0019055571169843727 0 -0.0068191301940112945 0.0021145388683547353 0 -0.0063730656461383631 0.0024576741442705503 0 -0.010417615478343108 0.0011340486242646878 0 -0.010120269780268495 0.001191356057840259 0 -0.013966646399831632 -4.5232556406408106e-05 0 -0.013817684884495878 -0.00012563010073286614 0 -0.013829715075360117 -1.6875810591251771e-05 0 -0.013966646399831632 -4.5232556406408106e-05 0 -0.013829715075360117 -1.6875810591251771e-05 0 -0.013900977003443733 6.3529190197342638e-05 0 -0.013829715075360117 -1.6875810591251771e-05 0 -0.013900977003443733 6.3529190197342638e-05 0 -0.013806589311426819 7.9521463019237141e-05 0 -0.013900977003443733 6.3529190197342638e-05 0 -0.013936860043216426 0.00015045581715174281 0 -0.013880130144141519 0.00016772243882936562 0 -0.013900977003443733 6.3529190197342638e-05 0 -0.013806589311426819 7.9521463019237141e-05 0 -0.013880130144141519 0.00016772243882936562 0 -0.013900977003443733 6.3529190197342638e-05 0 -0.013936860043216426 0.00015045581715174281 0 -0.014014415765661477 0.00012324413538684578 0 -0.013966646399831632 -4.5232556406408106e-05 0 -0.013900977003443733 6.3529190197342638e-05 0 -0.014014415765661477 0.00012324413538684578 0 -0.010417615478343108 0.0011340486242646878 0 -0.014248433518683573 4.4136010982066966e-05 0 -0.011101212792182534 0.00065339102053884994 0 -0.010976061059681201 0.00060629297449823821 0 -0.011222236813821894 0.0011448702265262848 0 -0.013614268455217581 0.00020778205255179839 0 -0.013693441089020984 0.00032197759668072115 0 -0.013703557575117683 0.00023475990342844763 0 -0.010417615478343108 0.0011340486242646878 0 -0.0098897421322313907 0.0011318885351990452 0 -0.007275373288128606 0.0015435590179510457 0 -0.0073073094441456592 0.0016352540352282605 0 -0.0072604596438888801 0.0016193057460596265 0 -0.0066678858397387726 0.0012206096731624859 0 -0.0098367424651930636 0.00099687096984290278 0 -0.0098367424651930636 0.00099687096984290278 0 -0.0098897421322313907 0.0011318885351990452 0 -0.0098897421322313907 0.0011318885351990452 0 -0.012752355488434425 0.00067342717437039333 0 -0.013693441089020984 0.00032197759668072115 0 -0.013703557575117683 0.00023475990342844763 0 -0.013780847913343912 0.00033357056991784804 0 -0.0098367424651930636 0.00099687096984290278 0 -0.012752355488434425 0.00067342717437039333 0 -0.012484868525362135 0.00059862597444859688 0 -0.012530237541241889 0.00067791675616408705 0 -0.01258857102598261 0.00063815991729397614 0 -0.0098367424651930636 0.00099687096984290278 0 -0.010525042193858218 0.00095404360171271688 0 -0.0066678858397387726 0.0012206096731624859 0 -0.0060311577463243345 0.0014184456385303375 0 -0.0080026452395850229 0.0010284394972540736 0 -0.0080330300622478874 0.0011536422185196805 0 -0.0082564385947659687 0.0011595323672242584 0 -0.0080330300622478874 0.0011536422185196805 0 -0.0082564385947659687 0.0011595323672242584 0 -0.0082793077336253511 0.0012534008256984011 0 -0.01355930771415092 -0.000158803168200059 0 -0.013436966849034613 -0.00016596374640603765 0 -0.01354216021199468 -5.9572689086030341e-05 0 -0.013436966849034613 -0.00016596374640603765 0 -0.01342801761660343 -2.6162810424915759e-05 0 -0.013292965293115747 -0.0001420790565164329 0 -0.013436966849034613 -0.00016596374640603765 0 -0.013342018811009331 -0.00028422050261093791 0 -0.013292965293115747 -0.0001420790565164329 0 -0.013436966849034613 -0.00016596374640603765 0 -0.013342018811009331 -0.00028422050261093791 0 -0.013443545054464637 -0.00032004222393108264 0 -0.0096258708706154286 0.00084312381172963673 0 -0.0096752803338472342 0.00098455486378822986 0 -0.01355930771415092 -0.000158803168200059 0 -0.013436966849034613 -0.00016596374640603765 0 -0.013443545054464637 -0.00032004222393108264 0 -0.01355930771415092 -0.000158803168200059 0 -0.013443545054464637 -0.00032004222393108264 0 -0.013645359024867474 -0.0002230814760550756 0 -0.010120269780268495 0.001191356057840259 0 -0.0096752803338472342 0.00098455486378822986 0 -0.0062040847536581345 0.0019055571169843727 0 -0.0063730656461383631 0.0024576741442705503 0 -0.0058125486149571103 0.0022212345205538998 0 -0.013817684884495878 -0.00012563010073286614 0 -0.013645359024867474 -0.0002230814760550756 0 -0.013707729803040095 -3.9516615485389542e-05 0 -0.013817684884495878 -0.00012563010073286614 0 -0.013829715075360117 -1.6875810591251771e-05 0 -0.013707729803040095 -3.9516615485389542e-05 0 -0.01355930771415092 -0.000158803168200059 0 -0.013645359024867474 -0.0002230814760550756 0 -0.013707729803040095 -3.9516615485389542e-05 0 -0.01355930771415092 -0.000158803168200059 0 -0.013707729803040095 -3.9516615485389542e-05 0 -0.01354216021199468 -5.9572689086030341e-05 0 -0.013829715075360117 -1.6875810591251771e-05 0 -0.013707729803040095 -3.9516615485389542e-05 0 -0.013806589311426819 7.9521463019237141e-05 0 -0.013806589311426819 7.9521463019237141e-05 0 -0.013716277835134917 0.0001104075598443578 0 -0.013806513679700871 0.00018589059808868995 0 -0.013806589311426819 7.9521463019237141e-05 0 -0.013806513679700871 0.00018589059808868995 0 -0.013880130144141519 0.00016772243882936562 0 -0.013707729803040095 -3.9516615485389542e-05 0 -0.013806589311426819 7.9521463019237141e-05 0 -0.013716277835134917 0.0001104075598443578 0 -0.013707729803040095 -3.9516615485389542e-05 0 -0.013716277835134917 0.0001104075598443578 0 -0.013588211537987669 6.4404781966909697e-05 0 -0.013588211537987669 6.4404781966909697e-05 0 -0.013484679245740294 0.00012459896433018825 0 -0.013635748091971617 0.00016676302159138572 0 -0.013716277835134917 0.0001104075598443578 0 -0.013588211537987669 6.4404781966909697e-05 0 -0.013635748091971617 0.00016676302159138572 0 -0.013588211537987669 6.4404781966909697e-05 0 -0.01354216021199468 -5.9572689086030341e-05 0 -0.01342801761660343 -2.6162810424915759e-05 0 -0.013707729803040095 -3.9516615485389542e-05 0 -0.013588211537987669 6.4404781966909697e-05 0 -0.01354216021199468 -5.9572689086030341e-05 0 -0.013436966849034613 -0.00016596374640603765 0 -0.01354216021199468 -5.9572689086030341e-05 0 -0.01342801761660343 -2.6162810424915759e-05 0 -0.01342801761660343 -2.6162810424915759e-05 0 -0.013484679245740294 0.00012459896433018825 0 -0.01327115409530049 2.6412372899378785e-05 0 -0.013588211537987669 6.4404781966909697e-05 0 -0.01342801761660343 -2.6162810424915759e-05 0 -0.013484679245740294 0.00012459896433018825 0 -0.013484679245740294 0.00012459896433018825 0 -0.013320863223447832 0.00014701443142715054 0 -0.01327115409530049 2.6412372899378785e-05 0 -0.01327115409530049 2.6412372899378785e-05 0 -0.013144236809209521 5.6388788327742692e-06 0 -0.013106112300449254 0.00015841039370472919 0 -0.013320863223447832 0.00014701443142715054 0 -0.01327115409530049 2.6412372899378785e-05 0 -0.013106112300449254 0.00015841039370472919 0 -0.013144236809209521 5.6388788327742692e-06 0 -0.013166252499904116 -9.308043297379703e-05 0 -0.01303366356202622 -6.3289861902849015e-05 0 -0.01327115409530049 2.6412372899378785e-05 0 -0.013144236809209521 5.6388788327742692e-06 0 -0.013166252499904116 -9.308043297379703e-05 0 -0.01327115409530049 2.6412372899378785e-05 0 -0.013166252499904116 -9.308043297379703e-05 0 -0.013292965293115747 -0.0001420790565164329 0 -0.01342801761660343 -2.6162810424915759e-05 0 -0.01327115409530049 2.6412372899378785e-05 0 -0.013292965293115747 -0.0001420790565164329 0 -0.013166252499904116 -9.308043297379703e-05 0 -0.013292965293115747 -0.0001420790565164329 0 -0.013175870767885544 -0.00018719510101882628 0 -0.013292965293115747 -0.0001420790565164329 0 -0.013175870767885544 -0.00018719510101882628 0 -0.013240109761014985 -0.00023328453562891549 0 -0.013166252499904116 -9.308043297379703e-05 0 -0.01307881873503596 -0.00015662545265743375 0 -0.01303366356202622 -6.3289861902849015e-05 0 -0.013166252499904116 -9.308043297379703e-05 0 -0.013175870767885544 -0.00018719510101882628 0 -0.01307881873503596 -0.00015662545265743375 0 -0.013099962679094924 -0.00024149254920206517 0 -0.013054786090583897 -0.00023671434409302364 0 -0.01307881873503596 -0.00015662545265743375 0 -0.013175870767885544 -0.00018719510101882628 0 -0.013099962679094924 -0.00024149254920206517 0 -0.01307881873503596 -0.00015662545265743375 0 -0.013177464739097807 -0.00025538240343092605 0 -0.013099962679094924 -0.00024149254920206517 0 -0.013185888518230186 -0.00032282826311477605 0 -0.013175870767885544 -0.00018719510101882628 0 -0.013177464739097807 -0.00025538240343092605 0 -0.013099962679094924 -0.00024149254920206517 0 -0.013099962679094924 -0.00024149254920206517 0 -0.013073025219900641 -0.00027689598991318862 0 -0.013054786090583897 -0.00023671434409302364 0 -0.0086165358643343643 5.407647130745994e-05 0 -0.0088113927158476393 -7.120410482676936e-07 0 -0.0086853176936034608 -7.1076932913387812e-05 0 -0.013099962679094924 -0.00024149254920206517 0 -0.013073025219900641 -0.00027689598991318862 0 -0.013113399495595207 -0.00028432330501086808 0 -0.013242718832696688 -0.00044868247798432741 0 -0.012023638858279506 -0.00031105057686591793 0 -0.010613844227076664 -5.6158385200932261e-05 0 -0.012023638858279506 -0.00031105057686591793 0 -0.013177464739097807 -0.00025538240343092605 0 -0.013225994492315738 -0.00029635903847127418 0 -0.013185888518230186 -0.00032282826311477605 0 -0.013225994492315738 -0.00029635903847127418 0 -0.013185888518230186 -0.00032282826311477605 0 -0.013227533947692102 -0.00034344316067296964 0 -0.013342018811009331 -0.00028422050261093791 0 -0.013292965293115747 -0.0001420790565164329 0 -0.013240109761014985 -0.00023328453562891549 0 -0.013342018811009331 -0.00028422050261093791 0 -0.013225994492315738 -0.00029635903847127418 0 -0.013227533947692102 -0.00034344316067296964 0 -0.013342018811009331 -0.00028422050261093791 0 -0.013225994492315738 -0.00029635903847127418 0 -0.013240109761014985 -0.00023328453562891549 0 -0.013175870767885544 -0.00018719510101882628 0 -0.013177464739097807 -0.00025538240343092605 0 -0.013240109761014985 -0.00023328453562891549 0 -0.013177464739097807 -0.00025538240343092605 0 -0.013225994492315738 -0.00029635903847127418 0 -0.013240109761014985 -0.00023328453562891549 0 -0.0092489261895136871 -0.0009984633102834979 0 -0.0088323821912352253 -0.00087200234458745013 0 -0.0091511639919529628 -0.00046149181087946662 0 -0.010914465166297363 -0.0012038261725213334 0 -0.0083625403178124759 -0.00055498749766782574 0 -0.011077020440085262 -0.00064579812146910176 0 -0.0086187459019646823 -0.00031738712988460934 0 -0.010914465166297363 -0.0012038261725213334 0 -0.011077020440085262 -0.00064579812146910176 0 -0.010613844227076664 -5.6158385200932261e-05 0 -0.011077020440085262 -0.00064579812146910176 0 -0.0086165358643343643 5.407647130745994e-05 0 -0.0084285492401415061 0.00010979770105774344 0 -0.0085169073696992927 -5.0309531220795626e-05 0 -0.013073025219900641 -0.00027689598991318862 0 -0.013054786090583897 -0.00023671434409302364 0 -0.012963032100273053 -0.00026324962125647916 0 -0.011077020440085262 -0.00064579812146910176 0 -0.013557559593722207 -0.00069811084812504767 0 -0.012963032100273053 -0.00026324962125647916 0 -0.01307881873503596 -0.00015662545265743375 0 -0.01303366356202622 -6.3289861902849015e-05 0 -0.013485547266130202 -0.0015800567713924892 0 -0.013426399903375246 -0.0013882695721735561 0 -0.013594098047988858 -0.0012871654879705566 0 -0.013054786090583897 -0.00023671434409302364 0 -0.012963032100273053 -0.00026324962125647916 0 -0.01307881873503596 -0.00015662545265743375 0 -0.013312540172247733 -0.0015285731020472275 0 -0.013426399903375246 -0.0013882695721735561 0 -0.013281496761298526 -0.0012875005151036995 0 -0.013312540172247733 -0.0015285731020472275 0 -0.013485547266130202 -0.0015800567713924892 0 -0.013426399903375246 -0.0013882695721735561 0 -0.013426399903375246 -0.0013882695721735561 0 -0.013594098047988858 -0.0012871654879705566 0 -0.013444404020940794 -0.001165298266378568 0 -0.013426399903375246 -0.0013882695721735561 0 -0.013444404020940794 -0.001165298266378568 0 -0.013281496761298526 -0.0012875005151036995 0 -0.013444404020940794 -0.001165298266378568 0 -0.013253374598091595 -0.0010959905939612565 0 -0.013281496761298526 -0.0012875005151036995 0 -0.013557559593722207 -0.00069811084812504767 0 -0.013617680129578256 -0.00040328989816182408 0 -0.013594098047988858 -0.0012871654879705566 0 -0.013444404020940794 -0.001165298266378568 0 -0.013667424817658508 -0.0010056785674033512 0 -0.013144236809209521 5.6388788327742692e-06 0 -0.01303366356202622 -6.3289861902849015e-05 0 -0.013106112300449254 0.00015841039370472919 0 -0.013482568790482615 -0.0013147370813935786 0 -0.013617680129578256 -0.00040328989816182408 0 -0.013444404020940794 -0.001165298266378568 0 -0.013549250503393478 -0.00089259118314126624 0 -0.013904721385241972 -0.00093317119889368668 0 -0.013253374598091595 -0.0010959905939612565 0 -0.0132753070912688 -0.00086034047597304919 0 -0.013549250503393478 -0.00089259118314126624 0 -0.013444404020940794 -0.001165298266378568 0 -0.013253374598091595 -0.0010959905939612565 0 -0.013549250503393478 -0.00089259118314126624 0 -0.01324671610860219 -0.0011434727503052355 0 -0.013267462357152321 -0.00097205744488075227 0 -0.013253374598091595 -0.0010959905939612565 0 -0.013003563444233748 -0.001120065987171473 0 -0.0132753070912688 -0.00086034047597304919 0 -0.013253374598091595 -0.0010959905939612565 0 -0.013003563444233748 -0.001120065987171473 0 -0.01314701476015177 -0.0012150126900098478 0 -0.013032998479380315 -0.0014161475456266992 0 -0.012883797876521061 -0.0010558233896307727 0 -0.013334967905295885 -0.0010131453157819462 0 -0.013032998479380315 -0.0014161475456266992 0 -0.012586812576024096 -0.0013034761832759736 0 -0.012883797876521061 -0.0010558233896307727 0 -0.01324671610860219 -0.0011434727503052355 0 -0.010800235904435634 -0.0016520118868098049 0 -0.013003563444233748 -0.001120065987171473 0 -0.012899020262052151 -0.0013877094926687743 0 -0.013040953160907519 -0.0013648041377020718 0 -0.013003563444233748 -0.001120065987171473 0 -0.012899020262052151 -0.0013877094926687743 0 -0.012718689263541298 -0.0014172166648842163 0 -0.013032998479380315 -0.0014161475456266992 0 -0.012586812576024096 -0.0013034761832759736 0 -0.012716316309937418 -0.0018124231702778477 0 -0.012899020262052151 -0.0013877094926687743 0 -0.013040953160907519 -0.0013648041377020718 0 -0.01294518392838212 -0.0014960012412656269 0 -0.013040953160907519 -0.0013648041377020718 0 -0.013281496761298526 -0.0012875005151036995 0 -0.013120216618624626 -0.001503274368148594 0 -0.013253374598091595 -0.0010959905939612565 0 -0.013281496761298526 -0.0012875005151036995 0 -0.01314701476015177 -0.0012150126900098478 0 -0.013003563444233748 -0.001120065987171473 0 -0.013040953160907519 -0.0013648041377020718 0 -0.01314701476015177 -0.0012150126900098478 0 -0.013040953160907519 -0.0013648041377020718 0 -0.013281496761298526 -0.0012875005151036995 0 -0.01314701476015177 -0.0012150126900098478 0 -0.009409329556611298 -0.0020676928284772138 0 -0.0098061740123846497 -0.001932337800766267 0 -0.0095897447516549508 -0.0021928245599676086 0 -0.009409329556611298 -0.0020676928284772138 0 -0.0095201315403379647 -0.0018004171412993619 0 -0.0098061740123846497 -0.001932337800766267 0 -0.009409329556611298 -0.0020676928284772138 0 -0.0093613997979003893 -0.001914204488572407 0 -0.0092515599675167051 -0.0019738296407126729 0 -0.009409329556611298 -0.0020676928284772138 0 -0.0093613997979003893 -0.001914204488572407 0 -0.0095201315403379647 -0.0018004171412993619 0 -0.0093613997979003893 -0.001914204488572407 0 -0.0095201315403379647 -0.0018004171412993619 0 -0.0092641060049857542 -0.0018141223179157047 0 -0.0097099086795855005 -0.0022852423819610516 0 -0.0093233312513086967 -0.0023449686998029185 0 -0.009822328582182259 -0.0024803350874240591 0 -0.011260581132081228 -0.0017186899522414589 0 -0.010800235904435634 -0.0016520118868098049 0 -0.0098061740123846497 -0.001932337800766267 0 -0.0099141799891315392 -0.0023649383411717883 0 -0.0097099086795855005 -0.0022852423819610516 0 -0.0098061740123846497 -0.001932337800766267 0 -0.0097099086795855005 -0.0022852423819610516 0 -0.0095897447516549508 -0.0021928245599676086 0 -0.0099141799891315392 -0.0023649383411717883 0 -0.0097099086795855005 -0.0022852423819610516 0 -0.009822328582182259 -0.0024803350874240591 0 -0.0097099086795855005 -0.0022852423819610516 0 -0.0095897447516549508 -0.0021928245599676086 0 -0.0093233312513086967 -0.0023449686998029185 0 -0.009409329556611298 -0.0020676928284772138 0 -0.0095897447516549508 -0.0021928245599676086 0 -0.0093233312513086967 -0.0023449686998029185 0 -0.007942123500779703 -0.001918251279572685 0 -0.0083061182526568359 -0.0014745419072981329 0 -0.0065535945130205595 -0.0013740884333962016 0 -0.0065984527226694897 -0.0013981268343170206 0 -0.0066807638059257638 -0.0013857342832117154 0 -0.0065641951089370825 -0.001406210805150613 0 -0.0065984527226694897 -0.0013981268343170206 0 -0.0065801043734404086 -0.0014446100640643951 0 -0.0065641951089370825 -0.001406210805150613 0 -0.0065801043734404086 -0.0014446100640643951 0 -0.0065310059960971877 -0.001430688571150101 0 -0.0065535945130205595 -0.0013740884333962016 0 -0.0065644025880566195 -0.0013885690839920335 0 -0.0065984527226694897 -0.0013981268343170206 0 -0.0065641951089370825 -0.001406210805150613 0 -0.0065644025880566195 -0.0013885690839920335 0 -0.0065490207568813961 -0.0013772615736530804 0 -0.0065641951089370825 -0.001406210805150613 0 -0.0065644025880566195 -0.0013885690839920335 0 -0.0065984527226694897 -0.0013981268343170206 0 -0.0065535945130205595 -0.0013740884333962016 0 -0.0065644025880566195 -0.0013885690839920335 0 -0.0065490207568813961 -0.0013772615736530804 0 -0.0065984527226694897 -0.0013981268343170206 0 -0.0066560353883856711 -0.001415133559999029 0 -0.0065801043734404086 -0.0014446100640643951 0 -0.0061081705242285542 -0.0010287112776900349 0 -0.0057606702055382529 -0.0008590172059613039 0 -0.0065984527226694897 -0.0013981268343170206 0 -0.0066560353883856711 -0.001415133559999029 0 -0.0066807638059257638 -0.0013857342832117154 0 -0.0068605895480890198 -0.001414948534029058 0 -0.007400395548165681 -0.00070672655915662386 0 -0.007930017490474825 -0.00086512876083893857 0 -0.0093510994224265086 -0.0013691967884635788 0 -0.0092719826634793147 -0.0014665910300102349 0 -0.0093400526194887569 -0.0014860935896898288 0 -0.010800235904435634 -0.0016520118868098049 0 -0.0083061182526568359 -0.0014745419072981329 0 -0.0083061182526568359 -0.0014745419072981329 0 -0.0080121623484745354 -0.0011837512195265489 0 -0.0049858985513178012 -0.00026323207027142552 0 -0.0049896546195625485 -0.00027021419623192184 0 -0.0049780045952774648 -0.00025603978286486083 0 -0.0049896546195625485 -0.00027021419623192184 0 -0.0049780045952774648 -0.00025603978286486083 0 -0.0049878350089325807 -0.00027019938693889119 0 -0.0061081705242285542 -0.0010287112776900349 0 -0.0080121623484745354 -0.0011837512195265489 0 -0.0061081705242285542 -0.0010287112776900349 0 -0.0083061182526568359 -0.0014745419072981329 0 -0.0049780045952774648 -0.00025603978286486083 0 -0.0049622832353897455 -0.00024670429247756505 0 -0.0049672322873078401 -0.00023915941734230613 0 -0.0049780045952774648 -0.00025603978286486083 0 -0.0049755037756805658 -0.00024526762571540106 0 -0.0049672322873078401 -0.00023915941734230613 0 -0.0049755037756805658 -0.00024526762571540106 0 -0.0049692360959693871 -0.00023608395239272176 0 -0.0049672322873078401 -0.00023915941734230613 0 -0.0049858985513178012 -0.00026323207027142552 0 -0.0049780045952774648 -0.00025603978286486083 0 -0.0049755037756805658 -0.00024526762571540106 0 -0.0049858985513178012 -0.00026323207027142552 0 -0.0049755037756805658 -0.00024526762571540106 0 -0.0049704108064523326 -0.00022992366770998595 0 -0.0061081705242285542 -0.0010287112776900349 0 -0.004701293399633686 -6.3385249593371894e-05 0 -0.0049855582492400368 -0.00026493313132960352 0 -0.0049732113188021669 -0.00023251709138023781 0 -0.0049801387854829958 -0.00024905804662276389 0 -0.0049855582492400368 -0.00026493313132960352 0 -0.0049732113188021669 -0.00023251709138023781 0 -0.0049704108064523326 -0.00022992366770998595 0 -0.0049755037756805658 -0.00024526762571540106 0 -0.0049706567338606254 -0.00023549311513052719 0 -0.0049704108064523326 -0.00022992366770998595 0 -0.0049755037756805658 -0.00024526762571540106 0 -0.0049706567338606254 -0.00023549311513052719 0 -0.0049692360959693871 -0.00023608395239272176 0 -0.0049732113188021669 -0.00023251709138023781 0 -0.0049801387854829958 -0.00024905804662276389 0 -0.0050097820288921664 -0.00023967636041541531 0 -0.013291919318871807 -0.0017195285553455997 0 -0.013281496761298526 -0.0012875005151036995 0 -0.013120216618624626 -0.001503274368148594 0 -0.010914465166297363 -0.0012038261725213334 0 -0.013763654495028289 -0.0015421861661382885 0 -0.013291919318871807 -0.0017195285553455997 0 -0.013037178850899037 -0.0016426309282799626 0 -0.013120216618624626 -0.001503274368148594 0 -0.010914465166297363 -0.0012038261725213334 0 -0.010721317176871095 -0.0014522371989763856 0 -0.013037178850899037 -0.0016426309282799626 0 -0.013120216618624626 -0.001503274368148594 0 -0.01294518392838212 -0.0014960012412656269 0 -0.013040953160907519 -0.0013648041377020718 0 -0.013120216618624626 -0.001503274368148594 0 -0.01294518392838212 -0.0014960012412656269 0 -0.013037178850899037 -0.0016426309282799626 0 -0.01294518392838212 -0.0014960012412656269 0 -0.012756256129681851 -0.0015663539467527555 0 -0.007974295490619435 -0.0011329535492070034 0 -0.0082721647374977263 -0.0012225505442647515 0 -0.0081434166868154124 -0.00082026583203966517 0 -0.01294518392838212 -0.0014960012412656269 0 -0.012756256129681851 -0.0015663539467527555 0 -0.0127476398600371 -0.0015310219307379822 0 -0.012899020262052151 -0.0013877094926687743 0 -0.01294518392838212 -0.0014960012412656269 0 -0.0127476398600371 -0.0015310219307379822 0 -0.012899020262052151 -0.0013877094926687743 0 -0.012718689263541298 -0.0014172166648842163 0 -0.0127476398600371 -0.0015310219307379822 0 -0.0093510994224265086 -0.0013691967884635788 0 -0.0093400526194887569 -0.0014860935896898288 0 -0.0093756708434790982 -0.0014678693823144801 0 -0.010800235904435634 -0.0016520118868098049 0 -0.0089757535862457442 -0.0011416736313103436 0 -0.008638432283690262 -0.001112701328838394 0 -0.0089757535862457442 -0.0011416736313103436 0 -0.0089615658114700278 -0.0012332204797636125 0 -0.0085939448685753896 -0.0011222067027658548 0 -0.0086693517578687439 -0.0013843567598249833 0 -0.0080121623484745354 -0.0011837512195265489 0 -0.008638432283690262 -0.001112701328838394 0 -0.0080121623484745354 -0.0011837512195265489 0 -0.0089757535862457442 -0.0011416736313103436 0 -0.010721317176871095 -0.0014522371989763856 0 -0.008638432283690262 -0.001112701328838394 0 -0.007974295490619435 -0.0011329535492070034 0 -0.0081434166868154124 -0.00082026583203966517 0 -0.007879658791407897 -0.00080456888396365518 0 -0.008638432283690262 -0.001112701328838394 0 -0.0064023157301285197 -0.00038307786219545263 0 -0.0049780045952774648 -0.00025603978286486083 0 -0.0049878350089325807 -0.00027019938693889119 0 -0.0049622832353897455 -0.00024670429247756505 0 -0.0076788553037457448 -0.0010436093754202578 0 -0.007974295490619435 -0.0011329535492070034 0 -0.007879658791407897 -0.00080456888396365518 0 -0.0076788553037457448 -0.0010436093754202578 0 -0.007879658791407897 -0.00080456888396365518 0 -0.0075933976170981521 -0.00060452566020038478 0 -0.007879658791407897 -0.00080456888396365518 0 -0.0080082433597417485 -0.00041885431849126664 0 -0.0075933976170981521 -0.00060452566020038478 0 -0.0049622832353897455 -0.00024670429247756505 0 -0.0049556324494171196 -0.00023393635953977416 0 -0.0049672322873078401 -0.00023915941734230613 0 -0.0081434166868154124 -0.00082026583203966517 0 -0.007879658791407897 -0.00080456888396365518 0 -0.0080082433597417485 -0.00041885431849126664 0 -0.0064023157301285197 -0.00038307786219545263 0 -0.0065539614870617005 -0.00038074438469463349 0 -0.0049622832353897455 -0.00024670429247756505 0 -0.0049556324494171196 -0.00023393635953977416 0 -0.0049429432997825998 -0.00022824370899107404 0 -0.0049556324494171196 -0.00023393635953977416 0 -0.0049429432997825998 -0.00022824370899107404 0 -0.0049469639679593502 -0.00022653208158993947 0 -0.0049429432997825998 -0.00022824370899107404 0 -0.0049469639679593502 -0.00022653208158993947 0 -0.0049341907799861622 -0.00021736196324772405 0 -0.0049429432997825998 -0.00022824370899107404 0 -0.0049341907799861622 -0.00021736196324772405 0 -0.0049314854613293621 -0.00021501895418910081 0 -0.0049469639679593502 -0.00022653208158993947 0 -0.0049341907799861622 -0.00021736196324772405 0 -0.0049396105347267903 -0.00021974783644124657 0 -0.0080082433597417485 -0.00041885431849126664 0 -0.0078722769109966714 -2.1058752594487487e-05 0 -0.0075130376657737861 -0.00016779108984844347 0 -0.0080082433597417485 -0.00041885431849126664 0 -0.0075933976170981521 -0.00060452566020038478 0 -0.0075130376657737861 -0.00016779108984844347 0 -0.0065539614870617005 -0.00038074438469463349 0 -0.0053981730009001871 -0.0001847574456978067 0 -0.0049541536525439306 -0.00022505022981334058 0 -0.0049587971734352939 -0.00022669611041621943 0 -0.0049564156457767841 -0.00022505835265364461 0 -0.0049541536525439306 -0.00022505022981334058 0 -0.0049587971734352939 -0.00022669611041621943 0 -0.0049563986497097503 -0.00022640746055867611 0 -0.0049587971734352939 -0.00022669611041621943 0 -0.0049633079953470931 -0.00022782580440525258 0 -0.0049628562249163666 -0.00022891576248166234 0 -0.0049587971734352939 -0.00022669611041621943 0 -0.0049628562249163666 -0.00022891576248166234 0 -0.0049563986497097503 -0.00022640746055867611 0 -0.0049587971734352939 -0.00022669611041621943 0 -0.0049633079953470931 -0.00022782580440525258 0 -0.0049564156457767841 -0.00022505835265364461 0 -0.0049633079953470931 -0.00022782580440525258 0 -0.0049616816011690606 -0.00022498022832959663 0 -0.0049564156457767841 -0.00022505835265364461 0 -0.0049732113188021669 -0.00023251709138023781 0 -0.0049704108064523326 -0.00022992366770998595 0 -0.0049616816011690606 -0.00022498022832959663 0 -0.0049633079953470931 -0.00022782580440525258 0 -0.0049704108064523326 -0.00022992366770998595 0 -0.0049616816011690606 -0.00022498022832959663 0 -0.0049633079953470931 -0.00022782580440525258 0 -0.0049704108064523326 -0.00022992366770998595 0 -0.0049661757252252451 -0.00022951165315075842 0 -0.0049633079953470931 -0.00022782580440525258 0 -0.0049661757252252451 -0.00022951165315075842 0 -0.0049628562249163666 -0.00022891576248166234 0 -0.0049661757252252451 -0.00022951165315075842 0 -0.0049673698843113491 -0.00023165925303601992 0 -0.0049628562249163666 -0.00022891576248166234 0 -0.0049704108064523326 -0.00022992366770998595 0 -0.0049661757252252451 -0.00022951165315075842 0 -0.0049673698843113491 -0.00023165925303601992 0 -0.0049706567338606254 -0.00023549311513052719 0 -0.0049704108064523326 -0.00022992366770998595 0 -0.0049673698843113491 -0.00023165925303601992 0 -0.0049673698843113491 -0.00023165925303601992 0 -0.0049692360959693871 -0.00023608395239272176 0 -0.0049646358044968348 -0.00023230439929578027 0 -0.0049706567338606254 -0.00023549311513052719 0 -0.0049673698843113491 -0.00023165925303601992 0 -0.0049692360959693871 -0.00023608395239272176 0 -0.0049673698843113491 -0.00023165925303601992 0 -0.0049646358044968348 -0.00023230439929578027 0 -0.0049628562249163666 -0.00022891576248166234 0 -0.0049646358044968348 -0.00023230439929578027 0 -0.004959695706070506 -0.00022877600246190024 0 -0.0049628562249163666 -0.00022891576248166234 0 -0.004959695706070506 -0.00022877600246190024 0 -0.0049628562249163666 -0.00022891576248166234 0 -0.0049563986497097503 -0.00022640746055867611 0 -0.004959695706070506 -0.00022877600246190024 0 -0.0049563986497097503 -0.00022640746055867611 0 -0.0049550304803287039 -0.00022669803222758841 0 -0.004959695706070506 -0.00022877600246190024 0 -0.00495674798730362 -0.00022949921087302689 0 -0.0049550304803287039 -0.00022669803222758841 0 -0.0049646358044968348 -0.00023230439929578027 0 -0.004959695706070506 -0.00022877600246190024 0 -0.00495674798730362 -0.00022949921087302689 0 -0.0049692360959693871 -0.00023608395239272176 0 -0.0049646358044968348 -0.00023230439929578027 0 -0.0049672322873078401 -0.00023915941734230613 0 -0.0049646358044968348 -0.00023230439929578027 0 -0.00495674798730362 -0.00022949921087302689 0 -0.0049672322873078401 -0.00023915941734230613 0 -0.0049556324494171196 -0.00023393635953977416 0 -0.00495674798730362 -0.00022949921087302689 0 -0.0049672322873078401 -0.00023915941734230613 0 -0.0049556324494171196 -0.00023393635953977416 0 -0.0049469639679593502 -0.00022653208158993947 0 -0.00495674798730362 -0.00022949921087302689 0 -0.0049469639679593502 -0.00022653208158993947 0 -0.0049479805856411591 -0.00022459138698835272 0 -0.0049396105347267903 -0.00021974783644124657 0 -0.0049469639679593502 -0.00022653208158993947 0 -0.00495674798730362 -0.00022949921087302689 0 -0.0049479805856411591 -0.00022459138698835272 0 -0.0049479805856411591 -0.00022459138698835272 0 -0.0049396105347267903 -0.00021974783644124657 0 -0.0049414986311179911 -0.00022038046175201922 0 -0.0049414986311179911 -0.00022038046175201922 0 -0.0049499201893261719 -0.0002244771795170176 0 -0.0049456159961460662 -0.0002218211288246348 0 -0.0049479805856411591 -0.00022459138698835272 0 -0.0049414986311179911 -0.00022038046175201922 0 -0.0049499201893261719 -0.0002244771795170176 0 -0.00495674798730362 -0.00022949921087302689 0 -0.0049479805856411591 -0.00022459138698835272 0 -0.0049499201893261719 -0.0002244771795170176 0 -0.00495674798730362 -0.00022949921087302689 0 -0.0049499201893261719 -0.0002244771795170176 0 -0.0049550304803287039 -0.00022669803222758841 0 -0.0049563986497097503 -0.00022640746055867611 0 -0.0049550304803287039 -0.00022669803222758841 0 -0.0049509393193224432 -0.00022427634946653807 0 -0.0049499201893261719 -0.0002244771795170176 0 -0.0049550304803287039 -0.00022669803222758841 0 -0.0049509393193224432 -0.00022427634946653807 0 -0.0049499201893261719 -0.0002244771795170176 0 -0.0049509393193224432 -0.00022427634946653807 0 -0.0049456159961460662 -0.0002218211288246348 0 -0.0049509393193224432 -0.00022427634946653807 0 -0.0049458353415975089 -0.00022199721064449865 0 -0.0049500822602449633 -0.00022378967766327666 0 -0.0049509393193224432 -0.00022427634946653807 0 -0.0049456159961460662 -0.0002218211288246348 0 -0.0049458353415975089 -0.00022199721064449865 0 -0.0049563986497097503 -0.00022640746055867611 0 -0.0049509393193224432 -0.00022427634946653807 0 -0.0049500822602449633 -0.00022378967766327666 0 -0.0049541536525439306 -0.00022505022981334058 0 -0.0049563986497097503 -0.00022640746055867611 0 -0.0049500822602449633 -0.00022378967766327666 0 -0.004937792405125551 -0.00021623269259973184 0 -0.0049425119925630302 -0.00022028436117005063 0 -0.0049393096671845032 -0.00021897361563717781 0 -0.0049456159961460662 -0.0002218211288246348 0 -0.0049458353415975089 -0.00022199721064449865 0 -0.0049425119925630302 -0.00022028436117005063 0 -0.004937792405125551 -0.00021623269259973184 0 -0.0049425119925630302 -0.00022028436117005063 0 -0.0049429435874172971 -0.00022120464165706246 0 -0.0049458353415975089 -0.00022199721064449865 0 -0.0049425119925630302 -0.00022028436117005063 0 -0.0049429435874172971 -0.00022120464165706246 0 -0.0049414986311179911 -0.00022038046175201922 0 -0.0049456159961460662 -0.0002218211288246348 0 -0.0049393096671845032 -0.00021897361563717781 0 -0.0049456159961460662 -0.0002218211288246348 0 -0.0049425119925630302 -0.00022028436117005063 0 -0.0049393096671845032 -0.00021897361563717781 0 -0.0049393096671845032 -0.00021897361563717781 0 -0.0049325340241537377 -0.00021770877632365152 0 -0.0049347615960777342 -0.0002157966725959111 0 -0.004937792405125551 -0.00021623269259973184 0 -0.0049393096671845032 -0.00021897361563717781 0 -0.0049347615960777342 -0.0002157966725959111 0 -0.0049325340241537377 -0.00021770877632365152 0 -0.0049308824296551874 -0.00021705537547233065 0 -0.0049347615960777342 -0.0002157966725959111 0 -0.0049325340241537377 -0.00021770877632365152 0 -0.0049241568211548566 -0.00022087515362319805 0 -0.0049308824296551874 -0.00021705537547233065 0 -0.0049414986311179911 -0.00022038046175201922 0 -0.0049325340241537377 -0.00021770877632365152 0 -0.004934096540650453 -0.00021675026736389864 0 -0.0049414986311179911 -0.00022038046175201922 0 -0.0049393096671845032 -0.00021897361563717781 0 -0.0049325340241537377 -0.00021770877632365152 0 -0.0049396105347267903 -0.00021974783644124657 0 -0.0049414986311179911 -0.00022038046175201922 0 -0.004934096540650453 -0.00021675026736389864 0 -0.0049396105347267903 -0.00021974783644124657 0 -0.004934096540650453 -0.00021675026736389864 0 -0.0049322708277322906 -0.00021344318654454723 0 -0.004934096540650453 -0.00021675026736389864 0 -0.0049241685985693586 -0.00021351685643940409 0 -0.0049322708277322906 -0.00021344318654454723 0 -0.0049325340241537377 -0.00021770877632365152 0 -0.0049241685985693586 -0.00021351685643940409 0 -0.0049241568211548566 -0.00022087515362319805 0 -0.0049241685985693586 -0.00021351685643940409 0 -0.0049241568211548566 -0.00022087515362319805 0 -0.0049118224572401847 -0.00023747769717219383 0 -0.0049325340241537377 -0.00021770877632365152 0 -0.004934096540650453 -0.00021675026736389864 0 -0.0049241685985693586 -0.00021351685643940409 0 -0.0048417842036923738 -0.00027497095992182153 0 -0.0048606005472860659 -0.00024602065119272556 0 -0.0049241568211548566 -0.00022087515362319805 0 -0.0049314021317882761 -0.00020951009098464269 0 -0.0049118224572401847 -0.00023747769717219383 0 -0.0042265143202735913 -0.0005652683858984039 0 -0.0047551003227895303 -0.00036440472271527963 0 -0.004555173586783038 -0.00034164445169123411 0 -0.0047551003227895303 -0.00036440472271527963 0 -0.004555173586783038 -0.00034164445169123411 0 -0.0049118224572401847 -0.00023747769717219383 0 -0.0049314021317882761 -0.00020951009098464269 0 -0.0049308824296551874 -0.00021705537547233065 0 -0.0049347615960777342 -0.0002157966725959111 0 -0.0049241568211548566 -0.00022087515362319805 0 -0.0049314021317882761 -0.00020951009098464269 0 -0.0049308824296551874 -0.00021705537547233065 0 -0.004937792405125551 -0.00021623269259973184 0 -0.004934090470057175 -0.0002124451450469745 0 -0.0049316533209479638 -0.00020896448878205559 0 -0.0049314021317882761 -0.00020951009098464269 0 -0.004934090470057175 -0.0002124451450469745 0 -0.0049316533209479638 -0.00020896448878205559 0 -0.0048417842036923738 -0.00027497095992182153 0 -0.0038725440129118945 7.3521945212262358e-05 0 -0.0049314021317882761 -0.00020951009098464269 0 -0.004934090470057175 -0.0002124451450469745 0 -0.0049347615960777342 -0.0002157966725959111 0 -0.004937792405125551 -0.00021623269259973184 0 -0.004934090470057175 -0.0002124451450469745 0 -0.0049347615960777342 -0.0002157966725959111 0 -0.0053981730009001871 -0.0001847574456978067 0 -0.0059790710715628735 0.00025677578631792868 0 -0.0030341482694134772 0.00084502397164475964 0 -0.002907955805902009 0.00085956376810885694 0 -0.0031591247023197372 0.0009608576933149859 0 -0.0029507451133372539 0.00073965994327624893 0 -0.0030341482694134772 0.00084502397164475964 0 -0.0030499839004998891 0.00060897261200648731 0 -0.0029336013514774518 0.000731675693951325 0 -0.0029507451133372539 0.00073965994327624893 0 -0.002907955805902009 0.00085956376810885694 0 -0.0034069655472152424 0.00072675137855478017 0 -0.0053981730009001871 -0.0001847574456978067 0 -0.0051546216392175555 -0.00021734872741587742 0 -0.0050989917622523825 -8.2689225453920121e-05 0 -0.0050243746839892748 -0.00018240341051686376 0 -0.0034069655472152424 0.00072675137855478017 0 -0.0033676707226440996 0.00071496746307015888 0 -0.0029507451133372539 0.00073965994327624893 0 -0.0030341482694134772 0.00084502397164475964 0 -0.002907955805902009 0.00085956376810885694 0 -0.0051546216392175555 -0.00021734872741587742 0 -0.0050243746839892748 -0.00018240341051686376 0 -0.0049118224572401847 -0.00023747769717219383 0 -0.0053981730009001871 -0.0001847574456978067 0 -0.0048396050195638422 -0.0002361753055590562 0 -0.0049341907799861622 -0.00021736196324772405 0 -0.0049314854613293621 -0.00021501895418910081 0 -0.0049233455928331601 -0.00020232411626475882 0 -0.0049341907799861622 -0.00021736196324772405 0 -0.0049322708277322906 -0.00021344318654454723 0 -0.0049233455928331601 -0.00020232411626475882 0 -0.0049341907799861622 -0.00021736196324772405 0 -0.0049396105347267903 -0.00021974783644124657 0 -0.0049322708277322906 -0.00021344318654454723 0 -0.0049233455928331601 -0.00020232411626475882 0 -0.0050243746839892748 -0.00018240341051686376 0 -0.0049118224572401847 -0.00023747769717219383 0 -0.0049241685985693586 -0.00021351685643940409 0 -0.0049322708277322906 -0.00021344318654454723 0 -0.0049233455928331601 -0.00020232411626475882 0 -0.0049241685985693586 -0.00021351685643940409 0 -0.0049233455928331601 -0.00020232411626475882 0 -0.0049118224572401847 -0.00023747769717219383 0 -0.0050989917622523825 -8.2689225453920121e-05 0 -0.0049233455928331601 -0.00020232411626475882 0 -0.0050243746839892748 -0.00018240341051686376 0 -0.00335085078686641 5.939995328352733e-05 0 -0.0034069655472152424 0.00072675137855478017 0 -0.0047551003227895303 -0.00036440472271527963 0 -0.0051546216392175555 -0.00021734872741587742 0 -0.0049118224572401847 -0.00023747769717219383 0 -0.0022860040576497521 0.00049725295055374423 0 -0.0018547443449247205 0.0006561310764339333 0 -0.0025481541097455884 0.00097227883717385078 0 -0.0027156417479820122 0.0003853171795021745 0 -0.0022860040576497521 0.00049725295055374423 0 -0.0025481541097455884 0.00097227883717385078 0 -0.0027627876700276402 0.00041996866724496615 0 -0.0034069655472152424 0.00072675137855478017 0 -0.0029412054472670477 0.00039451021287655069 0 -0.0029304763088292135 0.00073356177777467277 0 -0.0030499839004998891 0.00060897261200648731 0 -0.0029304763088292135 0.00073356177777467277 0 -0.0029507451133372539 0.00073965994327624893 0 -0.0030499839004998891 0.00060897261200648731 0 -0.0030499839004998891 0.00060897261200648731 0 -0.0031769406594601272 0.00059645964538499797 0 -0.0031540823030021107 0.00094190321735596039 0 -0.0030658447131034412 0.00047749221831286224 0 -0.0030499839004998891 0.00060897261200648731 0 -0.0031769406594601272 0.00059645964538499797 0 -0.0029412054472670477 0.00039451021287655069 0 -0.0030658447131034412 0.00047749221831286224 0 -0.0030499839004998891 0.00060897261200648731 0 -0.00319143909510953 0.00078803641328876258 0 -0.0033035570998320692 0.0011042194605827421 0 -0.0034840603125947662 0.00083051614132047908 0 -0.0030341482694134772 0.00084502397164475964 0 -0.0030499839004998891 0.00060897261200648731 0 -0.0031642151030400732 0.00089714888640431514 0 -0.0030532194579177647 0.00077113596047254595 0 -0.0045330141777705857 0.000862428500616581 0 -0.00319143909510953 0.00078803641328876258 0 -0.0033035570998320692 0.0011042194605827421 0 -0.0031429718120390454 0.0013916556344668355 0 -0.0028301637820798142 0.00057751757137505572 0 -0.0045330141777705857 0.000862428500616581 0 -0.0033035570998320692 0.0011042194605827421 0 -0.0033356319221757766 0.0013149117634628908 0 -0.0031429718120390454 0.0013916556344668355 0 -0.0033356319221757766 0.0013149117634628908 0 -0.0031810539171162459 0.001534404397191698 0 -0.0035329643734485485 0.0014445190536229769 0 -0.0033356319221757766 0.0013149117634628908 0 -0.0031429718120390454 0.0013916556344668355 0 -0.0031810539171162459 0.001534404397191698 0 -0.0030341482694134772 0.00084502397164475964 0 -0.0031642151030400732 0.00089714888640431514 0 -0.0031591247023197372 0.0009608576933149859 0 -0.0036122256637438998 0.0011467542507783244 0 -0.0038664679420972368 0.0013609560562992699 0 -0.0035329643734485485 0.0014445190536229769 0 -0.0033356319221757766 0.0013149117634628908 0 -0.0036122256637438998 0.0011467542507783244 0 -0.0035329643734485485 0.0014445190536229769 0 -0.0033035570998320692 0.0011042194605827421 0 -0.0033356319221757766 0.0013149117634628908 0 -0.0036122256637438998 0.0011467542507783244 0 -0.0036122256637438998 0.0011467542507783244 0 -0.0034840603125947662 0.00083051614132047908 0 -0.0037854420205884675 0.00084240142716369266 0 -0.0033035570998320692 0.0011042194605827421 0 -0.0036122256637438998 0.0011467542507783244 0 -0.0034840603125947662 0.00083051614132047908 0 -0.003649208459856155 0.00055919834570874528 0 -0.0034362119975627397 0.00051586229374145029 0 -0.0034840603125947662 0.00083051614132047908 0 -0.0034362119975627397 0.00051586229374145029 0 -0.00319143909510953 0.00078803641328876258 0 -0.0034840603125947662 0.00083051614132047908 0 -0.003649208459856155 0.00055919834570874528 0 -0.0034840603125947662 0.00083051614132047908 0 -0.0037854420205884675 0.00084240142716369266 0 -0.0036122256637438998 0.0011467542507783244 0 -0.0041089799238333904 0.00093774662024520355 0 -0.0037854420205884675 0.00084240142716369266 0 -0.0039215310390212999 0.0005026254194705755 0 -0.0041089799238333904 0.00093774662024520355 0 -0.0037854420205884675 0.00084240142716369266 0 -0.0039215310390212999 0.0005026254194705755 0 -0.003649208459856155 0.00055919834570874528 0 -0.0037854420205884675 0.00084240142716369266 0 -0.0044396461058347908 0.00043397598590276233 0 -0.0046523346106332715 0.0010317282138650743 0 -0.0041089799238333904 0.00093774662024520355 0 -0.0046523346106332715 0.0010317282138650743 0 -0.0041089799238333904 0.00093774662024520355 0 -0.0042750338502351767 0.0014822741500640168 0 -0.0046523346106332715 0.0010317282138650743 0 -0.0048660069806929253 0.0016134861458179232 0 -0.0042750338502351767 0.0014822741500640168 0 -0.0041089799238333904 0.00093774662024520355 0 -0.0038664679420972368 0.0013609560562992699 0 -0.0042750338502351767 0.0014822741500640168 0 -0.0036122256637438998 0.0011467542507783244 0 -0.0041089799238333904 0.00093774662024520355 0 -0.0038664679420972368 0.0013609560562992699 0 -0.0038664679420972368 0.0013609560562992699 0 -0.0038065391177197136 0.0017933715506414176 0 -0.0042750338502351767 0.0014822741500640168 0 -0.0038065391177197136 0.0017933715506414176 0 -0.0042750338502351767 0.0014822741500640168 0 -0.0044498302015189891 0.0020499166306742417 0 -0.0048660069806929253 0.0016134861458179232 0 -0.0042750338502351767 0.0014822741500640168 0 -0.0044498302015189891 0.0020499166306742417 0 -0.0088113927158476393 -7.120410482676936e-07 0 -0.008923811608820666 -0.00012023133901718822 0 -0.0086853176936034608 -7.1076932913387812e-05 0 -0.013096228419642586 -0.00031352625459753837 0 -0.013216639816907487 -0.00041150309883037826 0 -0.013227533947692102 -0.00034344316067296964 0 -0.012023638858279506 -0.00031105057686591793 0 -0.013227035370802347 -0.00048663083629919536 0 -0.012023638858279506 -0.00031105057686591793 0 -0.0078068558407499121 0.00097760874700731672 0 -0.013342018811009331 -0.00028422050261093791 0 -0.013216639816907487 -0.00041150309883037826 0 -0.013227533947692102 -0.00034344316067296964 0 -0.0058901054444811807 0.00073819336638686697 0 -0.0078068558407499121 0.00097760874700731672 0 -0.0085962036095577968 -0.00025573048189008916 0 -0.008923811608820666 -0.00012023133901718822 0 -0.0086853176936034608 -7.1076932913387812e-05 0 -0.0085962036095577968 -0.00025573048189008916 0 -0.0086853176936034608 -7.1076932913387812e-05 0 -0.0085169073696992927 -5.0309531220795626e-05 0 -0.0086165358643343643 5.407647130745994e-05 0 -0.0086853176936034608 -7.1076932913387812e-05 0 -0.0085169073696992927 -5.0309531220795626e-05 0 -0.0084285492401415061 0.00010979770105774344 0 -0.0085169073696992927 -5.0309531220795626e-05 0 -0.0083411658301733079 -0.00013292712135708746 0 -0.0085962036095577968 -0.00025573048189008916 0 -0.0085169073696992927 -5.0309531220795626e-05 0 -0.0083411658301733079 -0.00013292712135708746 0 -0.0088323821912352253 -0.00087200234458745013 0 -0.0089194962040543731 -0.0004090662645849106 0 -0.0091511639919529628 -0.00046149181087946662 0 -0.0089194962040543731 -0.0004090662645849106 0 -0.0091511639919529628 -0.00046149181087946662 0 -0.008990966631465978 5.2397323103883539e-05 0 -0.0083625403178124759 -0.00055498749766782574 0 -0.0059790710715628735 0.00025677578631792868 0 -0.0091511639919529628 -0.00046149181087946662 0 -0.0090370890726466872 7.1986392524244741e-05 0 -0.008990966631465978 5.2397323103883539e-05 0 -0.0086187459019646823 -0.00031738712988460934 0 -0.0062273027005933703 0.00035880530390945144 0 -0.0053421008697978681 0.00062970769948713149 0 -0.0053720819513504003 0.00042624469883216585 0 -0.0052890338278213413 0.00039239835032040926 0 -0.0045330141777705857 0.000862428500616581 0 -0.0059790710715628735 0.00025677578631792868 0 -0.0045330141777705857 0.000862428500616581 0 -0.0062273027005933703 0.00035880530390945144 0 -0.0059790710715628735 0.00025677578631792868 0 -0.0062273027005933703 0.00035880530390945144 0 -0.0085962036095577968 -0.00025573048189008916 0 -0.0083411658301733079 -0.00013292712135708746 0 -0.0082558421266146972 -0.00038579668421089025 0 -0.0038664679420972368 0.0013609560562992699 0 -0.0038065391177197136 0.0017933715506414176 0 -0.0035329643734485485 0.0014445190536229769 0 -0.0058901054444811807 0.00073819336638686697 0 -0.0062273027005933703 0.00035880530390945144 0 -0.0038065391177197136 0.0017933715506414176 0 -0.0031810539171162459 0.001534404397191698 0 -0.0035329643734485485 0.0014445190536229769 0 -0.0029901178748839349 -7.01111319571063e-05 0 -0.003016668166311368 -3.1229948548045579e-05 0 -0.0028785865482043346 -5.1439904578637466e-05 0 -0.0039139439153843035 0.00022639326211035282 0 -0.0038532843419927677 0.00014418974597129857 0 -0.0029901178748839349 -7.01111319571063e-05 0 -0.003016668166311368 -3.1229948548045579e-05 0 -0.0031435279541052988 2.3972388335029337e-06 0 -0.0031146125644798441 -4.8216854001678569e-07 0 -0.003016668166311368 -3.1229948548045579e-05 0 -0.0028785865482043346 -5.1439904578637466e-05 0 -0.0031146125644798441 -4.8216854001678569e-07 0 -0.003016668166311368 -3.1229948548045579e-05 0 -0.0031435279541052988 2.3972388335029337e-06 0 -0.0038532843419927677 0.00014418974597129857 0 -0.0039457892093727499 -4.5513757139121355e-08 0 -0.0031146125644798441 -4.8216854001678569e-07 0 -0.0031435279541052988 2.3972388335029337e-06 0 -0.0039452289694669332 4.6633079569127544e-07 0 -0.004835562828002714 0.00050566479407787991 0 -0.0045802859108966592 0.00038798607766821555 0 -0.0049410105597693463 0.00031472027728457924 0 -0.0045802859108966592 0.00038798607766821555 0 -0.0049410105597693463 0.00031472027728457924 0 -0.0049518031449343591 5.2438007097861268e-05 0 -0.0049410105597693463 0.00031472027728457924 0 -0.0051595071837083825 0.00021498000742205072 0 -0.005080642891130977 0.00041824364147873959 0 -0.0051595071837083825 0.00021498000742205072 0 -0.0051996728815649025 0.00036135113523560889 0 -0.005080642891130977 0.00041824364147873959 0 -0.0051996728815649025 0.00036135113523560889 0 -0.005080642891130977 0.00041824364147873959 0 -0.0052467473030104565 0.00049592827695124847 0 -0.004835562828002714 0.00050566479407787991 0 -0.0049410105597693463 0.00031472027728457924 0 -0.005080642891130977 0.00041824364147873959 0 -0.0040926749943699684 0.00031105123037810143 0 -0.0030377679082763741 0.00010968833825124256 0 -0.0039139439153843035 0.00022639326211035282 0 -0.0040926749943699684 0.00031105123037810143 0 -0.004835562828002714 0.00050566479407787991 0 -0.005080642891130977 0.00041824364147873959 0 -0.0049896504950512214 0.0006233349874961851 0 -0.0029901178748839349 -7.01111319571063e-05 0 -0.003133738759058491 7.6651232975287738e-05 0 -0.0029871262139243029 0.00010880446860034906 0 -0.0040926749943699684 0.00031105123037810143 0 -0.0049304401349455048 0.00041761141610178467 0 -0.005080642891130977 0.00041824364147873959 0 -0.0049896504950512214 0.0006233349874961851 0 -0.0052467473030104565 0.00049592827695124847 0 -0.0040860389971094048 0.00041010163914738244 0 -0.0043077457878492095 0.00047358017350644031 0 -0.0044374489085616539 0.00029997092728368039 0 -0.0040860389971094048 0.00041010163914738244 0 -0.0043077457878492095 0.00047358017350644031 0 -0.0042776242290766204 0.00061170264048152664 0 -0.0040926749943699684 0.00031105123037810143 0 -0.004192535595410574 0.00052062146563728424 0 -0.0037614784034931724 -6.4301648070824469e-05 0 -0.003889311941514921 0.00038501326679805551 0 -0.0042776242290766204 0.00061170264048152664 0 -0.0037614784034931724 -6.4301648070824469e-05 0 -0.0034331085094331869 0.00051409301597229768 0 -0.0031825415170783551 7.1596542624845525e-05 0 -0.0034331085094331869 0.00051409301597229768 0 -0.003889311941514921 0.00038501326679805551 0 -0.0042363562420584724 0.00072865275464640265 0 -0.0037614784034931724 -6.4301648070824469e-05 0 -0.0034331085094331869 0.00051409301597229768 0 -0.003889311941514921 0.00038501326679805551 0 -0.0030377679082763741 0.00010968833825124256 0 -0.0023095698128276321 0.00011068897056844253 0 -0.0013441924863663755 0.00011409686706842383 0 -0.0017225222503597362 0.0001565303209796574 0 -0.0016536002826090972 -5.4485222412463051e-05 0 -0.0023506389863569015 0.00031025336872993474 0 -0.0023095698128276321 0.00011068897056844253 0 -0.0034331085094331869 0.00051409301597229768 0 -0.0031825415170783551 7.1596542624845525e-05 0 -0.0025922693987305624 0.00022158711944252361 0 -0.0029871262139243029 0.00010880446860034906 0 -0.0028472538310474684 2.9392962644634036e-05 0 -0.0026615176904428643 0.00021227828200743562 0 -0.0029901178748839349 -7.01111319571063e-05 0 -0.0029871262139243029 0.00010880446860034906 0 -0.0028472538310474684 2.9392962644634036e-05 0 -0.0029901178748839349 -7.01111319571063e-05 0 -0.0028785865482043346 -5.1439904578637466e-05 0 -0.0028472538310474684 2.9392962644634036e-05 0 -0.0031146125644798441 -4.8216854001678569e-07 0 -0.0028785865482043346 -5.1439904578637466e-05 0 -0.0022846454355450328 5.1135560100224493e-07 0 -0.0028785865482043346 -5.1439904578637466e-05 0 -0.0028472538310474684 2.9392962644634036e-05 0 -0.0022846454355450328 5.1135560100224493e-07 0 -0.0023095698128276321 0.00011068897056844253 0 -0.0021037627065257835 1.5128076653099864e-07 0 -0.0022827219430926367 -2.4944648433013764e-09 0 -0.0021806666776383959 3.7870660994110862e-07 0 -0.0021047451215531121 2.7910055208981918e-09 0 -0.0022836643496772285 1.1069192614463901e-07 0 -0.0023095698128276321 0.00011068897056844253 0 -0.0028472538310474684 2.9392962644634036e-05 0 -0.0022846454355450328 5.1135560100224493e-07 0 -0.0026615176904428643 0.00021227828200743562 0 -0.0017225222503597362 0.0001565303209796574 0 -0.0021023432324117405 4.3806749741283494e-07 0 -0.0016536002826090972 -5.4485222412463051e-05 0 -0.0016536002826090972 -5.4485222412463051e-05 0 -0.0015557694752359526 -0.00012766037633297626 0 -0.0013472785150708789 -4.2112549626038744e-07 0 -0.0021023432324117405 4.3806749741283494e-07 0 -0.0016536002826090972 -5.4485222412463051e-05 0 -0.0013472785150708789 -4.2112549626038744e-07 0 -0.0013441924863663755 0.00011409686706842383 0 -0.0016536002826090972 -5.4485222412463051e-05 0 -0.0015557694752359526 -0.00012766037633297626 0 -0.0010838320557825536 -1.9357482019702518e-05 0 -0.00085586880669498867 -8.9065682966845935e-05 0 -0.00062503079983573329 0.00011491127812933849 0 -0.0006352749624902209 -7.2595427456920993e-05 0 -0.00051960905575070481 -2.0538646762307717e-05 0 -0.0013444738328455155 5.0538236293835139e-07 0 -0.00057262693823028721 -3.5775278123702355e-07 0 -0.0006352749624902209 -7.2595427456920993e-05 0 -0.0010838320557825536 -1.9357482019702518e-05 0 -0.0013457129684423315 -2.126010773407483e-09 0 -0.00062503079983573329 0.00011491127812933849 0 -0.0013444738328455155 5.0538236293835139e-07 0 -0.0006352749624902209 -7.2595427456920993e-05 0 -0.00057262693823028721 -3.5775278123702355e-07 0 -0.0006352749624902209 -7.2595427456920993e-05 0 -0.00038564997409102193 -7.916773657092831e-05 0 -0.0006352749624902209 -7.2595427456920993e-05 0 -0.00049575613288033703 -7.1682122331787504e-05 0 -0.00038564997409102193 -7.916773657092831e-05 0 -0.0006352749624902209 -7.2595427456920993e-05 0 -0.00049575613288033703 -7.1682122331787504e-05 0 -0.00051960905575070481 -2.0538646762307717e-05 0 -0.00049575613288033703 -7.1682122331787504e-05 0 -0.00038564997409102193 -7.916773657092831e-05 0 -0.00043463994574835681 -7.2295904441309564e-05 0 -0.00012132909122674999 -1.1478753788727616e-05 0 -0.00038564997409102193 -7.916773657092831e-05 0 -0.0003239320821389736 -5.9638492481388204e-05 0 -0.00038564997409102193 -7.916773657092831e-05 0 -0.00043463994574835681 -7.2295904441309564e-05 0 -0.0003239320821389736 -5.9638492481388204e-05 0 -0.00043463994574835681 -7.2295904441309564e-05 0 -0.00038426709231277395 -5.5695483154362277e-05 0 -0.0003239320821389736 -5.9638492481388204e-05 0 -0.00027895269475717639 -2.2497449174707098e-05 0 -0.00038426709231277395 -5.5695483154362277e-05 0 -0.0003239320821389736 -5.9638492481388204e-05 0 -0.00012132909122674999 -1.1478753788727616e-05 0 -0.00027895269475717639 -2.2497449174707098e-05 0 -0.0003239320821389736 -5.9638492481388204e-05 0 0.00020106385352100666 -2.2857234116879171e-07 0 -0.00057262693823028721 -3.5775278123702355e-07 0 -0.00038564997409102193 -7.916773657092831e-05 0 0.00020106385352100666 -2.2857234116879171e-07 0 -0.00012132909122674999 -1.1478753788727616e-05 0 -0.00038564997409102193 -7.916773657092831e-05 0 -0.0005656030888058775 0.00010658064445208738 0 -0.00061542766143135358 7.0286753234250293e-05 0 -0.00060392185673952155 0.00013594348858009589 0 -0.0005656030888058775 0.00010658064445208738 0 -0.00061542766143135358 7.0286753234250293e-05 0 -0.0005670309768301909 5.4992358271174438e-05 0 -0.00066004083195554827 8.742778874368739e-05 0 -0.00061542766143135358 7.0286753234250293e-05 0 -0.00060392185673952155 0.00013594348858009589 0 -0.00066004083195554827 8.742778874368739e-05 0 -0.00061542766143135358 7.0286753234250293e-05 0 -0.00066613641081787484 3.2668427362878389e-05 0 -0.00062939386237823697 3.0110691573431617e-05 0 -0.00029373908959104135 0.00014444474462578028 0 -0.00066004083195554827 8.742778874368739e-05 0 -0.00062786234308225908 0.00010822177698530335 0 -0.00068405936931925464 0.00010132370806922575 0 -0.0005656030888058775 0.00010658064445208738 0 -0.00060331915707083708 0.00014428966631483962 0 -0.00056505154183375756 0.00017154739498702136 0 -0.00029373908959104135 0.00014444474462578028 0 0.00024937532920883161 0.00015327831399145449 0 -0.00046086469675042511 0.00019588026015087166 0 -0.00029373908959104135 0.00014444474462578028 0 -0.00055061484875987461 0.00017189058732764711 0 -0.00047111045870400469 0.00012025346610228158 0 -0.00049556969964978652 8.6674372285678499e-05 0 0.00024937532920883161 0.00015327831399145449 0 -0.00049441967673441336 0.0002669466388494788 0 -0.00039635130931240195 4.5930596390634247e-05 0 -0.00038426709231277395 -5.5695483154362277e-05 0 -0.00044435967210612647 -6.5139004423511214e-05 0 -0.0005656030888058775 0.00010658064445208738 0 -0.00056505154183375756 0.00017154739498702136 0 -0.00049556969964978652 8.6674372285678499e-05 0 -0.00041942032479390997 0.00025798830634561235 0 -0.00055061484875987461 0.00017189058732764711 0 -0.00047111045870400469 0.00012025346610228158 0 -0.00047111045870400469 0.00012025346610228158 0 -0.00049556969964978652 8.6674372285678499e-05 0 -0.00053239744366971587 -2.1778053791835129e-05 0 -0.00043463994574835681 -7.2295904441309564e-05 0 -0.00044435967210612647 -6.5139004423511214e-05 0 -0.00053239744366971587 -2.1778053791835129e-05 0 -0.00043463994574835681 -7.2295904441309564e-05 0 -0.00038426709231277395 -5.5695483154362277e-05 0 -0.00044435967210612647 -6.5139004423511214e-05 0 -0.0005656030888058775 0.00010658064445208738 0 -0.00049556969964978652 8.6674372285678499e-05 0 -0.0005670309768301909 5.4992358271174438e-05 0 -0.00049556969964978652 8.6674372285678499e-05 0 -0.00053239744366971587 -2.1778053791835129e-05 0 -0.0005670309768301909 5.4992358271174438e-05 0 -0.0004850187172180034 6.8435115995209287e-06 0 -0.00051197193062772338 -1.8150769698435434e-05 0 -0.00049575613288033703 -7.1682122331787504e-05 0 -0.00043463994574835681 -7.2295904441309564e-05 0 -0.00053239744366971587 -2.1778053791835129e-05 0 -0.00049575613288033703 -7.1682122331787504e-05 0 -0.00053239744366971587 -2.1778053791835129e-05 0 -0.00051960905575070481 -2.0538646762307717e-05 0 -0.00053239744366971587 -2.1778053791835129e-05 0 -0.00060932986565699111 -1.3912864414784187e-05 0 -0.00061398558447832397 2.5979666080042365e-05 0 -0.00053239744366971587 -2.1778053791835129e-05 0 -0.0005670309768301909 5.4992358271174438e-05 0 -0.00061398558447832397 2.5979666080042365e-05 0 -0.00061542766143135358 7.0286753234250293e-05 0 -0.0005670309768301909 5.4992358271174438e-05 0 -0.00061398558447832397 2.5979666080042365e-05 0 -0.00061542766143135358 7.0286753234250293e-05 0 -0.00061398558447832397 2.5979666080042365e-05 0 -0.00066613641081787484 3.2668427362878389e-05 0 -0.00060932986565699111 -1.3912864414784187e-05 0 -0.00061398558447832397 2.5979666080042365e-05 0 -0.0006706710759956416 -1.6682792284124362e-05 0 -0.00061398558447832397 2.5979666080042365e-05 0 -0.0006706710759956416 -1.6682792284124362e-05 0 -0.00066613641081787484 3.2668427362878389e-05 0 -0.00061261196807273102 -3.0910961442818622e-05 0 -0.00053813788562079507 -3.8589574945751916e-05 0 -0.00074431670945505326 -7.9800097247572112e-05 0 -0.00060932986565699111 -1.3912864414784187e-05 0 -0.00061261196807273102 -3.0910961442818622e-05 0 -0.00068869248740052302 -4.8574284657311665e-05 0 -0.00060932986565699111 -1.3912864414784187e-05 0 -0.0006706710759956416 -1.6682792284124362e-05 0 -0.00068869248740052302 -4.8574284657311665e-05 0 -0.00053239744366971587 -2.1778053791835129e-05 0 -0.00060932986565699111 -1.3912864414784187e-05 0 -0.00061261196807273102 -3.0910961442818622e-05 0 -0.00061261196807273102 -3.0910961442818622e-05 0 -0.00068869248740052302 -4.8574284657311665e-05 0 -0.00074431670945505326 -7.9800097247572112e-05 0 -0.00062503079983573329 0.00011491127812933849 0 -0.00051960905575070481 -2.0538646762307717e-05 0 -0.00053813788562079507 -3.8589574945751916e-05 0 -0.00053239744366971587 -2.1778053791835129e-05 0 -0.00061261196807273102 -3.0910961442818622e-05 0 -0.00051960905575070481 -2.0538646762307717e-05 0 -0.00061261196807273102 -3.0910961442818622e-05 0 -0.00051960905575070481 -2.0538646762307717e-05 0 -0.00053813788562079507 -3.8589574945751916e-05 0 -0.0023506389863569015 0.00031025336872993474 0 -0.0025368683530470281 0.00034927198446412134 0 -0.0013441924863663755 0.00011409686706842383 0 -0.0015557694752359526 -0.00012766037633297626 0 -0.0011467824807756034 -0.00017662281436139747 0 -0.0013441924863663755 0.00011409686706842383 0 -0.0011467824807756034 -0.00017662281436139747 0 -0.00081650896630697896 -1.0171247442320219e-05 0 -0.0011467824807756034 -0.00017662281436139747 0 -0.00074431670945505326 -7.9800097247572112e-05 0 -0.00081650896630697896 -1.0171247442320219e-05 0 -0.00085586880669498867 -8.9065682966845935e-05 0 -0.00075543073531720727 -8.8141582468984051e-05 0 -0.003889311941514921 0.00038501326679805551 0 -0.0042363562420584724 0.00072865275464640265 0 -0.0042776242290766204 0.00061170264048152664 0 -0.0042363562420584724 0.00072865275464640265 0 -0.0042776242290766204 0.00061170264048152664 0 -0.0043914160483931744 0.00063719503941776768 0 -0.0025368683530470281 0.00034927198446412134 0 -0.0025266099580764484 0.0003140412216664276 0 -0.00074431670945505326 -7.9800097247572112e-05 0 -0.00081650896630697896 -1.0171247442320219e-05 0 -0.0007179620476490125 -9.3230114059338621e-05 0 -0.0042363562420584724 0.00072865275464640265 0 -0.0043914160483931744 0.00063719503941776768 0 -0.00445236212041639 0.00067683645007194369 0 -0.0043914160483931744 0.00063719503941776768 0 -0.0044678636119345663 0.00063326469034148951 0 -0.00445236212041639 0.00067683645007194369 0 -0.0044678636119345663 0.00063326469034148951 0 -0.0044927557277581005 0.00067614414023484668 0 -0.0044959221545711279 0.0006236423248363168 0 -0.0044678636119345663 0.00063326469034148951 0 -0.00445236212041639 0.00067683645007194369 0 -0.0044927557277581005 0.00067614414023484668 0 -0.00075712682655162977 -3.8541370897450952e-05 0 -0.00082890241973539842 -8.7920061373435426e-06 0 -0.0008731362870893119 -6.7207235610684549e-05 0 -0.0025266099580764484 0.0003140412216664276 0 -0.0030068590561828797 6.3559774457332824e-05 0 -0.0007179620476490125 -9.3230114059338621e-05 0 -0.00075712682655162977 -3.8541370897450952e-05 0 -0.0008731362870893119 -6.7207235610684549e-05 0 -0.00074431670945505326 -7.9800097247572112e-05 0 -0.0007179620476490125 -9.3230114059338621e-05 0 -0.00071218474047230959 -6.1024845669323038e-05 0 -0.00068869248740052302 -4.8574284657311665e-05 0 -0.00074431670945505326 -7.9800097247572112e-05 0 -0.00071218474047230959 -6.1024845669323038e-05 0 -0.0007179620476490125 -9.3230114059338621e-05 0 -0.00075712682655162977 -3.8541370897450952e-05 0 -0.00071218474047230959 -6.1024845669323038e-05 0 -0.00075712682655162977 -3.8541370897450952e-05 0 -0.00071218474047230959 -6.1024845669323038e-05 0 -0.00071322284954594586 -9.7530498139847764e-06 0 -0.0006706710759956416 -1.6682792284124362e-05 0 -0.00071218474047230959 -6.1024845669323038e-05 0 -0.00071322284954594586 -9.7530498139847764e-06 0 -0.0006706710759956416 -1.6682792284124362e-05 0 -0.00068869248740052302 -4.8574284657311665e-05 0 -0.00071218474047230959 -6.1024845669323038e-05 0 -0.0006706710759956416 -1.6682792284124362e-05 0 -0.00066613641081787484 3.2668427362878389e-05 0 -0.00071322284954594586 -9.7530498139847764e-06 0 -0.00066004083195554827 8.742778874368739e-05 0 -0.00066613641081787484 3.2668427362878389e-05 0 -0.00070883165820447491 4.7479002954879509e-05 0 -0.00066613641081787484 3.2668427362878389e-05 0 -0.00070883165820447491 4.7479002954879509e-05 0 -0.00071322284954594586 -9.7530498139847764e-06 0 -0.00070883165820447491 4.7479002954879509e-05 0 -0.00071322284954594586 -9.7530498139847764e-06 0 -0.00075887731420724153 3.8362555227873699e-06 0 -0.00075712682655162977 -3.8541370897450952e-05 0 -0.00071322284954594586 -9.7530498139847764e-06 0 -0.00075887731420724153 3.8362555227873699e-06 0 -0.00075887731420724153 3.8362555227873699e-06 0 -0.00082617609165115582 8.2858056618360227e-05 0 -0.00082890241973539842 -8.7920061373435426e-06 0 -0.00075887731420724153 3.8362555227873699e-06 0 -0.000753723312044931 5.8242965796190515e-05 0 -0.00082617609165115582 8.2858056618360227e-05 0 -0.00075712682655162977 -3.8541370897450952e-05 0 -0.00075887731420724153 3.8362555227873699e-06 0 -0.00082890241973539842 -8.7920061373435426e-06 0 -0.00070883165820447491 4.7479002954879509e-05 0 -0.00075887731420724153 3.8362555227873699e-06 0 -0.000753723312044931 5.8242965796190515e-05 0 -0.00076086175908276045 0.00015193641506790206 0 -0.00072649043345797263 0.00010054208430250577 0 -0.00082617609165115582 8.2858056618360227e-05 0 -0.00038301351742159328 -0.0008943660243266149 0 -0.00056740431431572729 -0.00085361236098668251 0 -0.00044077269450298125 -0.00069946702054452198 0 -0.000753723312044931 5.8242965796190515e-05 0 -0.00072649043345797263 0.00010054208430250577 0 -0.00082617609165115582 8.2858056618360227e-05 0 -0.00033842132006182805 -0.00031217100492239808 0 -0.00057999250200954069 -0.00024356046832627393 0 -0.00033842132006182805 -0.00031217100492239808 0 -0.00077048588136565549 0.0002141691586556196 0 -0.00070063103676887056 0.00013413110658603037 0 -0.00074154472540495628 0.00013453502499242531 0 -0.00072649043345797263 0.00010054208430250577 0 -0.00070063103676887056 0.00013413110658603037 0 -0.00072649043345797263 0.00010054208430250577 0 -0.00068405936931925464 0.00010132370806922575 0 -0.00070063103676887056 0.00013413110658603037 0 -0.00062786234308225908 0.00010822177698530335 0 -0.00068405936931925464 0.00010132370806922575 0 -0.00066004083195554827 8.742778874368739e-05 0 -0.00070883165820447491 4.7479002954879509e-05 0 -0.00068405936931925464 0.00010132370806922575 0 -0.00070883165820447491 4.7479002954879509e-05 0 -0.00072649043345797263 0.00010054208430250577 0 -0.00068405936931925464 0.00010132370806922575 0 -0.00070883165820447491 4.7479002954879509e-05 0 -0.000753723312044931 5.8242965796190515e-05 0 -0.00072649043345797263 0.00010054208430250577 0 -0.0017660639854403942 -0.0013582816488788294 0 -0.0017740646988132305 -0.0013713566378318008 0 -0.0017695064226597153 -0.0013808768069537738 0 -0.0010690221580916138 -0.0012503306429508618 0 -0.0012874346110874088 -0.00065790737145505595 0 -0.0017740646988132305 -0.0013713566378318008 0 -0.001785512978119788 -0.0013821904511161403 0 -0.0017847228757572901 -0.001374861166265584 0 -0.0017836536267888971 -0.001360630802465774 0 -0.0017740646988132305 -0.0013713566378318008 0 -0.0017847228757572901 -0.001374861166265584 0 -0.0017836536267888971 -0.001360630802465774 0 -0.0017684049759299594 -0.001357551747687031 0 -0.0017740646988132305 -0.0013713566378318008 0 -0.0010690221580916138 -0.0012503306429508618 0 -0.0016870639134116889 -0.0014258553590814256 0 -0.0001987431730662922 -0.00087014095257347446 0 -0.00044077269450298125 -0.00069946702054452198 0 -0.00031934961927115911 -0.0005456961688858308 0 -0.00082617609165115582 8.2858056618360227e-05 0 -0.00082890241973539842 -8.7920061373435426e-06 0 -0.00089428608273378466 1.3437413783792373e-05 0 -0.00057999250200954069 -0.00024356046832627393 0 -0.0012874346110874088 -0.00065790737145505595 0 -0.00082890241973539842 -8.7920061373435426e-06 0 -0.00089428608273378466 1.3437413783792373e-05 0 -0.0008731362870893119 -6.7207235610684549e-05 0 -0.0012874346110874088 -0.00065790737145505595 0 -0.002976588390538026 -0.00056397613680214242 0 -0.0017695064226597153 -0.0013808768069537738 0 -0.001785512978119788 -0.0013821904511161403 0 -0.0017817999540432207 -0.0013895564224525861 0 -0.0017740646988132305 -0.0013713566378318008 0 -0.0017695064226597153 -0.0013808768069537738 0 -0.001785512978119788 -0.0013821904511161403 0 -0.002976588390538026 -0.00056397613680214242 0 -0.0044008483030073473 8.7791297067285891e-05 0 -0.0038564838665366618 -8.4908423438099072e-05 0 -0.004065333586720574 -9.4173557118343078e-06 0 -0.0039277336392275035 0.00025117253266430348 0 -0.0012874346110874088 -0.00065790737145505595 0 -0.0030068590561828797 6.3559774457332824e-05 0 -0.002976588390538026 -0.00056397613680214242 0 -0.0030068590561828797 6.3559774457332824e-05 0 -0.0024090407854682337 -0.00052383966373606243 0 -0.002262103473939367 -0.00034077611860714645 0 -0.0025058324081825159 -0.00025085459991919267 0 -0.0030068590561828797 6.3559774457332824e-05 0 -0.0046697792897378238 0.00061220622898085957 0 -0.004065333586720574 -9.4173557118343078e-06 0 -0.0039277336392275035 0.00025117253266430348 0 -0.0041951721474251932 0.00035261761460805683 0 -0.0044416849317424449 0.00034983753426691302 0 -0.0046697792897378238 0.00061220622898085957 0 -0.0050377495169417171 0.00047679530437154415 0 -0.0050206942514641247 0.00040949582468206765 0 -0.0050038050823613955 0.00034785995559858269 0 -0.0044416849317424449 0.00034983753426691302 0 -0.0044008483030073473 8.7791297067285891e-05 0 -0.0038564838665366618 -8.4908423438099072e-05 0 -0.0039277336392275035 0.00025117253266430348 0 -0.0036691390873667034 0.00015187762110615286 0 -0.0050377495169417171 0.00047679530437154415 0 -0.0050580730731454877 0.00047510840436381838 0 -0.0050206942514641247 0.00040949582468206765 0 -0.0050377495169417171 0.00047679530437154415 0 -0.0050580730731454877 0.00047510840436381838 0 -0.0050151468265327024 0.0004846659404528565 0 -0.0050580730731454877 0.00047510840436381838 0 -0.0050230103554829266 0.00045784549214469313 0 -0.0050151468265327024 0.0004846659404528565 0 -0.0050580730731454877 0.00047510840436381838 0 -0.0051388788953985621 0.00045257078187782725 0 -0.0050230103554829266 0.00045784549214469313 0 -0.0051388788953985621 0.00045257078187782725 0 -0.0050230103554829266 0.00045784549214469313 0 -0.0048927908080920266 0.00027435601380557258 0 -0.0050230103554829266 0.00045784549214469313 0 -0.0048898279968431959 0.00042277142385484923 0 -0.0048927908080920266 0.00027435601380557258 0 -0.0048898279968431959 0.00042277142385484923 0 -0.0049505280986002452 0.0004810042643407865 0 -0.0048203911604211384 0.00049115456924160713 0 -0.0050230103554829266 0.00045784549214469313 0 -0.0048898279968431959 0.00042277142385484923 0 -0.0049505280986002452 0.0004810042643407865 0 -0.0050377495169417171 0.00047679530437154415 0 -0.0050151468265327024 0.0004846659404528565 0 -0.0049131401466752196 0.00054156324966766773 0 -0.0049505280986002452 0.0004810042643407865 0 -0.0049131401466752196 0.00054156324966766773 0 -0.0048203911604211384 0.00049115456924160713 0 -0.0050230103554829266 0.00045784549214469313 0 -0.0049505280986002452 0.0004810042643407865 0 -0.0050151468265327024 0.0004846659404528565 0 -0.0049505280986002452 0.0004810042643407865 0 -0.0050151468265327024 0.0004846659404528565 0 -0.0049131401466752196 0.00054156324966766773 0 -0.0044678636119345663 0.00063326469034148951 0 -0.0044959221545711279 0.0006236423248363168 0 -0.0044434772870971919 0.00054698247562946388 0 -0.0048998013463548949 0.00072929943708026563 0 -0.0048203911604211384 0.00049115456924160713 0 -0.0044434772870971919 0.00054698247562946388 0 -0.0046697792897378238 0.00061220622898085957 0 -0.004469744987247691 0.00057431080098825692 0 -0.0046697792897378238 0.00061220622898085957 0 -0.0048025760812193527 0.00054306725893564457 0 -0.0048203911604211384 0.00049115456924160713 0 -0.0044434772870971919 0.00054698247562946388 0 -0.0046871791891411529 0.00039564284191704983 0 -0.0042776242290766204 0.00061170264048152664 0 -0.0043914160483931744 0.00063719503941776768 0 -0.0044434772870971919 0.00054698247562946388 0 -0.0043077457878492095 0.00047358017350644031 0 -0.0042776242290766204 0.00061170264048152664 0 -0.0044434772870971919 0.00054698247562946388 0 -0.0043914160483931744 0.00063719503941776768 0 -0.0044678636119345663 0.00063326469034148951 0 -0.0044434772870971919 0.00054698247562946388 0 -0.0043077457878492095 0.00047358017350644031 0 -0.0044434772870971919 0.00054698247562946388 0 -0.0044374489085616539 0.00029997092728368039 0 -0.0044434772870971919 0.00054698247562946388 0 -0.0044374489085616539 0.00029997092728368039 0 -0.0046871791891411529 0.00039564284191704983 0 -0.0044374489085616539 0.00029997092728368039 0 -0.0046871791891411529 0.00039564284191704983 0 -0.0048927908080920266 0.00027435601380557258 0 -0.0049304401349455048 0.00041761141610178467 0 -0.0051123713931165438 0.00030967944716010033 0 -0.0048898279968431959 0.00042277142385484923 0 -0.0048203911604211384 0.00049115456924160713 0 -0.0046871791891411529 0.00039564284191704983 0 -0.0048898279968431959 0.00042277142385484923 0 -0.0046871791891411529 0.00039564284191704983 0 -0.0048927908080920266 0.00027435601380557258 0 -0.0052467473030104565 0.00049592827695124847 0 -0.0053099658558429953 0.00030976218802002104 0 -0.0054005123723101069 0.00033208024985908064 0 -0.0053099658558429953 0.00030976218802002104 0 -0.0053834475430342543 0.00028039217919588851 0 -0.0054005123723101069 0.00033208024985908064 0 -0.0051996728815649025 0.00036135113523560889 0 -0.0052467473030104565 0.00049592827695124847 0 -0.0053099658558429953 0.00030976218802002104 0 -0.0051595071837083825 0.00021498000742205072 0 -0.0053099658558429953 0.00030976218802002104 0 -0.0053757106861781071 0.00013503050784426836 0 -0.0051595071837083825 0.00021498000742205072 0 -0.0051996728815649025 0.00036135113523560889 0 -0.0053099658558429953 0.00030976218802002104 0 -0.0053834475430342543 0.00028039217919588851 0 -0.0054332096456350242 0.0002058834256343916 0 -0.0053757106861781071 0.00013503050784426836 0 -0.0053099658558429953 0.00030976218802002104 0 -0.0053834475430342543 0.00028039217919588851 0 -0.0053757106861781071 0.00013503050784426836 0 -0.0053834475430342543 0.00028039217919588851 0 -0.0054332096456350242 0.0002058834256343916 0 -0.0053645776224027306 0.00028799428100547266 0 -0.0053645776224027306 0.00028799428100547266 0 -0.0053717943571914362 0.00023125323683397019 0 -0.0054354020284128821 0.00017808021322944154 0 -0.0054332096456350242 0.0002058834256343916 0 -0.0053645776224027306 0.00028799428100547266 0 -0.0054354020284128821 0.00017808021322944154 0 -0.0052487898808452919 0.00029291511014708322 0 -0.0053645776224027306 0.00028799428100547266 0 -0.0053717943571914362 0.00023125323683397019 0 -0.0051388788953985621 0.00045257078187782725 0 -0.0052487898808452919 0.00029291511014708322 0 -0.0048927908080920266 0.00027435601380557258 0 -0.0053834475430342543 0.00028039217919588851 0 -0.0053645776224027306 0.00028799428100547266 0 -0.0054005123723101069 0.00033208024985908064 0 -0.0052465849663179106 0.00029141883202167502 0 -0.0051123713931165438 0.00030967944716010033 0 -0.0052487898808452919 0.00029291511014708322 0 -0.0053645776224027306 0.00028799428100547266 0 -0.0054005123723101069 0.00033208024985908064 0 -0.0048065679989150777 0.0008883182958224589 0 -0.0044774720477553463 0.00096611334174164626 0 -0.0048296387544135046 0.00088499023992107259 0 -0.0043119102999791157 0.0010493432617749391 0 -0.0045852347337681006 0.00071535795291765615 0 -0.0048267982403222796 0.00096362099901215511 0 -0.0048296387544135046 0.00088499023992107259 0 -0.0047417524605412693 0.00097213883411041387 0 -0.0048296387544135046 0.00088499023992107259 0 -0.0047417524605412693 0.00097213883411041387 0 -0.0046294617992387209 0.00089884012789909814 0 -0.0051388788953985621 0.00045257078187782725 0 -0.0052487898808452919 0.00029291511014708322 0 -0.0054011753332588262 0.00027456563618414746 0 -0.0052487898808452919 0.00029291511014708322 0 -0.0054011753332588262 0.00027456563618414746 0 -0.0053717943571914362 0.00023125323683397019 0 -0.0048267982403222796 0.00096362099901215511 0 -0.0048296387544135046 0.00088499023992107259 0 -0.005052502052649766 0.00055051334129850441 0 -0.0051107818862281803 0.00060094642469953107 0 -0.005070620838384267 0.00053453893571115405 0 -0.0053717943571914362 0.00023125323683397019 0 -0.0055026387860914183 0.00012832996978190826 0 -0.0054354020284128821 0.00017808021322944154 0 -0.0054011753332588262 0.00027456563618414746 0 -0.0053717943571914362 0.00023125323683397019 0 -0.0055026387860914183 0.00012832996978190826 0 -0.0048267982403222796 0.00096362099901215511 0 -0.0047417524605412693 0.00097213883411041387 0 -0.004775196441985409 0.0010373070061320657 0 -0.0051107818862281803 0.00060094642469953107 0 -0.0051377051240000353 0.00058471064385699041 0 -0.0047417524605412693 0.00097213883411041387 0 -0.0046294617992387209 0.00089884012789909814 0 -0.0046376631181251019 0.0010329026424292502 0 -0.0043119102999791157 0.0010493432617749391 0 -0.0041064850439715556 0.00090896949124980595 0 -0.004025017798168602 0.0010085099161214531 0 -0.0046294617992387209 0.00089884012789909814 0 -0.0044178763756171878 0.00090339397612840527 0 -0.0046376631181251019 0.0010329026424292502 0 -0.0044774720477553463 0.00096611334174164626 0 -0.0042237615911157106 0.00096095395889841083 0 -0.0043119102999791157 0.0010493432617749391 0 -0.0041064850439715556 0.00090896949124980595 0 -0.0042139621368108698 0.00073658563031373761 0 -0.0043119102999791157 0.0010493432617749391 0 -0.0042139621368108698 0.00073658563031373761 0 -0.0045852347337681006 0.00071535795291765615 0 -0.0042139621368108698 0.00073658563031373761 0 -0.0044768410847647704 0.00050413104166400948 0 -0.0045852347337681006 0.00071535795291765615 0 -0.0041064850439715556 0.00090896949124980595 0 -0.0042139621368108698 0.00073658563031373761 0 -0.0039381739980674721 0.00072686302619282754 0 -0.0042139621368108698 0.00073658563031373761 0 -0.0040818615061154568 0.00056983494538975039 0 -0.0039381739980674721 0.00072686302619282754 0 -0.0040818615061154568 0.00056983494538975039 0 -0.0044768410847647704 0.00050413104166400948 0 -0.0041939445858163336 0.00028339593788904386 0 -0.0042139621368108698 0.00073658563031373761 0 -0.0040818615061154568 0.00056983494538975039 0 -0.0044768410847647704 0.00050413104166400948 0 -0.0044768410847647704 0.00050413104166400948 0 -0.0047587770881070265 0.00051712450259888351 0 -0.0045852347337681006 0.00071535795291765615 0 -0.0044768410847647704 0.00050413104166400948 0 -0.0047587770881070265 0.00051712450259888351 0 -0.0047146531421354311 0.0003705227521406381 0 -0.0047587770881070265 0.00051712450259888351 0 -0.0049585799757932295 0.00044824667092469467 0 -0.0047146531421354311 0.0003705227521406381 0 -0.0048296387544135046 0.00088499023992107259 0 -0.0045852347337681006 0.00071535795291765615 0 -0.005052502052649766 0.00055051334129850441 0 -0.0047587770881070265 0.00051712450259888351 0 -0.0045852347337681006 0.00071535795291765615 0 -0.005052502052649766 0.00055051334129850441 0 -0.0051388788953985621 0.00045257078187782725 0 -0.0054011753332588262 0.00027456563618414746 0 -0.005052502052649766 0.00055051334129850441 0 -0.0050580730731454877 0.00047510840436381838 0 -0.0051388788953985621 0.00045257078187782725 0 -0.005052502052649766 0.00055051334129850441 0 -0.0050580730731454877 0.00047510840436381838 0 -0.005052502052649766 0.00055051334129850441 0 -0.0049585799757932295 0.00044824667092469467 0 -0.0047587770881070265 0.00051712450259888351 0 -0.005052502052649766 0.00055051334129850441 0 -0.0049585799757932295 0.00044824667092469467 0 -0.0050580730731454877 0.00047510840436381838 0 -0.0049585799757932295 0.00044824667092469467 0 -0.0050206942514641247 0.00040949582468206765 0 -0.0049651179725651879 0.00033815872960202357 0 -0.0050524155532534736 0.00023003123961291418 0 -0.0045952439814873859 2.147311561579503e-05 0 -0.0049585799757932295 0.00044824667092469467 0 -0.0050206942514641247 0.00040949582468206765 0 -0.0049651179725651879 0.00033815872960202357 0 -0.0050206942514641247 0.00040949582468206765 0 -0.0049651179725651879 0.00033815872960202357 0 -0.0050038050823613955 0.00034785995559858269 0 -0.0049585799757932295 0.00044824667092469467 0 -0.0049651179725651879 0.00033815872960202357 0 -0.0047146531421354311 0.0003705227521406381 0 -0.0046876125957251661 0.00011169129047427389 0 -0.0044008483030073473 8.7791297067285891e-05 0 -0.0049651179725651879 0.00033815872960202357 0 -0.0047146531421354311 0.0003705227521406381 0 -0.0045952439814873859 2.147311561579503e-05 0 -0.0047146531421354311 0.0003705227521406381 0 -0.0045952439814873859 2.147311561579503e-05 0 -0.0044861600655488956 0.00027400948088459259 0 -0.0044768410847647704 0.00050413104166400948 0 -0.0047146531421354311 0.0003705227521406381 0 -0.0044861600655488956 0.00027400948088459259 0 -0.0038782089054842624 -0.00032082920535276307 0 -0.0036909222620947904 -0.0003767930685679367 0 -0.0037726470113441583 -0.00042142893675329972 0 -0.0044008483030073473 8.7791297067285891e-05 0 -0.0041496936863324087 -0.00019263068758224836 0 -0.0036909222620947904 -0.0003767930685679367 0 -0.0037726470113441583 -0.00042142893675329972 0 -0.0036509138616367138 -0.00049093635186965481 0 -0.003961182240366139 -0.00043386422971077016 0 -0.003848339421408577 -0.00042166174643662929 0 -0.0037769091443347314 -0.00051622031453718261 0 -0.003961182240366139 -0.00043386422971077016 0 -0.0038782089054842624 -0.00032082920535276307 0 -0.003848339421408577 -0.00042166174643662929 0 -0.0038782089054842624 -0.00032082920535276307 0 -0.0037726470113441583 -0.00042142893675329972 0 -0.003848339421408577 -0.00042166174643662929 0 -0.0037726470113441583 -0.00042142893675329972 0 -0.003848339421408577 -0.00042166174643662929 0 -0.0037769091443347314 -0.00051622031453718261 0 -0.002976588390538026 -0.00056397613680214242 0 -0.002760489356185484 -0.0010107790809659415 0 -0.001785512978119788 -0.0013821904511161403 0 -0.0017817999540432207 -0.0013895564224525861 0 -0.0018117983442388422 -0.0013966610469559543 0 -0.001785512978119788 -0.0013821904511161403 0 -0.0017957590325482931 -0.0013835457074216591 0 -0.0018117983442388422 -0.0013966610469559543 0 -0.0017957590325482931 -0.0013835457074216591 0 -0.0018117983442388422 -0.0013966610469559543 0 -0.0018093055051843292 -0.0013885340966451566 0 -0.002760489356185484 -0.0010107790809659415 0 -0.0027026146736952358 -0.0010124939666654297 0 -0.0037769091443347314 -0.00051622031453718261 0 -0.0035449741657729455 -0.00065415176996030835 0 -0.0036509138616367138 -0.00049093635186965481 0 -0.0037726470113441583 -0.00042142893675329972 0 -0.0037769091443347314 -0.00051622031453718261 0 -0.0036509138616367138 -0.00049093635186965481 0 -0.0018117983442388422 -0.0013966610469559543 0 -0.001827235886211397 -0.0013862285956968902 0 -0.0018522185176056063 -0.0013762167404236271 0 -0.0018117983442388422 -0.0013966610469559543 0 -0.0018093055051843292 -0.0013885340966451566 0 -0.001827235886211397 -0.0013862285956968902 0 -0.001805342085906284 -0.0013905004383509877 0 -0.001827235886211397 -0.0013862285956968902 0 -0.0018219838608059696 -0.0013876378126963572 0 -0.0018093055051843292 -0.0013885340966451566 0 -0.001805342085906284 -0.0013905004383509877 0 -0.001827235886211397 -0.0013862285956968902 0 -0.0018483257013007408 -0.001384279914409514 0 -0.001827235886211397 -0.0013862285956968902 0 -0.0018443754009886148 -0.0013798301744414527 0 -0.0018483257013007408 -0.001384279914409514 0 -0.001827235886211397 -0.0013862285956968902 0 -0.0018219838608059696 -0.0013876378126963572 0 -0.001805342085906284 -0.0013905004383509877 0 -0.0018219838608059696 -0.0013876378126963572 0 -0.0017579417510597286 -0.0013881745060829948 0 -0.0018448468609489554 -0.0013880898135614729 0 -0.0018219838608059696 -0.0013876378126963572 0 -0.0017579417510597286 -0.0013881745060829948 0 -0.0017406195765919323 -0.0014139223776308001 0 -0.0017957590325482931 -0.0013835457074216591 0 -0.0017579417510597286 -0.0013881745060829948 0 -0.0017836536267888971 -0.001360630802465774 0 -0.0017957590325482931 -0.0013835457074216591 0 -0.0017847228757572901 -0.001374861166265584 0 -0.0017877203002951317 -0.0014140249572104726 0 -0.0017785095886337482 -0.0013706187653629378 0 -0.001785512978119788 -0.0013821904511161403 0 -0.0017957590325482931 -0.0013835457074216591 0 -0.0017847228757572901 -0.001374861166265584 0 -0.0017957590325482931 -0.0013835457074216591 0 -0.001805342085906284 -0.0013905004383509877 0 -0.0017579417510597286 -0.0013881745060829948 0 -0.0017957590325482931 -0.0013835457074216591 0 -0.0018093055051843292 -0.0013885340966451566 0 -0.001805342085906284 -0.0013905004383509877 0 -0.001837272581854194 -0.0013704346648882879 0 -0.0018522185176056063 -0.0013762167404236271 0 -0.0018184515514679178 -0.0013514465717358723 0 -0.0027026146736952358 -0.0010124939666654297 0 -0.0024312191740259678 -0.0011408334255869402 0 -0.0035449741657729455 -0.00065415176996030835 0 -0.0032670991550129962 -0.00062277359956587478 0 -0.0030923981094118638 -0.00095062300103269134 0 -0.001827235886211397 -0.0013862285956968902 0 -0.0018522185176056063 -0.0013762167404236271 0 -0.0018443754009886148 -0.0013798301744414527 0 -0.0018487494177563248 -0.0013796918997082375 0 -0.001837272581854194 -0.0013704346648882879 0 -0.0018522185176056063 -0.0013762167404236271 0 -0.0018487494177563248 -0.0013796918997082375 0 -0.0018522185176056063 -0.0013762167404236271 0 -0.0018443754009886148 -0.0013798301744414527 0 -0.0018487494177563248 -0.0013796918997082375 0 -0.0018483257013007408 -0.001384279914409514 0 -0.0018443754009886148 -0.0013798301744414527 0 -0.0035449741657729455 -0.00065415176996030835 0 -0.0036509138616367138 -0.00049093635186965481 0 -0.0034193889677220342 -0.0004285749363363994 0 -0.0035449741657729455 -0.00065415176996030835 0 -0.0032670991550129962 -0.00062277359956587478 0 -0.0034193889677220342 -0.0004285749363363994 0 -0.00399865428403221 -0.00020964771888404702 0 -0.0041939445858163336 0.00028339593788904386 0 -0.0035917425860357592 0.00047895829870095381 0 -0.0041496936863324087 -0.00019263068758224836 0 -0.0036857159785903945 -0.00031368476404846122 0 -0.0036909222620947904 -0.0003767930685679367 0 -0.0036509138616367138 -0.00049093635186965481 0 -0.0034193889677220342 -0.0004285749363363994 0 -0.0045952439814873859 2.147311561579503e-05 0 -0.00399865428403221 -0.00020964771888404702 0 -0.0041939445858163336 0.00028339593788904386 0 -0.0045952439814873859 2.147311561579503e-05 0 -0.0041939445858163336 0.00028339593788904386 0 -0.0044861600655488956 0.00027400948088459259 0 -0.0044768410847647704 0.00050413104166400948 0 -0.0041939445858163336 0.00028339593788904386 0 -0.0044861600655488956 0.00027400948088459259 0 -0.0040818615061154568 0.00056983494538975039 0 -0.0041939445858163336 0.00028339593788904386 0 -0.0035917425860357592 0.00047895829870095381 0 -0.0035917425860357592 0.00047895829870095381 0 -0.0027079590897550977 0.00058897838679904254 0 -0.0026270969223177289 0.00091484127148731538 0 -0.0035917425860357592 0.00047895829870095381 0 -0.0027079590897550977 0.00058897838679904254 0 -0.0026709681965395291 0.00026119659360522693 0 -0.003605221415071116 0.0004896723396975119 0 -0.0032330399187975021 0.00079689310914362135 0 -0.0025871864021762962 -7.8630744334941933e-05 0 -0.0032272603454881229 1.0228041553842675e-05 0 -0.0029515838533910044 -0.00047698012163893992 0 -0.0035917425860357592 0.00047895829870095381 0 -0.0026709681965395291 0.00026119659360522693 0 -0.0032272603454881229 1.0228041553842675e-05 0 -0.0026709681965395291 0.00026119659360522693 0 -0.0025871864021762962 -7.8630744334941933e-05 0 -0.0032272603454881229 1.0228041553842675e-05 0 -0.00399865428403221 -0.00020964771888404702 0 -0.0035917425860357592 0.00047895829870095381 0 -0.0032272603454881229 1.0228041553842675e-05 0 -0.0036857159785903945 -0.00031368476404846122 0 -0.0030035830869072329 -0.00048251592273528058 0 -0.0032670991550129962 -0.00062277359956587478 0 -0.0034193889677220342 -0.0004285749363363994 0 -0.0029515838533910044 -0.00047698012163893992 0 -0.0032670991550129962 -0.00062277359956587478 0 -0.0029515838533910044 -0.00047698012163893992 0 -0.0030923981094118638 -0.00095062300103269134 0 -0.00399865428403221 -0.00020964771888404702 0 -0.0032272603454881229 1.0228041553842675e-05 0 -0.0029515838533910044 -0.00047698012163893992 0 -0.0029515838533910044 -0.00047698012163893992 0 -0.0025199739592870556 -0.00081830394573898435 0 -0.0021685028097692279 -0.00065813136298624811 0 -0.0025871864021762962 -7.8630744334941933e-05 0 -0.0029515838533910044 -0.00047698012163893992 0 -0.0021685028097692279 -0.00065813136298624811 0 -0.001856192786150846 -0.0012178294490949007 0 -0.0025199739592870556 -0.00081830394573898435 0 -0.0021685028097692279 -0.00065813136298624811 0 -0.001856192786150846 -0.0012178294490949007 0 -0.0025199739592870556 -0.00081830394573898435 0 -0.0030923981094118638 -0.00095062300103269134 0 -0.0029515838533910044 -0.00047698012163893992 0 -0.0025199739592870556 -0.00081830394573898435 0 -0.0030923981094118638 -0.00095062300103269134 0 -0.0019005701771159175 -0.0012300610032353961 0 -0.0024312191740259678 -0.0011408334255869402 0 -0.0012908840608156335 -0.0006782847142770942 0 -0.0016280709465696474 -0.00085255727384310411 0 -0.0017229628332698097 -0.00040587019264402965 0 -0.0012336577266854288 -0.0010884948753547548 0 -0.0012908840608156335 -0.0006782847142770942 0 -0.0016280709465696474 -0.00085255727384310411 0 -0.0016280709465696474 -0.00085255727384310411 0 -0.0021685028097692279 -0.00065813136298624811 0 -0.0017229628332698097 -0.00040587019264402965 0 -0.001856192786150846 -0.0012178294490949007 0 -0.0016280709465696474 -0.00085255727384310411 0 -0.0021685028097692279 -0.00065813136298624811 0 -0.0025871864021762962 -7.8630744334941933e-05 0 -0.0021685028097692279 -0.00065813136298624811 0 -0.0017229628332698097 -0.00040587019264402965 0 -0.0012908840608156335 -0.0006782847142770942 0 -0.0017229628332698097 -0.00040587019264402965 0 -0.0013072851326570642 -0.00016591429245977176 0 -0.0017229628332698097 -0.00040587019264402965 0 -0.0013072851326570642 -0.00016591429245977176 0 -0.0015425729731658791 0.0001606778043200934 0 -0.00094012668061850015 0.00018267229829896676 0 -0.0013072851326570642 -0.00016591429245977176 0 -0.0015425729731658791 0.0001606778043200934 0 -0.0025871864021762962 -7.8630744334941933e-05 0 -0.0017229628332698097 -0.00040587019264402965 0 -0.0015425729731658791 0.0001606778043200934 0 -0.0025503190091755025 -5.8782917984243024e-05 0 -0.0018796077937976439 0.00017043561347884 0 -0.0026709681965395291 0.00026119659360522693 0 -0.0025871864021762962 -7.8630744334941933e-05 0 -0.0021511289259019198 0.0002090038785007723 0 -0.0026709681965395291 0.00026119659360522693 0 -0.0021511289259019198 0.0002090038785007723 0 -0.0024019211712528942 0.00048747950368712724 0 -0.0027079590897550977 0.00058897838679904254 0 -0.0026709681965395291 0.00026119659360522693 0 -0.0024019211712528942 0.00048747950368712724 0 -0.0024019211712528942 0.00048747950368712724 0 -0.0021587094692225826 0.00052848966852322304 0 -0.0022987026633229067 0.00068459068860521625 0 -0.0024019211712528942 0.00048747950368712724 0 -0.0022987026633229067 0.00068459068860521625 0 -0.0024765226424602192 0.00069626402092217115 0 -0.0027079590897550977 0.00058897838679904254 0 -0.0024019211712528942 0.00048747950368712724 0 -0.0024765226424602192 0.00069626402092217115 0 -0.0027079590897550977 0.00058897838679904254 0 -0.0024765226424602192 0.00069626402092217115 0 -0.0025776661046294082 0.00075602858498809166 0 -0.0019782922662930557 0.00046526550617396767 0 -0.0021511289259019198 0.0002090038785007723 0 -0.0021587094692225826 0.00052848966852322304 0 -0.0021511289259019198 0.0002090038785007723 0 -0.0024019211712528942 0.00048747950368712724 0 -0.0021587094692225826 0.00052848966852322304 0 -0.0021587094692225826 0.00052848966852322304 0 -0.0021351484005921921 0.00073931782445654445 0 -0.0022987026633229067 0.00068459068860521625 0 -0.0019782922662930557 0.00046526550617396767 0 -0.0021587094692225826 0.00052848966852322304 0 -0.0020150217012611551 0.00061782678065088392 0 -0.0021587094692225826 0.00052848966852322304 0 -0.0020150217012611551 0.00061782678065088392 0 -0.0021351484005921921 0.00073931782445654445 0 -0.0019642757923619631 0.00074752546466374972 0 -0.0021351484005921921 0.00073931782445654445 0 -0.002065640941530287 0.00087685961289787743 0 -0.0019642757923619631 0.00074752546466374972 0 -0.0020150217012611551 0.00061782678065088392 0 -0.0021351484005921921 0.00073931782445654445 0 -0.0021351484005921921 0.00073931782445654445 0 -0.0022769446885824583 0.00082887762354239719 0 -0.0022987026633229067 0.00068459068860521625 0 -0.0021351484005921921 0.00073931782445654445 0 -0.0021804187647767662 0.00088373937744716362 0 -0.0022769446885824583 0.00082887762354239719 0 -0.0021804187647767662 0.00088373937744716362 0 -0.0022905727788815728 0.00091590213115567043 0 -0.0022769446885824583 0.00082887762354239719 0 -0.0021804187647767662 0.00088373937744716362 0 -0.0021274198266464294 0.00097067240780018208 0 -0.0021970723410479659 0.00095566038407534498 0 -0.0021804187647767662 0.00088373937744716362 0 -0.0021970723410479659 0.00095566038407534498 0 -0.0022905727788815728 0.00091590213115567043 0 -0.0021351484005921921 0.00073931782445654445 0 -0.0021804187647767662 0.00088373937744716362 0 -0.002065640941530287 0.00087685961289787743 0 -0.0021804187647767662 0.00088373937744716362 0 -0.002065640941530287 0.00087685961289787743 0 -0.0021274198266464294 0.00097067240780018208 0 -0.001907777818655127 0.0010217667730032618 0 -0.0020309058013208083 0.00096087318600460039 0 -0.0021410423849072416 0.0010476299160153359 0 -0.0020309058013208083 0.00096087318600460039 0 -0.0021274198266464294 0.00097067240780018208 0 -0.0021410423849072416 0.0010476299160153359 0 -0.0034562299154779863 0.00099048935279880362 0 -0.0036070823326088972 0.00087062056884560442 0 -0.003606629139410145 0.00093099166951198724 0 -0.002065640941530287 0.00087685961289787743 0 -0.0020309058013208083 0.00096087318600460039 0 -0.0021274198266464294 0.00097067240780018208 0 -0.0021970723410479659 0.00095566038407534498 0 -0.0021410423849072416 0.0010476299160153359 0 -0.0022905727788815728 0.00091590213115567043 0 -0.0021274198266464294 0.00097067240780018208 0 -0.0021970723410479659 0.00095566038407534498 0 -0.0021410423849072416 0.0010476299160153359 0 -0.0039242011031897306 0.000865242371498363 0 -0.0038894076172462776 0.00082671765245231985 0 -0.0038270780542430504 0.00076004671104412029 0 -0.003811456222730966 0.0008695118766225159 0 -0.0038174159668594629 0.00077834050585499145 0 -0.0036070823326088972 0.00087062056884560442 0 -0.003606629139410145 0.00093099166951198724 0 -0.0038270780542430504 0.00076004671104412029 0 -0.0038894076172462776 0.00082671765245231985 0 -0.003895024228948872 0.00082924068944781695 0 -0.0039192243097510033 0.000859273675757639 0 -0.0038894076172462776 0.00082671765245231985 0 -0.003895024228948872 0.00082924068944781695 0 -0.0038636955928564331 0.00079258807545137583 0 -0.0039242011031897306 0.000865242371498363 0 -0.0038894076172462776 0.00082671765245231985 0 -0.0039219822894576845 0.00086489208413992715 0 -0.0038894076172462776 0.00082671765245231985 0 -0.0038270780542430504 0.00076004671104412029 0 -0.0038636955928564331 0.00079258807545137583 0 -0.0021410423849072416 0.0010476299160153359 0 -0.00245102479728423 0.0009105955940936954 0 -0.0026270969223177289 0.00091484127148731538 0 -0.0036070823326088972 0.00087062056884560442 0 -0.0038270780542430504 0.00076004671104412029 0 -0.0038342806625245979 0.00072283721618459956 0 -0.0029161721974962098 0.00094410266247939648 0 -0.0032330399187975021 0.00079689310914362135 0 -0.0021410423849072416 0.0010476299160153359 0 -0.00245102479728423 0.0009105955940936954 0 -0.0022905727788815728 0.00091590213115567043 0 -0.00245102479728423 0.0009105955940936954 0 -0.0022905727788815728 0.00091590213115567043 0 -0.0023810423661319914 0.00081351030858542342 0 -0.0022905727788815728 0.00091590213115567043 0 -0.0022769446885824583 0.00082887762354239719 0 -0.0023810423661319914 0.00081351030858542342 0 -0.0023810423661319914 0.00081351030858542342 0 -0.0022987026633229067 0.00068459068860521625 0 -0.0024765226424602192 0.00069626402092217115 0 -0.0022769446885824583 0.00082887762354239719 0 -0.0023810423661319914 0.00081351030858542342 0 -0.0022987026633229067 0.00068459068860521625 0 -0.00245102479728423 0.0009105955940936954 0 -0.0025083129039445971 0.00081745099683105515 0 -0.0026270969223177289 0.00091484127148731538 0 -0.0025083129039445971 0.00081745099683105515 0 -0.0025776661046294082 0.00075602858498809166 0 -0.0026270969223177289 0.00091484127148731538 0 -0.00245102479728423 0.0009105955940936954 0 -0.0023810423661319914 0.00081351030858542342 0 -0.0025083129039445971 0.00081745099683105515 0 -0.0025083129039445971 0.00081745099683105515 0 -0.0024765226424602192 0.00069626402092217115 0 -0.0025776661046294082 0.00075602858498809166 0 -0.0023810423661319914 0.00081351030858542342 0 -0.0025083129039445971 0.00081745099683105515 0 -0.0024765226424602192 0.00069626402092217115 0 -0.0027079590897550977 0.00058897838679904254 0 -0.0025776661046294082 0.00075602858498809166 0 -0.0026270969223177289 0.00091484127148731538 0 -0.0035917425860357592 0.00047895829870095381 0 -0.0038342806625245979 0.00072283721618459956 0 -0.0038270489500306548 0.00071552662960773679 0 -0.0038342806625245979 0.00072283721618459956 0 -0.0038270489500306548 0.00071552662960773679 0 -0.003842124799784232 0.00074924474015288607 0 -0.0038270780542430504 0.00076004671104412029 0 -0.0038342806625245979 0.00072283721618459956 0 -0.003842124799784232 0.00074924474015288607 0 -0.0035917425860357592 0.00047895829870095381 0 -0.0038270489500306548 0.00071552662960773679 0 -0.0039381739980674721 0.00072686302619282754 0 -0.0040818615061154568 0.00056983494538975039 0 -0.0035917425860357592 0.00047895829870095381 0 -0.0039381739980674721 0.00072686302619282754 0 -0.0038270489500306548 0.00071552662960773679 0 -0.0039381739980674721 0.00072686302619282754 0 -0.0039502835289139844 0.00085228218120163833 0 -0.0041064850439715556 0.00090896949124980595 0 -0.0039381739980674721 0.00072686302619282754 0 -0.0039502835289139844 0.00085228218120163833 0 -0.0038270489500306548 0.00071552662960773679 0 -0.0038805443395768247 0.00080180828702271592 0 -0.0039502835289139844 0.00085228218120163833 0 -0.0038270780542430504 0.00076004671104412029 0 -0.003842124799784232 0.00074924474015288607 0 -0.0038636955928564331 0.00079258807545137583 0 -0.003842124799784232 0.00074924474015288607 0 -0.0038636955928564331 0.00079258807545137583 0 -0.0038805443395768247 0.00080180828702271592 0 -0.0038270489500306548 0.00071552662960773679 0 -0.003842124799784232 0.00074924474015288607 0 -0.0038805443395768247 0.00080180828702271592 0 -0.003895024228948872 0.00082924068944781695 0 -0.0038636955928564331 0.00079258807545137583 0 -0.0038805443395768247 0.00080180828702271592 0 -0.003895024228948872 0.00082924068944781695 0 -0.0038805443395768247 0.00080180828702271592 0 -0.0039464661680310362 0.00088687591017140761 0 -0.0038805443395768247 0.00080180828702271592 0 -0.0039464661680310362 0.00088687591017140761 0 -0.0039502835289139844 0.00085228218120163833 0 -0.0041064850439715556 0.00090896949124980595 0 -0.0039502835289139844 0.00085228218120163833 0 -0.004025017798168602 0.0010085099161214531 0 -0.0039464661680310362 0.00088687591017140761 0 -0.0039502835289139844 0.00085228218120163833 0 -0.004025017798168602 0.0010085099161214531 0 -0.004025017798168602 0.0010085099161214531 0 -0.0040015294224042437 0.00092783102343769932 0 -0.0040839962183360293 0.00096859781156241164 0 -0.0039464661680310362 0.00088687591017140761 0 -0.004025017798168602 0.0010085099161214531 0 -0.0040015294224042437 0.00092783102343769932 0 -0.0042237615911157106 0.00096095395889841083 0 -0.0040888659690959707 0.00097122243630480597 0 -0.0040015294224042437 0.00092783102343769932 0 -0.0039587667103109601 0.0009292133554766592 0 -0.0039430735373911828 0.00088906164238233755 0 -0.0040015294224042437 0.00092783102343769932 0 -0.0039587667103109601 0.0009292133554766592 0 -0.0040839962183360293 0.00096859781156241164 0 -0.0039190013571439421 0.00093230674412545672 0 -0.0039333771955546775 0.00097490619484326651 0 -0.0039587667103109601 0.0009292133554766592 0 -0.0039190013571439421 0.00093230674412545672 0 -0.0039587667103109601 0.0009292133554766592 0 -0.003919711994263041 0.00090171675633240046 0 -0.0039587667103109601 0.0009292133554766592 0 -0.0039316833674683848 0.00088604221493259069 0 -0.0039430735373911828 0.00088906164238233755 0 -0.0039316833674683848 0.00088604221493259069 0 -0.0039219822894576845 0.00086489208413992715 0 -0.0039430735373911828 0.00088906164238233755 0 -0.0039587667103109601 0.0009292133554766592 0 -0.0039316833674683848 0.00088604221493259069 0 -0.003919711994263041 0.00090171675633240046 0 -0.0039242011031897306 0.000865242371498363 0 -0.0039316833674683848 0.00088604221493259069 0 -0.003919711994263041 0.00090171675633240046 0 -0.0039242011031897306 0.000865242371498363 0 -0.0039316833674683848 0.00088604221493259069 0 -0.0039219822894576845 0.00086489208413992715 0 -0.0038894076172462776 0.00082671765245231985 0 -0.0039219822894576845 0.00086489208413992715 0 -0.0039192243097510033 0.000859273675757639 0 -0.0039219822894576845 0.00086489208413992715 0 -0.0039192243097510033 0.000859273675757639 0 -0.0039430735373911828 0.00088906164238233755 0 -0.0040015294224042437 0.00092783102343769932 0 -0.0039192243097510033 0.000859273675757639 0 -0.0039430735373911828 0.00088906164238233755 0 -0.0039464661680310362 0.00088687591017140761 0 -0.0040015294224042437 0.00092783102343769932 0 -0.0039192243097510033 0.000859273675757639 0 -0.003895024228948872 0.00082924068944781695 0 -0.0039464661680310362 0.00088687591017140761 0 -0.0039192243097510033 0.000859273675757639 0 -0.0039925359902561325 0.0010398616803257289 0 -0.0040839962183360293 0.00096859781156241164 0 -0.0041703987497588094 0.0011895714042654132 0 -0.0039336228688273593 0.0011250476630130534 0 -0.0039925359902561325 0.0010398616803257289 0 -0.0040248708324832688 0.0011620974798064617 0 -0.0039925359902561325 0.0010398616803257289 0 -0.0041703987497588094 0.0011895714042654132 0 -0.0040248708324832688 0.0011620974798064617 0 -0.0039333771955546775 0.00097490619484326651 0 -0.0039587667103109601 0.0009292133554766592 0 -0.0039925359902561325 0.0010398616803257289 0 -0.0039587667103109601 0.0009292133554766592 0 -0.0039925359902561325 0.0010398616803257289 0 -0.0040839962183360293 0.00096859781156241164 0 -0.0044178763756171878 0.00090339397612840527 0 -0.0040839962183360293 0.00096859781156241164 0 -0.0043013927262337739 0.0011043574799494457 0 -0.0044178763756171878 0.00090339397612840527 0 -0.0043013927262337739 0.0011043574799494457 0 -0.004512882895611213 0.001155710650436861 0 -0.0043013927262337739 0.0011043574799494457 0 -0.0043772481605215494 0.0012536111429622136 0 -0.004512882895611213 0.001155710650436861 0 -0.0040839962183360293 0.00096859781156241164 0 -0.0043013927262337739 0.0011043574799494457 0 -0.0041703987497588094 0.0011895714042654132 0 -0.0043013927262337739 0.0011043574799494457 0 -0.0043772481605215494 0.0012536111429622136 0 -0.0041703987497588094 0.0011895714042654132 0 -0.0043772481605215494 0.0012536111429622136 0 -0.004240007339890813 0.0013562057452924864 0 -0.0041703987497588094 0.0011895714042654132 0 -0.0043772481605215494 0.0012536111429622136 0 -0.004441869861198466 0.0013875213074034196 0 -0.0045812668280077037 0.001309992763505127 0 -0.0043772481605215494 0.0012536111429622136 0 -0.004441869861198466 0.0013875213074034196 0 -0.004240007339890813 0.0013562057452924864 0 -0.004240007339890813 0.0013562057452924864 0 -0.0041703987497588094 0.0011895714042654132 0 -0.0040077533714234443 0.001302843983278286 0 -0.004240007339890813 0.0013562057452924864 0 -0.0040077533714234443 0.001302843983278286 0 -0.004132047024345744 0.001496048434132114 0 -0.0039336228688273593 0.0011250476630130534 0 -0.0040248708324832688 0.0011620974798064617 0 -0.0040077533714234443 0.001302843983278286 0 -0.0041703987497588094 0.0011895714042654132 0 -0.0040248708324832688 0.0011620974798064617 0 -0.0040077533714234443 0.001302843983278286 0 -0.0040203067753650252 0.0014916250584933947 0 -0.0040775548191458221 0.0013232981993818408 0 -0.0041806609951750475 0.0015309593693809782 0 -0.0040413707373762849 0.0013111409029193913 0 -0.004156205610834747 0.0015157049839042403 0 -0.004240007339890813 0.0013562057452924864 0 -0.004132047024345744 0.001496048434132114 0 -0.004343718380477762 0.0015330600618998793 0 -0.004132047024345744 0.001496048434132114 0 -0.0042614265197040918 0.0017285419033689102 0 -0.004343718380477762 0.0015330600618998793 0 -0.004156205610834747 0.0015157049839042403 0 -0.0042554381264557958 0.0017162304509822791 0 -0.0040203067753650252 0.0014916250584933947 0 -0.0041806609951750475 0.0015309593693809782 0 -0.004103692417378531 0.0017138331096271876 0 -0.0041806609951750475 0.0015309593693809782 0 -0.004103692417378531 0.0017138331096271876 0 -0.0042614265197040918 0.0017285419033689102 0 -0.0082564385947659687 0.0011595323672242584 0 -0.0082793077336253511 0.0012534008256984011 0 -0.0085052068328600895 0.0012946810655877095 0 -0.004103692417378531 0.0017138331096271876 0 -0.0042614265197040918 0.0017285419033689102 0 -0.0042487542663697505 0.0018609247584014973 0 -0.0060311577463243345 0.0014184456385303375 0 -0.00648060653746374 0.0016085918378565861 0 -0.0042614265197040918 0.0017285419033689102 0 -0.0042487542663697505 0.0018609247584014973 0 -0.0043956995867417735 0.001785832539557595 0 -0.0082793077336253511 0.0012534008256984011 0 -0.0085201449866457515 0.0013586560880635091 0 -0.0085052068328600895 0.0012946810655877095 0 -0.010525042193858218 0.00095404360171271688 0 -0.010501439326640669 0.0010019815981532677 0 -0.01258857102598261 0.00063815991729397614 0 -0.012649439246923244 0.00068435909935182955 0 -0.012610008331145126 0.00068150242065787654 0 -0.012530237541241889 0.00067791675616408705 0 -0.01258857102598261 0.00063815991729397614 0 -0.012610008331145126 0.00068150242065787654 0 -0.0046711330639950281 0.0022253383665975998 0 -0.0045303238977802991 0.0016457639130361685 0 -0.0051536292473328207 0.0016991362916911651 0 -0.0042487542663697505 0.0018609247584014973 0 -0.0046711330639950281 0.0022253383665975998 0 -0.0043956995867417735 0.001785832539557595 0 -0.010501439326640669 0.0010019815981532677 0 -0.011050363804486367 0.0011300328051121018 0 -0.0085201449866457515 0.0013586560880635091 0 -0.0085052068328600895 0.0012946810655877095 0 -0.0087564805095920809 0.0014415827948334374 0 -0.0085201449866457515 0.0013586560880635091 0 -0.0087564805095920809 0.0014415827948334374 0 -0.0087637656261959577 0.001475720327684647 0 -0.0046711330639950281 0.0022253383665975998 0 -0.0043956995867417735 0.001785832539557595 0 -0.0045303238977802991 0.0016457639130361685 0 -0.00648060653746374 0.0016085918378565861 0 -0.006363852186018714 0.0018276375770249456 0 -0.0042614265197040918 0.0017285419033689102 0 -0.0043956995867417735 0.001785832539557595 0 -0.0043777487091709181 0.0016566647333114703 0 -0.0043956995867417735 0.001785832539557595 0 -0.0043777487091709181 0.0016566647333114703 0 -0.0045303238977802991 0.0016457639130361685 0 -0.0045303238977802991 0.0016457639130361685 0 -0.0045383586193938749 0.0015569775591222055 0 -0.0045823600330921347 0.0016498029433233826 0 -0.0046833208593402035 0.0016642375522088891 0 -0.0045522322805382799 0.0016471675535228367 0 -0.0045303238977802991 0.0016457639130361685 0 -0.0045383586193938749 0.0015569775591222055 0 -0.004343718380477762 0.0015330600618998793 0 -0.0043777487091709181 0.0016566647333114703 0 -0.0045303238977802991 0.0016457639130361685 0 -0.004343718380477762 0.0015330600618998793 0 -0.0042614265197040918 0.0017285419033689102 0 -0.0043777487091709181 0.0016566647333114703 0 -0.004343718380477762 0.0015330600618998793 0 -0.004441869861198466 0.0013875213074034196 0 -0.004240007339890813 0.0013562057452924864 0 -0.004343718380477762 0.0015330600618998793 0 -0.004441869861198466 0.0013875213074034196 0 -0.0045383586193938749 0.0015569775591222055 0 -0.004343718380477762 0.0015330600618998793 0 -0.004441869861198466 0.0013875213074034196 0 -0.0045383586193938749 0.0015569775591222055 0 -0.0046117389555361361 0.0014669420848471141 0 -0.0046117389555361361 0.0014669420848471141 0 -0.0047104986020816454 0.0015359541952231813 0 -0.0047324926404222764 0.0013732239912828501 0 -0.0046117389555361361 0.0014669420848471141 0 -0.0047104986020816454 0.0015359541952231813 0 -0.0046264769398901206 0.0015786299894969805 0 -0.0045383586193938749 0.0015569775591222055 0 -0.0046117389555361361 0.0014669420848471141 0 -0.0046264769398901206 0.0015786299894969805 0 -0.0045383586193938749 0.0015569775591222055 0 -0.0046264769398901206 0.0015786299894969805 0 -0.0045823600330921347 0.0016498029433233826 0 -0.0045522322805382799 0.0016471675535228367 0 -0.0070135421788156647 0.0011618106497553148 0 -0.0046264769398901206 0.0015786299894969805 0 -0.0045823600330921347 0.0016498029433233826 0 -0.004697140268842501 0.001675064757834724 0 -0.0047104986020816454 0.0015359541952231813 0 -0.0046264769398901206 0.0015786299894969805 0 -0.004697140268842501 0.001675064757834724 0 -0.0048016893312369307 0.0010138911662685068 0 -0.0070135421788156647 0.0011618106497553148 0 -0.0053728431712237092 0.00041094105061172023 0 -0.0053372889783065867 0.00065309883664964655 0 -0.0054650118122374974 0.00056053021066027075 0 -0.0057927820784023252 0.0018140018032101546 0 -0.0053332609120907391 0.0022122903191632267 0 -0.0056512589329411143 0.0027354537081694394 0 -0.0046711330639950281 0.0022253383665975998 0 -0.0051536292473328207 0.0016991362916911651 0 -0.0053332609120907391 0.0022122903191632267 0 -0.0051536292473328207 0.0016991362916911651 0 -0.0057927820784023252 0.0018140018032101546 0 -0.0053332609120907391 0.0022122903191632267 0 -0.011853306491849531 0.0010274651710990618 0 -0.012082734626980642 0.0011192697134368274 0 -0.011997970134062012 0.0011720288625349591 0 -0.0053372889783065867 0.00065309883664964655 0 -0.0055729040144106784 0.00072934761707821056 0 -0.0054650118122374974 0.00056053021066027075 0 -0.0070135421788156647 0.0011618106497553148 0 -0.0091618506813078461 0.00092313305054503184 0 -0.0055729040144106784 0.00072934761707821056 0 -0.0054650118122374974 0.00056053021066027075 0 -0.005579678428659798 0.00046678675781115027 0 -0.0055729040144106784 0.00072934761707821056 0 -0.005579678428659798 0.00046678675781115027 0 -0.0057383666814625938 0.00057739860067659832 0 -0.0053728431712237092 0.00041094105061172023 0 -0.0054650118122374974 0.00056053021066027075 0 -0.005579678428659798 0.00046678675781115027 0 -0.0053728431712237092 0.00041094105061172023 0 -0.005579678428659798 0.00046678675781115027 0 -0.0055713083060993825 0.00024179548857181123 0 -0.0053728431712237092 0.00041094105061172023 0 -0.0055713083060993825 0.00024179548857181123 0 -0.005432622702611147 0.00019753778863887023 0 -0.0048016893312369307 0.0010138911662685068 0 -0.0051125428750213083 0.00077471302485612194 0 -0.005579678428659798 0.00046678675781115027 0 -0.0055713083060993825 0.00024179548857181123 0 -0.0057521525229411842 0.00029497903676846816 0 -0.0054883240925023653 8.6321748815780069e-05 0 -0.005432622702611147 0.00019753778863887023 0 -0.005602949950464441 9.1911136008496452e-05 0 -0.0055713083060993825 0.00024179548857181123 0 -0.005432622702611147 0.00019753778863887023 0 -0.005602949950464441 9.1911136008496452e-05 0 -0.0054883240925023653 8.6321748815780069e-05 0 -0.0055234265682260388 8.0402823376727077e-05 0 -0.005602949950464441 9.1911136008496452e-05 0 -0.00511726283982361 0.00064881304010202135 0 -0.0051125428750213083 0.00077471302485612194 0 -0.0047564074895416076 0.0011972016556831896 0 -0.0045812668280077037 0.001309992763505127 0 -0.004512882895611213 0.001155710650436861 0 -0.0046117389555361361 0.0014669420848471141 0 -0.0047324926404222764 0.0013732239912828501 0 -0.0045812668280077037 0.001309992763505127 0 -0.0047564074895416076 0.0011972016556831896 0 -0.0047324926404222764 0.0013732239912828501 0 -0.0045812668280077037 0.001309992763505127 0 -0.004441869861198466 0.0013875213074034196 0 -0.0046117389555361361 0.0014669420848471141 0 -0.0045812668280077037 0.001309992763505127 0 -0.0043772481605215494 0.0012536111429622136 0 -0.0045812668280077037 0.001309992763505127 0 -0.004512882895611213 0.001155710650436861 0 -0.0047564074895416076 0.0011972016556831896 0 -0.004512882895611213 0.001155710650436861 0 -0.0046376631181251019 0.0010329026424292502 0 -0.0044178763756171878 0.00090339397612840527 0 -0.004512882895611213 0.001155710650436861 0 -0.0046376631181251019 0.0010329026424292502 0 -0.0047417524605412693 0.00097213883411041387 0 -0.0046376631181251019 0.0010329026424292502 0 -0.004775196441985409 0.0010373070061320657 0 -0.0055026387860914183 0.00012832996978190826 0 -0.0055234265682260388 8.0402823376727077e-05 0 -0.0054354020284128821 0.00017808021322944154 0 -0.0054883240925023653 8.6321748815780069e-05 0 -0.0055026387860914183 0.00012832996978190826 0 -0.0055234265682260388 8.0402823376727077e-05 0 -0.00511726283982361 0.00064881304010202135 0 -0.0051377051240000353 0.00058471064385699041 0 -0.0047564074895416076 0.0011972016556831896 0 -0.0046376631181251019 0.0010329026424292502 0 -0.004775196441985409 0.0010373070061320657 0 -0.0055956022136025834 -1.196028780440702e-05 0 -0.0055234265682260388 8.0402823376727077e-05 0 -0.0054909464250419912 0.00012474229930174111 0 -0.0055234265682260388 8.0402823376727077e-05 0 -0.0054354020284128821 0.00017808021322944154 0 -0.0054909464250419912 0.00012474229930174111 0 -0.0054332096456350242 0.0002058834256343916 0 -0.0054354020284128821 0.00017808021322944154 0 -0.0054909464250419912 0.00012474229930174111 0 -0.0054332096456350242 0.0002058834256343916 0 -0.0055956022136025834 -1.196028780440702e-05 0 -0.0054909464250419912 0.00012474229930174111 0 -0.0055956022136025834 -1.196028780440702e-05 0 -0.0053757106861781071 0.00013503050784426836 0 -0.0052968587011907112 -0.00014247812155808326 0 -0.0053757106861781071 0.00013503050784426836 0 -0.0052968587011907112 -0.00014247812155808326 0 -0.0051599525376249391 -4.509081226166089e-05 0 -0.0054332096456350242 0.0002058834256343916 0 -0.0055956022136025834 -1.196028780440702e-05 0 -0.0053757106861781071 0.00013503050784426836 0 -0.0051595071837083825 0.00021498000742205072 0 -0.0053757106861781071 0.00013503050784426836 0 -0.0051599525376249391 -4.509081226166089e-05 0 -0.0056278654374462981 -1.7445487514614286e-05 0 -0.0057296477493545481 -8.6438217899584865e-05 0 -0.0055956022136025834 -1.196028780440702e-05 0 -0.0061438695565925166 -6.5238131480284642e-05 0 -0.0058152358557953766 8.9428641809799342e-05 0 -0.0061438695565925166 -6.5238131480284642e-05 0 -0.006135251273251722 0.00023292537090310839 0 -0.0066440011612468727 3.648752409424129e-05 0 -0.0061438695565925166 -6.5238131480284642e-05 0 -0.0058152358557953766 8.9428641809799342e-05 0 -0.006135251273251722 0.00023292537090310839 0 -0.0058152358557953766 8.9428641809799342e-05 0 -0.005602949950464441 9.1911136008496452e-05 0 -0.0057521525229411842 0.00029497903676846816 0 -0.0055956022136025834 -1.196028780440702e-05 0 -0.0058152358557953766 8.9428641809799342e-05 0 -0.005602949950464441 9.1911136008496452e-05 0 -0.0055956022136025834 -1.196028780440702e-05 0 -0.0055234265682260388 8.0402823376727077e-05 0 -0.005602949950464441 9.1911136008496452e-05 0 -0.0058152358557953766 8.9428641809799342e-05 0 -0.0057521525229411842 0.00029497903676846816 0 -0.006135251273251722 0.00023292537090310839 0 -0.0055713083060993825 0.00024179548857181123 0 -0.005602949950464441 9.1911136008496452e-05 0 -0.0057521525229411842 0.00029497903676846816 0 -0.0057521525229411842 0.00029497903676846816 0 -0.005984827519341835 0.00056860050470083424 0 -0.006135251273251722 0.00023292537090310839 0 -0.0057521525229411842 0.00029497903676846816 0 -0.0057383666814625938 0.00057739860067659832 0 -0.005984827519341835 0.00056860050470083424 0 -0.005579678428659798 0.00046678675781115027 0 -0.0057521525229411842 0.00029497903676846816 0 -0.0057383666814625938 0.00057739860067659832 0 -0.0057383666814625938 0.00057739860067659832 0 -0.005984827519341835 0.00056860050470083424 0 -0.0058343375215997731 0.0008471922132604028 0 -0.005984827519341835 0.00056860050470083424 0 -0.0058343375215997731 0.0008471922132604028 0 -0.0061741281540206435 0.00098548686292421563 0 -0.0091618506813078461 0.00092313305054503184 0 -0.0089188848441934671 0.0010552584614237832 0 -0.0055729040144106784 0.00072934761707821056 0 -0.0057383666814625938 0.00057739860067659832 0 -0.0058343375215997731 0.0008471922132604028 0 -0.005984827519341835 0.00056860050470083424 0 -0.0063182774912692429 0.0007432478406475231 0 -0.0061741281540206435 0.00098548686292421563 0 -0.005984827519341835 0.00056860050470083424 0 -0.0063182774912692429 0.0007432478406475231 0 -0.0062710764202853833 0.00046638635948633448 0 -0.0063182774912692429 0.0007432478406475231 0 -0.0062710764202853833 0.00046638635948633448 0 -0.0066208435674520857 0.00061706119528668073 0 -0.0062710764202853833 0.00046638635948633448 0 -0.006135251273251722 0.00023292537090310839 0 -0.0066448116078080145 0.00029665432238968015 0 -0.005984827519341835 0.00056860050470083424 0 -0.0062710764202853833 0.00046638635948633448 0 -0.006135251273251722 0.00023292537090310839 0 -0.006135251273251722 0.00023292537090310839 0 -0.0066440011612468727 3.648752409424129e-05 0 -0.0066448116078080145 0.00029665432238968015 0 -0.0059345642578697575 -3.9344694334865531e-05 0 -0.0063259918056363957 0.0001089039515176187 0 -0.0066440011612468727 3.648752409424129e-05 0 -0.0066448116078080145 0.00029665432238968015 0 -0.007086825083228678 0.0002446026568493115 0 -0.0066448116078080145 0.00029665432238968015 0 -0.0070133236096519957 0.0003102574749089882 0 -0.007086825083228678 0.0002446026568493115 0 -0.0066448116078080145 0.00029665432238968015 0 -0.0066208435674520857 0.00061706119528668073 0 -0.0070133236096519957 0.0003102574749089882 0 -0.0062710764202853833 0.00046638635948633448 0 -0.0066448116078080145 0.00029665432238968015 0 -0.0066208435674520857 0.00061706119528668073 0 -0.0066208435674520857 0.00061706119528668073 0 -0.0070133236096519957 0.0003102574749089882 0 -0.0070604954258406162 0.00083609806972181823 0 -0.0070709066324538645 0.00032877884653104004 0 -0.0069882476563770789 0.00033329317330904487 0 -0.0066208435674520857 0.00061706119528668073 0 -0.0070604954258406162 0.00083609806972181823 0 -0.0066119210032955095 0.0011461929655297888 0 -0.0063182774912692429 0.0007432478406475231 0 -0.0066208435674520857 0.00061706119528668073 0 -0.0066119210032955095 0.0011461929655297888 0 -0.0074390525776892565 -3.7695297837513782e-07 0 -0.0071373042817496433 -1.0458863958627515e-05 0 -0.0067543726713758532 2.8462572684153266e-05 0 -0.0074390525776892565 -3.7695297837513782e-07 0 -0.0071373042817496433 -1.0458863958627515e-05 0 -0.0073950398197809471 -2.983787153615779e-05 0 -0.0072392972563761126 -2.2103703139155992e-05 0 -0.0071514906170077721 3.601010932904857e-05 0 -0.0073950398197809471 -2.983787153615779e-05 0 -0.0071373042817496433 -1.0458863958627515e-05 0 -0.0071514906170077721 3.601010932904857e-05 0 -0.0073950398197809471 -2.983787153615779e-05 0 -0.0070133236096519957 0.0003102574749089882 0 -0.0071514906170077721 3.601010932904857e-05 0 -0.0070618307523965069 0.00011935455904788101 0 -0.0070618307523965069 0.00011935455904788101 0 -0.0067543726713758532 2.8462572684153266e-05 0 -0.007086825083228678 0.0002446026568493115 0 -0.0071373042817496433 -1.0458863958627515e-05 0 -0.0071514906170077721 3.601010932904857e-05 0 -0.0070618307523965069 0.00011935455904788101 0 -0.0070133236096519957 0.0003102574749089882 0 -0.0072392972563761126 -2.2103703139155992e-05 0 -0.0071514906170077721 3.601010932904857e-05 0 -0.0071373042817496433 -1.0458863958627515e-05 0 -0.0070618307523965069 0.00011935455904788101 0 -0.0067543726713758532 2.8462572684153266e-05 0 -0.0074390525776892565 -3.7695297837513782e-07 0 -0.0065652908467276408 5.3785877021358858e-07 0 -0.0067543726713758532 2.8462572684153266e-05 0 -0.0065652908467276408 5.3785877021358858e-07 0 -0.0067543726713758532 2.8462572684153266e-05 0 -0.0055598894536144786 3.9829778752301436e-05 0 -0.0065652908467276408 5.3785877021358858e-07 0 -0.0055598894536144786 3.9829778752301436e-05 0 -0.0056923146501027264 -3.0187992127174869e-07 0 -0.00667733903013174 4.4494712849139253e-05 0 -0.0063259918056363957 0.0001089039515176187 0 -0.0070133236096519957 0.0003102574749089882 0 -0.0070618307523965069 0.00011935455904788101 0 -0.007086825083228678 0.0002446026568493115 0 -0.0052041932524477443 -0.00013641468763636886 0 -0.0055598894536144786 3.9829778752301436e-05 0 -0.0053398572457297724 -0.00010128163896271646 0 -0.0055598894536144786 3.9829778752301436e-05 0 -0.0056923146501027264 -3.0187992127174869e-07 0 -0.0053398572457297724 -0.00010128163896271646 0 -0.0056923146501027264 -3.0187992127174869e-07 0 -0.0048190139971323589 -5.1671232665545092e-07 0 -0.0053398572457297724 -0.00010128163896271646 0 -0.0048190139971323589 -5.1671232665545092e-07 0 -0.0050613429332465477 -0.00011054698991870381 0 -0.0053398572457297724 -0.00010128163896271646 0 -0.0052968587011907112 -0.00014247812155808326 0 -0.0052041932524477443 -0.00013641468763636886 0 -0.0051599525376249391 -4.509081226166089e-05 0 -0.0052041932524477443 -0.00013641468763636886 0 -0.0050613429332465477 -0.00011054698991870381 0 -0.0053398572457297724 -0.00010128163896271646 0 -0.0052041932524477443 -0.00013641468763636886 0 -0.0050613429332465477 -0.00011054698991870381 0 -0.0051599525376249391 -4.509081226166089e-05 0 -0.0057296477493545481 -8.6438217899584865e-05 0 -0.0059345642578697575 -3.9344694334865531e-05 0 -0.0050613429332465477 -0.00011054698991870381 0 -0.0051599525376249391 -4.509081226166089e-05 0 -0.0049518031449343591 5.2438007097861268e-05 0 -0.0049410105597693463 0.00031472027728457924 0 -0.0051595071837083825 0.00021498000742205072 0 -0.0049518031449343591 5.2438007097861268e-05 0 -0.0051595071837083825 0.00021498000742205072 0 -0.0051599525376249391 -4.509081226166089e-05 0 -0.0049518031449343591 5.2438007097861268e-05 0 -0.0045802859108966592 0.00038798607766821555 0 -0.0049518031449343591 5.2438007097861268e-05 0 -0.0046219205792052444 -6.0122799260561311e-05 0 -0.0045802859108966592 0.00038798607766821555 0 -0.0039476498978594397 8.0816641766913368e-07 0 -0.0046219205792052444 -6.0122799260561311e-05 0 -0.0048190139971323589 -5.1671232665545092e-07 0 -0.0039476498978594397 8.0816641766913368e-07 0 -0.0046219205792052444 -6.0122799260561311e-05 0 -0.0048190139971323589 -5.1671232665545092e-07 0 -0.0050613429332465477 -0.00011054698991870381 0 -0.0046219205792052444 -6.0122799260561311e-05 0 -0.0050613429332465477 -0.00011054698991870381 0 -0.0049518031449343591 5.2438007097861268e-05 0 -0.0046219205792052444 -6.0122799260561311e-05 0 -0.011233140492642435 7.2138264294683316e-06 0 -0.010715941540042318 9.2024843407784545e-06 0 -0.010889966598857992 0.00011220910262395029 0 -0.011233140492642435 7.2138264294683316e-06 0 -0.010715941540042318 9.2024843407784545e-06 0 -0.010751999205569454 -8.095180079594242e-08 0 -0.010715941540042318 9.2024843407784545e-06 0 -0.010751999205569454 -8.095180079594242e-08 0 -0.0099387601234555683 1.4086462466458406e-07 0 -0.011233140492642435 7.2138264294683316e-06 0 -0.010751999205569454 -8.095180079594242e-08 0 -0.011636219821871368 -4.3331113652321287e-05 0 -0.010751999205569454 -8.095180079594242e-08 0 -0.011636219821871368 -4.3331113652321287e-05 0 -0.011565009664607322 -1.1779218019663402e-07 0 -0.011233140492642435 7.2138264294683316e-06 0 -0.01185368949773581 5.6559112295685026e-06 0 -0.011636219821871368 -4.3331113652321287e-05 0 -0.011233140492642435 7.2138264294683316e-06 0 -0.011564083661658404 8.8043839792107827e-05 0 -0.01185368949773581 5.6559112295685026e-06 0 -0.012030256250793942 0.00010391909013795564 0 -0.011564083661658404 8.8043839792107827e-05 0 -0.01185368949773581 5.6559112295685026e-06 0 -0.011848911538034249 0.00018473448987951991 0 -0.011564083661658404 8.8043839792107827e-05 0 -0.011484658029653367 0.00023237797002313563 0 -0.012030256250793942 0.00010391909013795564 0 -0.011848911538034249 0.00018473448987951991 0 -0.011564083661658404 8.8043839792107827e-05 0 -0.011233140492642435 7.2138264294683316e-06 0 -0.011564083661658404 8.8043839792107827e-05 0 -0.010889966598857992 0.00011220910262395029 0 -0.011484658029653367 0.00023237797002313563 0 -0.011122104115585578 0.00031004634670627585 0 -0.010889966598857992 0.00011220910262395029 0 -0.011564083661658404 8.8043839792107827e-05 0 -0.011484658029653367 0.00023237797002313563 0 -0.010889966598857992 0.00011220910262395029 0 -0.011848911538034249 0.00018473448987951991 0 -0.011484658029653367 0.00023237797002313563 0 -0.011998109121583196 0.00031246750924837104 0 -0.011484658029653367 0.00023237797002313563 0 -0.011655541178818965 0.00044157798993050862 0 -0.011998109121583196 0.00031246750924837104 0 -0.011484658029653367 0.00023237797002313563 0 -0.011655541178818965 0.00044157798993050862 0 -0.011122104115585578 0.00031004634670627585 0 -0.011655541178818965 0.00044157798993050862 0 -0.011122104115585578 0.00031004634670627585 0 -0.011344272849776125 0.00069006999799868486 0 -0.011655541178818965 0.00044157798993050862 0 -0.011344272849776125 0.00069006999799868486 0 -0.011730743921565187 0.00067924059944540055 0 -0.011122104115585578 0.00031004634670627585 0 -0.010370981904854326 0.00027373429597111597 0 -0.010889966598857992 0.00011220910262395029 0 -0.011122104115585578 0.00031004634670627585 0 -0.010370981904854326 0.00027373429597111597 0 -0.011344272849776125 0.00069006999799868486 0 -0.010370981904854326 0.00027373429597111597 0 -0.010889966598857992 0.00011220910262395029 0 -0.0099387601234555683 1.4086462466458406e-07 0 -0.010715941540042318 9.2024843407784545e-06 0 -0.010889966598857992 0.00011220910262395029 0 -0.0099387601234555683 1.4086462466458406e-07 0 -0.010370981904854326 0.00027373429597111597 0 -0.0099387601234555683 1.4086462466458406e-07 0 -0.0091256716348611239 -8.030565501870181e-08 0 -0.010370981904854326 0.00027373429597111597 0 -0.0091256716348611239 -8.030565501870181e-08 0 -0.0092411141382198782 7.4250729344035025e-05 0 -0.010370981904854326 0.00027373429597111597 0 -0.0096680295903471911 0.0001330340785463078 0 -0.0092411141382198782 7.4250729344035025e-05 0 -0.010289470605458751 0.00021937670669730801 0 -0.010331437189576303 0.0005884686305607736 0 -0.0096680295903471911 0.0001330340785463078 0 -0.0092411141382198782 7.4250729344035025e-05 0 -0.0092345922342739837 0.000474264236055743 0 -0.0091256716348611239 -8.030565501870181e-08 0 -0.0092411141382198782 7.4250729344035025e-05 0 -0.0083134454477374765 1.3320798975595508e-06 0 -0.0083106873500696093 6.9447993785859097e-07 0 -0.0076015795744132381 0.00015982755856845671 0 -0.0073950398197809471 -2.983787153615779e-05 0 -0.0092411141382198782 7.4250729344035025e-05 0 -0.0083134454477374765 1.3320798975595508e-06 0 -0.0092345922342739837 0.000474264236055743 0 -0.0083120801626400467 1.8749941376003135e-07 0 -0.0083573079509920954 0.0002637496909219925 0 -0.010331437189576303 0.0005884686305607736 0 -0.0087163412433437816 0.00093310648550821637 0 -0.0076015795744132381 0.00015982755856845671 0 -0.0073950398197809471 -2.983787153615779e-05 0 -0.0073260732642993834 0.0001065615986882304 0 -0.0096680295903471911 0.0001330340785463078 0 -0.0092345922342739837 0.000474264236055743 0 -0.0096185255371185451 0.00058849751697657169 0 -0.0083573079509920954 0.0002637496909219925 0 -0.0087163412433437816 0.00093310648550821637 0 -0.0072392972563761126 -2.2103703139155992e-05 0 -0.0073950398197809471 -2.983787153615779e-05 0 -0.0073260732642993834 0.0001065615986882304 0 -0.0074390525776892565 -3.7695297837513782e-07 0 -0.0083106873500696093 6.9447993785859097e-07 0 -0.0073950398197809471 -2.983787153615779e-05 0 -0.0069882476563770789 0.00033329317330904487 0 -0.0087163412433437816 0.00093310648550821637 0 -0.0070604954258406162 0.00083609806972181823 0 -0.0066119210032955095 0.0011461929655297888 0 -0.0071227751494956333 0.0012804077784737871 0 -0.010680274299830407 0.0010218848338409776 0 -0.010814013668399115 0.0014882156492789444 0 -0.011288392739097838 0.0011838237712846979 0 -0.0090823049135650077 0.0013912885276857762 0 -0.0087163412433437816 0.00093310648550821637 0 -0.011441665124672628 0.0015208563482033424 0 -0.010814013668399115 0.0014882156492789444 0 -0.011288392739097838 0.0011838237712846979 0 -0.011441665124672628 0.0015208563482033424 0 -0.011288392739097838 0.0011838237712846979 0 -0.011804057809954638 0.0012586861408997287 0 -0.011288392739097838 0.0011838237712846979 0 -0.011344272849776125 0.00069006999799868486 0 -0.011697651953356938 0.00094361383763801455 0 -0.010680274299830407 0.0010218848338409776 0 -0.011288392739097838 0.0011838237712846979 0 -0.011344272849776125 0.00069006999799868486 0 -0.010370981904854326 0.00027373429597111597 0 -0.010680274299830407 0.0010218848338409776 0 -0.011344272849776125 0.00069006999799868486 0 -0.011344272849776125 0.00069006999799868486 0 -0.011730743921565187 0.00067924059944540055 0 -0.011697651953356938 0.00094361383763801455 0 -0.011730743921565187 0.00067924059944540055 0 -0.011936723018230849 0.00077872402759612195 0 -0.011966369563313593 0.00055591346111479316 0 -0.011730743921565187 0.00067924059944540055 0 -0.011936723018230849 0.00077872402759612195 0 -0.011697651953356938 0.00094361383763801455 0 -0.012093716397285357 0.00067645357189401645 0 -0.011936723018230849 0.00077872402759612195 0 -0.012131412835707877 0.0008254260801842325 0 -0.012093716397285357 0.00067645357189401645 0 -0.011936723018230849 0.00077872402759612195 0 -0.011966369563313593 0.00055591346111479316 0 -0.011936723018230849 0.00077872402759612195 0 -0.011965106310475556 0.00098335499177460003 0 -0.012131412835707877 0.0008254260801842325 0 -0.011965106310475556 0.00098335499177460003 0 -0.011804057809954638 0.0012586861408997287 0 -0.012055926220199577 0.0011317727199819264 0 -0.011965106310475556 0.00098335499177460003 0 -0.01211302201136143 0.00098887845073660679 0 -0.012131412835707877 0.0008254260801842325 0 -0.011965106310475556 0.00098335499177460003 0 -0.012055926220199577 0.0011317727199819264 0 -0.01211302201136143 0.00098887845073660679 0 -0.011965106310475556 0.00098335499177460003 0 -0.011697651953356938 0.00094361383763801455 0 -0.011804057809954638 0.0012586861408997287 0 -0.011936723018230849 0.00077872402759612195 0 -0.011965106310475556 0.00098335499177460003 0 -0.011697651953356938 0.00094361383763801455 0 -0.011288392739097838 0.0011838237712846979 0 -0.011697651953356938 0.00094361383763801455 0 -0.011804057809954638 0.0012586861408997287 0 -0.011804057809954638 0.0012586861408997287 0 -0.012055926220199577 0.0011317727199819264 0 -0.012046361271405855 0.0012862475852683322 0 -0.011804057809954638 0.0012586861408997287 0 -0.011926037525350874 0.0014334295878696854 0 -0.012046361271405855 0.0012862475852683322 0 -0.0090823049135650077 0.0013912885276857762 0 -0.0090419611288209464 0.0011995497272879099 0 -0.0063182774912692429 0.0007432478406475231 0 -0.0066119210032955095 0.0011461929655297888 0 -0.0061741281540206435 0.00098548686292421563 0 -0.011441665124672628 0.0015208563482033424 0 -0.011804057809954638 0.0012586861408997287 0 -0.011926037525350874 0.0014334295878696854 0 -0.01216120730224695 0.0012727747435465123 0 -0.012160191878513856 0.001212299045679365 0 -0.012189058683295647 0.001215464698066041 0 -0.01216120730224695 0.0012727747435465123 0 -0.012189058683295647 0.001215464698066041 0 -0.012130695378467423 0.0012083726448150589 0 -0.0089188848441934671 0.0010552584614237832 0 -0.0090419611288209464 0.0011995497272879099 0 -0.01216120730224695 0.0012727747435465123 0 -0.012160191878513856 0.001212299045679365 0 -0.012046361271405855 0.0012862475852683322 0 -0.01216120730224695 0.0012727747435465123 0 -0.011926037525350874 0.0014334295878696854 0 -0.012046361271405855 0.0012862475852683322 0 -0.012055926220199577 0.0011317727199819264 0 -0.012160191878513856 0.001212299045679365 0 -0.012046361271405855 0.0012862475852683322 0 -0.012055926220199577 0.0011317727199819264 0 -0.012160191878513856 0.001212299045679365 0 -0.012174853017341761 0.001077425380993795 0 -0.012160191878513856 0.001212299045679365 0 -0.012228486344871741 0.001140533221800185 0 -0.012174853017341761 0.001077425380993795 0 -0.012228486344871741 0.001140533221800185 0 -0.012217077981802977 0.0011698584213205375 0 -0.012296063382869867 0.0010570400136176075 0 -0.012160191878513856 0.001212299045679365 0 -0.012228486344871741 0.001140533221800185 0 -0.012189058683295647 0.001215464698066041 0 -0.012189058683295647 0.001215464698066041 0 -0.012217077981802977 0.0011698584213205375 0 -0.012165552423343334 0.0012212379770009669 0 -0.012228486344871741 0.001140533221800185 0 -0.012189058683295647 0.001215464698066041 0 -0.012217077981802977 0.0011698584213205375 0 -0.012228486344871741 0.001140533221800185 0 -0.012240061579307732 0.0010332995442357952 0 -0.012296063382869867 0.0010570400136176075 0 -0.012240061579307732 0.0010332995442357952 0 -0.012296063382869867 0.0010570400136176075 0 -0.012313573523602423 0.00093450113237539961 0 -0.012296063382869867 0.0010570400136176075 0 -0.012313573523602423 0.00093450113237539961 0 -0.012372424756554345 0.00095638771218299764 0 -0.012240061579307732 0.0010332995442357952 0 -0.012313573523602423 0.00093450113237539961 0 -0.01222614165729626 0.00091666166594558767 0 -0.012313573523602423 0.00093450113237539961 0 -0.01222614165729626 0.00091666166594558767 0 -0.01237385605681387 0.00080390811945775422 0 -0.012452195894109088 0.00086271292967589612 0 -0.012372424756554345 0.00095638771218299764 0 -0.012483034190861069 0.0008862990764191012 0 -0.012401396213105497 0.0008658332513124422 0 -0.012452195894109088 0.00086271292967589612 0 -0.012372424756554345 0.00095638771218299764 0 -0.012313573523602423 0.00093450113237539961 0 -0.012401396213105497 0.0008658332513124422 0 -0.012372424756554345 0.00095638771218299764 0 -0.012055926220199577 0.0011317727199819264 0 -0.012174853017341761 0.001077425380993795 0 -0.01211302201136143 0.00098887845073660679 0 -0.012228486344871741 0.001140533221800185 0 -0.012240061579307732 0.0010332995442357952 0 -0.012174853017341761 0.001077425380993795 0 -0.012240061579307732 0.0010332995442357952 0 -0.012174853017341761 0.001077425380993795 0 -0.01222614165729626 0.00091666166594558767 0 -0.012174853017341761 0.001077425380993795 0 -0.01222614165729626 0.00091666166594558767 0 -0.01211302201136143 0.00098887845073660679 0 -0.01222614165729626 0.00091666166594558767 0 -0.01211302201136143 0.00098887845073660679 0 -0.012131412835707877 0.0008254260801842325 0 -0.01222614165729626 0.00091666166594558767 0 -0.012262061218767007 0.00078712472771491258 0 -0.01237385605681387 0.00080390811945775422 0 -0.01222614165729626 0.00091666166594558767 0 -0.012131412835707877 0.0008254260801842325 0 -0.012262061218767007 0.00078712472771491258 0 -0.012262061218767007 0.00078712472771491258 0 -0.012238824601922708 0.00068690592656074818 0 -0.01234249983584689 0.00070297624565539253 0 -0.012093716397285357 0.00067645357189401645 0 -0.012131412835707877 0.0008254260801842325 0 -0.012238824601922708 0.00068690592656074818 0 -0.012131412835707877 0.0008254260801842325 0 -0.012262061218767007 0.00078712472771491258 0 -0.012238824601922708 0.00068690592656074818 0 -0.012401396213105497 0.0008658332513124422 0 -0.01237385605681387 0.00080390811945775422 0 -0.012478614486286951 0.00079207587442745985 0 -0.01237385605681387 0.00080390811945775422 0 -0.012473497056025601 0.00069263186511153013 0 -0.012478614486286951 0.00079207587442745985 0 -0.012401396213105497 0.0008658332513124422 0 -0.012452195894109088 0.00086271292967589612 0 -0.012478614486286951 0.00079207587442745985 0 -0.012313573523602423 0.00093450113237539961 0 -0.012401396213105497 0.0008658332513124422 0 -0.01237385605681387 0.00080390811945775422 0 -0.012262061218767007 0.00078712472771491258 0 -0.01237385605681387 0.00080390811945775422 0 -0.01234249983584689 0.00070297624565539253 0 -0.01237385605681387 0.00080390811945775422 0 -0.01234249983584689 0.00070297624565539253 0 -0.012473497056025601 0.00069263186511153013 0 -0.012473497056025601 0.00069263186511153013 0 -0.012418824574681823 0.00061404937591473638 0 -0.012500868892837903 0.00057792819368666514 0 -0.01234249983584689 0.00070297624565539253 0 -0.012418824574681823 0.00061404937591473638 0 -0.012335482840916486 0.00060963288576888687 0 -0.01234249983584689 0.00070297624565539253 0 -0.012473497056025601 0.00069263186511153013 0 -0.012418824574681823 0.00061404937591473638 0 -0.012418824574681823 0.00061404937591473638 0 -0.012500868892837903 0.00057792819368666514 0 -0.012427176817006152 0.00050794669426101966 0 -0.012418824574681823 0.00061404937591473638 0 -0.012427176817006152 0.00050794669426101966 0 -0.012335482840916486 0.00060963288576888687 0 -0.012500868892837903 0.00057792819368666514 0 -0.012527011201292914 0.0004730228035694836 0 -0.012427176817006152 0.00050794669426101966 0 -0.012527011201292914 0.0004730228035694836 0 -0.012427176817006152 0.00050794669426101966 0 -0.012531946804583124 0.00035859679406805039 0 -0.012427176817006152 0.00050794669426101966 0 -0.01235849847280048 0.00041063296548701219 0 -0.012531946804583124 0.00035859679406805039 0 -0.012427176817006152 0.00050794669426101966 0 -0.01235849847280048 0.00041063296548701219 0 -0.012240090750813981 0.00054716559803029072 0 -0.012427176817006152 0.00050794669426101966 0 -0.012240090750813981 0.00054716559803029072 0 -0.012335482840916486 0.00060963288576888687 0 -0.012238824601922708 0.00068690592656074818 0 -0.01234249983584689 0.00070297624565539253 0 -0.012335482840916486 0.00060963288576888687 0 -0.012093716397285357 0.00067645357189401645 0 -0.012238824601922708 0.00068690592656074818 0 -0.012240090750813981 0.00054716559803029072 0 -0.012238824601922708 0.00068690592656074818 0 -0.012240090750813981 0.00054716559803029072 0 -0.012335482840916486 0.00060963288576888687 0 -0.012093716397285357 0.00067645357189401645 0 -0.012240090750813981 0.00054716559803029072 0 -0.011966369563313593 0.00055591346111479316 0 -0.012240090750813981 0.00054716559803029072 0 -0.011966369563313593 0.00055591346111479316 0 -0.01217457585403367 0.0004265056828274867 0 -0.011655541178818965 0.00044157798993050862 0 -0.011966369563313593 0.00055591346111479316 0 -0.011998109121583196 0.00031246750924837104 0 -0.011655541178818965 0.00044157798993050862 0 -0.011730743921565187 0.00067924059944540055 0 -0.011966369563313593 0.00055591346111479316 0 -0.011966369563313593 0.00055591346111479316 0 -0.011998109121583196 0.00031246750924837104 0 -0.01217457585403367 0.0004265056828274867 0 -0.011998109121583196 0.00031246750924837104 0 -0.01217457585403367 0.0004265056828274867 0 -0.012390114634396508 0.00030294840735247834 0 -0.01235849847280048 0.00041063296548701219 0 -0.01217457585403367 0.0004265056828274867 0 -0.012390114634396508 0.00030294840735247834 0 -0.01235849847280048 0.00041063296548701219 0 -0.012240090750813981 0.00054716559803029072 0 -0.01217457585403367 0.0004265056828274867 0 -0.011998109121583196 0.00031246750924837104 0 -0.012390114634396508 0.00030294840735247834 0 -0.012209563401048631 0.00020898127408660038 0 -0.012030256250793942 0.00010391909013795564 0 -0.011848911538034249 0.00018473448987951991 0 -0.012209563401048631 0.00020898127408660038 0 -0.011848911538034249 0.00018473448987951991 0 -0.011998109121583196 0.00031246750924837104 0 -0.012209563401048631 0.00020898127408660038 0 -0.012030256250793942 0.00010391909013795564 0 -0.012209563401048631 0.00020898127408660038 0 -0.012479767378804024 0.00017101189006367591 0 -0.012209563401048631 0.00020898127408660038 0 -0.012490110167498486 0.0002396442322846839 0 -0.012479767378804024 0.00017101189006367591 0 -0.012390114634396508 0.00030294840735247834 0 -0.012490110167498486 0.0002396442322846839 0 -0.012652742042564155 0.00028307000088285142 0 -0.012490110167498486 0.0002396442322846839 0 -0.012700721621135074 0.00025944387623706364 0 -0.012479767378804024 0.00017101189006367591 0 -0.012390114634396508 0.00030294840735247834 0 -0.012209563401048631 0.00020898127408660038 0 -0.012490110167498486 0.0002396442322846839 0 -0.012490110167498486 0.0002396442322846839 0 -0.012652742042564155 0.00028307000088285142 0 -0.012700721621135074 0.00025944387623706364 0 -0.012652742042564155 0.00028307000088285142 0 -0.012531946804583124 0.00035859679406805039 0 -0.012604584320808411 0.00031613713204488585 0 -0.012652742042564155 0.00028307000088285142 0 -0.012604584320808411 0.00031613713204488585 0 -0.012941381692801976 0.00032183532411466991 0 -0.012531946804583124 0.00035859679406805039 0 -0.012589613597696845 0.00041400528909794432 0 -0.012604584320808411 0.00031613713204488585 0 -0.012527011201292914 0.0004730228035694836 0 -0.012531946804583124 0.00035859679406805039 0 -0.012589613597696845 0.00041400528909794432 0 -0.012390114634396508 0.00030294840735247834 0 -0.012652742042564155 0.00028307000088285142 0 -0.012531946804583124 0.00035859679406805039 0 -0.01235849847280048 0.00041063296548701219 0 -0.012390114634396508 0.00030294840735247834 0 -0.012531946804583124 0.00035859679406805039 0 -0.012664826554225957 0.00041875549914045221 0 -0.012589613597696845 0.00041400528909794432 0 -0.012625258319993426 0.00048705115368240947 0 -0.012664826554225957 0.00041875549914045221 0 -0.012589613597696845 0.00041400528909794432 0 -0.012604584320808411 0.00031613713204488585 0 -0.013051716444642366 0.00049433373921966249 0 -0.012929670019141417 0.00039453072359137077 0 -0.013386278857908235 0.00056057644307142603 0 -0.013268196421755345 0.00049261878229023076 0 -0.013334339019923291 0.00041419835622077597 0 -0.013386278857908235 0.00056057644307142603 0 -0.013432346150840111 0.00044665240175420306 0 -0.013334339019923291 0.00041419835622077597 0 -0.013432346150840111 0.00044665240175420306 0 -0.013507463869083546 0.00051548411406921043 0 -0.013517325239359165 0.00038446329465226231 0 -0.013386278857908235 0.00056057644307142603 0 -0.013432346150840111 0.00044665240175420306 0 -0.013507463869083546 0.00051548411406921043 0 -0.013107236694714254 0.00060544813114382363 0 -0.013451914346573423 0.00056157717918376348 0 -0.012745471573710313 0.00068590945747409838 0 -0.012757287365508145 0.000685091358880538 0 -0.012752210784573366 0.00066547969394368796 0 -0.013107236694714254 0.00060544813114382363 0 -0.012981804294436272 0.0006107214788249628 0 -0.012745471573710313 0.00068590945747409838 0 -0.012740886097330827 0.0006991990386463324 0 -0.012746682489468551 0.00069665546576383182 0 -0.013386278857908235 0.00056057644307142603 0 -0.013507463869083546 0.00051548411406921043 0 -0.013496931747659088 0.00063957998203497887 0 -0.013051716444642366 0.00049433373921966249 0 -0.012981804294436272 0.0006107214788249628 0 -0.012664826554225957 0.00041875549914045221 0 -0.012707862165643985 0.00056197660215897833 0 -0.012762574090767202 0.00055894650268702422 0 -0.012664826554225957 0.00041875549914045221 0 -0.012707862165643985 0.00056197660215897833 0 -0.012666667377405946 0.00056085677259738807 0 -0.012707862165643985 0.00056197660215897833 0 -0.012762574090767202 0.00055894650268702422 0 -0.012737591862089054 0.00063913495525122293 0 -0.012707862165643985 0.00056197660215897833 0 -0.012701967725284764 0.00063398235156056782 0 -0.012666667377405946 0.00056085677259738807 0 -0.012981804294436272 0.0006107214788249628 0 -0.012701299649171428 0.00067717987913778154 0 -0.012738613028540201 0.00063930367296056545 0 -0.012737591862089054 0.00063913495525122293 0 -0.012731123064555266 0.00067176324002780072 0 -0.012740886097330827 0.0006991990386463324 0 -0.012739998330063044 0.00070507428288526803 0 -0.012746682489468551 0.00069665546576383182 0 -0.012981804294436272 0.0006107214788249628 0 -0.012837345850334808 0.00062724228138579387 0 -0.012737591862089054 0.00063913495525122293 0 -0.012728100538626403 0.00067509653900095707 0 -0.012731123064555266 0.00067176324002780072 0 -0.012737591862089054 0.00063913495525122293 0 -0.012717388135318088 0.00067318599316559802 0 -0.012728100538626403 0.00067509653900095707 0 -0.012717388135318088 0.00067318599316559802 0 -0.012728100538626403 0.00067509653900095707 0 -0.012717708376517093 0.00070008702612254473 0 -0.012701967725284764 0.00063398235156056782 0 -0.012661870836935455 0.00064144957889555019 0 -0.012666667377405946 0.00056085677259738807 0 -0.012707862165643985 0.00056197660215897833 0 -0.012737591862089054 0.00063913495525122293 0 -0.012701967725284764 0.00063398235156056782 0 -0.012737591862089054 0.00063913495525122293 0 -0.012717388135318088 0.00067318599316559802 0 -0.012701967725284764 0.00063398235156056782 0 -0.012717388135318088 0.00067318599316559802 0 -0.012701967725284764 0.00063398235156056782 0 -0.012689911377196847 0.00068621047214923239 0 -0.012701967725284764 0.00063398235156056782 0 -0.012661870836935455 0.00064144957889555019 0 -0.012689911377196847 0.00068621047214923239 0 -0.012661870836935455 0.00064144957889555019 0 -0.012658451103689097 0.00069300241651205549 0 -0.012689911377196847 0.00068621047214923239 0 -0.012661870836935455 0.00064144957889555019 0 -0.012658451103689097 0.00069300241651205549 0 -0.012620475444543953 0.00068190781800568569 0 -0.012621090573341548 0.00059030225144626682 0 -0.012563913969831492 0.00063827186483169642 0 -0.012620475444543953 0.00068190781800568569 0 -0.012661870836935455 0.00064144957889555019 0 -0.012621090573341548 0.00059030225144626682 0 -0.012620475444543953 0.00068190781800568569 0 -0.012661870836935455 0.00064144957889555019 0 -0.012621090573341548 0.00059030225144626682 0 -0.012666667377405946 0.00056085677259738807 0 -0.012664826554225957 0.00041875549914045221 0 -0.012666667377405946 0.00056085677259738807 0 -0.012625258319993426 0.00048705115368240947 0 -0.012621090573341548 0.00059030225144626682 0 -0.012666667377405946 0.00056085677259738807 0 -0.012625258319993426 0.00048705115368240947 0 -0.012527011201292914 0.0004730228035694836 0 -0.012589613597696845 0.00041400528909794432 0 -0.012574012021907917 0.00054165575009146967 0 -0.012589613597696845 0.00041400528909794432 0 -0.012625258319993426 0.00048705115368240947 0 -0.012574012021907917 0.00054165575009146967 0 -0.012621090573341548 0.00059030225144626682 0 -0.012625258319993426 0.00048705115368240947 0 -0.012574012021907917 0.00054165575009146967 0 -0.012500868892837903 0.00057792819368666514 0 -0.012527011201292914 0.0004730228035694836 0 -0.012574012021907917 0.00054165575009146967 0 -0.012500868892837903 0.00057792819368666514 0 -0.012574012021907917 0.00054165575009146967 0 -0.012563913969831492 0.00063827186483169642 0 -0.012621090573341548 0.00059030225144626682 0 -0.012574012021907917 0.00054165575009146967 0 -0.012563913969831492 0.00063827186483169642 0 -0.012473497056025601 0.00069263186511153013 0 -0.012500868892837903 0.00057792819368666514 0 -0.012563913969831492 0.00063827186483169642 0 -0.012473497056025601 0.00069263186511153013 0 -0.012559265213518288 0.00072361452952716108 0 -0.012478614486286951 0.00079207587442745985 0 -0.012473497056025601 0.00069263186511153013 0 -0.012563913969831492 0.00063827186483169642 0 -0.012559265213518288 0.00072361452952716108 0 -0.012563913969831492 0.00063827186483169642 0 -0.012559265213518288 0.00072361452952716108 0 -0.012620475444543953 0.00068190781800568569 0 -0.012559265213518288 0.00072361452952716108 0 -0.012582410678199105 0.00077173366217291343 0 -0.012541950507651282 0.0007839103588510555 0 -0.012559265213518288 0.00072361452952716108 0 -0.012582410678199105 0.00077173366217291343 0 -0.012602792095832257 0.00073223678081861358 0 -0.012582410678199105 0.00077173366217291343 0 -0.012541950507651282 0.0007839103588510555 0 -0.012559720745428578 0.00081299344306596047 0 -0.012541950507651282 0.0007839103588510555 0 -0.012478614486286951 0.00079207587442745985 0 -0.012514786660215993 0.00083167733554306378 0 -0.012559265213518288 0.00072361452952716108 0 -0.012541950507651282 0.0007839103588510555 0 -0.012478614486286951 0.00079207587442745985 0 -0.012452195894109088 0.00086271292967589612 0 -0.012478614486286951 0.00079207587442745985 0 -0.012514786660215993 0.00083167733554306378 0 -0.012658451103689097 0.00069300241651205549 0 -0.012620475444543953 0.00068190781800568569 0 -0.012641186199240585 0.00073428581955953796 0 -0.012658451103689097 0.00069300241651205549 0 -0.012641186199240585 0.00073428581955953796 0 -0.012668541958781277 0.00072873613323892565 0 -0.012620475444543953 0.00068190781800568569 0 -0.012602792095832257 0.00073223678081861358 0 -0.012641186199240585 0.00073428581955953796 0 -0.012559265213518288 0.00072361452952716108 0 -0.012620475444543953 0.00068190781800568569 0 -0.012602792095832257 0.00073223678081861358 0 -0.012602792095832257 0.00073223678081861358 0 -0.012617989818464128 0.00077061488892029174 0 -0.012641186199240585 0.00073428581955953796 0 -0.012582410678199105 0.00077173366217291343 0 -0.012602792095832257 0.00073223678081861358 0 -0.012617989818464128 0.00077061488892029174 0 -0.012617989818464128 0.00077061488892029174 0 -0.012641186199240585 0.00073428581955953796 0 -0.012650906823796442 0.00076931872678379272 0 -0.012641186199240585 0.00073428581955953796 0 -0.012650906823796442 0.00076931872678379272 0 -0.012668541958781277 0.00072873613323892565 0 -0.012650906823796442 0.00076931872678379272 0 -0.012630324100300351 0.00079665191135728152 0 -0.012651427546841478 0.00079658592052798418 0 -0.012617989818464128 0.00077061488892029174 0 -0.012650906823796442 0.00076931872678379272 0 -0.012630324100300351 0.00079665191135728152 0 -0.012630324100300351 0.00079665191135728152 0 -0.012597091175572905 0.00080839413095952137 0 -0.012615946325811025 0.0008171724941629649 0 -0.012617989818464128 0.00077061488892029174 0 -0.012630324100300351 0.00079665191135728152 0 -0.012597091175572905 0.00080839413095952137 0 -0.012582410678199105 0.00077173366217291343 0 -0.012617989818464128 0.00077061488892029174 0 -0.012597091175572905 0.00080839413095952137 0 -0.012597091175572905 0.00080839413095952137 0 -0.012596580339087891 0.00083350822104360177 0 -0.012578333683853485 0.00082607187092175534 0 -0.012597091175572905 0.00080839413095952137 0 -0.012596580339087891 0.00083350822104360177 0 -0.012615946325811025 0.0008171724941629649 0 -0.012596580339087891 0.00083350822104360177 0 -0.012558094594481314 0.0008457571386682256 0 -0.012632446076501646 0.00084167196518404933 0 -0.012596580339087891 0.00083350822104360177 0 -0.012625549876359676 0.00082757882786978253 0 -0.012632446076501646 0.00084167196518404933 0 -0.012596580339087891 0.00083350822104360177 0 -0.012625549876359676 0.00082757882786978253 0 -0.012615946325811025 0.0008171724941629649 0 -0.012625549876359676 0.00082757882786978253 0 -0.012640038779759999 0.00081769911946252263 0 -0.012634587473984557 0.00082839944640127723 0 -0.012625549876359676 0.00082757882786978253 0 -0.012615946325811025 0.0008171724941629649 0 -0.012631832001791984 0.0008139866141721933 0 -0.012630324100300351 0.00079665191135728152 0 -0.012615946325811025 0.0008171724941629649 0 -0.012631832001791984 0.0008139866141721933 0 -0.012630324100300351 0.00079665191135728152 0 -0.012631832001791984 0.0008139866141721933 0 -0.012651427546841478 0.00079658592052798418 0 -0.012631832001791984 0.0008139866141721933 0 -0.012640038779759999 0.00081769911946252263 0 -0.012651427546841478 0.00079658592052798418 0 -0.012625549876359676 0.00082757882786978253 0 -0.012631832001791984 0.0008139866141721933 0 -0.012640038779759999 0.00081769911946252263 0 -0.012651427546841478 0.00079658592052798418 0 -0.01264781968111608 0.00081392723216468959 0 -0.012657713711905372 0.00080104546812989424 0 -0.012640038779759999 0.00081769911946252263 0 -0.012651427546841478 0.00079658592052798418 0 -0.01264781968111608 0.00081392723216468959 0 -0.012372424756554345 0.00095638771218299764 0 -0.012483034190861069 0.0008862990764191012 0 -0.012632446076501646 0.00084167196518404933 0 -0.012296063382869867 0.0010570400136176075 0 -0.012372424756554345 0.00095638771218299764 0 -0.012576388812059004 0.0011402928363729811 0 -0.012372424756554345 0.00095638771218299764 0 -0.012576388812059004 0.0011402928363729811 0 -0.012577220982219873 0.0011361213327941704 0 -0.012266881197607658 0.00094399162983085753 0 -0.0128759809205902 0.00092138816238907038 0 -0.012483034190861069 0.0008862990764191012 0 -0.012514786660215993 0.00083167733554306378 0 -0.012558094594481314 0.0008457571386682256 0 -0.012452195894109088 0.00086271292967589612 0 -0.012483034190861069 0.0008862990764191012 0 -0.012514786660215993 0.00083167733554306378 0 -0.012541950507651282 0.0007839103588510555 0 -0.012514786660215993 0.00083167733554306378 0 -0.012559720745428578 0.00081299344306596047 0 -0.012514786660215993 0.00083167733554306378 0 -0.012559720745428578 0.00081299344306596047 0 -0.012558094594481314 0.0008457571386682256 0 -0.012582410678199105 0.00077173366217291343 0 -0.012597091175572905 0.00080839413095952137 0 -0.012559720745428578 0.00081299344306596047 0 -0.012596580339087891 0.00083350822104360177 0 -0.012578333683853485 0.00082607187092175534 0 -0.012558094594481314 0.0008457571386682256 0 -0.012559720745428578 0.00081299344306596047 0 -0.012578333683853485 0.00082607187092175534 0 -0.012558094594481314 0.0008457571386682256 0 -0.012597091175572905 0.00080839413095952137 0 -0.012559720745428578 0.00081299344306596047 0 -0.012578333683853485 0.00082607187092175534 0 -0.012483034190861069 0.0008862990764191012 0 -0.012558094594481314 0.0008457571386682256 0 -0.012632446076501646 0.00084167196518404933 0 -0.012187578168213788 0.0010775612810340078 0 -0.012556522203829726 0.0011512162403671941 0 -0.012217077981802977 0.0011698584213205375 0 -0.012296063382869867 0.0010570400136176075 0 -0.012101339545152589 0.0012954073178881873 0 -0.012217077981802977 0.0011698584213205375 0 -0.012152781758800642 0.0012347270164025312 0 -0.012101339545152589 0.0012954073178881873 0 -0.012217077981802977 0.0011698584213205375 0 -0.012165552423343334 0.0012212379770009669 0 -0.012152781758800642 0.0012347270164025312 0 -0.012189058683295647 0.001215464698066041 0 -0.012165552423343334 0.0012212379770009669 0 -0.012130695378467423 0.0012083726448150589 0 -0.012165552423343334 0.0012212379770009669 0 -0.01211940289278346 0.0012407904806745577 0 -0.012130695378467423 0.0012083726448150589 0 -0.01211940289278346 0.0012407904806745577 0 -0.012152781758800642 0.0012347270164025312 0 -0.012101339545152589 0.0012954073178881873 0 -0.012165552423343334 0.0012212379770009669 0 -0.01211940289278346 0.0012407904806745577 0 -0.012152781758800642 0.0012347270164025312 0 -0.012556522203829726 0.0011512162403671941 0 -0.01104562161412553 0.0017387641372426834 0 -0.012576388812059004 0.0011402928363729811 0 -0.012577220982219873 0.0011361213327941704 0 -0.012390273905506639 0.0011063783168356539 0 -0.012101339545152589 0.0012954073178881873 0 -0.012040585908697176 0.0012329685818798499 0 -0.011836671836960976 0.0012626685636051742 0 -0.012632446076501646 0.00084167196518404933 0 -0.012634587473984557 0.00082839944640127723 0 -0.012640748731545777 0.00082378313350052869 0 -0.012625549876359676 0.00082757882786978253 0 -0.012632446076501646 0.00084167196518404933 0 -0.012634587473984557 0.00082839944640127723 0 -0.012632446076501646 0.00084167196518404933 0 -0.012640748731545777 0.00082378313350052869 0 -0.012650370342777776 0.00081459891498432857 0 -0.01264781968111608 0.00081392723216468959 0 -0.012640748731545777 0.00082378313350052869 0 -0.012650370342777776 0.00081459891498432857 0 -0.01264781968111608 0.00081392723216468959 0 -0.012650370342777776 0.00081459891498432857 0 -0.012657713711905372 0.00080104546812989424 0 -0.012640038779759999 0.00081769911946252263 0 -0.01264781968111608 0.00081392723216468959 0 -0.012640748731545777 0.00082378313350052869 0 -0.012640038779759999 0.00081769911946252263 0 -0.012634587473984557 0.00082839944640127723 0 -0.012640748731545777 0.00082378313350052869 0 -0.01211940289278346 0.0012407904806745577 0 -0.012101339545152589 0.0012954073178881873 0 -0.012040585908697176 0.0012329685818798499 0 -0.012040585908697176 0.0012329685818798499 0 -0.011997970134062012 0.0011720288625349591 0 -0.011836671836960976 0.0012626685636051742 0 -0.012040585908697176 0.0012329685818798499 0 -0.011997970134062012 0.0011720288625349591 0 -0.012130695378467423 0.0012083726448150589 0 -0.012082734626980642 0.0011192697134368274 0 -0.011997970134062012 0.0011720288625349591 0 -0.012130695378467423 0.0012083726448150589 0 -0.012082734626980642 0.0011192697134368274 0 -0.01216120730224695 0.0012727747435465123 0 -0.012130695378467423 0.0012083726448150589 0 -0.01211940289278346 0.0012407904806745577 0 -0.012040585908697176 0.0012329685818798499 0 -0.012130695378467423 0.0012083726448150589 0 -0.012668707522336184 0.00075890133879888487 0 -0.012678184294885497 0.00075899985698782034 0 -0.0126744751528444 0.00072526045108584796 0 -0.0053332609120907391 0.0022122903191632267 0 -0.0054193340762182605 0.0026263708791117112 0 -0.0056512589329411143 0.0027354537081694394 0 -0.0046711330639950281 0.0022253383665975998 0 -0.0053332609120907391 0.0022122903191632267 0 -0.0054193340762182605 0.0026263708791117112 0 -0.012668707522336184 0.00075890133879888487 0 -0.012675107893025134 0.00076655724768296557 0 -0.012673203078066769 0.00076643307538187605 0 -0.0091173095604296199 0.0015350449151127704 0 -0.01104562161412553 0.0017387641372426834 0 -0.0070135421788156647 0.0011618106497553148 0 -0.01104562161412553 0.0017387641372426834 0 -0.011853306491849531 0.0010274651710990618 0 -0.011997970134062012 0.0011720288625349591 0 -0.011836671836960976 0.0012626685636051742 0 -0.012632446076501646 0.00084167196518404933 0 -0.012650370342777776 0.00081459891498432857 0 -0.0126689682661093 0.00079358184332642987 0 -0.01104562161412553 0.0017387641372426834 0 -0.011869321236394127 0.00071572941272556208 0 -0.012675107893025134 0.00076655724768296557 0 -0.012675375010086417 0.00078167366223708644 0 -0.012673203078066769 0.00076643307538187605 0 -0.0128759809205902 0.00092138816238907038 0 -0.01104562161412553 0.0017387641372426834 0 -0.0126689682661093 0.00079358184332642987 0 -0.012675375010086417 0.00078167366223708644 0 -0.012669117721841042 0.00079012029073959652 0 -0.012650370342777776 0.00081459891498432857 0 -0.0126689682661093 0.00079358184332642987 0 -0.012669117721841042 0.00079012029073959652 0 -0.012650370342777776 0.00081459891498432857 0 -0.012657713711905372 0.00080104546812989424 0 -0.012669117721841042 0.00079012029073959652 0 -0.012675375010086417 0.00078167366223708644 0 -0.012669117721841042 0.00079012029073959652 0 -0.012683913383546809 0.00076967789223036682 0 -0.012669117721841042 0.00079012029073959652 0 -0.012683913383546809 0.00076967789223036682 0 -0.012681572422237173 0.00077015514109056037 0 -0.012675375010086417 0.00078167366223708644 0 -0.012683913383546809 0.00076967789223036682 0 -0.012678184294885497 0.00075899985698782034 0 -0.012675375010086417 0.00078167366223708644 0 -0.012673203078066769 0.00076643307538187605 0 -0.012678184294885497 0.00075899985698782034 0 -0.012668707522336184 0.00075890133879888487 0 -0.012673203078066769 0.00076643307538187605 0 -0.012678184294885497 0.00075899985698782034 0 -0.012683913383546809 0.00076967789223036682 0 -0.012678184294885497 0.00075899985698782034 0 -0.012691791680165541 0.00075401537008417459 0 -0.012678184294885497 0.00075899985698782034 0 -0.012691791680165541 0.00075401537008417459 0 -0.01268530680531561 0.00074716413897097018 0 -0.012691791680165541 0.00075401537008417459 0 -0.012695937430720623 0.00075111623667778763 0 -0.012705765246564594 0.00073677019578677577 0 -0.012683913383546809 0.00076967789223036682 0 -0.012695937430720623 0.00075111623667778763 0 -0.012681572422237173 0.00077015514109056037 0 -0.012683913383546809 0.00076967789223036682 0 -0.012691791680165541 0.00075401537008417459 0 -0.012695937430720623 0.00075111623667778763 0 -0.012695937430720623 0.00075111623667778763 0 -0.012686012051014151 0.0007549653482308655 0 -0.012699398877093978 0.0007328699100367129 0 -0.012695937430720623 0.00075111623667778763 0 -0.012681572422237173 0.00077015514109056037 0 -0.012686012051014151 0.0007549653482308655 0 -0.012695937430720623 0.00075111623667778763 0 -0.012710188928827483 0.00072370599148256646 0 -0.012699398877093978 0.0007328699100367129 0 -0.012695937430720623 0.00075111623667778763 0 -0.012710188928827483 0.00072370599148256646 0 -0.012705765246564594 0.00073677019578677577 0 -0.012651427546841478 0.00079658592052798418 0 -0.012657713711905372 0.00080104546812989424 0 -0.012669954949638232 0.00078225332947913138 0 -0.012651427546841478 0.00079658592052798418 0 -0.012669954949638232 0.00078225332947913138 0 -0.012671882861993451 0.00075980387250837585 0 -0.012657713711905372 0.00080104546812989424 0 -0.012669117721841042 0.00079012029073959652 0 -0.012669954949638232 0.00078225332947913138 0 -0.012669954949638232 0.00078225332947913138 0 -0.012681572422237173 0.00077015514109056037 0 -0.012686012051014151 0.0007549653482308655 0 -0.012669117721841042 0.00079012029073959652 0 -0.012669954949638232 0.00078225332947913138 0 -0.012681572422237173 0.00077015514109056037 0 -0.012686012051014151 0.0007549653482308655 0 -0.012671882861993451 0.00075980387250837585 0 -0.012689263041682039 0.00072321509350702052 0 -0.012669954949638232 0.00078225332947913138 0 -0.012686012051014151 0.0007549653482308655 0 -0.012671882861993451 0.00075980387250837585 0 -0.012650906823796442 0.00076931872678379272 0 -0.012651427546841478 0.00079658592052798418 0 -0.012671882861993451 0.00075980387250837585 0 -0.012650906823796442 0.00076931872678379272 0 -0.012671882861993451 0.00075980387250837585 0 -0.012668541958781277 0.00072873613323892565 0 -0.012671882861993451 0.00075980387250837585 0 -0.012668541958781277 0.00072873613323892565 0 -0.012689263041682039 0.00072321509350702052 0 -0.012686012051014151 0.0007549653482308655 0 -0.012689263041682039 0.00072321509350702052 0 -0.012699398877093978 0.0007328699100367129 0 -0.012689263041682039 0.00072321509350702052 0 -0.012699398877093978 0.0007328699100367129 0 -0.012706906512231456 0.00070824161974671757 0 -0.012689263041682039 0.00072321509350702052 0 -0.012689911377196847 0.00068621047214923239 0 -0.012706906512231456 0.00070824161974671757 0 -0.012717388135318088 0.00067318599316559802 0 -0.012689911377196847 0.00068621047214923239 0 -0.012706906512231456 0.00070824161974671757 0 -0.012668541958781277 0.00072873613323892565 0 -0.012689263041682039 0.00072321509350702052 0 -0.012689911377196847 0.00068621047214923239 0 -0.012658451103689097 0.00069300241651205549 0 -0.012668541958781277 0.00072873613323892565 0 -0.012689911377196847 0.00068621047214923239 0 -0.012710188928827483 0.00072370599148256646 0 -0.012720913801874276 0.0007094087613160932 0 -0.012705765246564594 0.00073677019578677577 0 -0.012710188928827483 0.00072370599148256646 0 -0.012699398877093978 0.0007328699100367129 0 -0.012706906512231456 0.00070824161974671757 0 -0.012710188928827483 0.00072370599148256646 0 -0.012706906512231456 0.00070824161974671757 0 -0.012717708376517093 0.00070008702612254473 0 -0.012717388135318088 0.00067318599316559802 0 -0.012706906512231456 0.00070824161974671757 0 -0.012717708376517093 0.00070008702612254473 0 -0.012710188928827483 0.00072370599148256646 0 -0.012717708376517093 0.00070008702612254473 0 -0.012720913801874276 0.0007094087613160932 0 -0.012728100538626403 0.00067509653900095707 0 -0.012717708376517093 0.00070008702612254473 0 -0.012720913801874276 0.0007094087613160932 0 -0.012720913801874276 0.0007094087613160932 0 -0.012711725275204769 0.00072878015867584975 0 -0.012726268252789859 0.00071501732161744467 0 -0.012720913801874276 0.0007094087613160932 0 -0.012711725275204769 0.00072878015867584975 0 -0.012705765246564594 0.00073677019578677577 0 -0.012726268252789859 0.00071501732161744467 0 -0.012706659464638448 0.00073142250174727688 0 -0.012730191088776394 0.0007167473308910922 0 -0.012711725275204769 0.00072878015867584975 0 -0.012726268252789859 0.00071501732161744467 0 -0.012706659464638448 0.00073142250174727688 0 -0.012711725275204769 0.00072878015867584975 0 -0.012706659464638448 0.00073142250174727688 0 -0.012697079151156865 0.00073555794045991585 0 -0.012706659464638448 0.00073142250174727688 0 -0.012697079151156865 0.00073555794045991585 0 -0.012677396594898877 0.00073296093601495115 0 -0.012711725275204769 0.00072878015867584975 0 -0.012705765246564594 0.00073677019578677577 0 -0.01269833500866456 0.00074186936091087956 0 -0.012711725275204769 0.00072878015867584975 0 -0.012697079151156865 0.00073555794045991585 0 -0.01269833500866456 0.00074186936091087956 0 -0.012691791680165541 0.00075401537008417459 0 -0.012705765246564594 0.00073677019578677577 0 -0.01269833500866456 0.00074186936091087956 0 -0.012691791680165541 0.00075401537008417459 0 -0.01269833500866456 0.00074186936091087956 0 -0.01268530680531561 0.00074716413897097018 0 -0.01269833500866456 0.00074186936091087956 0 -0.01268530680531561 0.00074716413897097018 0 -0.012683978984790501 0.00073604869543790106 0 -0.012697079151156865 0.00073555794045991585 0 -0.01269833500866456 0.00074186936091087956 0 -0.012683978984790501 0.00073604869543790106 0 -0.012683978984790501 0.00073604869543790106 0 -0.012664346513674821 0.00071711772557118123 0 -0.012677396594898877 0.00073296093601495115 0 -0.012697079151156865 0.00073555794045991585 0 -0.012683978984790501 0.00073604869543790106 0 -0.012677396594898877 0.00073296093601495115 0 -0.012649439246923244 0.00068435909935182955 0 -0.0126744751528444 0.00072526045108584796 0 -0.012664346513674821 0.00071711772557118123 0 -0.012683978984790501 0.00073604869543790106 0 -0.0126744751528444 0.00072526045108584796 0 -0.012664346513674821 0.00071711772557118123 0 -0.006363852186018714 0.0018276375770249456 0 -0.0091173095604296199 0.0015350449151127704 0 -0.0091173095604296199 0.0015350449151127704 0 -0.011050363804486367 0.0011300328051121018 0 -0.0087564805095920809 0.0014415827948334374 0 -0.0090184988981494071 0.0016063113476654728 0 -0.0087637656261959577 0.001475720327684647 0 -0.01268530680531561 0.00074716413897097018 0 -0.012683978984790501 0.00073604869543790106 0 -0.0126744751528444 0.00072526045108584796 0 -0.012678184294885497 0.00075899985698782034 0 -0.01268530680531561 0.00074716413897097018 0 -0.0126744751528444 0.00072526045108584796 0 -0.01263643135920973 0.00071129771781409468 0 -0.012605323806545976 0.00070701965916743323 0 -0.012631103793326295 0.00072343210189604985 0 -0.01263643135920973 0.00071129771781409468 0 -0.012657941636628391 0.00072485070005076917 0 -0.012631103793326295 0.00072343210189604985 0 -0.012610008331145126 0.00068150242065787654 0 -0.01263643135920973 0.00071129771781409468 0 -0.012605323806545976 0.00070701965916743323 0 -0.01263643135920973 0.00071129771781409468 0 -0.012664346513674821 0.00071711772557118123 0 -0.012657941636628391 0.00072485070005076917 0 -0.012649439246923244 0.00068435909935182955 0 -0.01263643135920973 0.00071129771781409468 0 -0.012664346513674821 0.00071711772557118123 0 -0.012649439246923244 0.00068435909935182955 0 -0.012610008331145126 0.00068150242065787654 0 -0.01263643135920973 0.00071129771781409468 0 -0.012664346513674821 0.00071711772557118123 0 -0.012657941636628391 0.00072485070005076917 0 -0.012677396594898877 0.00073296093601495115 0 -0.012657941636628391 0.00072485070005076917 0 -0.012677396594898877 0.00073296093601495115 0 -0.012655853559131455 0.00073195169048992923 0 -0.012677396594898877 0.00073296093601495115 0 -0.012655853559131455 0.00073195169048992923 0 -0.012681324199759614 0.00073552391089090141 0 -0.012655853559131455 0.00073195169048992923 0 -0.012640009264431455 0.00073235654789204768 0 -0.012656371416282784 0.0007354549401811072 0 -0.012655853559131455 0.00073195169048992923 0 -0.012631103793326295 0.00072343210189604985 0 -0.012640009264431455 0.00073235654789204768 0 -0.012657941636628391 0.00072485070005076917 0 -0.012655853559131455 0.00073195169048992923 0 -0.012631103793326295 0.00072343210189604985 0 -0.012631103793326295 0.00072343210189604985 0 -0.012640009264431455 0.00073235654789204768 0 -0.012613961253672991 0.00073521669859698984 0 -0.012605323806545976 0.00070701965916743323 0 -0.012631103793326295 0.00072343210189604985 0 -0.012613961253672991 0.00073521669859698984 0 -0.012640009264431455 0.00073235654789204768 0 -0.012656371416282784 0.0007354549401811072 0 -0.012613961253672991 0.00073521669859698984 0 -0.012656371416282784 0.0007354549401811072 0 -0.012687450609446762 0.00073934204375848505 0 -0.012613961253672991 0.00073521669859698984 0 -0.012656371416282784 0.0007354549401811072 0 -0.012681324199759614 0.00073552391089090141 0 -0.012687450609446762 0.00073934204375848505 0 -0.012732712953161413 0.00073010916064466483 0 -0.012686269125867825 0.00072618035949865588 0 -0.012776763273144939 0.00072870937548380487 0 -0.012788178406867672 0.00072245426077436844 0 -0.012780804273299164 0.00072794201626446783 0 -0.012655853559131455 0.00073195169048992923 0 -0.012656371416282784 0.0007354549401811072 0 -0.012681324199759614 0.00073552391089090141 0 -0.012681324199759614 0.00073552391089090141 0 -0.012697789298067528 0.00073392539448217909 0 -0.012687450609446762 0.00073934204375848505 0 -0.012706659464638448 0.00073142250174727688 0 -0.012677396594898877 0.00073296093601495115 0 -0.012681324199759614 0.00073552391089090141 0 -0.012706659464638448 0.00073142250174727688 0 -0.012681324199759614 0.00073552391089090141 0 -0.012697789298067528 0.00073392539448217909 0 -0.012714381640050147 0.00072842647429487357 0 -0.012687450609446762 0.00073934204375848505 0 -0.012748603414635339 0.00071272199027007333 0 -0.012706659464638448 0.00073142250174727688 0 -0.012714381640050147 0.00072842647429487357 0 -0.012730191088776394 0.0007167473308910922 0 -0.012706659464638448 0.00073142250174727688 0 -0.012697789298067528 0.00073392539448217909 0 -0.012714381640050147 0.00072842647429487357 0 -0.012697789298067528 0.00073392539448217909 0 -0.012714381640050147 0.00072842647429487357 0 -0.012687450609446762 0.00073934204375848505 0 -0.012776763273144939 0.00072870937548380487 0 -0.012770120706617101 0.0007198405087046071 0 -0.012780804273299164 0.00072794201626446783 0 -0.012732712953161413 0.00073010916064466483 0 -0.012743606518499413 0.00071107529738014528 0 -0.012776763273144939 0.00072870937548380487 0 -0.012770120706617101 0.0007198405087046071 0 -0.012748603414635339 0.00071272199027007333 0 -0.012770120706617101 0.0007198405087046071 0 -0.012772497975011874 0.00070724879788033738 0 -0.012780804273299164 0.00072794201626446783 0 -0.012770120706617101 0.0007198405087046071 0 -0.012772497975011874 0.00070724879788033738 0 -0.012748603414635339 0.00071272199027007333 0 -0.013345453035315322 0.00054380906938572462 0 -0.013293770428733684 0.00055666461001798644 0 -0.012772497975011874 0.00070724879788033738 0 -0.012751373789420163 0.00069953529109088213 0 -0.012773059925738078 0.00068305774151903784 0 -0.012772497975011874 0.00070724879788033738 0 -0.012751373789420163 0.00069953529109088213 0 -0.012748603414635339 0.00071272199027007333 0 -0.012751373789420163 0.00069953529109088213 0 -0.012748603414635339 0.00071272199027007333 0 -0.012730191088776394 0.0007167473308910922 0 -0.012714381640050147 0.00072842647429487357 0 -0.012748603414635339 0.00071272199027007333 0 -0.012730191088776394 0.0007167473308910922 0 -0.012726268252789859 0.00071501732161744467 0 -0.012730191088776394 0.0007167473308910922 0 -0.012739492609737169 0.00070535311087565776 0 -0.012728100538626403 0.00067509653900095707 0 -0.012720913801874276 0.0007094087613160932 0 -0.012731123064555266 0.00067176324002780072 0 -0.012739510056924804 0.00071425882873564462 0 -0.012701299649171428 0.00067717987913778154 0 -0.012726268252789859 0.00071501732161744467 0 -0.012739998330063044 0.00070507428288526803 0 -0.012739492609737169 0.00070535311087565776 0 -0.012720913801874276 0.0007094087613160932 0 -0.012726268252789859 0.00071501732161744467 0 -0.012731123064555266 0.00067176324002780072 0 -0.012739998330063044 0.00070507428288526803 0 -0.012739492609737169 0.00070535311087565776 0 -0.012746682489468551 0.00069665546576383182 0 -0.012751373789420163 0.00069953529109088213 0 -0.012730191088776394 0.0007167473308910922 0 -0.012739492609737169 0.00070535311087565776 0 -0.012739492609737169 0.00070535311087565776 0 -0.012752902813625988 0.00069170514449062056 0 -0.012746682489468551 0.00069665546576383182 0 -0.012751373789420163 0.00069953529109088213 0 -0.012739492609737169 0.00070535311087565776 0 -0.012752902813625988 0.00069170514449062056 0 -0.012752902813625988 0.00069170514449062056 0 -0.012746682489468551 0.00069665546576383182 0 -0.012757287365508145 0.000685091358880538 0 -0.012745471573710313 0.00068590945747409838 0 -0.012746682489468551 0.00069665546576383182 0 -0.012757287365508145 0.000685091358880538 0 -0.012757287365508145 0.000685091358880538 0 -0.012766283626511549 0.00067809383740972658 0 -0.012774071893536019 0.00067002895436399314 0 -0.012752902813625988 0.00069170514449062056 0 -0.012757287365508145 0.000685091358880538 0 -0.012766283626511549 0.00067809383740972658 0 -0.012766283626511549 0.00067809383740972658 0 -0.012773059925738078 0.00068305774151903784 0 -0.0127606416380761 0.00068780639512045806 0 -0.012766283626511549 0.00067809383740972658 0 -0.012773059925738078 0.00068305774151903784 0 -0.012774430014061087 0.00067569142192357634 0 -0.013898137526352727 0.0003475203479330477 0 -0.013882226828823561 0.0002823265837894989 0 -0.013939587244104231 0.0003119582867502816 0 -0.013293770428733684 0.00055666461001798644 0 -0.013656347727268755 0.00026940901933741353 0 -0.012751373789420163 0.00069953529109088213 0 -0.012752902813625988 0.00069170514449062056 0 -0.0127606416380761 0.00068780639512045806 0 -0.012751373789420163 0.00069953529109088213 0 -0.012773059925738078 0.00068305774151903784 0 -0.0127606416380761 0.00068780639512045806 0 -0.012752902813625988 0.00069170514449062056 0 -0.012766283626511549 0.00067809383740972658 0 -0.0127606416380761 0.00068780639512045806 0 -0.014070517839904241 8.9035404582437218e-05 0 -0.01405753193785729 5.0520379058889343e-05 0 -0.014100206855239758 7.0536941473045876e-05 0 -0.014070517839904241 8.9035404582437218e-05 0 -0.014100206855239758 7.0536941473045876e-05 0 -0.014113472981420187 0.0001048232413278903 0 -0.013714959965879722 4.8720703024343738e-05 0 -0.013746686058017682 0.00021644414605238854 0 -0.013902082351785387 0.00010635880534096331 0 -0.013883413312856561 3.0197107521097412e-05 0 -0.013656347727268755 0.00026940901933741353 0 -0.013656347727268755 0.00026940901933741353 0 -0.013990180482885459 0.00031640704276470442 0 -0.012766283626511549 0.00067809383740972658 0 -0.012774430014061087 0.00067569142192357634 0 -0.012769964139586089 0.0006816980381219224 0 -0.013656347727268755 0.00026940901933741353 0 -0.013408337042364719 0.00037878236876970995 0 -0.012766283626511549 0.00067809383740972658 0 -0.012774071893536019 0.00067002895436399314 0 -0.012769964139586089 0.0006816980381219224 0 -0.012774071893536019 0.00067002895436399314 0 -0.012811132028078777 0.00068567664025378366 0 -0.012847513781899805 0.0006662882159885954 0 -0.012512754197966797 0.00066775119934573638 0 -0.013451914346573423 0.00056157717918376348 0 -0.012757287365508145 0.000685091358880538 0 -0.012774071893536019 0.00067002895436399314 0 -0.012752210784573366 0.00066547969394368796 0 -0.012774071893536019 0.00067002895436399314 0 -0.012811132028078777 0.00068567664025378366 0 -0.012797703580477318 0.00070753313202286789 0 -0.012811132028078777 0.00068567664025378366 0 -0.012797703580477318 0.00070753313202286789 0 -0.012826706125936666 0.00071456110237424521 0 -0.013408337042364719 0.00037878236876970995 0 -0.01341900327687634 0.00038821392362556475 0 -0.012774071893536019 0.00067002895436399314 0 -0.012769964139586089 0.0006816980381219224 0 -0.012797703580477318 0.00070753313202286789 0 -0.014100206855239758 7.0536941473045876e-05 0 -0.014113472981420187 0.0001048232413278903 0 -0.014137921190149602 9.3665539105982734e-05 0 -0.014113472981420187 0.0001048232413278903 0 -0.014137921190149602 9.3665539105982734e-05 0 -0.01413980553335162 0.00011565117380048126 0 -0.01341900327687634 0.00038821392362556475 0 -0.013826207695312412 0.00039722616746631754 0 -0.014137921190149602 9.3665539105982734e-05 0 -0.01413980553335162 0.00011565117380048126 0 -0.014156470825185985 0.00010967322947515492 0 -0.01413980553335162 0.00011565117380048126 0 -0.014139723300284133 0.00012747750467082062 0 -0.014138012154558288 0.00012987607514692245 0 -0.01413980553335162 0.00011565117380048126 0 -0.014139723300284133 0.00012747750467082062 0 -0.014156470825185985 0.00010967322947515492 0 -0.014138012154558288 0.00012987607514692245 0 -0.014177872387624193 0.0001411017135979276 0 -0.014159953563687683 0.00012484733965222681 0 -0.014113472981420187 0.0001048232413278903 0 -0.014138012154558288 0.00012987607514692245 0 -0.014082918809850352 0.00012719792141481051 0 -0.014107545212299838 0.00014278680060446662 0 -0.014210803161933312 6.2881367328345214e-05 0 -0.014113472981420187 0.0001048232413278903 0 -0.01413980553335162 0.00011565117380048126 0 -0.014138012154558288 0.00012987607514692245 0 -0.013883413312856561 3.0197107521097412e-05 0 -0.014210803161933312 6.2881367328345214e-05 0 -0.014070517839904241 8.9035404582437218e-05 0 -0.014113472981420187 0.0001048232413278903 0 -0.014082918809850352 0.00012719792141481051 0 -0.013714959965879722 4.8720703024343738e-05 0 -0.013690244836547766 -0.0001183669012417963 0 -0.013890302846940542 -7.9694978049438001e-05 0 -0.013714959965879722 4.8720703024343738e-05 0 -0.013902082351785387 0.00010635880534096331 0 -0.013890302846940542 -7.9694978049438001e-05 0 -0.014891977626070292 -0.00011496857469438635 0 -0.014868806735903519 -8.212584552390655e-05 0 -0.014823169802707939 -0.00013717804602124818 0 -0.014210803161933312 6.2881367328345214e-05 0 -0.01436939153856411 -0.00012934949589377961 0 -0.014868806735903519 -8.212584552390655e-05 0 -0.014878289690412543 -5.9394762448581058e-05 0 -0.014871646854929553 -5.025988725545309e-05 0 -0.014868806735903519 -8.212584552390655e-05 0 -0.014878289690412543 -5.9394762448581058e-05 0 -0.014898046760518448 -6.4367029698038708e-05 0 -0.014891977626070292 -0.00011496857469438635 0 -0.014868806735903519 -8.212584552390655e-05 0 -0.014898046760518448 -6.4367029698038708e-05 0 -0.014177872387624193 0.0001411017135979276 0 -0.014172249606064155 0.00011015048722219043 0 -0.014159953563687683 0.00012484733965222681 0 -0.014210803161933312 6.2881367328345214e-05 0 -0.014542877489014215 2.3986844350584981e-05 0 -0.014898046760518448 -6.4367029698038708e-05 0 -0.014882285443596661 -4.5772095944948534e-05 0 -0.014900175692465965 -3.5679695328560743e-05 0 -0.014542877489014215 2.3986844350584981e-05 0 -0.01477684816173667 -2.5863289689404676e-05 0 -0.014172249606064155 0.00011015048722219043 0 -0.014172149667483612 8.4680676769466906e-05 0 -0.014157576744058892 9.7258577844160145e-05 0 -0.014878289690412543 -5.9394762448581058e-05 0 -0.014898046760518448 -6.4367029698038708e-05 0 -0.014882285443596661 -4.5772095944948534e-05 0 -0.014912705778708946 -3.023264849649436e-05 0 -0.01477684816173667 -2.5863289689404676e-05 0 -0.014912705778708946 -3.023264849649436e-05 0 -0.014869660307429285 -5.2165785231156294e-05 0 -0.014878289690412543 -5.9394762448581058e-05 0 -0.014882285443596661 -4.5772095944948534e-05 0 -0.014871646854929553 -5.025988725545309e-05 0 -0.014911378356107324 -3.3612025433321433e-05 0 -0.014900292084579913 -2.9188035463840129e-05 0 -0.014906720823648235 -2.7749743816556503e-05 0 -0.014911378356107324 -3.3612025433321433e-05 0 -0.014900292084579913 -2.9188035463840129e-05 0 -0.014871646854929553 -5.025988725545309e-05 0 -0.014986903158626505 -2.3903491958917913e-05 0 -0.014980641766067953 2.0461424055104006e-06 0 -0.014910060666986255 -2.0822306238762225e-05 0 -0.014900292084579913 -2.9188035463840129e-05 0 -0.014906720823648235 -2.7749743816556503e-05 0 -0.014910060666986255 -2.0822306238762225e-05 0 -0.014964984768244524 -2.3091120759587937e-05 0 -0.014908388459273449 -2.3058403626120254e-05 0 -0.014986903158626505 -2.3903491958917913e-05 0 -0.014994273713374768 -1.0205249951709361e-05 0 -0.014980641766067953 2.0461424055104006e-06 0 -0.014986903158626505 -2.3903491958917913e-05 0 -0.015003397982911148 -1.3055203801734552e-05 0 -0.014994273713374768 -1.0205249951709361e-05 0 -0.014906720823648235 -2.7749743816556503e-05 0 -0.014917588556186297 -2.8429196528368217e-05 0 -0.014917733907721791 -2.7475714977362373e-05 0 -0.014911378356107324 -3.3612025433321433e-05 0 -0.014906720823648235 -2.7749743816556503e-05 0 -0.014917588556186297 -2.8429196528368217e-05 0 -0.014993690003625429 -5.8134206539877467e-06 0 -0.014994529416324424 -5.7664225094790426e-06 0 -0.015000003023265289 7.3678393873516229e-09 0 -0.014964984768244524 -2.3091120759587937e-05 0 -0.014838191776333063 -1.4974574218184802e-05 0 -0.01477684816173667 -2.5863289689404676e-05 0 -0.014838191776333063 -1.4974574218184802e-05 0 -0.014838191776333063 -1.4974574218184802e-05 0 -0.014683600867688395 -1.6690471843964224e-05 0 -0.014771643484476999 2.1941935069391199e-05 0 -0.01477079073685811 1.7497218115840539e-05 0 -0.014762192955528788 1.7249113042380073e-05 0 -0.01477684816173667 -2.5863289689404676e-05 0 -0.014683600867688395 -1.6690471843964224e-05 0 -0.015003397982911148 -1.3055203801734552e-05 0 -0.014994273713374768 -1.0205249951709361e-05 0 -0.014996236691878785 -1.6449522522914547e-06 0 -0.014838191776333063 -1.4974574218184802e-05 0 -0.015000085776180193 3.4045207386675101e-08 0 -0.015003397982911148 -1.3055203801734552e-05 0 -0.014996236691878785 -1.6449522522914547e-06 0 -0.015000034166188262 -7.202986658816521e-09 0 -0.014996236691878785 -1.6449522522914547e-06 0 -0.01499992697708683 2.4374536187963036e-08 0 -0.015000034166188262 -7.202986658816521e-09 0 -0.01499992697708683 2.4374536187963036e-08 0 -0.014980641766067953 2.0461424055104006e-06 0 -0.014966493731227862 1.1122047256085698e-05 0 -0.014996236691878785 -1.6449522522914547e-06 0 -0.01499992697708683 2.4374536187963036e-08 0 -0.014980641766067953 2.0461424055104006e-06 0 -0.014994273713374768 -1.0205249951709361e-05 0 -0.014996236691878785 -1.6449522522914547e-06 0 -0.014980641766067953 2.0461424055104006e-06 0 -0.014878085489772647 7.0336654338795069e-06 0 -0.015024732029033986 5.6714246957635671e-06 0 -0.014973234998484424 -2.3782353284140833e-06 0 -0.014988109088418656 -4.7455120205274759e-06 0 -0.014984458328145078 -4.6253094261868484e-06 0 -0.014997836278440974 -1.4348955166489804e-06 0 -0.015001757331764055 5.3247962391944769e-06 0 -0.014988109088418656 -4.7455120205274759e-06 0 -0.014997836278440974 -1.4348955166489804e-06 0 -0.014999907910888949 -5.528256905108309e-07 0 -0.014999976556098986 -2.2221048296979396e-08 0 -0.014997836278440974 -1.4348955166489804e-06 0 -0.014999907910888949 -5.528256905108309e-07 0 -0.015001757331764055 5.3247962391944769e-06 0 -0.014997836278440974 -1.4348955166489804e-06 0 -0.014988109088418656 -4.7455120205274759e-06 0 -0.014999976556098986 -2.2221048296979396e-08 0 -0.014999907910888949 -5.528256905108309e-07 0 -0.015000003023265289 7.3678393873516229e-09 0 -0.014999976556098986 -2.2221048296979396e-08 0 -0.014994529416324424 -5.7664225094790426e-06 0 -0.014999907910888949 -5.528256905108309e-07 0 -0.015000003023265289 7.3678393873516229e-09 0 -0.014994529416324424 -5.7664225094790426e-06 0 -0.014999907910888949 -5.528256905108309e-07 0 -0.014999007670699754 -3.9032756571323053e-06 0 -0.014993829731726208 -1.3741600799198036e-05 0 -0.014878085489772647 7.0336654338795069e-06 0 -0.014683600867688395 -1.6690471843964224e-05 0 -0.01447913076841475 2.5871570683037149e-05 0 -0.014168650338801757 8.2779524197312945e-05 0 -0.014147275806245292 8.2212181497702926e-05 0 -0.014157576744058892 9.7258577844160145e-05 0 -0.014688475610974892 -1.616497840444543e-05 0 -0.014691649921580377 -1.419014583636931e-05 0 -0.014691572245200889 -1.5578712565969631e-05 0 -0.014683600867688395 -1.6690471843964224e-05 0 -0.014878085489772647 7.0336654338795069e-06 0 -0.014172149667483612 8.4680676769466906e-05 0 -0.014168650338801757 8.2779524197312945e-05 0 -0.014157576744058892 9.7258577844160145e-05 0 -0.014973234998484424 -2.3782353284140833e-06 0 -0.014977995721862028 -4.3300599581348088e-06 0 -0.014984458328145078 -4.6253094261868484e-06 0 -0.014974421217294004 -6.7918949351146672e-06 0 -0.014979722682803403 -4.3111627323885292e-06 0 -0.014983176731459869 -3.6352124767134862e-06 0 -0.01421438531780196 3.4398755816145881e-05 0 -0.014194156484717545 4.7385840765556183e-05 0 -0.014178806333772661 3.3033560790822017e-05 0 -0.01447913076841475 2.5871570683037149e-05 0 -0.014657026264220345 3.706640764576394e-05 0 -0.014974421217294004 -6.7918949351146672e-06 0 -0.014977995721862028 -4.3300599581348088e-06 0 -0.014979722682803403 -4.3111627323885292e-06 0 -0.014973234998484424 -2.3782353284140833e-06 0 -0.014974421217294004 -6.7918949351146672e-06 0 -0.014977995721862028 -4.3300599581348088e-06 0 -0.014878085489772647 7.0336654338795069e-06 0 -0.01447913076841475 2.5871570683037149e-05 0 -0.014977995721862028 -4.3300599581348088e-06 0 -0.014979722682803403 -4.3111627323885292e-06 0 -0.014984458328145078 -4.6253094261868484e-06 0 -0.01421438531780196 3.4398755816145881e-05 0 -0.014194156484717545 4.7385840765556183e-05 0 -0.014200826281577797 6.6473829678834057e-05 0 -0.01447913076841475 2.5871570683037149e-05 0 -0.014150106168002385 0.00010396244408168929 0 -0.014194156484717545 4.7385840765556183e-05 0 -0.014200826281577797 6.6473829678834057e-05 0 -0.014186044751709063 5.700380770679491e-05 0 -0.014147275806245292 8.2212181497702926e-05 0 -0.014138645389227883 0.0001075164854712747 0 -0.014157576744058892 9.7258577844160145e-05 0 -0.014138645389227883 0.0001075164854712747 0 -0.014157576744058892 9.7258577844160145e-05 0 -0.014147847966108403 0.00011619400529424301 0 -0.014172249606064155 0.00011015048722219043 0 -0.014157576744058892 9.7258577844160145e-05 0 -0.014147847966108403 0.00011619400529424301 0 -0.014172249606064155 0.00011015048722219043 0 -0.014147847966108403 0.00011619400529424301 0 -0.014159953563687683 0.00012484733965222681 0 -0.014138012154558288 0.00012987607514692245 0 -0.014147847966108403 0.00011619400529424301 0 -0.014159953563687683 0.00012484733965222681 0 -0.014139723300284133 0.00012747750467082062 0 -0.014138645389227883 0.0001075164854712747 0 -0.014147847966108403 0.00011619400529424301 0 -0.014139723300284133 0.00012747750467082062 0 -0.014138012154558288 0.00012987607514692245 0 -0.014147847966108403 0.00011619400529424301 0 -0.014183498024894065 9.4653407428299218e-05 0 -0.014200826281577797 6.6473829678834057e-05 0 -0.014170482984230312 8.1179349590240724e-05 0 -0.014163693567810449 0.00010422196412043681 0 -0.014150106168002385 0.00010396244408168929 0 -0.014596561436242021 -2.4040651901347025e-05 0 -0.014474105413374905 7.6062235114713166e-06 0 -0.01454872636664941 7.4718443542920042e-05 0 -0.014596561436242021 -2.4040651901347025e-05 0 -0.01454872636664941 7.4718443542920042e-05 0 -0.014612120975915965 2.672523965885461e-05 0 -0.014666638357254949 -4.7873403585602858e-05 0 -0.014596561436242021 -2.4040651901347025e-05 0 -0.014612120975915965 2.672523965885461e-05 0 -0.014666638357254949 -4.7873403585602858e-05 0 -0.014596561436242021 -2.4040651901347025e-05 0 -0.014652294370995618 -6.6882712743157138e-05 0 -0.014596561436242021 -2.4040651901347025e-05 0 -0.014586758283896131 -6.0688214276676608e-05 0 -0.014474105413374905 7.6062235114713166e-06 0 -0.014596561436242021 -2.4040651901347025e-05 0 -0.014652294370995618 -6.6882712743157138e-05 0 -0.014586758283896131 -6.0688214276676608e-05 0 -0.014652294370995618 -6.6882712743157138e-05 0 -0.014771252762473989 -3.9372754017945387e-05 0 -0.014586758283896131 -6.0688214276676608e-05 0 -0.014200826281577797 6.6473829678834057e-05 0 -0.014170482984230312 8.1179349590240724e-05 0 -0.014186044751709063 5.700380770679491e-05 0 -0.014467812824732137 -3.5296842261415047e-05 0 -0.014657026264220345 3.706640764576394e-05 0 -0.014666638357254949 -4.7873403585602858e-05 0 -0.014652294370995618 -6.6882712743157138e-05 0 -0.014650735890580704 -4.7627869627742054e-05 0 -0.014170482984230312 8.1179349590240724e-05 0 -0.014186044751709063 5.700380770679491e-05 0 -0.014178806333772661 3.3033560790822017e-05 0 -0.014194156484717545 4.7385840765556183e-05 0 -0.014186044751709063 5.700380770679491e-05 0 -0.014178806333772661 3.3033560790822017e-05 0 -0.014979722682803403 -4.3111627323885292e-06 0 -0.014982246022741069 -2.498771704697914e-06 0 -0.014983176731459869 -3.6352124767134862e-06 0 -0.014982246022741069 -2.498771704697914e-06 0 -0.014982106595804578 -1.0643609117100914e-07 0 -0.014983176731459869 -3.6352124767134862e-06 0 -0.014982246022741069 -2.498771704697914e-06 0 -0.014982106595804578 -1.0643609117100914e-07 0 -0.014984458328145078 -4.6253094261868484e-06 0 -0.014979722682803403 -4.3111627323885292e-06 0 -0.014982246022741069 -2.498771704697914e-06 0 -0.014984458328145078 -4.6253094261868484e-06 0 -0.014982106595804578 -1.0643609117100914e-07 0 -0.01492289624302323 -1.5832152515288332e-05 0 -0.014973313414495053 -1.3162677358375409e-05 0 -0.014982106595804578 -1.0643609117100914e-07 0 -0.014991356695026945 5.5716771033471939e-05 0 -0.01492289624302323 -1.5832152515288332e-05 0 -0.014759650106323739 1.2800469979988347e-05 0 -0.014657026264220345 3.706640764576394e-05 0 -0.014657026264220345 3.706640764576394e-05 0 -0.014845034170300149 -3.1359563657899993e-05 0 -0.014991356695026945 5.5716771033471939e-05 0 -0.014771252762473989 -3.9372754017945387e-05 0 -0.01492289624302323 -1.5832152515288332e-05 0 -0.014652294370995618 -6.6882712743157138e-05 0 -0.014650735890580704 -4.7627869627742054e-05 0 -0.014771252762473989 -3.9372754017945387e-05 0 -0.014771252762473989 -3.9372754017945387e-05 0 -0.01492289624302323 -1.5832152515288332e-05 0 -0.01496532837823141 -1.9842734868518177e-05 0 -0.014771252762473989 -3.9372754017945387e-05 0 -0.014999808895206888 -2.9859577868061921e-08 0 -0.01496532837823141 -1.9842734868518177e-05 0 -0.014999808895206888 -2.9859577868061921e-08 0 -0.01496532837823141 -1.9842734868518177e-05 0 -0.014999976556098986 -2.2221048296979396e-08 0 -0.01496532837823141 -1.9842734868518177e-05 0 -0.014988109088418656 -4.7455120205274759e-06 0 -0.014999976556098986 -2.2221048296979396e-08 0 -0.014982106595804578 -1.0643609117100914e-07 0 -0.014984458328145078 -4.6253094261868484e-06 0 -0.014973313414495053 -1.3162677358375409e-05 0 -0.014988109088418656 -4.7455120205274759e-06 0 -0.014984458328145078 -4.6253094261868484e-06 0 -0.014973313414495053 -1.3162677358375409e-05 0 -0.01492289624302323 -1.5832152515288332e-05 0 -0.01496532837823141 -1.9842734868518177e-05 0 -0.014973313414495053 -1.3162677358375409e-05 0 -0.01496532837823141 -1.9842734868518177e-05 0 -0.014988109088418656 -4.7455120205274759e-06 0 -0.014973313414495053 -1.3162677358375409e-05 0 -0.014999177613961396 -3.1226728988941714e-07 0 -0.014857491199080697 -4.8392366615347374e-05 0 -0.014697988093116834 -9.9315246931377845e-05 0 -0.014771252762473989 -3.9372754017945387e-05 0 -0.014999808895206888 -2.9859577868061921e-08 0 -0.014857491199080697 -4.8392366615347374e-05 0 -0.014999808895206888 -2.9859577868061921e-08 0 -0.014999177613961396 -3.1226728988941714e-07 0 -0.014857491199080697 -4.8392366615347374e-05 0 -0.014771252762473989 -3.9372754017945387e-05 0 -0.014616125171041432 -8.679997749713729e-05 0 -0.014564386782108701 -7.2424632397247507e-05 0 -0.014771252762473989 -3.9372754017945387e-05 0 -0.014857491199080697 -4.8392366615347374e-05 0 -0.014616125171041432 -8.679997749713729e-05 0 -0.014857491199080697 -4.8392366615347374e-05 0 -0.014616125171041432 -8.679997749713729e-05 0 -0.014697988093116834 -9.9315246931377845e-05 0 -0.014616125171041432 -8.679997749713729e-05 0 -0.014344659413261285 -5.6238552304705394e-05 0 -0.014406455991110644 -8.7882034493677849e-05 0 -0.014616125171041432 -8.679997749713729e-05 0 -0.014564386782108701 -7.2424632397247507e-05 0 -0.014344659413261285 -5.6238552304705394e-05 0 -0.014771252762473989 -3.9372754017945387e-05 0 -0.014564386782108701 -7.2424632397247507e-05 0 -0.014586758283896131 -6.0688214276676608e-05 0 -0.014564386782108701 -7.2424632397247507e-05 0 -0.014586758283896131 -6.0688214276676608e-05 0 -0.014344659413261285 -5.6238552304705394e-05 0 -0.014474105413374905 7.6062235114713166e-06 0 -0.014344659413261285 -5.6238552304705394e-05 0 -0.014284717298398048 4.8053644416237646e-05 0 -0.014586758283896131 -6.0688214276676608e-05 0 -0.014474105413374905 7.6062235114713166e-06 0 -0.014344659413261285 -5.6238552304705394e-05 0 -0.014344659413261285 -5.6238552304705394e-05 0 -0.014093764122786914 2.2500873642266926e-05 0 -0.014284717298398048 4.8053644416237646e-05 0 -0.014093764122786914 2.2500873642266926e-05 0 -0.014136153106201737 0.00019879241119061432 0 -0.013776893166979736 9.4373956874332373e-05 0 -0.014093764122786914 2.2500873642266926e-05 0 -0.014136153106201737 0.00019879241119061432 0 -0.014284717298398048 4.8053644416237646e-05 0 -0.014136153106201737 0.00019879241119061432 0 -0.013765124503951934 0.00027778470304195294 0 -0.013776893166979736 9.4373956874332373e-05 0 -0.014136153106201737 0.00019879241119061432 0 -0.014413048369726003 0.00013297441686083752 0 -0.014441320760299364 0.00033889674571492995 0 -0.014136153106201737 0.00019879241119061432 0 -0.014441320760299364 0.00033889674571492995 0 -0.014253793694442039 0.00043350368183191137 0 -0.014136153106201737 0.00019879241119061432 0 -0.014413048369726003 0.00013297441686083752 0 -0.014284717298398048 4.8053644416237646e-05 0 -0.014474105413374905 7.6062235114713166e-06 0 -0.014413048369726003 0.00013297441686083752 0 -0.014284717298398048 4.8053644416237646e-05 0 -0.014474105413374905 7.6062235114713166e-06 0 -0.014413048369726003 0.00013297441686083752 0 -0.01454872636664941 7.4718443542920042e-05 0 -0.01454872636664941 7.4718443542920042e-05 0 -0.014612120975915965 2.672523965885461e-05 0 -0.014632404001706205 0.00011695125022136788 0 -0.01454872636664941 7.4718443542920042e-05 0 -0.014632404001706205 0.00011695125022136788 0 -0.014552350155488778 0.00019861178838614715 0 -0.014632404001706205 0.00011695125022136788 0 -0.014625414617826033 0.00021875895114732743 0 -0.014552350155488778 0.00019861178838614715 0 -0.014413048369726003 0.00013297441686083752 0 -0.01454872636664941 7.4718443542920042e-05 0 -0.014552350155488778 0.00019861178838614715 0 -0.014467812824732137 -3.5296842261415047e-05 0 -0.013826207695312412 0.00039722616746631754 0 -0.014183498024894065 9.4653407428299218e-05 0 -0.014167419027393968 0.00010326640977736308 0 -0.014156470825185985 0.00010967322947515492 0 -0.014170482984230312 8.1179349590240724e-05 0 -0.014167419027393968 0.00010326640977736308 0 -0.014162673627055368 0.0001123934732278078 0 -0.014666638357254949 -4.7873403585602858e-05 0 -0.014632404001706205 0.00011695125022136788 0 -0.014709719199879992 0.00022690028200295995 0 -0.014666638357254949 -4.7873403585602858e-05 0 -0.014612120975915965 2.672523965885461e-05 0 -0.014632404001706205 0.00011695125022136788 0 -0.014163693567810449 0.00010422196412043681 0 -0.014157837967881949 0.00010996853674875905 0 -0.014183498024894065 9.4653407428299218e-05 0 -0.014170482984230312 8.1179349590240724e-05 0 -0.014167419027393968 0.00010326640977736308 0 -0.012797703580477318 0.00070753313202286789 0 -0.012850012907373228 0.00073455230129931988 0 -0.012826706125936666 0.00071456110237424521 0 -0.014137921190149602 9.3665539105982734e-05 0 -0.014156470825185985 0.00010967322947515492 0 -0.014162673627055368 0.0001123934732278078 0 -0.014167419027393968 0.00010326640977736308 0 -0.014156470825185985 0.00010967322947515492 0 -0.014162673627055368 0.0001123934732278078 0 -0.014709719199879992 0.00022690028200295995 0 -0.014625414617826033 0.00021875895114732743 0 -0.014593888075883021 0.00030190523900703285 0 -0.014632404001706205 0.00011695125022136788 0 -0.014709719199879992 0.00022690028200295995 0 -0.014625414617826033 0.00021875895114732743 0 -0.014413048369726003 0.00013297441686083752 0 -0.014552350155488778 0.00019861178838614715 0 -0.014441320760299364 0.00033889674571492995 0 -0.014625414617826033 0.00021875895114732743 0 -0.014552350155488778 0.00019861178838614715 0 -0.014593888075883021 0.00030190523900703285 0 -0.014709719199879992 0.00022690028200295995 0 -0.014593888075883021 0.00030190523900703285 0 -0.014599852278431273 0.00044218838240363002 0 -0.014593888075883021 0.00030190523900703285 0 -0.014441320760299364 0.00033889674571492995 0 -0.014599852278431273 0.00044218838240363002 0 -0.014552350155488778 0.00019861178838614715 0 -0.014593888075883021 0.00030190523900703285 0 -0.014441320760299364 0.00033889674571492995 0 -0.014599852278431273 0.00044218838240363002 0 -0.014696738359358634 0.00065652589672423602 0 -0.014402537902851302 0.00061378662500009742 0 -0.014441320760299364 0.00033889674571492995 0 -0.014599852278431273 0.00044218838240363002 0 -0.014402537902851302 0.00061378662500009742 0 -0.014709719199879992 0.00022690028200295995 0 -0.014599852278431273 0.00044218838240363002 0 -0.014696738359358634 0.00065652589672423602 0 -0.012850012907373228 0.00073455230129931988 0 -0.012826706125936666 0.00071456110237424521 0 -0.012847513781899805 0.0006662882159885954 0 -0.012811132028078777 0.00068567664025378366 0 -0.012826706125936666 0.00071456110237424521 0 -0.012847513781899805 0.0006662882159885954 0 -0.013826207695312412 0.00039722616746631754 0 -0.013451914346573423 0.00056157717918376348 0 -0.013451914346573423 0.00056157717918376348 0 -0.014032283610271356 0.00049978440530339758 0 -0.013432346150840111 0.00044665240175420306 0 -0.013517325239359165 0.00038446329465226231 0 -0.013410689217829055 0.00035602087825818842 0 -0.013432346150840111 0.00044665240175420306 0 -0.013334339019923291 0.00041419835622077597 0 -0.013410689217829055 0.00035602087825818842 0 -0.013334339019923291 0.00041419835622077597 0 -0.013266943716922937 0.00031753906491202604 0 -0.013410689217829055 0.00035602087825818842 0 -0.013268196421755345 0.00049261878229023076 0 -0.013334339019923291 0.00041419835622077597 0 -0.013222071877794037 0.0003363609334102405 0 -0.013334339019923291 0.00041419835622077597 0 -0.013266943716922937 0.00031753906491202604 0 -0.013222071877794037 0.0003363609334102405 0 -0.014136153106201737 0.00019879241119061432 0 -0.014015234117795922 0.0005793223568854453 0 -0.013765124503951934 0.00027778470304195294 0 -0.014136153106201737 0.00019879241119061432 0 -0.014015234117795922 0.0005793223568854453 0 -0.014253793694442039 0.00043350368183191137 0 -0.014015234117795922 0.0005793223568854453 0 -0.014253793694442039 0.00043350368183191137 0 -0.014402537902851302 0.00061378662500009742 0 -0.014441320760299364 0.00033889674571492995 0 -0.014253793694442039 0.00043350368183191137 0 -0.014402537902851302 0.00061378662500009742 0 -0.013607562900207535 0.00043243351182052143 0 -0.014032283610271356 0.00049978440530339758 0 -0.013286189546503104 0.00031867457492896535 0 -0.012840782724545466 0.00023127138548244118 0 -0.01295895260452847 0.00014106402768253949 0 -0.013286189546503104 0.00031867457492896535 0 -0.01295895260452847 0.00014106402768253949 0 -0.013329968834426279 0.00014467085706145922 0 -0.013286189546503104 0.00031867457492896535 0 -0.012941381692801976 0.00032183532411466991 0 -0.012840782724545466 0.00023127138548244118 0 -0.014015234117795922 0.0005793223568854453 0 -0.013286189546503104 0.00031867457492896535 0 -0.013765124503951934 0.00027778470304195294 0 -0.013607562900207535 0.00043243351182052143 0 -0.013331860394817718 0.00034298917593759975 0 -0.013266943716922937 0.00031753906491202604 0 -0.013286189546503104 0.00031867457492896535 0 -0.013222071877794037 0.0003363609334102405 0 -0.013286189546503104 0.00031867457492896535 0 -0.013329968834426279 0.00014467085706145922 0 -0.013765124503951934 0.00027778470304195294 0 -0.012929670019141417 0.00039453072359137077 0 -0.012927675230921285 0.00032668429664297526 0 -0.013286189546503104 0.00031867457492896535 0 -0.013222071877794037 0.0003363609334102405 0 -0.012941381692801976 0.00032183532411466991 0 -0.013268196421755345 0.00049261878229023076 0 -0.013222071877794037 0.0003363609334102405 0 -0.012941381692801976 0.00032183532411466991 0 -0.012652742042564155 0.00028307000088285142 0 -0.012941381692801976 0.00032183532411466991 0 -0.012700721621135074 0.00025944387623706364 0 -0.012941381692801976 0.00032183532411466991 0 -0.012700721621135074 0.00025944387623706364 0 -0.012840782724545466 0.00023127138548244118 0 -0.012700721621135074 0.00025944387623706364 0 -0.012840782724545466 0.00023127138548244118 0 -0.012479767378804024 0.00017101189006367591 0 -0.012840782724545466 0.00023127138548244118 0 -0.012479767378804024 0.00017101189006367591 0 -0.012624903001326954 9.6777460641947816e-05 0 -0.012030256250793942 0.00010391909013795564 0 -0.012479767378804024 0.00017101189006367591 0 -0.012290807985757126 3.7479829022825701e-05 0 -0.012479767378804024 0.00017101189006367591 0 -0.012624903001326954 9.6777460641947816e-05 0 -0.012290807985757126 3.7479829022825701e-05 0 -0.012624903001326954 9.6777460641947816e-05 0 -0.01295895260452847 0.00014106402768253949 0 -0.012773074075897881 -3.2061192331261787e-05 0 -0.012840782724545466 0.00023127138548244118 0 -0.012624903001326954 9.6777460641947816e-05 0 -0.01295895260452847 0.00014106402768253949 0 -0.01295895260452847 0.00014106402768253949 0 -0.013200742970268197 4.2810493025548052e-05 0 -0.012773074075897881 -3.2061192331261787e-05 0 -0.01295895260452847 0.00014106402768253949 0 -0.013200742970268197 4.2810493025548052e-05 0 -0.013329968834426279 0.00014467085706145922 0 -0.012624903001326954 9.6777460641947816e-05 0 -0.012773074075897881 -3.2061192331261787e-05 0 -0.012463598988802361 -3.2544635586265888e-05 0 -0.012820415636475123 2.3985661783045703e-06 0 -0.012991271931001226 -6.1242902604982259e-05 0 -0.012773074075897881 -3.2061192331261787e-05 0 -0.01338397860395771 -2.9822571709050371e-05 0 -0.013344406340350759 -3.4120741993298331e-05 0 -0.013200742970268197 4.2810493025548052e-05 0 -0.012773074075897881 -3.2061192331261787e-05 0 -0.01338397860395771 -2.9822571709050371e-05 0 -0.013200742970268197 4.2810493025548052e-05 0 -0.01338397860395771 -2.9822571709050371e-05 0 -0.013531638216492704 2.6467419373853596e-05 0 -0.01338397860395771 -2.9822571709050371e-05 0 -0.013531638216492704 2.6467419373853596e-05 0 -0.013720472446519673 -2.7421516240228477e-05 0 -0.013531638216492704 2.6467419373853596e-05 0 -0.013929804708185497 -1.3727326743904242e-05 0 -0.013720472446519673 -2.7421516240228477e-05 0 -0.013200742970268197 4.2810493025548052e-05 0 -0.013531638216492704 2.6467419373853596e-05 0 -0.013329968834426279 0.00014467085706145922 0 -0.013531638216492704 2.6467419373853596e-05 0 -0.013329968834426279 0.00014467085706145922 0 -0.013776893166979736 9.4373956874332373e-05 0 -0.013329968834426279 0.00014467085706145922 0 -0.013765124503951934 0.00027778470304195294 0 -0.013776893166979736 9.4373956874332373e-05 0 -0.014093764122786914 2.2500873642266926e-05 0 -0.013776893166979736 9.4373956874332373e-05 0 -0.013929804708185497 -1.3727326743904242e-05 0 -0.013531638216492704 2.6467419373853596e-05 0 -0.013776893166979736 9.4373956874332373e-05 0 -0.013929804708185497 -1.3727326743904242e-05 0 -0.014344659413261285 -5.6238552304705394e-05 0 -0.014093764122786914 2.2500873642266926e-05 0 -0.013929804708185497 -1.3727326743904242e-05 0 -0.014344659413261285 -5.6238552304705394e-05 0 -0.013929804708185497 -1.3727326743904242e-05 0 -0.014087011096640694 -5.8889889833439224e-05 0 -0.013929804708185497 -1.3727326743904242e-05 0 -0.013720472446519673 -2.7421516240228477e-05 0 -0.014087011096640694 -5.8889889833439224e-05 0 -0.013720472446519673 -2.7421516240228477e-05 0 -0.014087011096640694 -5.8889889833439224e-05 0 -0.013693858201171942 -5.0137732974890186e-05 0 -0.014087011096640694 -5.8889889833439224e-05 0 -0.014316043268512518 -0.00010311780002324605 0 -0.014007231485539277 -9.2649523805826161e-05 0 -0.014087011096640694 -5.8889889833439224e-05 0 -0.014007231485539277 -9.2649523805826161e-05 0 -0.013693858201171942 -5.0137732974890186e-05 0 -0.014344659413261285 -5.6238552304705394e-05 0 -0.014087011096640694 -5.8889889833439224e-05 0 -0.014406455991110644 -8.7882034493677849e-05 0 -0.014087011096640694 -5.8889889833439224e-05 0 -0.014406455991110644 -8.7882034493677849e-05 0 -0.014316043268512518 -0.00010311780002324605 0 -0.014616125171041432 -8.679997749713729e-05 0 -0.014406455991110644 -8.7882034493677849e-05 0 -0.014697988093116834 -9.9315246931377845e-05 0 -0.014316043268512518 -0.00010311780002324605 0 -0.014492039441634146 -0.00013041671558258787 0 -0.014697988093116834 -9.9315246931377845e-05 0 -0.014406455991110644 -8.7882034493677849e-05 0 -0.014316043268512518 -0.00010311780002324605 0 -0.014697988093116834 -9.9315246931377845e-05 0 -0.014316043268512518 -0.00010311780002324605 0 -0.014007231485539277 -9.2649523805826161e-05 0 -0.014140693698096967 -0.00015475842742609681 0 -0.014316043268512518 -0.00010311780002324605 0 -0.014140693698096967 -0.00015475842742609681 0 -0.014492039441634146 -0.00013041671558258787 0 -0.014492039441634146 -0.00013041671558258787 0 -0.014964168022920641 -4.3337065970703613e-05 0 -0.01404369333804518 -0.00040787038221687795 0 -0.01499990619265195 -1.2679341697589399e-07 0 -0.014964168022920641 -4.3337065970703613e-05 0 -0.015003863286708306 6.2729546961750988e-07 0 -0.014859331800584711 -7.9729658984753412e-05 0 -0.01459282196935577 -0.00019607090388724233 0 -0.014140693698096967 -0.00015475842742609681 0 -0.014492039441634146 -0.00013041671558258787 0 -0.01404369333804518 -0.00040787038221687795 0 -0.014999177613961396 -3.1226728988941714e-07 0 -0.01499990619265195 -1.2679341697589399e-07 0 -0.014964168022920641 -4.3337065970703613e-05 0 -0.014999177613961396 -3.1226728988941714e-07 0 -0.014964168022920641 -4.3337065970703613e-05 0 -0.014697988093116834 -9.9315246931377845e-05 0 -0.014492039441634146 -0.00013041671558258787 0 -0.014964168022920641 -4.3337065970703613e-05 0 -0.014697988093116834 -9.9315246931377845e-05 0 -0.014996473597732202 2.1744819168418806e-06 0 -0.015000040043648924 6.3123792902187805e-08 0 -0.015003863286708306 6.2729546961750988e-07 0 -0.014024581755794914 -5.7811513112777835e-06 0 -0.014999336005288426 2.2897039243803544e-08 0 -0.01499990619265195 -1.2679341697589399e-07 0 -0.015000040043648924 6.3123792902187805e-08 0 -0.015003863286708306 6.2729546961750988e-07 0 -0.013628655314780877 -0.00034523224483043739 0 -0.01404369333804518 -0.00040787038221687795 0 -0.013832463549052069 -0.00016511621980524118 0 -0.014140693698096967 -0.00015475842742609681 0 -0.01404369333804518 -0.00040787038221687795 0 -0.013832463549052069 -0.00016511621980524118 0 -0.014024581755794914 -5.7811513112777835e-06 0 -0.01459282196935577 -0.00019607090388724233 0 -0.014007231485539277 -9.2649523805826161e-05 0 -0.014140693698096967 -0.00015475842742609681 0 -0.013832463549052069 -0.00016511621980524118 0 -0.013628655314780877 -0.00034523224483043739 0 -0.013832463549052069 -0.00016511621980524118 0 -0.013597501576265823 -8.5038812719627255e-05 0 -0.012487585991205002 0.00054324944403877655 0 -0.012579806441129956 6.8916984576380619e-05 0 -0.012770354663610579 0.00021889136871531458 0 -0.014024581755794914 -5.7811513112777835e-06 0 -0.012980781715638906 2.3703105771449138e-05 0 -0.012980781715638906 2.3703105771449138e-05 0 -0.012991271931001226 -6.1242902604982259e-05 0 -0.013597501576265823 -8.5038812719627255e-05 0 -0.013693858201171942 -5.0137732974890186e-05 0 -0.013344406340350759 -3.4120741993298331e-05 0 -0.012579806441129956 6.8916984576380619e-05 0 -0.012652128364141188 -0.00014318735501768005 0 -0.012762656030434829 2.2093257138323102e-05 0 -0.013832463549052069 -0.00016511621980524118 0 -0.013597501576265823 -8.5038812719627255e-05 0 -0.013693858201171942 -5.0137732974890186e-05 0 -0.014007231485539277 -9.2649523805826161e-05 0 -0.013832463549052069 -0.00016511621980524118 0 -0.013693858201171942 -5.0137732974890186e-05 0 -0.01338397860395771 -2.9822571709050371e-05 0 -0.013693858201171942 -5.0137732974890186e-05 0 -0.013344406340350759 -3.4120741993298331e-05 0 -0.01338397860395771 -2.9822571709050371e-05 0 -0.013720472446519673 -2.7421516240228477e-05 0 -0.013693858201171942 -5.0137732974890186e-05 0 -0.015000371054547651 1.0013467965096179e-07 0 -0.014918174103732919 5.8930775651375414e-06 0 -0.01499855126089151 -1.9928297700946583e-07 0 -0.012652128364141188 -0.00014318735501768005 0 -0.012727477926910594 -9.1450939494950491e-05 0 -0.012762656030434829 2.2093257138323102e-05 0 -0.012727477926910594 -9.1450939494950491e-05 0 -0.012919400286160563 8.4278786648923012e-05 0 -0.013062352139472292 -4.4968133632461895e-05 0 -0.012727477926910594 -9.1450939494950491e-05 0 -0.012919400286160563 8.4278786648923012e-05 0 -0.012762656030434829 2.2093257138323102e-05 0 -0.012919400286160563 8.4278786648923012e-05 0 -0.012762656030434829 2.2093257138323102e-05 0 -0.012989621711038079 0.0001805031951121706 0 -0.012579806441129956 6.8916984576380619e-05 0 -0.012762656030434829 2.2093257138323102e-05 0 -0.012770354663610579 0.00021889136871531458 0 -0.012487585991205002 0.00054324944403877655 0 -0.012770354663610579 0.00021889136871531458 0 -0.013179568664537735 0.0005606380576970646 0 -0.012762656030434829 2.2093257138323102e-05 0 -0.012770354663610579 0.00021889136871531458 0 -0.012989621711038079 0.0001805031951121706 0 -0.013063781906101378 0.00016962643862765975 0 -0.013681096524463936 5.8760676558756812e-05 0 -0.012989621711038079 0.0001805031951121706 0 -0.013179568664537735 0.0005606380576970646 0 -0.01432449623789608 -0.00014493122483600341 0 -0.012919400286160563 8.4278786648923012e-05 0 -0.012989621711038079 0.0001805031951121706 0 -0.013096779995504 0.00025392668531012838 0 -0.012770354663610579 0.00021889136871531458 0 -0.012989621711038079 0.0001805031951121706 0 -0.013179568664537735 0.0005606380576970646 0 -0.014024581755794914 -5.7811513112777835e-06 0 -0.013990301642360928 0.00030582638020049092 0 -0.014994247214167448 1.8749380207592026e-05 0 -0.015000371054547651 1.0013467965096179e-07 0 -0.014918174103732919 5.8930775651375414e-06 0 -0.014918174103732919 5.8930775651375414e-06 0 -0.01499855126089151 -1.9928297700946583e-07 0 -0.014623795377336516 5.2354924505922725e-05 0 -0.01499855126089151 -1.9928297700946583e-07 0 -0.014623795377336516 5.2354924505922725e-05 0 -0.014006796426668544 3.8182364263079548e-07 0 -0.013179568664537735 0.0005606380576970646 0 -0.01432449623789608 -0.00014493122483600341 0 -0.014623795377336516 5.2354924505922725e-05 0 -0.013990301642360928 0.00030582638020049092 0 -0.014610041676107136 7.2611955635451888e-05 0 -0.013681096524463936 5.8760676558756812e-05 0 -0.014004525047905763 1.3062033729929516e-08 0 -0.01432449623789608 -0.00014493122483600341 0 -0.014623795377336516 5.2354924505922725e-05 0 -0.014006796426668544 3.8182364263079548e-07 0 -0.013096779995504 0.00025392668531012838 0 -0.014003032061703693 8.7006537399955934e-07 0 -0.013062352139472292 -4.4968133632461895e-05 0 -0.012919400286160563 8.4278786648923012e-05 0 -0.013096779995504 0.00025392668531012838 0 -0.013062352139472292 -4.4968133632461895e-05 0 -0.012727477926910594 -9.1450939494950491e-05 0 -0.013062352139472292 -4.4968133632461895e-05 0 -0.012557647267395456 -0.00011545807632702501 0 -0.014003032061703693 8.7006537399955934e-07 0 -0.013062352139472292 -4.4968133632461895e-05 0 -0.013191414877321199 -4.6897807762318339e-07 0 -0.013062352139472292 -4.4968133632461895e-05 0 -0.013191414877321199 -4.6897807762318339e-07 0 -0.012557647267395456 -0.00011545807632702501 0 -0.013191414877321199 -4.6897807762318339e-07 0 -0.012378091590624109 -1.0671249852003994e-07 0 -0.012557647267395456 -0.00011545807632702501 0 -0.012378091590624109 -1.0671249852003994e-07 0 -0.012557647267395456 -0.00011545807632702501 0 -0.012062931799421906 -6.1713146192252081e-05 0 -0.012557647267395456 -0.00011545807632702501 0 -0.012194968221391697 -7.2486660312746413e-05 0 -0.012062931799421906 -6.1713146192252081e-05 0 -0.012727477926910594 -9.1450939494950491e-05 0 -0.012557647267395456 -0.00011545807632702501 0 -0.012529356738043118 -0.00012176182947278157 0 -0.012652128364141188 -0.00014318735501768005 0 -0.012727477926910594 -9.1450939494950491e-05 0 -0.012529356738043118 -0.00012176182947278157 0 -0.012773074075897881 -3.2061192331261787e-05 0 -0.012652128364141188 -0.00014318735501768005 0 -0.012529356738043118 -0.00012176182947278157 0 -0.012773074075897881 -3.2061192331261787e-05 0 -0.012529356738043118 -0.00012176182947278157 0 -0.012463598988802361 -3.2544635586265888e-05 0 -0.012557647267395456 -0.00011545807632702501 0 -0.012529356738043118 -0.00012176182947278157 0 -0.012194968221391697 -7.2486660312746413e-05 0 -0.012529356738043118 -0.00012176182947278157 0 -0.012463598988802361 -3.2544635586265888e-05 0 -0.012194968221391697 -7.2486660312746413e-05 0 -0.012463598988802361 -3.2544635586265888e-05 0 -0.012194968221391697 -7.2486660312746413e-05 0 -0.012290807985757126 3.7479829022825701e-05 0 -0.012624903001326954 9.6777460641947816e-05 0 -0.012463598988802361 -3.2544635586265888e-05 0 -0.012290807985757126 3.7479829022825701e-05 0 -0.012030256250793942 0.00010391909013795564 0 -0.012290807985757126 3.7479829022825701e-05 0 -0.01185368949773581 5.6559112295685026e-06 0 -0.012194968221391697 -7.2486660312746413e-05 0 -0.01185368949773581 5.6559112295685026e-06 0 -0.011636219821871368 -4.3331113652321287e-05 0 -0.012194968221391697 -7.2486660312746413e-05 0 -0.012290807985757126 3.7479829022825701e-05 0 -0.01185368949773581 5.6559112295685026e-06 0 -0.011636219821871368 -4.3331113652321287e-05 0 -0.011565009664607322 -1.1779218019663402e-07 0 -0.012062931799421906 -6.1713146192252081e-05 0 -0.012378091590624109 -1.0671249852003994e-07 0 -0.011565009664607322 -1.1779218019663402e-07 0 -0.012062931799421906 -6.1713146192252081e-05 0 -0.012194968221391697 -7.2486660312746413e-05 0 -0.011636219821871368 -4.3331113652321287e-05 0 -0.012062931799421906 -6.1713146192252081e-05 0 -0.014079718005310507 0.00028174517654742644 0 -0.01430677965424317 0.00042456518472739106 0 -0.014561096732442767 0.00032059300059500184 0 -0.014601148040133105 0.0004211851672960181 0 -0.014593999839855133 0.0004184296122969273 0 -0.013625692505276635 0.00025865662217129393 0 -0.013948137393858763 9.5869976845600272e-05 0 -0.014026608707469091 0.0004476348501680702 0 -0.013625692505276635 0.00025865662217129393 0 -0.013948137393858763 9.5869976845600272e-05 0 -0.013492376510643788 -0.00013073774040958747 0 -0.013948137393858763 9.5869976845600272e-05 0 -0.014290688406691655 0.0001535161101295654 0 -0.014231320959266441 0.00034773154682184892 0 -0.013948137393858763 9.5869976845600272e-05 0 -0.014290688406691655 0.0001535161101295654 0 -0.014155108955049591 -0.00019501218239578578 0 -0.013935924715927799 0.00051977836013576413 0 -0.014002027836786316 0.00055362902753578402 0 -0.014008022698672639 0.00051407274134462942 0 -0.013935924715927799 0.00051977836013576413 0 -0.013989077383344923 0.00047373106378756688 0 -0.014008022698672639 0.00051407274134462942 0 -0.014002027836786316 0.00055362902753578402 0 -0.013971774307599287 0.00062663640174486748 0 -0.014019080583192402 0.00062010935054758107 0 -0.014290688406691655 0.0001535161101295654 0 -0.014231320959266441 0.00034773154682184892 0 -0.014419538216619329 0.00043849572351704403 0 -0.014115296968713468 0.00033587689963285311 0 -0.014187987695343119 0.00055237233514425206 0 -0.013935924715927799 0.00051977836013576413 0 -0.014002027836786316 0.00055362902753578402 0 -0.013971774307599287 0.00062663640174486748 0 -0.013948137393858763 9.5869976845600272e-05 0 -0.014231320959266441 0.00034773154682184892 0 -0.014026608707469091 0.0004476348501680702 0 -0.014448618489331058 0.00048105844559966386 0 -0.014572746601638388 0.0004327842025626429 0 -0.014601148040133105 0.0004211851672960181 0 -0.014231320959266441 0.00034773154682184892 0 -0.014448618489331058 0.00048105844559966386 0 -0.014026608707469091 0.0004476348501680702 0 -0.014421786545991331 0.00047200843386874638 0 -0.01430677965424317 0.00042456518472739106 0 -0.014419538216619329 0.00043849572351704403 0 -0.014448618489331058 0.00048105844559966386 0 -0.014451168277122659 0.00044806295888503024 0 -0.014187987695343119 0.00055237233514425206 0 -0.014301487417447091 0.00045878666416722868 0 -0.014231320959266441 0.00034773154682184892 0 -0.014419538216619329 0.00043849572351704403 0 -0.014448618489331058 0.00048105844559966386 0 -0.013971774307599287 0.00062663640174486748 0 -0.013997791724977171 0.00070251401606664715 0 -0.014019080583192402 0.00062010935054758107 0 -0.014448618489331058 0.00048105844559966386 0 -0.014495321899104883 0.00043165653725442361 0 -0.014451168277122659 0.00044806295888503024 0 -0.014495321899104883 0.00043165653725442361 0 -0.014451168277122659 0.00044806295888503024 0 -0.014517256094115354 0.00038707900572567056 0 -0.014301487417447091 0.00045878666416722868 0 -0.014321865597867618 0.00037243463809059636 0 -0.014452472064843219 0.00032632759031718257 0 -0.014393919299578879 0.00030968270916765188 0 -0.014460705020117348 0.00027204026096696178 0 -0.014572746601638388 0.0004327842025626429 0 -0.014561131169101901 0.00039926000126504593 0 -0.014635417786687442 0.00041614626988494821 0 -0.014448618489331058 0.00048105844559966386 0 -0.014495321899104883 0.00043165653725442361 0 -0.014572746601638388 0.0004327842025626429 0 -0.014495321899104883 0.00043165653725442361 0 -0.014572746601638388 0.0004327842025626429 0 -0.014561131169101901 0.00039926000126504593 0 -0.014495321899104883 0.00043165653725442361 0 -0.014561131169101901 0.00039926000126504593 0 -0.014517256094115354 0.00038707900572567056 0 -0.014572746601638388 0.0004327842025626429 0 -0.014635417786687442 0.00041614626988494821 0 -0.014593999839855133 0.0004184296122969273 0 -0.014572746601638388 0.0004327842025626429 0 -0.014601148040133105 0.0004211851672960181 0 -0.014593999839855133 0.0004184296122969273 0 -0.014561096732442767 0.00032059300059500184 0 -0.014593999839855133 0.0004184296122969273 0 -0.014517076253770264 0.00040609346007655102 0 -0.014635417786687442 0.00041614626988494821 0 -0.014593999839855133 0.0004184296122969273 0 -0.014549026106795742 0.00047046826837313755 0 -0.014593999839855133 0.0004184296122969273 0 -0.014517076253770264 0.00040609346007655102 0 -0.014549026106795742 0.00047046826837313755 0 -0.014493570640117493 0.00044601743499243367 0 -0.014517076253770264 0.00040609346007655102 0 -0.014549026106795742 0.00047046826837313755 0 -0.014493570640117493 0.00044601743499243367 0 -0.014435767582254214 0.00042439884673711205 0 -0.014517076253770264 0.00040609346007655102 0 -0.014493570640117493 0.00044601743499243367 0 -0.014435767582254214 0.00042439884673711205 0 -0.014470380833359293 0.00049370006679498048 0 -0.014435767582254214 0.00042439884673711205 0 -0.014517076253770264 0.00040609346007655102 0 -0.014439197643522937 0.00032873228555123179 0 -0.014338732067121702 0.0004907354961113141 0 -0.014299797603134755 0.00037615450448831193 0 -0.014439197643522937 0.00032873228555123179 0 -0.014335808046067258 0.00050150530304666628 0 -0.014457377604075087 0.00030942535119256933 0 -0.014234059357184319 0.00053063801243260437 0 -0.014215763772720061 0.00059035271981575771 0 -0.014124087927274443 0.00052473809489290469 0 -0.014234059357184319 0.00053063801243260437 0 -0.014223770703289512 0.00043601772447211047 0 -0.014124087927274443 0.00052473809489290469 0 -0.014335808046067258 0.00050150530304666628 0 -0.014623912675257169 0.00040371891623634988 0 -0.014338732067121702 0.0004907354961113141 0 -0.014234059357184319 0.00053063801243260437 0 -0.014223770703289512 0.00043601772447211047 0 -0.014338732067121702 0.0004907354961113141 0 -0.014234059357184319 0.00053063801243260437 0 -0.014268980975186701 0.00062808389474860321 0 -0.014338732067121702 0.0004907354961113141 0 -0.014223770703289512 0.00043601772447211047 0 -0.014299797603134755 0.00037615450448831193 0 -0.014223770703289512 0.00043601772447211047 0 -0.014124087927274443 0.00052473809489290469 0 -0.014136751879583725 0.00037222633630629089 0 -0.014214275486410599 0.00030334022006128997 0 -0.01414738633686837 0.00019875964511263048 0 -0.014136751879583725 0.00037222633630629089 0 -0.014223770703289512 0.00043601772447211047 0 -0.014214275486410599 0.00030334022006128997 0 -0.014136751879583725 0.00037222633630629089 0 -0.014214275486410599 0.00030334022006128997 0 -0.014299797603134755 0.00037615450448831193 0 -0.014323760290850536 0.00024583975192289231 0 -0.014223770703289512 0.00043601772447211047 0 -0.014214275486410599 0.00030334022006128997 0 -0.014299797603134755 0.00037615450448831193 0 -0.014214275486410599 0.00030334022006128997 0 -0.014323760290850536 0.00024583975192289231 0 -0.014225292208208541 0.00019940016786350431 0 -0.014214275486410599 0.00030334022006128997 0 -0.014225292208208541 0.00019940016786350431 0 -0.01414738633686837 0.00019875964511263048 0 -0.012930448463538063 -0.00022260654107984237 0 -0.012709525624344759 -0.00031597097720567353 0 -0.012930448463538063 -0.00022260654107984237 0 -0.013825333718939492 0.00020980020988520977 0 -0.012170151325404723 -0.00064535305058703151 0 -0.0121762673468003 -0.00066729847102921117 0 -0.012125422937395288 -0.00061661171801984745 0 -0.014561096732442767 0.00032059300059500184 0 -0.014517076253770264 0.00040609346007655102 0 -0.014439197643522937 0.00032873228555123179 0 -0.014299797603134755 0.00037615450448831193 0 -0.014323760290850536 0.00024583975192289231 0 -0.014439197643522937 0.00032873228555123179 0 -0.014323760290850536 0.00024583975192289231 0 -0.014439197643522937 0.00032873228555123179 0 -0.01445140725257657 0.00020414383595907001 0 -0.014079718005310507 0.00028174517654742644 0 -0.013912551516250593 0.00013128344784397959 0 -0.014561096732442767 0.00032059300059500184 0 -0.014439197643522937 0.00032873228555123179 0 -0.01445140725257657 0.00020414383595907001 0 -0.013625692505276635 0.00025865662217129393 0 -0.013267004716240264 3.3816462887915399e-05 0 -0.013492376510643788 -0.00013073774040958747 0 -0.013267004716240264 3.3816462887915399e-05 0 -0.013161022350569058 -0.00028173925714430014 0 -0.013492376510643788 -0.00013073774040958747 0 -0.013912551516250593 0.00013128344784397959 0 -0.013327281678534383 -3.2196139268424085e-05 0 -0.013267004716240264 3.3816462887915399e-05 0 -0.013161022350569058 -0.00028173925714430014 0 -0.012954777198422876 -0.0001886392966429072 0 -0.014323760290850536 0.00024583975192289231 0 -0.01445140725257657 0.00020414383595907001 0 -0.01430073020032091 9.2705026318997994e-05 0 -0.012997953718044689 -0.00020262988569033448 0 -0.012667641387411289 -5.5551636136101441e-05 0 -0.012689193196558939 -0.00043046506800596592 0 -0.012997953718044689 -0.00020262988569033448 0 -0.01334409448453276 -0.00036653331657703498 0 -0.012960966444388124 -0.00069995457824108753 0 -0.013024436286061869 -0.00020893407847670791 0 -0.013327281678534383 -3.2196139268424085e-05 0 -0.013024436286061869 -0.00020893407847670791 0 -0.013327385923369697 -0.00035516662746755813 0 -0.013161022350569058 -0.00028173925714430014 0 -0.01334409448453276 -0.00036653331657703498 0 -0.013492376510643788 -0.00013073774040958747 0 -0.010959091030319848 -0.00022174856474489694 0 -0.011813908480295877 -8.2162351084576183e-05 0 -0.010446738419479511 -0.00013679582828114524 0 -0.01038482321316626 7.9894905647774362e-05 0 -0.010197747659611608 -0.00024190403705148626 0 -0.012930448463538063 -0.00022260654107984237 0 -0.011813908480295877 -8.2162351084576183e-05 0 -0.014225292208208541 0.00019940016786350431 0 -0.014154720023334656 0.00015694219507318423 0 -0.014209757846290845 0.00013246161351878661 0 -0.011813908480295877 -8.2162351084576183e-05 0 -0.012666959130524185 -2.9947769470070451e-05 0 -0.014225292208208541 0.00019940016786350431 0 -0.01414738633686837 0.00019875964511263048 0 -0.014154720023334656 0.00015694219507318423 0 -0.011679258445291583 -0.00023527748134335267 0 -0.011651085614598218 1.8471830598944417e-05 0 -0.011865438810819848 -7.3737764063948262e-05 0 -0.010959091030319848 -0.00022174856474489694 0 -0.012666959130524185 -2.9947769470070451e-05 0 -0.014225292208208541 0.00019940016786350431 0 -0.014209757846290845 0.00013246161351878661 0 -0.01430073020032091 9.2705026318997994e-05 0 -0.014323760290850536 0.00024583975192289231 0 -0.014225292208208541 0.00019940016786350431 0 -0.01430073020032091 9.2705026318997994e-05 0 -0.012666959130524185 -2.9947769470070451e-05 0 -0.013327281678534383 -3.2196139268424085e-05 0 -0.011979832617301 0.00025206410425196571 0 -0.012776224744508286 -9.245465110184466e-05 0 -0.011843783625968905 -0.00076388976926491622 0 -0.012667641387411289 -5.5551636136101441e-05 0 -0.012689193196558939 -0.00043046506800596592 0 -0.012309088740372421 -0.00031026266275737248 0 -0.013327281678534383 -3.2196139268424085e-05 0 -0.010936219729313783 -0.00057046213919545734 0 -0.010468110988929497 -0.00050231914835220627 0 -0.010092151055970319 -0.00050147746788773567 0 -0.0097323848526608258 -0.0010177843894609905 0 -0.011560971757770258 -0.00011444283462424325 0 -0.011979832617301 0.00025206410425196571 0 -0.011843783625968905 -0.00076388976926491622 0 -0.010293214193537589 -9.6432333826270786e-05 0 -0.010468110988929497 -0.00050231914835220627 0 -0.010319921722436559 -0.0002472301699129222 0 -0.010959091030319848 -0.00022174856474489694 0 -0.010936219729313783 -0.00057046213919545734 0 -0.010292835544801876 -9.651277729380411e-05 0 -0.010092151055970319 -0.00050147746788773567 0 -0.010319921722436559 -0.0002472301699129222 0 -0.010468110988929497 -0.00050231914835220627 0 -0.010092151055970319 -0.00050147746788773567 0 -0.010319921722436559 -0.0002472301699129222 0 -0.010959091030319848 -0.00022174856474489694 0 -0.010851518000900626 -0.00017375820810827227 0 -0.0095780256394374218 -0.00099671208444323373 0 -0.0094041275166776052 -0.0013709536445507039 0 -0.0091545091342413384 -0.0013028647769032183 0 -0.010936219729313783 -0.00057046213919545734 0 -0.011068910972139679 -0.0011357045393338499 0 -0.0095780256394374218 -0.00099671208444323373 0 -0.0094041275166776052 -0.0013709536445507039 0 -0.0096982279803189044 -0.0014759232369219103 0 -0.010936219729313783 -0.00057046213919545734 0 -0.0092774222421076954 -0.0012337546061936436 0 -0.012689193196558939 -0.00043046506800596592 0 -0.012454423498351354 -0.00080853124452933127 0 -0.012960966444388124 -0.00069995457824108753 0 -0.012689193196558939 -0.00043046506800596592 0 -0.012309088740372421 -0.00031026266275737248 0 -0.012454423498351354 -0.00080853124452933127 0 -0.011260581132081228 -0.0017186899522414589 0 -0.011068910972139679 -0.0011357045393338499 0 -0.0095201315403379647 -0.0018004171412993619 0 -0.0098061740123846497 -0.001932337800766267 0 -0.0096982279803189044 -0.0014759232369219103 0 -0.012586812576024096 -0.0013034761832759736 0 -0.012454423498351354 -0.00080853124452933127 0 -0.012883797876521061 -0.0010558233896307727 0 -0.0095201315403379647 -0.0018004171412993619 0 -0.0096982279803189044 -0.0014759232369219103 0 -0.0093862400626428307 -0.001589282795340764 0 -0.0094041275166776052 -0.0013709536445507039 0 -0.0096982279803189044 -0.0014759232369219103 0 -0.0093862400626428307 -0.001589282795340764 0 -0.0095201315403379647 -0.0018004171412993619 0 -0.0093862400626428307 -0.001589282795340764 0 -0.0092641060049857542 -0.0018141223179157047 0 -0.0094041275166776052 -0.0013709536445507039 0 -0.0093862400626428307 -0.001589282795340764 0 -0.0092358739438109828 -0.0015024170448599309 0 -0.01334409448453276 -0.00036653331657703498 0 -0.013305951463499169 -0.0006670826414224947 0 -0.012960966444388124 -0.00069995457824108753 0 -0.01334409448453276 -0.00036653331657703498 0 -0.013305951463499169 -0.0006670826414224947 0 -0.013570875462038626 -0.00061433428442446653 0 -0.012997953718044689 -0.00020262988569033448 0 -0.012689193196558939 -0.00043046506800596592 0 -0.012960966444388124 -0.00069995457824108753 0 -0.012960966444388124 -0.00069995457824108753 0 -0.012883797876521061 -0.0010558233896307727 0 -0.013334967905295885 -0.0010131453157819462 0 -0.012454423498351354 -0.00080853124452933127 0 -0.012960966444388124 -0.00069995457824108753 0 -0.012883797876521061 -0.0010558233896307727 0 -0.013305951463499169 -0.0006670826414224947 0 -0.012960966444388124 -0.00069995457824108753 0 -0.013334967905295885 -0.0010131453157819462 0 -0.013305951463499169 -0.0006670826414224947 0 -0.013334967905295885 -0.0010131453157819462 0 -0.013570875462038626 -0.00061433428442446653 0 -0.013267462357152321 -0.00097205744488075227 0 -0.013555513265039724 -0.00062983735594201876 0 -0.013549250503393478 -0.00089259118314126624 0 -0.013769611917452712 -0.00068836142254962286 0 -0.013570875462038626 -0.00061433428442446653 0 -0.0132753070912688 -0.00086034047597304919 0 -0.013549250503393478 -0.00089259118314126624 0 -0.013570875462038626 -0.00061433428442446653 0 -0.013904721385241972 -0.00093317119889368668 0 -0.013769611917452712 -0.00068836142254962286 0 -0.01402514859216652 -0.00055330268474959512 0 -0.013549250503393478 -0.00089259118314126624 0 -0.013904721385241972 -0.00093317119889368668 0 -0.013769611917452712 -0.00068836142254962286 0 -0.013769611917452712 -0.00068836142254962286 0 -0.013813184321799699 -0.00044853784873103521 0 -0.01402514859216652 -0.00055330268474959512 0 -0.013769611917452712 -0.00068836142254962286 0 -0.013570875462038626 -0.00061433428442446653 0 -0.013813184321799699 -0.00044853784873103521 0 -0.013570875462038626 -0.00061433428442446653 0 -0.013594845009315603 -0.0003622694319119684 0 -0.013813184321799699 -0.00044853784873103521 0 -0.013594845009315603 -0.0003622694319119684 0 -0.013791889179202391 -0.00022266060210905317 0 -0.013492376510643788 -0.00013073774040958747 0 -0.01334409448453276 -0.00036653331657703498 0 -0.013594845009315603 -0.0003622694319119684 0 -0.013492376510643788 -0.00013073774040958747 0 -0.01334409448453276 -0.00036653331657703498 0 -0.013570875462038626 -0.00061433428442446653 0 -0.013594845009315603 -0.0003622694319119684 0 -0.013594845009315603 -0.0003622694319119684 0 -0.013813184321799699 -0.00044853784873103521 0 -0.013791889179202391 -0.00022266060210905317 0 -0.013813184321799699 -0.00044853784873103521 0 -0.013791889179202391 -0.00022266060210905317 0 -0.014155108955049591 -0.00019501218239578578 0 -0.013948137393858763 9.5869976845600272e-05 0 -0.013791889179202391 -0.00022266060210905317 0 -0.013492376510643788 -0.00013073774040958747 0 -0.013948137393858763 9.5869976845600272e-05 0 -0.013791889179202391 -0.00022266060210905317 0 -0.014155108955049591 -0.00019501218239578578 0 -0.013961662702490467 0.00043231623583824761 0 -0.013908747119504183 0.00043000656109444497 0 -0.013989077383344923 0.00047373106378756688 0 -0.013935924715927799 0.00051977836013576413 0 -0.013908747119504183 0.00043000656109444497 0 -0.013989077383344923 0.00047373106378756688 0 -0.014115296968713468 0.00033587689963285311 0 -0.014028736036848318 0.00011510728410877284 0 -0.014028736036848318 0.00011510728410877284 0 -0.013987611978702115 -6.2254935505519287e-05 0 -0.013908747119504183 0.00043000656109444497 0 -0.01392614118829831 0.00039046693439134616 0 -0.013887145624073028 0.00038045553989336659 0 -0.013813184321799699 -0.00044853784873103521 0 -0.014155108955049591 -0.00019501218239578578 0 -0.01402514859216652 -0.00055330268474959512 0 -0.013961662702490467 0.00043231623583824761 0 -0.013908747119504183 0.00043000656109444497 0 -0.01394646008524199 0.00040496353291728218 0 -0.013908747119504183 0.00043000656109444497 0 -0.01394646008524199 0.00040496353291728218 0 -0.01392614118829831 0.00039046693439134616 0 -0.013961662702490467 0.00043231623583824761 0 -0.01394646008524199 0.00040496353291728218 0 -0.013964404107679206 0.00042439606783230516 0 -0.013617834812546034 0.00036726479098178166 0 -0.013712175719122088 0.00036814700611232791 0 -0.01394646008524199 0.00040496353291728218 0 -0.01392614118829831 0.00039046693439134616 0 -0.013953518830867645 0.00041131694242797919 0 -0.01392614118829831 0.00039046693439134616 0 -0.013923406923933531 0.00034589117600202759 0 -0.013953518830867645 0.00041131694242797919 0 -0.013283160045729015 0.00026582637964576029 0 -0.013429298089696361 0.00022968654622053644 0 -0.013495824098838836 0.00036095538841030066 0 -0.01392614118829831 0.00039046693439134616 0 -0.013887145624073028 0.00038045553989336659 0 -0.013923406923933531 0.00034589117600202759 0 -0.013617680129578256 -0.00040328989816182408 0 -0.013617834812546034 0.00036726479098178166 0 -0.013320863223447832 0.00014701443142715054 0 -0.013106112300449254 0.00015841039370472919 0 -0.013283160045729015 0.00026582637964576029 0 -0.013857207392870179 0.00029104423519201762 0 -0.013887145624073028 0.00038045553989336659 0 -0.013923406923933531 0.00034589117600202759 0 -0.013617680129578256 -0.00040328989816182408 0 -0.013987611978702115 -6.2254935505519287e-05 0 -0.013484679245740294 0.00012459896433018825 0 -0.013320863223447832 0.00014701443142715054 0 -0.013429298089696361 0.00022968654622053644 0 -0.013320863223447832 0.00014701443142715054 0 -0.013283160045729015 0.00026582637964576029 0 -0.013429298089696361 0.00022968654622053644 0 -0.013484679245740294 0.00012459896433018825 0 -0.013575132442373881 0.0002368569497572268 0 -0.013635748091971617 0.00016676302159138572 0 -0.013484679245740294 0.00012459896433018825 0 -0.013575132442373881 0.0002368569497572268 0 -0.013429298089696361 0.00022968654622053644 0 -0.013712175719122088 0.00036814700611232791 0 -0.013787879653483525 0.00039629356309622615 0 -0.013495824098838836 0.00036095538841030066 0 -0.013684977787495079 0.00032320219218305015 0 -0.013805073978458513 0.000395935969192395 0 -0.013575132442373881 0.0002368569497572268 0 -0.013429298089696361 0.00022968654622053644 0 -0.013495824098838836 0.00036095538841030066 0 -0.013575132442373881 0.0002368569497572268 0 -0.013495824098838836 0.00036095538841030066 0 -0.013684977787495079 0.00032320219218305015 0 -0.013684977787495079 0.00032320219218305015 0 -0.013792933813257189 0.00033273486527787415 0 -0.013805073978458513 0.000395935969192395 0 -0.013575132442373881 0.0002368569497572268 0 -0.013684977787495079 0.00032320219218305015 0 -0.013683517253584522 0.00025752889673056343 0 -0.013684977787495079 0.00032320219218305015 0 -0.013683517253584522 0.00025752889673056343 0 -0.013792933813257189 0.00033273486527787415 0 -0.013683517253584522 0.00025752889673056343 0 -0.013635748091971617 0.00016676302159138572 0 -0.013736417561353426 0.00020862154992553573 0 -0.013575132442373881 0.0002368569497572268 0 -0.013683517253584522 0.00025752889673056343 0 -0.013635748091971617 0.00016676302159138572 0 -0.013716277835134917 0.0001104075598443578 0 -0.013635748091971617 0.00016676302159138572 0 -0.013736417561353426 0.00020862154992553573 0 -0.013716277835134917 0.0001104075598443578 0 -0.013736417561353426 0.00020862154992553573 0 -0.013806513679700871 0.00018589059808868995 0 -0.013736417561353426 0.00020862154992553573 0 -0.013806513679700871 0.00018589059808868995 0 -0.013812858362992363 0.00026985944447327536 0 -0.013806513679700871 0.00018589059808868995 0 -0.013873022276744808 0.00025839622146493101 0 -0.013880130144141519 0.00016772243882936562 0 -0.013806513679700871 0.00018589059808868995 0 -0.013873022276744808 0.00025839622146493101 0 -0.013812858362992363 0.00026985944447327536 0 -0.013873022276744808 0.00025839622146493101 0 -0.01385459699614432 0.00031951741318039811 0 -0.013812858362992363 0.00026985944447327536 0 -0.013873022276744808 0.00025839622146493101 0 -0.01385459699614432 0.00031951741318039811 0 -0.013898993916113178 0.00032278225594859053 0 -0.013736417561353426 0.00020862154992553573 0 -0.013812858362992363 0.00026985944447327536 0 -0.013792933813257189 0.00033273486527787415 0 -0.013683517253584522 0.00025752889673056343 0 -0.013736417561353426 0.00020862154992553573 0 -0.013792933813257189 0.00033273486527787415 0 -0.01385459699614432 0.00031951741318039811 0 -0.013812858362992363 0.00026985944447327536 0 -0.013792933813257189 0.00033273486527787415 0 -0.013792933813257189 0.00033273486527787415 0 -0.013857415808351073 0.00035353893906148274 0 -0.013860909684663053 0.00037732346263944606 0 -0.01385459699614432 0.00031951741318039811 0 -0.013792933813257189 0.00033273486527787415 0 -0.013857415808351073 0.00035353893906148274 0 -0.013857415808351073 0.00035353893906148274 0 -0.013860909684663053 0.00037732346263944606 0 -0.013892291640788647 0.00037179670201923184 0 -0.013898993916113178 0.00032278225594859053 0 -0.013893075942135676 0.00035264101374461271 0 -0.013929260988809191 0.00035896934471244126 0 -0.01385459699614432 0.00031951741318039811 0 -0.013898993916113178 0.00032278225594859053 0 -0.013893075942135676 0.00035264101374461271 0 -0.01385459699614432 0.00031951741318039811 0 -0.013857415808351073 0.00035353893906148274 0 -0.013893075942135676 0.00035264101374461271 0 -0.013857415808351073 0.00035353893906148274 0 -0.013893075942135676 0.00035264101374461271 0 -0.013892291640788647 0.00037179670201923184 0 -0.013893075942135676 0.00035264101374461271 0 -0.013918872548417088 0.00037095933753102046 0 -0.013892291640788647 0.00037179670201923184 0 -0.013893075942135676 0.00035264101374461271 0 -0.013918872548417088 0.00037095933753102046 0 -0.013929260988809191 0.00035896934471244126 0 -0.013918872548417088 0.00037095933753102046 0 -0.013929260988809191 0.00035896934471244126 0 -0.013947600432046148 0.00037925190373351 0 -0.013918872548417088 0.00037095933753102046 0 -0.01393225199525169 0.00037925722536390763 0 -0.013892291640788647 0.00037179670201923184 0 -0.013918872548417088 0.00037095933753102046 0 -0.01393225199525169 0.00037925722536390763 0 -0.013947600432046148 0.00037925190373351 0 -0.013860909684663053 0.00037732346263944606 0 -0.0139062564374053 0.00037562469182119296 0 -0.013877427844905631 0.00036960435796493769 0 -0.013860909684663053 0.00037732346263944606 0 -0.013892291640788647 0.00037179670201923184 0 -0.0139062564374053 0.00037562469182119296 0 -0.01393225199525169 0.00037925722536390763 0 -0.013892291640788647 0.00037179670201923184 0 -0.0139062564374053 0.00037562469182119296 0 -0.0139062564374053 0.00037562469182119296 0 -0.013877427844905631 0.00036960435796493769 0 -0.013917994379095877 0.00036874002497978489 0 -0.013877427844905631 0.00036960435796493769 0 -0.013883938313091747 0.00036850571525389635 0 -0.013897751297963645 0.00036425403230174651 0 -0.013877427844905631 0.00036960435796493769 0 -0.013897751297963645 0.00036425403230174651 0 -0.013917994379095877 0.00036874002497978489 0 -0.013883938313091747 0.00036850571525389635 0 -0.013897751297963645 0.00036425403230174651 0 -0.013903106742780207 0.00035946638238214642 0 -0.013897751297963645 0.00036425403230174651 0 -0.013903106742780207 0.00035946638238214642 0 -0.013917994379095877 0.00036874002497978489 0 -0.013984853849924565 0.00042741616128393647 0 -0.013931427107069945 0.00039696703144824388 0 -0.014056184089781567 0.00048367657200022799 0 -0.013964404107679206 0.00042439606783230516 0 -0.013922958084284502 0.00039023300556497776 0 -0.013883938313091747 0.00036850571525389635 0 -0.013903106742780207 0.00035946638238214642 0 -0.013922958084284502 0.00039023300556497776 0 -0.013961662702490467 0.00043231623583824761 0 -0.013989077383344923 0.00047373106378756688 0 -0.013989561406475393 0.00045013554225245317 0 -0.014056184089781567 0.00048367657200022799 0 -0.013989077383344923 0.00047373106378756688 0 -0.013989561406475393 0.00045013554225245317 0 -0.014056184089781567 0.00048367657200022799 0 -0.013989561406475393 0.00045013554225245317 0 -0.013964404107679206 0.00042439606783230516 0 -0.013961662702490467 0.00043231623583824761 0 -0.013989561406475393 0.00045013554225245317 0 -0.013964404107679206 0.00042439606783230516 0 -0.013953518830867645 0.00041131694242797919 0 -0.013922958084284502 0.00039023300556497776 0 -0.013805073978458513 0.000395935969192395 0 -0.01394646008524199 0.00040496353291728218 0 -0.013964404107679206 0.00042439606783230516 0 -0.013922958084284502 0.00039023300556497776 0 -0.01394646008524199 0.00040496353291728218 0 -0.013953518830867645 0.00041131694242797919 0 -0.013922958084284502 0.00039023300556497776 0 -0.013792933813257189 0.00033273486527787415 0 -0.013860909684663053 0.00037732346263944606 0 -0.013805073978458513 0.000395935969192395 0 -0.013860909684663053 0.00037732346263944606 0 -0.013877427844905631 0.00036960435796493769 0 -0.013805073978458513 0.000395935969192395 0 -0.013877427844905631 0.00036960435796493769 0 -0.013883938313091747 0.00036850571525389635 0 -0.013805073978458513 0.000395935969192395 0 -0.013883938313091747 0.00036850571525389635 0 -0.013922958084284502 0.00039023300556497776 0 -0.013805073978458513 0.000395935969192395 0 -0.012752355488434425 0.00067342717437039333 0 -0.013384561644761296 0.00054521731461583216 0 -0.012788139809280202 0.0007074201461597649 0 -0.012787297611107204 0.00072239817862635076 0 -0.012788178406867672 0.00072245426077436844 0 -0.012752355488434425 0.00067342717437039333 0 -0.012686269125867825 0.00072618035949865588 0 -0.012530237541241889 0.00067791675616408705 0 -0.012605323806545976 0.00070701965916743323 0 -0.012613961253672991 0.00073521669859698984 0 -0.012530237541241889 0.00067791675616408705 0 -0.012610008331145126 0.00068150242065787654 0 -0.012605323806545976 0.00070701965916743323 0 -0.013693441089020984 0.00032197759668072115 0 -0.013780847913343912 0.00033357056991784804 0 -0.013778422019862567 0.00040547184884813417 0 -0.013780847913343912 0.00033357056991784804 0 -0.013841069904618919 0.00041591271080965782 0 -0.013778422019862567 0.00040547184884813417 0 -0.014248433518683573 4.4136010982066966e-05 0 -0.013854746762756243 0.00036496294167668122 0 -0.013841069904618919 0.00041591271080965782 0 -0.013778422019862567 0.00040547184884813417 0 -0.01386452968814616 0.00043990527536640392 0 -0.014024799872586648 0.00027137742714159797 0 -0.013953465490791499 0.00024073619053860087 0 -0.013958281308802578 0.00032428404445351551 0 -0.013936860043216426 0.00015045581715174281 0 -0.014014415765661477 0.00012324413538684578 0 -0.013953465490791499 0.00024073619053860087 0 -0.014014415765661477 0.00012324413538684578 0 -0.014024799872586648 0.00027137742714159797 0 -0.013953465490791499 0.00024073619053860087 0 -0.013873022276744808 0.00025839622146493101 0 -0.013953465490791499 0.00024073619053860087 0 -0.013880130144141519 0.00016772243882936562 0 -0.013936860043216426 0.00015045581715174281 0 -0.013953465490791499 0.00024073619053860087 0 -0.013880130144141519 0.00016772243882936562 0 -0.013873022276744808 0.00025839622146493101 0 -0.013953465490791499 0.00024073619053860087 0 -0.013923564871580823 0.00028802890173467588 0 -0.013953465490791499 0.00024073619053860087 0 -0.013923564871580823 0.00028802890173467588 0 -0.013958281308802578 0.00032428404445351551 0 -0.013898993916113178 0.00032278225594859053 0 -0.013923564871580823 0.00028802890173467588 0 -0.013958281308802578 0.00032428404445351551 0 -0.013873022276744808 0.00025839622146493101 0 -0.013898993916113178 0.00032278225594859053 0 -0.013923564871580823 0.00028802890173467588 0 -0.013898993916113178 0.00032278225594859053 0 -0.013929260988809191 0.00035896934471244126 0 -0.013958281308802578 0.00032428404445351551 0 -0.013929260988809191 0.00035896934471244126 0 -0.013961609902768738 0.00037429516666619882 0 -0.013958281308802578 0.00032428404445351551 0 -0.013929260988809191 0.00035896934471244126 0 -0.013947600432046148 0.00037925190373351 0 -0.013961609902768738 0.00037429516666619882 0 -0.013947600432046148 0.00037925190373351 0 -0.013961609902768738 0.00037429516666619882 0 -0.013972611491417092 0.00038690140637175589 0 -0.013961609902768738 0.00037429516666619882 0 -0.014006128984113041 0.00036905607057496914 0 -0.013977237033652579 0.00039451727130802237 0 -0.013961609902768738 0.00037429516666619882 0 -0.013977237033652579 0.00039451727130802237 0 -0.013972611491417092 0.00038690140637175589 0 -0.013961609902768738 0.00037429516666619882 0 -0.013958281308802578 0.00032428404445351551 0 -0.014006128984113041 0.00036905607057496914 0 -0.014024799872586648 0.00027137742714159797 0 -0.013958281308802578 0.00032428404445351551 0 -0.014006128984113041 0.00036905607057496914 0 -0.013854746762756243 0.00036496294167668122 0 -0.013938608218302034 0.00039021943353333659 0 -0.014006128984113041 0.00036905607057496914 0 -0.013948818458420399 0.00040604038256793429 0 -0.013977237033652579 0.00039451727130802237 0 -0.013938608218302034 0.00039021943353333659 0 -0.013944492575242667 0.00040208541477373288 0 -0.01386452968814616 0.00043990527536640392 0 -0.013884855305170125 0.00043965205857488763 0 -0.013948818458420399 0.00040604038256793429 0 -0.013841069904618919 0.00041591271080965782 0 -0.01386452968814616 0.00043990527536640392 0 -0.013884855305170125 0.00043965205857488763 0 -0.013384561644761296 0.00054521731461583216 0 -0.01332314531732239 0.00059115880232944956 0 -0.012787297611107204 0.00072239817862635076 0 -0.012788178406867672 0.00072245426077436844 0 -0.012780804273299164 0.00072794201626446783 0 -0.013907340005449201 0.0003979113259457059 0 -0.013948818458420399 0.00040604038256793429 0 -0.013942919608403173 0.0003715217709053055 0 -0.013907340005449201 0.0003979113259457059 0 -0.013884855305170125 0.00043965205857488763 0 -0.013948818458420399 0.00040604038256793429 0 -0.013345453035315322 0.00054380906938572462 0 -0.01332314531732239 0.00059115880232944956 0 -0.013948818458420399 0.00040604038256793429 0 -0.013982032876540988 0.00038445631894827841 0 -0.013977237033652579 0.00039451727130802237 0 -0.013948818458420399 0.00040604038256793429 0 -0.013982032876540988 0.00038445631894827841 0 -0.013942919608403173 0.0003715217709053055 0 -0.013982032876540988 0.00038445631894827841 0 -0.013987766014772363 0.00038639508517293385 0 -0.014013914648391634 0.00036816168987096861 0 -0.013982032876540988 0.00038445631894827841 0 -0.013977237033652579 0.00039451727130802237 0 -0.013987766014772363 0.00038639508517293385 0 -0.013977237033652579 0.00039451727130802237 0 -0.013987766014772363 0.00038639508517293385 0 -0.013972611491417092 0.00038690140637175589 0 -0.013987766014772363 0.00038639508517293385 0 -0.013972611491417092 0.00038690140637175589 0 -0.013988441845718663 0.0003821836280407524 0 -0.013947600432046148 0.00037925190373351 0 -0.013972611491417092 0.00038690140637175589 0 -0.013967449149537542 0.00038400976521226615 0 -0.013972611491417092 0.00038690140637175589 0 -0.013988441845718663 0.0003821836280407524 0 -0.013967449149537542 0.00038400976521226615 0 -0.013988441845718663 0.0003821836280407524 0 -0.014013914648391634 0.00036816168987096861 0 -0.014005036301247506 0.00037264959448497076 0 -0.013988441845718663 0.0003821836280407524 0 -0.013967449149537542 0.00038400976521226615 0 -0.014005036301247506 0.00037264959448497076 0 -0.013987766014772363 0.00038639508517293385 0 -0.013988441845718663 0.0003821836280407524 0 -0.014013914648391634 0.00036816168987096861 0 -0.014032881480268969 0.00034694696253155055 0 -0.014013914648391634 0.00036816168987096861 0 -0.014005036301247506 0.00037264959448497076 0 -0.014032881480268969 0.00034694696253155055 0 -0.014081333109800894 0.00031937419178194458 0 -0.014013914648391634 0.00036816168987096861 0 -0.014081333109800894 0.00031937419178194458 0 -0.014041528197955375 0.00032618263559051777 0 -0.014042093490558275 0.00031665127617987605 0 -0.014032881480268969 0.00034694696253155055 0 -0.014081333109800894 0.00031937419178194458 0 -0.014041528197955375 0.00032618263559051777 0 -0.014081333109800894 0.00031937419178194458 0 -0.014002215309733066 0.00035649480544777933 0 -0.014048615754994387 0.0003138767611436616 0 -0.014081333109800894 0.00031937419178194458 0 -0.014048615754994387 0.0003138767611436616 0 -0.014167312533563917 0.0002961833987811227 0 -0.014081333109800894 0.00031937419178194458 0 -0.014013914648391634 0.00036816168987096861 0 -0.014002215309733066 0.00035649480544777933 0 -0.013982032876540988 0.00038445631894827841 0 -0.014013914648391634 0.00036816168987096861 0 -0.014002215309733066 0.00035649480544777933 0 -0.014002215309733066 0.00035649480544777933 0 -0.013939587244104231 0.0003119582867502816 0 -0.013942919608403173 0.0003715217709053055 0 -0.013982032876540988 0.00038445631894827841 0 -0.014002215309733066 0.00035649480544777933 0 -0.013942919608403173 0.0003715217709053055 0 -0.014002215309733066 0.00035649480544777933 0 -0.014048615754994387 0.0003138767611436616 0 -0.013939587244104231 0.0003119582867502816 0 -0.013907340005449201 0.0003979113259457059 0 -0.013898137526352727 0.0003475203479330477 0 -0.013942919608403173 0.0003715217709053055 0 -0.013898137526352727 0.0003475203479330477 0 -0.013939587244104231 0.0003119582867502816 0 -0.013942919608403173 0.0003715217709053055 0 -0.014003388831679483 0.0003838493592675555 0 -0.014003343610147073 0.00039085508686324361 0 -0.013959159578159035 0.000377760259107533 0 -0.014003388831679483 0.0003838493592675555 0 -0.013959159578159035 0.000377760259107533 0 -0.013976829759775067 0.00038171790466953932 0 -0.014003388831679483 0.0003838493592675555 0 -0.014003343610147073 0.00039085508686324361 0 -0.014047234624744378 0.00038114291757410557 0 -0.014094619304158064 0.00049519513432277743 0 -0.01413200030093836 0.00057800543907380784 0 -0.014002027836786316 0.00055362902753578402 0 -0.014074006733971745 0.00050373485273068677 0 -0.014019080583192402 0.00062010935054758107 0 -0.014199379804025936 0.00054819954094075972 0 -0.014074006733971745 0.00050373485273068677 0 -0.014269041666518101 0.00053428783617554129 0 -0.013984853849924565 0.00042741616128393647 0 -0.014098736662277435 0.00046072027611712956 0 -0.014056184089781567 0.00048367657200022799 0 -0.014199379804025936 0.00054819954094075972 0 -0.014074006733971745 0.00050373485273068677 0 -0.014002027836786316 0.00055362902753578402 0 -0.014008022698672639 0.00051407274134462942 0 -0.014074006733971745 0.00050373485273068677 0 -0.013989077383344923 0.00047373106378756688 0 -0.014008022698672639 0.00051407274134462942 0 -0.014074006733971745 0.00050373485273068677 0 -0.014056184089781567 0.00048367657200022799 0 -0.013989077383344923 0.00047373106378756688 0 -0.014074006733971745 0.00050373485273068677 0 -0.013903106742780207 0.00035946638238214642 0 -0.014003343610147073 0.00039085508686324361 0 -0.013959159578159035 0.000377760259107533 0 -0.013903106742780207 0.00035946638238214642 0 -0.013959159578159035 0.000377760259107533 0 -0.013917994379095877 0.00036874002497978489 0 -0.013959159578159035 0.000377760259107533 0 -0.013917994379095877 0.00036874002497978489 0 -0.01393882305466526 0.00037638701101908387 0 -0.0139062564374053 0.00037562469182119296 0 -0.013917994379095877 0.00036874002497978489 0 -0.01393882305466526 0.00037638701101908387 0 -0.0139062564374053 0.00037562469182119296 0 -0.01393882305466526 0.00037638701101908387 0 -0.013954795922773445 0.00038102255460763538 0 -0.01393225199525169 0.00037925722536390763 0 -0.0139062564374053 0.00037562469182119296 0 -0.013954795922773445 0.00038102255460763538 0 -0.013954795922773445 0.00038102255460763538 0 -0.013984841616939372 0.00038020860923095723 0 -0.013976829759775067 0.00038171790466953932 0 -0.013959159578159035 0.000377760259107533 0 -0.01393882305466526 0.00037638701101908387 0 -0.013976829759775067 0.00038171790466953932 0 -0.01393882305466526 0.00037638701101908387 0 -0.013954795922773445 0.00038102255460763538 0 -0.013976829759775067 0.00038171790466953932 0 -0.01393225199525169 0.00037925722536390763 0 -0.013947600432046148 0.00037925190373351 0 -0.013967449149537542 0.00038400976521226615 0 -0.01393225199525169 0.00037925722536390763 0 -0.013954795922773445 0.00038102255460763538 0 -0.013967449149537542 0.00038400976521226615 0 -0.013954795922773445 0.00038102255460763538 0 -0.013967449149537542 0.00038400976521226615 0 -0.013984841616939372 0.00038020860923095723 0 -0.013984841616939372 0.00038020860923095723 0 -0.014005036301247506 0.00037264959448497076 0 -0.014011017983905564 0.00037742718857033903 0 -0.013967449149537542 0.00038400976521226615 0 -0.013984841616939372 0.00038020860923095723 0 -0.014005036301247506 0.00037264959448497076 0 -0.013984841616939372 0.00038020860923095723 0 -0.013976829759775067 0.00038171790466953932 0 -0.014011017983905564 0.00037742718857033903 0 -0.014003388831679483 0.0003838493592675555 0 -0.013976829759775067 0.00038171790466953932 0 -0.014011017983905564 0.00037742718857033903 0 -0.014011017983905564 0.00037742718857033903 0 -0.014037839341685105 0.00036444733986630692 0 -0.014047234624744378 0.00038114291757410557 0 -0.014003388831679483 0.0003838493592675555 0 -0.014011017983905564 0.00037742718857033903 0 -0.014047234624744378 0.00038114291757410557 0 -0.014011017983905564 0.00037742718857033903 0 -0.014037839341685105 0.00036444733986630692 0 -0.0140264034380081 0.00035594914030139929 0 -0.014037839341685105 0.00036444733986630692 0 -0.0140264034380081 0.00035594914030139929 0 -0.014041405424663811 0.00033845521324087411 0 -0.014037839341685105 0.00036444733986630692 0 -0.014078481132530865 0.00035385506742865492 0 -0.014047234624744378 0.00038114291757410557 0 -0.014005036301247506 0.00037264959448497076 0 -0.014011017983905564 0.00037742718857033903 0 -0.0140264034380081 0.00035594914030139929 0 -0.014032881480268969 0.00034694696253155055 0 -0.014005036301247506 0.00037264959448497076 0 -0.0140264034380081 0.00035594914030139929 0 -0.014032881480268969 0.00034694696253155055 0 -0.0140264034380081 0.00035594914030139929 0 -0.014041528197955375 0.00032618263559051777 0 -0.014043992782729955 0.00031172337079782612 0 -0.014041528197955375 0.00032618263559051777 0 -0.014041405424663811 0.00033845521324087411 0 -0.0140264034380081 0.00035594914030139929 0 -0.014041528197955375 0.00032618263559051777 0 -0.014041405424663811 0.00033845521324087411 0 -0.014078481132530865 0.00035385506742865492 0 -0.014041405424663811 0.00033845521324087411 0 -0.014083295707518411 0.00023993523247657942 0 -0.014043992782729955 0.00031172337079782612 0 -0.014041405424663811 0.00033845521324087411 0 -0.014083295707518411 0.00023993523247657942 0 -0.014037839341685105 0.00036444733986630692 0 -0.014078481132530865 0.00035385506742865492 0 -0.014041405424663811 0.00033845521324087411 0 -0.014078481132530865 0.00035385506742865492 0 -0.01417045911110169 0.00035924840114949708 0 -0.014083295707518411 0.00023993523247657942 0 -0.014078481132530865 0.00035385506742865492 0 -0.01417045911110169 0.00035924840114949708 0 -0.014047234624744378 0.00038114291757410557 0 -0.014098736662277435 0.00046072027611712956 0 -0.014156823310647031 0.00035843908265047685 0 -0.014003343610147073 0.00039085508686324361 0 -0.01417045911110169 0.00035924840114949708 0 -0.014047234624744378 0.00038114291757410557 0 -0.014301487417447091 0.00045878666416722868 0 -0.01413200030093836 0.00057800543907380784 0 -0.014199379804025936 0.00054819954094075972 0 -0.014269041666518101 0.00053428783617554129 0 -0.014298043297287693 0.00041678583123424769 0 -0.014452472064843219 0.00032632759031718257 0 -0.014269041666518101 0.00053428783617554129 0 -0.014298043297287693 0.00041678583123424769 0 -0.014199379804025936 0.00054819954094075972 0 -0.01417045911110169 0.00035924840114949708 0 -0.014298043297287693 0.00041678583123424769 0 -0.01417045911110169 0.00035924840114949708 0 -0.014331588191248298 0.00032402156745648444 0 -0.01444003604797677 0.00020582837932145608 0 -0.01417045911110169 0.00035924840114949708 0 -0.014298043297287693 0.00041678583123424769 0 -0.014331588191248298 0.00032402156745648444 0 -0.014298043297287693 0.00041678583123424769 0 -0.014331588191248298 0.00032402156745648444 0 -0.014393919299578879 0.00030968270916765188 0 -0.014331588191248298 0.00032402156745648444 0 -0.014393919299578879 0.00030968270916765188 0 -0.01444003604797677 0.00020582837932145608 0 -0.014452472064843219 0.00032632759031718257 0 -0.014298043297287693 0.00041678583123424769 0 -0.014393919299578879 0.00030968270916765188 0 -0.014393919299578879 0.00030968270916765188 0 -0.01444003604797677 0.00020582837932145608 0 -0.014460705020117348 0.00027204026096696178 0 -0.01444003604797677 0.00020582837932145608 0 -0.014529270046582998 0.00020600587566375463 0 -0.014522909987263308 0.00021203993386189417 0 -0.014529270046582998 0.00020600587566375463 0 -0.014522909987263308 0.00021203993386189417 0 -0.014554314690278632 0.0002002593611088383 0 -0.014542485714272557 0.00020415705706265549 0 -0.014522909987263308 0.00021203993386189417 0 -0.014552624540901763 0.00020207782032538533 0 -0.014522909987263308 0.00021203993386189417 0 -0.014556764261478113 0.00018942071374028875 0 -0.014552624540901763 0.00020207782032538533 0 -0.014542485714272557 0.00020415705706265549 0 -0.014552624540901763 0.00020207782032538533 0 -0.014547624351584607 0.00019191608338552649 0 -0.014542485714272557 0.00020415705706265549 0 -0.014522909987263308 0.00021203993386189417 0 -0.014554314690278632 0.0002002593611088383 0 -0.01444003604797677 0.00020582837932145608 0 -0.014522909987263308 0.00021203993386189417 0 -0.014556764261478113 0.00018942071374028875 0 -0.01417045911110169 0.00035924840114949708 0 -0.01444003604797677 0.00020582837932145608 0 -0.014083295707518411 0.00023993523247657942 0 -0.014434078442046925 0.0002063751577009401 0 -0.014328445067149908 0.00022052372428008681 0 -0.014328445067149908 0.00022052372428008681 0 -0.014299941605064261 0.00027708562573906521 0 -0.014043992782729955 0.00031172337079782612 0 -0.014083295707518411 0.00023993523247657942 0 -0.014042093490558275 0.00031665127617987605 0 -0.014556764261478113 0.00018942071374028875 0 -0.014574390080231319 0.00024812971031070564 0 -0.014562178467103351 0.0001998311262460501 0 -0.014043992782729955 0.00031172337079782612 0 -0.014041528197955375 0.00032618263559051777 0 -0.014042093490558275 0.00031665127617987605 0 -0.014574390080231319 0.00024812971031070564 0 -0.014562178467103351 0.0001998311262460501 0 -0.014519238186537982 0.00016938303737015951 0 -0.014788604015091238 -1.4896469291400648e-05 0 -0.014519238186537982 0.00016938303737015951 0 -0.014548052129030214 -3.554478437404351e-05 0 -0.014664036512049837 8.6049918099788335e-05 0 -0.014535834102358113 0.00016866559960207407 0 -0.014562178467103351 0.0001998311262460501 0 -0.014552535484365681 0.00019205880685542223 0 -0.014519238186537982 0.00016938303737015951 0 -0.014556764261478113 0.00018942071374028875 0 -0.014562178467103351 0.0001998311262460501 0 -0.014552624540901763 0.00020207782032538533 0 -0.014562178467103351 0.0001998311262460501 0 -0.014552624540901763 0.00020207782032538533 0 -0.014552535484365681 0.00019205880685542223 0 -0.014552624540901763 0.00020207782032538533 0 -0.014552535484365681 0.00019205880685542223 0 -0.014547624351584607 0.00019191608338552649 0 -0.014664036512049837 8.6049918099788335e-05 0 -0.014721556724638627 3.6122075747918663e-05 0 -0.014552535484365681 0.00019205880685542223 0 -0.014542303210347047 0.00015605644671732425 0 -0.014547624351584607 0.00019191608338552649 0 -0.014788604015091238 -1.4896469291400648e-05 0 -0.014676402841731264 -8.2561226296949534e-05 0 -0.014548052129030214 -3.554478437404351e-05 0 -0.014676402841731264 -8.2561226296949534e-05 0 -0.014839989402367774 -9.0752787834579192e-05 0 -0.014668380099570704 -0.00011249795533598357 0 -0.014788604015091238 -1.4896469291400648e-05 0 -0.014676402841731264 -8.2561226296949534e-05 0 -0.014839989402367774 -9.0752787834579192e-05 0 -0.014841772436906004 -8.348003677194498e-05 0 -0.014817958909513087 -8.2803097030914458e-05 0 -0.014788604015091238 -1.4896469291400648e-05 0 -0.014839989402367774 -9.0752787834579192e-05 0 -0.014894618244627997 -8.0635179784211718e-05 0 -0.014839989402367774 -9.0752787834579192e-05 0 -0.014894618244627997 -8.0635179784211718e-05 0 -0.014895399441519481 -7.3159548371258052e-05 0 -0.014542303210347047 0.00015605644671732425 0 -0.014580877290919522 0.00017241250968583522 0 -0.01462801671980706 6.8569811162542857e-05 0 -0.014542303210347047 0.00015605644671732425 0 -0.014580877290919522 0.00017241250968583522 0 -0.014547624351584607 0.00019191608338552649 0 -0.014645587000693823 0.00014517361786529594 0 -0.014580877290919522 0.00017241250968583522 0 -0.014591740137093223 0.00019142090480152467 0 -0.014645587000693823 0.00014517361786529594 0 -0.014580877290919522 0.00017241250968583522 0 -0.01462801671980706 6.8569811162542857e-05 0 -0.014529270046582998 0.00020600587566375463 0 -0.014591740137093223 0.00019142090480152467 0 -0.014554314690278632 0.0002002593611088383 0 -0.014580877290919522 0.00017241250968583522 0 -0.014591740137093223 0.00019142090480152467 0 -0.014554314690278632 0.0002002593611088383 0 -0.014542485714272557 0.00020415705706265549 0 -0.014554314690278632 0.0002002593611088383 0 -0.014547624351584607 0.00019191608338552649 0 -0.014580877290919522 0.00017241250968583522 0 -0.014554314690278632 0.0002002593611088383 0 -0.014547624351584607 0.00019191608338552649 0 -0.013746686058017682 0.00021644414605238854 0 -0.013939587244104231 0.0003119582867502816 0 -0.013902082351785387 0.00010635880534096331 0 -0.013939587244104231 0.0003119582867502816 0 -0.013902082351785387 0.00010635880534096331 0 -0.014054868451481956 0.0002029977143303174 0 -0.014048615754994387 0.0003138767611436616 0 -0.013939587244104231 0.0003119582867502816 0 -0.014054868451481956 0.0002029977143303174 0 -0.013902082351785387 0.00010635880534096331 0 -0.014054868451481956 0.0002029977143303174 0 -0.014101285803268866 -6.703068343904612e-05 0 -0.014054868451481956 0.0002029977143303174 0 -0.014266420267299748 0.00010995884591644244 0 -0.014167312533563917 0.0002961833987811227 0 -0.014054868451481956 0.0002029977143303174 0 -0.014266420267299748 0.00010995884591644244 0 -0.014101285803268866 -6.703068343904612e-05 0 -0.014048615754994387 0.0003138767611436616 0 -0.014054868451481956 0.0002029977143303174 0 -0.014167312533563917 0.0002961833987811227 0 -0.014081333109800894 0.00031937419178194458 0 -0.014042093490558275 0.00031665127617987605 0 -0.014167312533563917 0.0002961833987811227 0 -0.014299941605064261 0.00027708562573906521 0 -0.014173040334851537 0.00029455485307078517 0 -0.014574390080231319 0.00024812971031070564 0 -0.014167312533563917 0.0002961833987811227 0 -0.014519238186537982 0.00016938303737015951 0 -0.014266420267299748 0.00010995884591644244 0 -0.014167312533563917 0.0002961833987811227 0 -0.014519238186537982 0.00016938303737015951 0 -0.014266420267299748 0.00010995884591644244 0 -0.014519238186537982 0.00016938303737015951 0 -0.014548052129030214 -3.554478437404351e-05 0 -0.014676402841731264 -8.2561226296949534e-05 0 -0.014548052129030214 -3.554478437404351e-05 0 -0.014659879445171506 -9.4678076183050811e-05 0 -0.014676402841731264 -8.2561226296949534e-05 0 -0.014659879445171506 -9.4678076183050811e-05 0 -0.014668380099570704 -0.00011249795533598357 0 -0.014659879445171506 -9.4678076183050811e-05 0 -0.014707445621644047 -0.0001366678026846283 0 -0.014758361614608518 -8.7670075989205372e-05 0 -0.014551368451909763 -4.2325764356523901e-05 0 -0.01441225417677878 -9.3027862868491599e-05 0 -0.014548052129030214 -3.554478437404351e-05 0 -0.014659879445171506 -9.4678076183050811e-05 0 -0.014707445621644047 -0.0001366678026846283 0 -0.014266420267299748 0.00010995884591644244 0 -0.014548052129030214 -3.554478437404351e-05 0 -0.014101285803268866 -6.703068343904612e-05 0 -0.01441225417677878 -9.3027862868491599e-05 0 -0.01436939153856411 -0.00012934949589377961 0 -0.014707445621644047 -0.0001366678026846283 0 -0.014823169802707939 -0.00013717804602124818 0 -0.014758361614608518 -8.7670075989205372e-05 0 -0.014823169802707939 -0.00013717804602124818 0 -0.014829385024461293 -7.9607917314483567e-05 0 -0.014758361614608518 -8.7670075989205372e-05 0 -0.014868806735903519 -8.212584552390655e-05 0 -0.014823169802707939 -0.00013717804602124818 0 -0.014829385024461293 -7.9607917314483567e-05 0 -0.013902082351785387 0.00010635880534096331 0 -0.014101285803268866 -6.703068343904612e-05 0 -0.013890302846940542 -7.9694978049438001e-05 0 -0.014900292084579913 -2.9188035463840129e-05 0 -0.014871646854929553 -5.025988725545309e-05 0 -0.014910060666986255 -2.0822306238762225e-05 0 -0.014871646854929553 -5.025988725545309e-05 0 -0.014815041636741254 -5.0633570564901425e-05 0 -0.014910060666986255 -2.0822306238762225e-05 0 -0.014871646854929553 -5.025988725545309e-05 0 -0.014829385024461293 -7.9607917314483567e-05 0 -0.014815041636741254 -5.0633570564901425e-05 0 -0.014868806735903519 -8.212584552390655e-05 0 -0.014871646854929553 -5.025988725545309e-05 0 -0.014829385024461293 -7.9607917314483567e-05 0 -0.014758361614608518 -8.7670075989205372e-05 0 -0.014815041636741254 -5.0633570564901425e-05 0 -0.014703056785322188 -4.9336283003518437e-05 0 -0.014829385024461293 -7.9607917314483567e-05 0 -0.014758361614608518 -8.7670075989205372e-05 0 -0.014815041636741254 -5.0633570564901425e-05 0 -0.014815041636741254 -5.0633570564901425e-05 0 -0.014804930957481966 1.070098081556813e-06 0 -0.014910060666986255 -2.0822306238762225e-05 0 -0.014815041636741254 -5.0633570564901425e-05 0 -0.014703056785322188 -4.9336283003518437e-05 0 -0.014804930957481966 1.070098081556813e-06 0 -0.014848736968837399 -4.0077741528617036e-05 0 -0.014901010983593308 -4.3321136979980822e-06 0 -0.014659879445171506 -9.4678076183050811e-05 0 -0.014758361614608518 -8.7670075989205372e-05 0 -0.014703056785322188 -4.9336283003518437e-05 0 -0.014659879445171506 -9.4678076183050811e-05 0 -0.014703056785322188 -4.9336283003518437e-05 0 -0.014668380099570704 -0.00011249795533598357 0 -0.014848736968837399 -4.0077741528617036e-05 0 -0.014817958909513087 -8.2803097030914458e-05 0 -0.014994676536973967 -2.7302624497465314e-05 0 -0.014954516178586168 -6.1003066577170607e-05 0 -0.014978721507047318 -1.0560141613903151e-05 0 -0.014994676536973967 -2.7302624497465314e-05 0 -0.014995445650394019 -5.8068375376473942e-06 0 -0.014978721507047318 -1.0560141613903151e-05 0 -0.01500000581002657 7.8298142423721531e-09 0 -0.014995445650394019 -5.8068375376473942e-06 0 -0.014978721507047318 -1.0560141613903151e-05 0 -0.01500000581002657 7.8298142423721531e-09 0 -0.01500104136021071 -5.6782122653089128e-08 0 -0.014995445650394019 -5.8068375376473942e-06 0 -0.01500000581002657 7.8298142423721531e-09 0 -0.01500104136021071 -5.6782122653089128e-08 0 -0.014999971825264625 -1.2641647343806612e-08 0 -0.014994676536973967 -2.7302624497465314e-05 0 -0.014995445650394019 -5.8068375376473942e-06 0 -0.014998524163777574 9.6733210956841876e-07 0 -0.01500104136021071 -5.6782122653089128e-08 0 -0.014995445650394019 -5.8068375376473942e-06 0 -0.014998524163777574 9.6733210956841876e-07 0 -0.01500104136021071 -5.6782122653089128e-08 0 -0.014998524163777574 9.6733210956841876e-07 0 -0.014966493731227862 1.1122047256085698e-05 0 -0.014901010983593308 -4.3321136979980822e-06 0 -0.014953381694514621 1.0172701485497162e-05 0 -0.01500104136021071 -5.6782122653089128e-08 0 -0.014999971825264625 -1.2641647343806612e-08 0 -0.014966493731227862 1.1122047256085698e-05 0 -0.01499992697708683 2.4374536187963036e-08 0 -0.014999971825264625 -1.2641647343806612e-08 0 -0.014966493731227862 1.1122047256085698e-05 0 -0.014980641766067953 2.0461424055104006e-06 0 -0.014966493731227862 1.1122047256085698e-05 0 -0.014910060666986255 -2.0822306238762225e-05 0 -0.014804930957481966 1.070098081556813e-06 0 -0.014966493731227862 1.1122047256085698e-05 0 -0.014910060666986255 -2.0822306238762225e-05 0 -0.014902941834071981 -6.3137154735458606e-05 0 -0.014934063474815226 -3.6193665848186318e-05 0 -0.01494540578531546 -1.3734488791713579e-05 0 -0.014902941834071981 -6.3137154735458606e-05 0 -0.01494540578531546 -1.3734488791713579e-05 0 -0.014854048963494178 -1.0489602543563323e-05 0 -0.014768595498941431 7.3074958689746679e-06 0 -0.014838095084725264 -1.0714883284622623e-05 0 -0.014645587000693823 0.00014517361786529594 0 -0.01462801671980706 6.8569811162542857e-05 0 -0.014761347972811416 7.9315088663700983e-05 0 -0.014894618244627997 -8.0635179784211718e-05 0 -0.014902941834071981 -6.3137154735458606e-05 0 -0.014895399441519481 -7.3159548371258052e-05 0 -0.014721556724638627 3.6122075747918663e-05 0 -0.014768595498941431 7.3074958689746679e-06 0 -0.014902941834071981 -6.3137154735458606e-05 0 -0.014895399441519481 -7.3159548371258052e-05 0 -0.014934063474815226 -3.6193665848186318e-05 0 -0.014895399441519481 -7.3159548371258052e-05 0 -0.014954516178586168 -6.1003066577170607e-05 0 -0.014934063474815226 -3.6193665848186318e-05 0 -0.014839989402367774 -9.0752787834579192e-05 0 -0.014895399441519481 -7.3159548371258052e-05 0 -0.014954516178586168 -6.1003066577170607e-05 0 -0.014954516178586168 -6.1003066577170607e-05 0 -0.014934063474815226 -3.6193665848186318e-05 0 -0.014978721507047318 -1.0560141613903151e-05 0 -0.014934063474815226 -3.6193665848186318e-05 0 -0.014970253667017588 -8.0524483992757771e-06 0 -0.01494540578531546 -1.3734488791713579e-05 0 -0.014934063474815226 -3.6193665848186318e-05 0 -0.014970253667017588 -8.0524483992757771e-06 0 -0.014978721507047318 -1.0560141613903151e-05 0 -0.01500000581002657 7.8298142423721531e-09 0 -0.014978721507047318 -1.0560141613903151e-05 0 -0.014999961266574022 -7.3790422397603507e-09 0 -0.014970253667017588 -8.0524483992757771e-06 0 -0.014978721507047318 -1.0560141613903151e-05 0 -0.014999961266574022 -7.3790422397603507e-09 0 -0.014970253667017588 -8.0524483992757771e-06 0 -0.014999961266574022 -7.3790422397603507e-09 0 -0.014999934779139707 1.1078531316744555e-08 0 -0.014970253667017588 -8.0524483992757771e-06 0 -0.014999934779139707 1.1078531316744555e-08 0 -0.01494540578531546 -1.3734488791713579e-05 0 -0.01494540578531546 -1.3734488791713579e-05 0 -0.014940332086529631 -5.4964939929683438e-07 0 -0.014854048963494178 -1.0489602543563323e-05 0 -0.014999934779139707 1.1078531316744555e-08 0 -0.014940332086529631 -5.4964939929683438e-07 0 -0.014999887782137025 -2.6870044641426147e-09 0 -0.014999934779139707 1.1078531316744555e-08 0 -0.01494540578531546 -1.3734488791713579e-05 0 -0.014940332086529631 -5.4964939929683438e-07 0 -0.014940332086529631 -5.4964939929683438e-07 0 -0.014999887782137025 -2.6870044641426147e-09 0 -0.014926526372817241 -2.5440106673952492e-06 0 -0.014999887782137025 -2.6870044641426147e-09 0 -0.014926526372817241 -2.5440106673952492e-06 0 -0.014999917710233655 -9.305653388954172e-09 0 -0.014940332086529631 -5.4964939929683438e-07 0 -0.014926526372817241 -2.5440106673952492e-06 0 -0.014854048963494178 -1.0489602543563323e-05 0 -0.014972779949461945 1.4168404189130486e-06 0 -0.014999917710233655 -9.305653388954172e-09 0 -0.014999965216783553 1.3372917140289738e-09 0 -0.014926526372817241 -2.5440106673952492e-06 0 -0.014972779949461945 1.4168404189130486e-06 0 -0.014999917710233655 -9.305653388954172e-09 0 -0.014926526372817241 -2.5440106673952492e-06 0 -0.014972779949461945 1.4168404189130486e-06 0 -0.01494268862165144 2.2366384419707491e-05 0 -0.014972779949461945 1.4168404189130486e-06 0 -0.01494268862165144 2.2366384419707491e-05 0 -0.014982249067911199 1.038579324483803e-05 0 -0.014926526372817241 -2.5440106673952492e-06 0 -0.01494268862165144 2.2366384419707491e-05 0 -0.014862632412872801 3.3525398359884354e-05 0 -0.01494268862165144 2.2366384419707491e-05 0 -0.014916551042930569 7.4032914987825482e-05 0 -0.014862632412872801 3.3525398359884354e-05 0 -0.014916551042930569 7.4032914987825482e-05 0 -0.014862632412872801 3.3525398359884354e-05 0 -0.014791911346201904 0.00011081643153418957 0 -0.014854048963494178 -1.0489602543563323e-05 0 -0.014862632412872801 3.3525398359884354e-05 0 -0.014761347972811416 7.9315088663700983e-05 0 -0.014926526372817241 -2.5440106673952492e-06 0 -0.014854048963494178 -1.0489602543563323e-05 0 -0.014862632412872801 3.3525398359884354e-05 0 -0.014862632412872801 3.3525398359884354e-05 0 -0.014761347972811416 7.9315088663700983e-05 0 -0.014791911346201904 0.00011081643153418957 0 -0.01462801671980706 6.8569811162542857e-05 0 -0.014854048963494178 -1.0489602543563323e-05 0 -0.014761347972811416 7.9315088663700983e-05 0 -0.014645587000693823 0.00014517361786529594 0 -0.014761347972811416 7.9315088663700983e-05 0 -0.01468543393710945 0.00015628633319157307 0 -0.014645587000693823 0.00014517361786529594 0 -0.014591740137093223 0.00019142090480152467 0 -0.01468543393710945 0.00015628633319157307 0 -0.014591740137093223 0.00019142090480152467 0 -0.01468543393710945 0.00015628633319157307 0 -0.014603245254069887 0.00020856480183207397 0 -0.014529270046582998 0.00020600587566375463 0 -0.014591740137093223 0.00019142090480152467 0 -0.014603245254069887 0.00020856480183207397 0 -0.014603245254069887 0.00020856480183207397 0 -0.014713423875393079 0.00018053796256680088 0 -0.014658965518068083 0.00027213834075680271 0 -0.01468543393710945 0.00015628633319157307 0 -0.014603245254069887 0.00020856480183207397 0 -0.014713423875393079 0.00018053796256680088 0 -0.01468543393710945 0.00015628633319157307 0 -0.014791911346201904 0.00011081643153418957 0 -0.014713423875393079 0.00018053796256680088 0 -0.014761347972811416 7.9315088663700983e-05 0 -0.01468543393710945 0.00015628633319157307 0 -0.014791911346201904 0.00011081643153418957 0 -0.014791911346201904 0.00011081643153418957 0 -0.014764061059740154 0.00016914974570184777 0 -0.014713423875393079 0.00018053796256680088 0 -0.014788162456908508 0.00011219350278277024 0 -0.014827819515376517 0.00015496104009865382 0 -0.014916551042930569 7.4032914987825482e-05 0 -0.014791911346201904 0.00011081643153418957 0 -0.014893445887900383 0.00014730361191315147 0 -0.014916551042930569 7.4032914987825482e-05 0 -0.014893445887900383 0.00014730361191315147 0 -0.014945749140005469 0.00011563650752501612 0 -0.014764061059740154 0.00016914974570184777 0 -0.014757781269740235 0.00025400567978403231 0 -0.014857271518504937 0.00022605882415341162 0 -0.014827819515376517 0.00015496104009865382 0 -0.014896117959535177 0.00020615114911119159 0 -0.014764061059740154 0.00016914974570184777 0 -0.014713423875393079 0.00018053796256680088 0 -0.014757781269740235 0.00025400567978403231 0 -0.014713423875393079 0.00018053796256680088 0 -0.014658965518068083 0.00027213834075680271 0 -0.014757781269740235 0.00025400567978403231 0 -0.014638464953649821 0.00041887239234364291 0 -0.014666929366477413 0.00041764502905581479 0 -0.014757781269740235 0.00025400567978403231 0 -0.014801467506570014 0.000367855883948144 0 -0.014833754433396434 0.00028844525669634877 0 -0.014635417786687442 0.00041614626988494821 0 -0.014757781269740235 0.00025400567978403231 0 -0.014801467506570014 0.000367855883948144 0 -0.014635417786687442 0.00041614626988494821 0 -0.014658965518068083 0.00027213834075680271 0 -0.014582570275456364 0.00032395034065648635 0 -0.014635417786687442 0.00041614626988494821 0 -0.014658965518068083 0.00027213834075680271 0 -0.014757781269740235 0.00025400567978403231 0 -0.014561131169101901 0.00039926000126504593 0 -0.014635417786687442 0.00041614626988494821 0 -0.014582570275456364 0.00032395034065648635 0 -0.014561131169101901 0.00039926000126504593 0 -0.014582570275456364 0.00032395034065648635 0 -0.014517256094115354 0.00038707900572567056 0 -0.014301487417447091 0.00045878666416722868 0 -0.014530349133254451 0.00024345485833229496 0 -0.014459245040572877 0.00029602586398482943 0 -0.014460705020117348 0.00027204026096696178 0 -0.01452592941289668 0.00020734229320014353 0 -0.014451168277122659 0.00044806295888503024 0 -0.014517256094115354 0.00038707900572567056 0 -0.014500818253177134 0.00032112283429222707 0 -0.01444003604797677 0.00020582837932145608 0 -0.014460705020117348 0.00027204026096696178 0 -0.01452592941289668 0.00020734229320014353 0 -0.01444003604797677 0.00020582837932145608 0 -0.014529270046582998 0.00020600587566375463 0 -0.01452592941289668 0.00020734229320014353 0 -0.014582570275456364 0.00032395034065648635 0 -0.014517256094115354 0.00038707900572567056 0 -0.014500818253177134 0.00032112283429222707 0 -0.014578136164519473 0.0002179119570427831 0 -0.014530349133254451 0.00024345485833229496 0 -0.014529270046582998 0.00020600587566375463 0 -0.014603245254069887 0.00020856480183207397 0 -0.01452592941289668 0.00020734229320014353 0 -0.014603245254069887 0.00020856480183207397 0 -0.014582570275456364 0.00032395034065648635 0 -0.014500818253177134 0.00032112283429222707 0 -0.014603245254069887 0.00020856480183207397 0 -0.014658965518068083 0.00027213834075680271 0 -0.014582570275456364 0.00032395034065648635 0 -0.014991411608808189 0.00020809598983847726 0 -0.015022268869687862 0.00025391346181854969 0 -0.015037291391357557 0.00014881562775546209 0 -0.014991411608808189 0.00020809598983847726 0 -0.015022268869687862 0.00025391346181854969 0 -0.014976709435438813 0.00027010959346091072 0 -0.014895411882587962 0.00020597571228777065 0 -0.014883382461676212 0.00014415159838026265 0 -0.014923637049370891 0.0001634694408173673 0 -0.014623912675257169 0.00040371891623634988 0 -0.015006503363260388 0.00010289632199758544 0 -0.014895411882587962 0.00020597571228777065 0 -0.01484415849958199 0.00021924447679166789 0 -0.014883382461676212 0.00014415159838026265 0 -0.01418663099792144 0.00064411028478210657 0 -0.014215763772720061 0.00059035271981575771 0 -0.014124087927274443 0.00052473809489290469 0 -0.014234059357184319 0.00053063801243260437 0 -0.014215763772720061 0.00059035271981575771 0 -0.014268980975186701 0.00062808389474860321 0 -0.01418663099792144 0.00064411028478210657 0 -0.014215763772720061 0.00059035271981575771 0 -0.014268980975186701 0.00062808389474860321 0 -0.014554405326109517 0.00041803978437504602 0 -0.014623912675257169 0.00040371891623634988 0 -0.015022268869687862 0.00025391346181854969 0 -0.014976709435438813 0.00027010959346091072 0 -0.014913234127556661 0.00030879683275941195 0 -0.014623912675257169 0.00040371891623634988 0 -0.01470874155484621 0.00039726556839109786 0 -0.014435767582254214 0.00042439884673711205 0 -0.014407947068594138 0.00050693470060334087 0 -0.014470380833359293 0.00049370006679498048 0 -0.014801467506570014 0.000367855883948144 0 -0.014913234127556661 0.00030879683275941195 0 -0.014833754433396434 0.00028844525669634877 0 -0.014666929366477413 0.00041764502905581479 0 -0.01470874155484621 0.00039726556839109786 0 -0.014493570640117493 0.00044601743499243367 0 -0.014549026106795742 0.00047046826837313755 0 -0.014470380833359293 0.00049370006679498048 0 -0.014913234127556661 0.00030879683275941195 0 -0.014857271518504937 0.00022605882415341162 0 -0.014833754433396434 0.00028844525669634877 0 -0.014757781269740235 0.00025400567978403231 0 -0.014857271518504937 0.00022605882415341162 0 -0.014833754433396434 0.00028844525669634877 0 -0.014975785526334946 0.0002680197582166714 0 -0.014896117959535177 0.00020615114911119159 0 -0.014991411608808189 0.00020809598983847726 0 -0.01492842368528066 0.00017899943265562327 0 -0.01498725964302839 0.00016846530414684776 0 -0.014991411608808189 0.00020809598983847726 0 -0.014976709435438813 0.00027010959346091072 0 -0.01492842368528066 0.00017899943265562327 0 -0.014976709435438813 0.00027010959346091072 0 -0.014913234127556661 0.00030879683275941195 0 -0.014857271518504937 0.00022605882415341162 0 -0.01492842368528066 0.00017899943265562327 0 -0.014962821984475112 0.00014079405242781114 0 -0.01498725964302839 0.00016846530414684776 0 -0.014962821984475112 0.00014079405242781114 0 -0.014991732484161144 0.00010194582495246578 0 -0.01498725964302839 0.00016846530414684776 0 -0.01492842368528066 0.00017899943265562327 0 -0.014962821984475112 0.00014079405242781114 0 -0.014945749140005469 0.00011563650752501612 0 -0.014893445887900383 0.00014730361191315147 0 -0.01492842368528066 0.00017899943265562327 0 -0.014945749140005469 0.00011563650752501612 0 -0.014962821984475112 0.00014079405242781114 0 -0.014945749140005469 0.00011563650752501612 0 -0.014991732484161144 0.00010194582495246578 0 -0.014945749140005469 0.00011563650752501612 0 -0.014991732484161144 0.00010194582495246578 0 -0.014974028428205659 4.7821358944790776e-05 0 -0.014991732484161144 0.00010194582495246578 0 -0.01498725964302839 0.00016846530414684776 0 -0.015037291391357557 0.00014881562775546209 0 -0.014991411608808189 0.00020809598983847726 0 -0.01498725964302839 0.00016846530414684776 0 -0.015037291391357557 0.00014881562775546209 0 -0.014883382461676212 0.00014415159838026265 0 -0.014950915024037439 0.00010005692451635959 0 -0.014932428932131172 7.4490803907574556e-05 0 -0.014991732484161144 0.00010194582495246578 0 -0.015037291391357557 0.00014881562775546209 0 -0.015030890914528706 7.554941568482691e-05 0 -0.015006503363260388 0.00010289632199758544 0 -0.014972566097638461 9.0238097594351856e-05 0 -0.015003759019060261 5.0881414271018541e-05 0 -0.014998994051748413 3.0265792174120411e-05 0 -0.015030890914528706 7.554941568482691e-05 0 -0.014991732484161144 0.00010194582495246578 0 -0.015003759019060261 5.0881414271018541e-05 0 -0.015030890914528706 7.554941568482691e-05 0 -0.014991732484161144 0.00010194582495246578 0 -0.015003759019060261 5.0881414271018541e-05 0 -0.014974028428205659 4.7821358944790776e-05 0 -0.015003759019060261 5.0881414271018541e-05 0 -0.014974028428205659 4.7821358944790776e-05 0 -0.014999662490713835 2.1042959856509714e-05 0 -0.015003759019060261 5.0881414271018541e-05 0 -0.014999662490713835 2.1042959856509714e-05 0 -0.014998994051748413 3.0265792174120411e-05 0 -0.014974028428205659 4.7821358944790776e-05 0 -0.014982249067911199 1.038579324483803e-05 0 -0.014999662490713835 2.1042959856509714e-05 0 -0.014916551042930569 7.4032914987825482e-05 0 -0.014945749140005469 0.00011563650752501612 0 -0.014974028428205659 4.7821358944790776e-05 0 -0.01494268862165144 2.2366384419707491e-05 0 -0.014916551042930569 7.4032914987825482e-05 0 -0.014974028428205659 4.7821358944790776e-05 0 -0.01494268862165144 2.2366384419707491e-05 0 -0.014974028428205659 4.7821358944790776e-05 0 -0.014982249067911199 1.038579324483803e-05 0 -0.014982249067911199 1.038579324483803e-05 0 -0.014999988007044272 1.6169140716170654e-09 0 -0.014999662490713835 2.1042959856509714e-05 0 -0.014972779949461945 1.4168404189130486e-06 0 -0.014982249067911199 1.038579324483803e-05 0 -0.014999965216783553 1.3372917140289738e-09 0 -0.014982249067911199 1.038579324483803e-05 0 -0.014999988007044272 1.6169140716170654e-09 0 -0.014999965216783553 1.3372917140289738e-09 0 -0.014999988007044272 1.6169140716170654e-09 0 -0.014999662490713835 2.1042959856509714e-05 0 -0.015000002468067175 1.2936272317466249e-08 0 -0.014999662490713835 2.1042959856509714e-05 0 -0.015000002468067175 1.2936272317466249e-08 0 -0.015000165825630549 1.2183097239808463e-05 0 -0.015000002468067175 1.2936272317466249e-08 0 -0.015000165825630549 1.2183097239808463e-05 0 -0.015000003920052669 5.9321024020073045e-09 0 -0.014999662490713835 2.1042959856509714e-05 0 -0.015000165825630549 1.2183097239808463e-05 0 -0.014998994051748413 3.0265792174120411e-05 0 -0.015000165825630549 1.2183097239808463e-05 0 -0.015005190716274106 9.4195997581842963e-06 0 -0.014998994051748413 3.0265792174120411e-05 0 -0.015005190716274106 9.4195997581842963e-06 0 -0.015014473126781037 2.1991982089333844e-05 0 -0.014998994051748413 3.0265792174120411e-05 0 -0.015000165825630549 1.2183097239808463e-05 0 -0.015005190716274106 9.4195997581842963e-06 0 -0.015000003920052669 5.9321024020073045e-09 0 -0.015005190716274106 9.4195997581842963e-06 0 -0.015002590670765353 1.6959720523171507e-06 0 -0.015003491153687189 1.8007706527675233e-06 0 -0.015000003920052669 5.9321024020073045e-09 0 -0.015002590670765353 1.6959720523171507e-06 0 -0.015000019412873057 4.3563252209519205e-09 0 -0.015005190716274106 9.4195997581842963e-06 0 -0.015000003920052669 5.9321024020073045e-09 0 -0.015002590670765353 1.6959720523171507e-06 0 -0.014466578905211759 -0.0001558712436987882 0 -0.014479562095402231 -0.00012419319745831026 0 -0.014569702231995879 -0.0001906101860206391 0 -0.015000001641080058 7.9481161305245694e-10 0 -0.014999564038085736 -1.0668457903486369e-07 0 -0.01499959908640624 -7.42683267033986e-07 0 -0.014999715406697256 -6.3328968127811184e-08 0 -0.014824526595980323 -1.9247653314859995e-05 0 -0.015002590670765353 1.6959720523171507e-06 0 -0.015000019412873057 4.3563252209519205e-09 0 -0.015001894778950578 1.2947222749375873e-06 0 -0.014856978545913871 -1.4478179065499142e-05 0 -0.014824526595980323 -1.9247653314859995e-05 0 -0.014466578905211759 -0.0001558712436987882 0 -0.014479562095402231 -0.00012419319745831026 0 -0.014508630206884457 -0.00014828012820302424 0 -0.014824526595980323 -1.9247653314859995e-05 0 -0.014731604144646979 -6.2181535380654421e-05 0 -0.015005190716274106 9.4195997581842963e-06 0 -0.015003491153687189 1.8007706527675233e-06 0 -0.015014473126781037 2.1991982089333844e-05 0 -0.014731604144646979 -6.2181535380654421e-05 0 -0.014902476503371164 -0.00016526488937001192 0 -0.014479562095402231 -0.00012419319745831026 0 -0.014508630206884457 -0.00014828012820302424 0 -0.014427787783825726 -0.00023293084907674761 0 -0.014508630206884457 -0.00014828012820302424 0 -0.014427787783825726 -0.00023293084907674761 0 -0.014552257334237035 -0.00028498867139404118 0 -0.014427787783825726 -0.00023293084907674761 0 -0.014552257334237035 -0.00028498867139404118 0 -0.014470169133691309 -0.00035892573684633596 0 -0.015012386220544294 5.7829962135052014e-05 0 -0.014977942469040832 6.8298015979598032e-05 0 -0.014998994051748413 3.0265792174120411e-05 0 -0.014999245954059996 3.1856922987421994e-05 0 -0.014972566097638461 9.0238097594351856e-05 0 -0.014977942469040832 6.8298015979598032e-05 0 -0.014998994051748413 3.0265792174120411e-05 0 -0.014932428932131172 7.4490803907574556e-05 0 -0.015014473126781037 2.1991982089333844e-05 0 -0.015012386220544294 5.7829962135052014e-05 0 -0.014998994051748413 3.0265792174120411e-05 0 -0.014854767494464922 -5.7842048547206571e-05 0 -0.014784115635930769 -0.0001597167675832347 0 -0.014911761757675531 4.1835269156636556e-06 0 -0.014812377293573461 -8.1959148493594949e-05 0 -0.01472046902235247 -0.00010266487005946034 0 -0.0148843600035011 -2.4740934141443086e-05 0 -0.014894784091262946 -7.2946754313576176e-05 0 -0.014905403753261227 -1.1564742690269781e-05 0 -0.014854767494464922 -5.7842048547206571e-05 0 -0.0148843600035011 -2.4740934141443086e-05 0 -0.014876035356647175 -3.1051078135106571e-05 0 -0.014854767494464922 -5.7842048547206571e-05 0 -0.014812377293573461 -8.1959148493594949e-05 0 -0.0148843600035011 -2.4740934141443086e-05 0 -0.014854767494464922 -5.7842048547206571e-05 0 -0.014812377293573461 -8.1959148493594949e-05 0 -0.014784115635930769 -0.0001597167675832347 0 -0.014968928376483621 1.1670790482510033e-05 0 -0.014988473962047714 7.4920768021528439e-06 0 -0.015006611304088516 -4.5522810168850192e-06 0 -0.014968928376483621 1.1670790482510033e-05 0 -0.015006611304088516 -4.5522810168850192e-06 0 -0.014911761757675531 4.1835269156636556e-06 0 -0.014988473962047714 7.4920768021528439e-06 0 -0.015000030389268429 5.1185509914482811e-09 0 -0.01499983156503472 2.5264007160376854e-08 0 -0.014968928376483621 1.1670790482510033e-05 0 -0.014988473962047714 7.4920768021528439e-06 0 -0.01499983156503472 2.5264007160376854e-08 0 -0.014988473962047714 7.4920768021528439e-06 0 -0.015006611304088516 -4.5522810168850192e-06 0 -0.015000030389268429 5.1185509914482811e-09 0 -0.015006611304088516 -4.5522810168850192e-06 0 -0.015000030389268429 5.1185509914482811e-09 0 -0.01499959908640624 -7.42683267033986e-07 0 -0.014784115635930769 -0.0001597167675832347 0 -0.01472046902235247 -0.00010266487005946034 0 -0.014656286872058884 -0.00012398758340070206 0 -0.014812377293573461 -8.1959148493594949e-05 0 -0.014784115635930769 -0.0001597167675832347 0 -0.01472046902235247 -0.00010266487005946034 0 -0.014594608484267845 -0.00011231428970417413 0 -0.014656286872058884 -0.00012398758340070206 0 -0.014628599991553443 -6.7085612233056202e-05 0 -0.01472046902235247 -0.00010266487005946034 0 -0.014656286872058884 -0.00012398758340070206 0 -0.014628599991553443 -6.7085612233056202e-05 0 -0.014594608484267845 -0.00011231428970417413 0 -0.014656286872058884 -0.00012398758340070206 0 -0.014569702231995879 -0.0001906101860206391 0 -0.014894784091262946 -7.2946754313576176e-05 0 -0.014766507153484544 -0.00010454044236943482 0 -0.015000030389268429 5.1185509914482811e-09 0 -0.01499959908640624 -7.42683267033986e-07 0 -0.014999990338926836 -3.0549815708473372e-09 0 -0.014784115635930769 -0.0001597167675832347 0 -0.014656286872058884 -0.00012398758340070206 0 -0.014569702231995879 -0.0001906101860206391 0 -0.015000001641080058 7.9481161305245694e-10 0 -0.01499959908640624 -7.42683267033986e-07 0 -0.014999990338926836 -3.0549815708473372e-09 0 -0.014824526595980323 -1.9247653314859995e-05 0 -0.014766507153484544 -0.00010454044236943482 0 -0.014479562095402231 -0.00012419319745831026 0 -0.014594608484267845 -0.00011231428970417413 0 -0.014569702231995879 -0.0001906101860206391 0 -0.014479562095402231 -0.00012419319745831026 0 -0.014594608484267845 -0.00011231428970417413 0 -0.014639950585119341 -9.5133983554245615e-05 0 -0.014479562095402231 -0.00012419319745831026 0 -0.014427787783825726 -0.00023293084907674761 0 -0.014317881447829695 -0.0001809390905809173 0 -0.014475606026381154 -0.00013006051871791764 0 -0.014471157641817518 -0.00014819991428217461 0 -0.014427787783825726 -0.00023293084907674761 0 -0.014290634354746984 -0.00028193947251183 0 -0.014349583044224587 -0.00036662024078573489 0 -0.014427787783825726 -0.00023293084907674761 0 -0.014290634354746984 -0.00028193947251183 0 -0.014317881447829695 -0.0001809390905809173 0 -0.014471157641817518 -0.00014819991428217461 0 -0.01436443336422082 -0.00028782772171647233 0 -0.014290634354746984 -0.00028193947251183 0 -0.014317881447829695 -0.0001809390905809173 0 -0.01416982010548583 -0.00027046906573073137 0 -0.014594608484267845 -0.00011231428970417413 0 -0.014639950585119341 -9.5133983554245615e-05 0 -0.014628599991553443 -6.7085612233056202e-05 0 -0.014639950585119341 -9.5133983554245615e-05 0 -0.014628599991553443 -6.7085612233056202e-05 0 -0.014570805417527916 -0.00029678359349155636 0 -0.014630586780343079 -6.6372669703040712e-05 0 -0.014619129369208153 -8.9957036610908728e-05 0 -0.014628599991553443 -6.7085612233056202e-05 0 -0.014570805417527916 -0.00029678359349155636 0 -0.014362996227461991 -0.00013779217996838188 0 -0.01472046902235247 -0.00010266487005946034 0 -0.014628599991553443 -6.7085612233056202e-05 0 -0.0148843600035011 -2.4740934141443086e-05 0 -0.014379558195606729 -0.00033007024993189903 0 -0.014362996227461991 -0.00013779217996838188 0 -0.014225042586155368 -0.00030280534583699322 0 -0.014570805417527916 -0.00029678359349155636 0 -0.014379558195606729 -0.00033007024993189903 0 -0.014362996227461991 -0.00013779217996838188 0 -0.014213906662489442 -0.00043654341079358747 0 -0.014088143005101771 -0.0006957083227920282 0 -0.014001283487739005 -0.00050930974259952863 0 -0.014028647621341987 -0.000382939722881285 0 -0.013897382952084734 -0.00050502669945956329 0 -0.014001283487739005 -0.00050930974259952863 0 -0.014028647621341987 -0.000382939722881285 0 -0.014068519510976187 -0.000456008085987083 0 -0.014001283487739005 -0.00050930974259952863 0 -0.014068519510976187 -0.000456008085987083 0 -0.014058730215427801 -0.00051025558711554437 0 -0.014379558195606729 -0.00033007024993189903 0 -0.014401677032072575 -0.00051412820181777233 0 -0.014215648015083029 -0.00046357512429219419 0 -0.01436443336422082 -0.00028782772171647233 0 -0.014213906662489442 -0.00043654341079358747 0 -0.014570805417527916 -0.00029678359349155636 0 -0.014379558195606729 -0.00033007024993189903 0 -0.014401677032072575 -0.00051412820181777233 0 -0.01416982010548583 -0.00027046906573073137 0 -0.014028647621341987 -0.000382939722881285 0 -0.01418360851581313 -0.00039542361529046484 0 -0.014028647621341987 -0.000382939722881285 0 -0.014068519510976187 -0.000456008085987083 0 -0.01418360851581313 -0.00039542361529046484 0 -0.014068519510976187 -0.000456008085987083 0 -0.014127456997852162 -0.00049349817381941512 0 -0.01418360851581313 -0.00039542361529046484 0 -0.014068519510976187 -0.000456008085987083 0 -0.014058730215427801 -0.00051025558711554437 0 -0.014127456997852162 -0.00049349817381941512 0 -0.014127456997852162 -0.00049349817381941512 0 -0.01418360851581313 -0.00039542361529046484 0 -0.014243844456919031 -0.00053362696879146257 0 -0.01418360851581313 -0.00039542361529046484 0 -0.014349583044224587 -0.00036662024078573489 0 -0.014243844456919031 -0.00053362696879146257 0 -0.014290634354746984 -0.00028193947251183 0 -0.01418360851581313 -0.00039542361529046484 0 -0.014349583044224587 -0.00036662024078573489 0 -0.014290634354746984 -0.00028193947251183 0 -0.01416982010548583 -0.00027046906573073137 0 -0.01418360851581313 -0.00039542361529046484 0 -0.014349583044224587 -0.00036662024078573489 0 -0.014243844456919031 -0.00053362696879146257 0 -0.014427265908208427 -0.00048069727618668695 0 -0.013023053695799397 -0.00029075747305505796 0 -0.012963134894317612 -0.00030332329173789451 0 -0.011712227492670157 -0.00021708245175915659 0 -0.01160420487480791 -7.9401042515053185e-05 0 -0.011829014548065106 -3.5604888481027865e-05 0 -0.011712227492670157 -0.00021708245175915659 0 -0.011571523787718868 -0.00023529620261379327 0 -0.01160420487480791 -7.9401042515053185e-05 0 -0.011571523787718868 -0.00023529620261379327 0 -0.01160420487480791 -7.9401042515053185e-05 0 -0.011458423796119034 -0.00016422517160400536 0 -0.01160420487480791 -7.9401042515053185e-05 0 -0.011458423796119034 -0.00016422517160400536 0 -0.011387670808869682 -0.00012517566679278564 0 -0.014127456997852162 -0.00049349817381941512 0 -0.014243844456919031 -0.00053362696879146257 0 -0.014038086806582773 -0.00058267696722892615 0 -0.013023053695799397 -0.00029075747305505796 0 -0.012419406210635621 -0.0003716155146606509 0 -0.014058730215427801 -0.00051025558711554437 0 -0.014127456997852162 -0.00049349817381941512 0 -0.014038086806582773 -0.00058267696722892615 0 -0.011318729849516467 2.6580838791265951e-06 0 -0.012419406210635621 -0.0003716155146606509 0 -0.011458423796119034 -0.00016422517160400536 0 -0.0113400552131397 -0.0002512913695160001 0 -0.011374492990310811 -0.00011640308278287293 0 -0.011571523787718868 -0.00023529620261379327 0 -0.011458423796119034 -0.00016422517160400536 0 -0.011443919718758622 -0.00027503832687555014 0 -0.011458423796119034 -0.00016422517160400536 0 -0.011443919718758622 -0.00027503832687555014 0 -0.0113400552131397 -0.0002512913695160001 0 -0.0113400552131397 -0.0002512913695160001 0 -0.011374492990310811 -0.00011640308278287293 0 -0.011230714975156937 -0.00014327792340672685 0 -0.0113400552131397 -0.0002512913695160001 0 -0.011227595077828353 -0.00032284355513891792 0 -0.011230714975156937 -0.00014327792340672685 0 -0.013718551146746664 -0.00069476179217717662 0 -0.013034986396890925 -0.00074410662019303714 0 -0.012419406210635621 -0.0003716155146606509 0 -0.013034986396890925 -0.00074410662019303714 0 -0.012841107281297032 -0.00057028158305911234 0 -0.013057652447197447 -0.00068907797723602329 0 -0.013214179057234062 -0.00050166905151820219 0 -0.014001283487739005 -0.00050930974259952863 0 -0.014038086806582773 -0.00058267696722892615 0 -0.013969038175222185 -0.00054489597399564823 0 -0.012419406210635621 -0.0003716155146606509 0 -0.013718551146746664 -0.00069476179217717662 0 -0.014001283487739005 -0.00050930974259952863 0 -0.014058730215427801 -0.00051025558711554437 0 -0.014038086806582773 -0.00058267696722892615 0 -0.013899663954118447 -0.00052773635610047366 0 -0.013718551146746664 -0.00069476179217717662 0 -0.014001283487739005 -0.00050930974259952863 0 -0.013971547961053354 -0.00054553459120629689 0 -0.013897382952084734 -0.00050502669945956329 0 -0.014968527942056714 0.00011628625637386757 0 -0.014993210092214184 0.0001393675784723656 0 -0.014984305667184485 9.1882898522180283e-05 0 -0.013969238054440445 8.6100421447715853e-06 0 -0.015215177525920975 0.00019652061733917191 0 -0.014968527942056714 0.00011628625637386757 0 -0.014993210092214184 0.0001393675784723656 0 -0.014946941553819083 0.00013567227242436579 0 -0.012060731300285024 8.4793853783595119e-06 0 -0.011951784745438364 -7.832720373230541e-05 0 -0.012025854169237135 -7.2084237108414523e-05 0 -0.014933383172096332 0.00014686868433173243 0 -0.014943796344772723 0.00014449262264803491 0 -0.014930621833606838 0.00013876403834280402 0 -0.014933383172096332 0.00014686868433173243 0 -0.014943796344772723 0.00014449262264803491 0 -0.014946941553819083 0.00013567227242436579 0 -0.014943796344772723 0.00014449262264803491 0 -0.014946941553819083 0.00013567227242436579 0 -0.014923637049370891 0.0001634694408173673 0 -0.014883382461676212 0.00014415159838026265 0 -0.014946941553819083 0.00013567227242436579 0 -0.014923637049370891 0.0001634694408173673 0 -0.014883382461676212 0.00014415159838026265 0 -0.014946941553819083 0.00013567227242436579 0 -0.014950915024037439 0.00010005692451635959 0 -0.014968527942056714 0.00011628625637386757 0 -0.014946941553819083 0.00013567227242436579 0 -0.014950915024037439 0.00010005692451635959 0 -0.014968527942056714 0.00011628625637386757 0 -0.014950915024037439 0.00010005692451635959 0 -0.014984305667184485 9.1882898522180283e-05 0 -0.014977942469040832 6.8298015979598032e-05 0 -0.014950915024037439 0.00010005692451635959 0 -0.014932428932131172 7.4490803907574556e-05 0 -0.014977942469040832 6.8298015979598032e-05 0 -0.014950915024037439 0.00010005692451635959 0 -0.014984305667184485 9.1882898522180283e-05 0 -0.015012386220544294 5.7829962135052014e-05 0 -0.014977942469040832 6.8298015979598032e-05 0 -0.014984305667184485 9.1882898522180283e-05 0 -0.015012386220544294 5.7829962135052014e-05 0 -0.014993210092214184 0.0001393675784723656 0 -0.014984305667184485 9.1882898522180283e-05 0 -0.014902476503371164 -0.00016526488937001192 0 -0.013969238054440445 8.6100421447715853e-06 0 -0.014552257334237035 -0.00028498867139404118 0 -0.014589118664734455 -0.00043575431907884012 0 -0.014470169133691309 -0.00035892573684633596 0 -0.014427787783825726 -0.00023293084907674761 0 -0.014349583044224587 -0.00036662024078573489 0 -0.014470169133691309 -0.00035892573684633596 0 -0.014349583044224587 -0.00036662024078573489 0 -0.014470169133691309 -0.00035892573684633596 0 -0.014427265908208427 -0.00048069727618668695 0 -0.014589118664734455 -0.00043575431907884012 0 -0.014470169133691309 -0.00035892573684633596 0 -0.014427265908208427 -0.00048069727618668695 0 -0.012060731300285024 8.4793853783595119e-06 0 -0.011829014548065106 -3.5604888481027865e-05 0 -0.011951784745438364 -7.832720373230541e-05 0 -0.013969238054440445 8.6100421447715853e-06 0 -0.012963134894317612 -0.00030332329173789451 0 -0.011951784745438364 -7.832720373230541e-05 0 -0.012015512776247746 -0.00011001671158680466 0 -0.012025854169237135 -7.2084237108414523e-05 0 -0.011951784745438364 -7.832720373230541e-05 0 -0.011871164375428227 -0.00019329652306530328 0 -0.012007630005576244 -0.00017794490118911707 0 -0.011829014548065106 -3.5604888481027865e-05 0 -0.011951784745438364 -7.832720373230541e-05 0 -0.011871164375428227 -0.00019329652306530328 0 -0.011951784745438364 -7.832720373230541e-05 0 -0.012007630005576244 -0.00017794490118911707 0 -0.012015512776247746 -0.00011001671158680466 0 -0.011712227492670157 -0.00021708245175915659 0 -0.011829014548065106 -3.5604888481027865e-05 0 -0.011871164375428227 -0.00019329652306530328 0 -0.011712227492670157 -0.00021708245175915659 0 -0.011871164375428227 -0.00019329652306530328 0 -0.011809853006402001 -0.00032122285568414406 0 -0.011871164375428227 -0.00019329652306530328 0 -0.011944795606220363 -0.00031876420369343639 0 -0.011809853006402001 -0.00032122285568414406 0 -0.011871164375428227 -0.00019329652306530328 0 -0.012007630005576244 -0.00017794490118911707 0 -0.011944795606220363 -0.00031876420369343639 0 -0.012007630005576244 -0.00017794490118911707 0 -0.012121554925552442 -0.00032558669439034042 0 -0.011944795606220363 -0.00031876420369343639 0 -0.012007630005576244 -0.00017794490118911707 0 -0.012083180930076995 -0.00011324959975401604 0 -0.012121554925552442 -0.00032558669439034042 0 -0.013371314396972455 7.8796104649759941e-07 0 -0.012607324412579198 -0.00012347421037148007 0 -0.012007630005576244 -0.00017794490118911707 0 -0.012015512776247746 -0.00011001671158680466 0 -0.012083180930076995 -0.00011324959975401604 0 -0.013969238054440445 8.6100421447715853e-06 0 -0.013371314396972455 7.8796104649759941e-07 0 -0.012060731300285024 8.4793853783595119e-06 0 -0.012083180930076995 -0.00011324959975401604 0 -0.012025854169237135 -7.2084237108414523e-05 0 -0.012015512776247746 -0.00011001671158680466 0 -0.012083180930076995 -0.00011324959975401604 0 -0.012025854169237135 -7.2084237108414523e-05 0 -0.014554405326109517 0.00041803978437504602 0 -0.014328213979283215 0.00030561983431694721 0 -0.014895411882587962 0.00020597571228777065 0 -0.014923637049370891 0.0001634694408173673 0 -0.014940473832292916 0.00019144488234848557 0 -0.014943796344772723 0.00014449262264803491 0 -0.014930621833606838 0.00013876403834280402 0 -0.014933350917065047 0.00013924569512236475 0 -0.014906188160350428 6.8382477871647916e-05 0 -0.014328213979283215 0.00030561983431694721 0 -0.014943796344772723 0.00014449262264803491 0 -0.014923637049370891 0.0001634694408173673 0 -0.014940473832292916 0.00019144488234848557 0 -0.013371314396972455 7.8796104649759941e-07 0 -0.014328213979283215 0.00030561983431694721 0 -0.013301451029064411 8.1961616549257392e-05 0 -0.013288195421744951 4.1018194865890289e-05 0 -0.01329921394949542 3.8507427019460403e-05 0 -0.014328213979283215 0.00030561983431694721 0 -0.01361461368546291 0.0002984179436952111 0 -0.01418663099792144 0.00064411028478210657 0 -0.014107164279687194 0.00065938452450334196 0 -0.014124087927274443 0.00052473809489290469 0 -0.013288050716761068 8.4542619102225897e-05 0 -0.013301451029064411 8.1961616549257392e-05 0 -0.013288195421744951 4.1018194865890289e-05 0 -0.013288195421744951 4.1018194865890289e-05 0 -0.01329921394949542 3.8507427019460403e-05 0 -0.013285779188166983 -2.6883738808000231e-05 0 -0.012121554925552442 -0.00032558669439034042 0 -0.01203224118970361 -0.00045631519102548314 0 -0.011944795606220363 -0.00031876420369343639 0 -0.012121554925552442 -0.00032558669439034042 0 -0.01203224118970361 -0.00045631519102548314 0 -0.012157740000812474 -0.00053446424301176383 0 -0.012607324412579198 -0.00012347421037148007 0 -0.012709525624344759 -0.00031597097720567353 0 -0.01361461368546291 0.0002984179436952111 0 -0.013825333718939492 0.00020980020988520977 0 -0.01329921394949542 3.8507427019460403e-05 0 -0.013285779188166983 -2.6883738808000231e-05 0 -0.01329317558671133 -2.8852949700105423e-05 0 -0.01203224118970361 -0.00045631519102548314 0 -0.012157740000812474 -0.00053446424301176383 0 -0.012067411425062338 -0.00054436644761274224 0 -0.01327747362549044 -0.00012019554600647615 0 -0.013285779188166983 -2.6883738808000231e-05 0 -0.01329317558671133 -2.8852949700105423e-05 0 -0.012157740000812474 -0.00053446424301176383 0 -0.012112203098275921 -0.00056686670619582487 0 -0.012125422937395288 -0.00061661171801984745 0 -0.012157740000812474 -0.00053446424301176383 0 -0.012112203098275921 -0.00056686670619582487 0 -0.012067411425062338 -0.00054436644761274224 0 -0.01203224118970361 -0.00045631519102548314 0 -0.012067411425062338 -0.00054436644761274224 0 -0.011971914658010946 -0.00055684543269121341 0 -0.012112203098275921 -0.00056686670619582487 0 -0.012042010744861992 -0.00062212057200398442 0 -0.012031103635562994 -0.00071967566514642288 0 -0.012067411425062338 -0.00054436644761274224 0 -0.011971914658010946 -0.00055684543269121341 0 -0.012042010744861992 -0.00062212057200398442 0 -0.011971914658010946 -0.00055684543269121341 0 -0.01196991549678356 -0.00064005025993761947 0 -0.012042010744861992 -0.00062212057200398442 0 -0.012112203098275921 -0.00056686670619582487 0 -0.012067411425062338 -0.00054436644761274224 0 -0.012042010744861992 -0.00062212057200398442 0 -0.012042010744861992 -0.00062212057200398442 0 -0.012011752039669338 -0.00066890935800268151 0 -0.012031103635562994 -0.00071967566514642288 0 -0.01220184543014775 -0.00052897133999056005 0 -0.011186773085111911 -0.00043055109968547764 0 -0.01196991549678356 -0.00064005025993761947 0 -0.012042010744861992 -0.00062212057200398442 0 -0.012011752039669338 -0.00066890935800268151 0 -0.01196991549678356 -0.00064005025993761947 0 -0.012004292227137574 -0.00070849491914310478 0 -0.011926738261897538 -0.00069080190892666267 0 -0.01196991549678356 -0.00064005025993761947 0 -0.012011752039669338 -0.00066890935800268151 0 -0.012004292227137574 -0.00070849491914310478 0 -0.012011752039669338 -0.00066890935800268151 0 -0.012004292227137574 -0.00070849491914310478 0 -0.012031103635562994 -0.00071967566514642288 0 -0.012004292227137574 -0.00070849491914310478 0 -0.012035465457442777 -0.00072150518376534875 0 -0.011894591936241346 -0.00075546796517386792 0 -0.011465433127837221 -0.00054363712828253685 0 -0.011186773085111911 -0.00043055109968547764 0 -0.012112203098275921 -0.00056686670619582487 0 -0.012068149698144029 -0.00062494067229518419 0 -0.012125422937395288 -0.00061661171801984745 0 -0.0121762673468003 -0.00066729847102921117 0 -0.012068149698144029 -0.00062494067229518419 0 -0.012125422937395288 -0.00061661171801984745 0 -0.012170151325404723 -0.00064535305058703151 0 -0.012157740000812474 -0.00053446424301176383 0 -0.012125422937395288 -0.00061661171801984745 0 -0.011813908480295877 -8.2162351084576183e-05 0 -0.011186773085111911 -0.00043055109968547764 0 -0.011774401812050772 -0.00077286209444770825 0 -0.011753389579090058 -0.00055896496322486197 0 -0.011622354300456387 -0.00062184315511640254 0 -0.011856375920131508 -0.00070005963240039274 0 -0.011801563415041721 -0.0006890276831675098 0 -0.011774401812050772 -0.00077286209444770825 0 -0.011852280914738604 -0.00063374901470819773 0 -0.011753389579090058 -0.00055896496322486197 0 -0.011682971473456424 -0.00079268975825295171 0 -0.011894591936241346 -0.00075546796517386792 0 -0.011852280914738604 -0.00063374901470819773 0 -0.012004292227137574 -0.00070849491914310478 0 -0.011894591936241346 -0.00075546796517386792 0 -0.011926738261897538 -0.00069080190892666267 0 -0.01196991549678356 -0.00064005025993761947 0 -0.011926738261897538 -0.00069080190892666267 0 -0.011852280914738604 -0.00063374901470819773 0 -0.011894591936241346 -0.00075546796517386792 0 -0.011926738261897538 -0.00069080190892666267 0 -0.011852280914738604 -0.00063374901470819773 0 -0.011971914658010946 -0.00055684543269121341 0 -0.011852280914738604 -0.00063374901470819773 0 -0.011856201073869621 -0.00046240380862714854 0 -0.011971914658010946 -0.00055684543269121341 0 -0.01196991549678356 -0.00064005025993761947 0 -0.011852280914738604 -0.00063374901470819773 0 -0.011852280914738604 -0.00063374901470819773 0 -0.011753389579090058 -0.00055896496322486197 0 -0.011856201073869621 -0.00046240380862714854 0 -0.011753389579090058 -0.00055896496322486197 0 -0.011856201073869621 -0.00046240380862714854 0 -0.01166552080589515 -0.000415699619835625 0 -0.01203224118970361 -0.00045631519102548314 0 -0.011856201073869621 -0.00046240380862714854 0 -0.011944795606220363 -0.00031876420369343639 0 -0.01203224118970361 -0.00045631519102548314 0 -0.011971914658010946 -0.00055684543269121341 0 -0.011856201073869621 -0.00046240380862714854 0 -0.011856201073869621 -0.00046240380862714854 0 -0.011944795606220363 -0.00031876420369343639 0 -0.011809853006402001 -0.00032122285568414406 0 -0.011856201073869621 -0.00046240380862714854 0 -0.011809853006402001 -0.00032122285568414406 0 -0.01166552080589515 -0.000415699619835625 0 -0.011712227492670157 -0.00021708245175915659 0 -0.011571523787718868 -0.00023529620261379327 0 -0.011677925759386799 -0.00042724135564252961 0 -0.011712227492670157 -0.00021708245175915659 0 -0.011809853006402001 -0.00032122285568414406 0 -0.01166552080589515 -0.000415699619835625 0 -0.011708267596021595 -0.0002292330448386196 0 -0.011672221578664236 -0.00041891854482660034 0 -0.011571523787718868 -0.00023529620261379327 0 -0.01150180178151438 -0.00036545212275296491 0 -0.011677925759386799 -0.00042724135564252961 0 -0.011571523787718868 -0.00023529620261379327 0 -0.011443919718758622 -0.00027503832687555014 0 -0.01150180178151438 -0.00036545212275296491 0 -0.011677925759386799 -0.00042724135564252961 0 -0.011473147419784533 -0.00053535092180024765 0 -0.011636146493341831 -0.00064183925746724105 0 -0.01150180178151438 -0.00036545212275296491 0 -0.011677925759386799 -0.00042724135564252961 0 -0.011473147419784533 -0.00053535092180024765 0 -0.011672221578664236 -0.00041891854482660034 0 -0.011628992064566813 -0.00063483550110016737 0 -0.0113400552131397 -0.0002512913695160001 0 -0.011346098914847157 -0.00039715171838690952 0 -0.011227595077828353 -0.00032284355513891792 0 -0.011346098914847157 -0.00039715171838690952 0 -0.011198196217869933 -0.00044944910069634328 0 -0.011227595077828353 -0.00032284355513891792 0 -0.011443919718758622 -0.00027503832687555014 0 -0.0113400552131397 -0.0002512913695160001 0 -0.011346098914847157 -0.00039715171838690952 0 -0.011443919718758622 -0.00027503832687555014 0 -0.01150180178151438 -0.00036545212275296491 0 -0.011346098914847157 -0.00039715171838690952 0 -0.011346098914847157 -0.00039715171838690952 0 -0.011473147419784533 -0.00053535092180024765 0 -0.011266253964806707 -0.0005757072629861274 0 -0.01150180178151438 -0.00036545212275296491 0 -0.011346098914847157 -0.00039715171838690952 0 -0.011473147419784533 -0.00053535092180024765 0 -0.011346098914847157 -0.00039715171838690952 0 -0.011266253964806707 -0.0005757072629861274 0 -0.011198196217869933 -0.00044944910069634328 0 -0.011266253964806707 -0.0005757072629861274 0 -0.011270236917054153 -0.00069907601423965034 0 -0.01114328872853527 -0.00071454218832755774 0 -0.011266253964806707 -0.0005757072629861274 0 -0.011375594569505671 -0.00066562060887675599 0 -0.011270236917054153 -0.00069907601423965034 0 -0.011473147419784533 -0.00053535092180024765 0 -0.011266253964806707 -0.0005757072629861274 0 -0.011375594569505671 -0.00066562060887675599 0 -0.011473147419784533 -0.00053535092180024765 0 -0.011375594569505671 -0.00066562060887675599 0 -0.011508402465109169 -0.00068196311689401427 0 -0.011375594569505671 -0.00066562060887675599 0 -0.011419898751743067 -0.00075752885545556797 0 -0.011508402465109169 -0.00068196311689401427 0 -0.011419898751743067 -0.00075752885545556797 0 -0.011318673583552361 -0.00076904520454389462 0 -0.011352006005527755 -0.00082880976425981972 0 -0.011375594569505671 -0.00066562060887675599 0 -0.011419898751743067 -0.00075752885545556797 0 -0.011318673583552361 -0.00076904520454389462 0 -0.011375594569505671 -0.00066562060887675599 0 -0.011318673583552361 -0.00076904520454389462 0 -0.011270236917054153 -0.00069907601423965034 0 -0.011318673583552361 -0.00076904520454389462 0 -0.011229208261840554 -0.00079291778202773161 0 -0.011267570114215366 -0.00083532705698829946 0 -0.011318673583552361 -0.00076904520454389462 0 -0.011229208261840554 -0.00079291778202773161 0 -0.011270236917054153 -0.00069907601423965034 0 -0.011753389579090058 -0.00055896496322486197 0 -0.01166552080589515 -0.000415699619835625 0 -0.011622354300456387 -0.00062184315511640254 0 -0.011473147419784533 -0.00053535092180024765 0 -0.011636146493341831 -0.00064183925746724105 0 -0.011508402465109169 -0.00068196311689401427 0 -0.011508402465109169 -0.00068196311689401427 0 -0.011590451754918959 -0.00084586401750387562 0 -0.011493552563716336 -0.00079737238609974578 0 -0.011636146493341831 -0.00064183925746724105 0 -0.011508402465109169 -0.00068196311689401427 0 -0.011590451754918959 -0.00084586401750387562 0 -0.011419898751743067 -0.00075752885545556797 0 -0.011508402465109169 -0.00068196311689401427 0 -0.011493552563716336 -0.00079737238609974578 0 -0.011774401812050772 -0.00077286209444770825 0 -0.011622354300456387 -0.00062184315511640254 0 -0.011590451754918959 -0.00084586401750387562 0 -0.011628992064566813 -0.00063483550110016737 0 -0.011593931724185588 -0.00083282872063267569 0 -0.011774401812050772 -0.00077286209444770825 0 -0.011590451754918959 -0.00084586401750387562 0 -0.011676525207270064 -0.00091401137200917309 0 -0.011590451754918959 -0.00084586401750387562 0 -0.011474924074761866 -0.00091841917437967982 0 -0.011676525207270064 -0.00091401137200917309 0 -0.011188219329383688 -0.00094270283582551049 0 -0.010275653892540124 -0.00086737320060986754 0 -0.011493552563716336 -0.00079737238609974578 0 -0.01149831572920265 -0.00085302552666289655 0 -0.011430206516095758 -0.00085013112053270584 0 -0.011590451754918959 -0.00084586401750387562 0 -0.011493552563716336 -0.00079737238609974578 0 -0.01149831572920265 -0.00085302552666289655 0 -0.01149831572920265 -0.00085302552666289655 0 -0.011474924074761866 -0.00091841917437967982 0 -0.011430206516095758 -0.00085013112053270584 0 -0.011590451754918959 -0.00084586401750387562 0 -0.01149831572920265 -0.00085302552666289655 0 -0.011474924074761866 -0.00091841917437967982 0 -0.0088916781294274792 -0.0011137065300313575 0 -0.0089252638383105713 -0.0010765420780972184 0 -0.0088335970283086214 -0.0010560047030127508 0 -0.010664289395684552 -0.00095503781825085699 0 -0.01067539245189539 -0.00087750208989397155 0 -0.0099724233438425094 -0.00084483538401917263 0 -0.0088916781294274792 -0.0011137065300313575 0 -0.0087997563389561814 -0.0011083880185918586 0 -0.0088335970283086214 -0.0010560047030127508 0 -0.0098552142122968513 -0.00099858514312494828 0 -0.0090931590765775377 -0.00094656323650254214 0 -0.010664289395684552 -0.00095503781825085699 0 -0.0099143276118726191 -0.00092728763790972987 0 -0.0099724233438425094 -0.00084483538401917263 0 -0.0079835026023605798 -0.0008730367343047664 0 -0.0078616439526282451 -0.00068345518328439907 0 -0.0076300939232169839 -0.0010229513209862842 0 -0.0090931590765775377 -0.00094656323650254214 0 -0.0078637950269443441 -0.0011199399775037114 0 -0.0079381926233431585 -0.00061647543530631596 0 -0.0078938982835851709 -0.00068213093883223524 0 -0.0082053668007658152 -0.00068782647240834692 0 -0.010275653892540124 -0.00086737320060986754 0 -0.0090931590765775377 -0.00094656323650254214 0 -0.010664289395684552 -0.00095503781825085699 0 -0.011232683334387771 -0.00092363943737963216 0 -0.01122003407804744 -0.00088818074442696237 0 -0.011232683334387771 -0.00092363943737963216 0 -0.01122003407804744 -0.00088818074442696237 0 -0.011176959032092338 -0.00090056575557795587 0 -0.011232683334387771 -0.00092363943737963216 0 -0.01120899115142544 -0.00086171470710243853 0 -0.011267570114215366 -0.00083532705698829946 0 -0.011232683334387771 -0.00092363943737963216 0 -0.01120899115142544 -0.00086171470710243853 0 -0.011176959032092338 -0.00090056575557795587 0 -0.011229208261840554 -0.00079291778202773161 0 -0.01120899115142544 -0.00086171470710243853 0 -0.011267570114215366 -0.00083532705698829946 0 -0.011232683334387771 -0.00092363943737963216 0 -0.011267570114215366 -0.00083532705698829946 0 -0.011352006005527755 -0.00082880976425981972 0 -0.011318673583552361 -0.00076904520454389462 0 -0.011267570114215366 -0.00083532705698829946 0 -0.011352006005527755 -0.00082880976425981972 0 -0.011232683334387771 -0.00092363943737963216 0 -0.011352006005527755 -0.00082880976425981972 0 -0.011430206516095758 -0.00085013112053270584 0 -0.011474924074761866 -0.00091841917437967982 0 -0.011232683334387771 -0.00092363943737963216 0 -0.011430206516095758 -0.00085013112053270584 0 -0.011188219329383688 -0.00094270283582551049 0 -0.011169541182613523 -0.00092424340142626912 0 -0.011419898751743067 -0.00075752885545556797 0 -0.011352006005527755 -0.00082880976425981972 0 -0.011430206516095758 -0.00085013112053270584 0 -0.011419898751743067 -0.00075752885545556797 0 -0.011493552563716336 -0.00079737238609974578 0 -0.011430206516095758 -0.00085013112053270584 0 -0.0098552142122968513 -0.00099858514312494828 0 -0.010037627603412955 -0.0010086623741983631 0 -0.0088916781294274792 -0.0011137065300313575 0 -0.0089252638383105713 -0.0010765420780972184 0 -0.0089792202700206304 -0.0011191434260964797 0 -0.010664289395684552 -0.00095503781825085699 0 -0.01067539245189539 -0.00087750208989397155 0 -0.01122003407804744 -0.00088818074442696237 0 -0.0089252638383105713 -0.0010765420780972184 0 -0.0089792202700206304 -0.0011191434260964797 0 -0.0090079765113091816 -0.0011006560222345586 0 -0.0080462458409467554 -0.0012714077457026854 0 -0.0080390192818174822 -0.0013215629593788412 0 -0.0070254024099866827 -0.0015067677703897418 0 -0.0070259334412267485 -0.001524634239151806 0 -0.0070233115238521699 -0.0015341292497494479 0 -0.0070904997899848389 -0.0014304196285868558 0 -0.0070254024099866827 -0.0015067677703897418 0 -0.0070233115238521699 -0.0015341292497494479 0 -0.0070904997899848389 -0.0014304196285868558 0 -0.0070254024099866827 -0.0015067677703897418 0 -0.0072048717293474 -0.0014305527588746522 0 -0.0070254024099866827 -0.0015067677703897418 0 -0.0070157101706889323 -0.0015862887379836945 0 -0.007014884405580765 -0.0015392987222089701 0 -0.0070254024099866827 -0.0015067677703897418 0 -0.0070157101706889323 -0.0015862887379836945 0 -0.0072048717293474 -0.0014305527588746522 0 -0.0070254024099866827 -0.0015067677703897418 0 -0.0070259334412267485 -0.001524634239151806 0 -0.007014884405580765 -0.0015392987222089701 0 -0.0076300939232169839 -0.0010229513209862842 0 -0.0080956414416955107 -0.0011274153579999406 0 -0.0079979755282486228 -0.00099083429140532728 0 -0.0078637950269443441 -0.0011199399775037114 0 -0.0079302385823618836 -0.0010896162322449627 0 -0.0076822583441305834 -0.0013489962706248386 0 -0.0074537333916232257 -0.0010173982763930878 0 -0.0080956414416955107 -0.0011274153579999406 0 -0.0079835026023605798 -0.0008730367343047664 0 -0.0076300939232169839 -0.0010229513209862842 0 -0.0079979755282486228 -0.00099083429140532728 0 -0.0076822583441305834 -0.0013489962706248386 0 -0.0074537333916232257 -0.0010173982763930878 0 -0.0072048717293474 -0.0014305527588746522 0 -0.0070904997899848389 -0.0014304196285868558 0 -0.0072342283667534962 -0.0013924695388985503 0 -0.0072048717293474 -0.0014305527588746522 0 -0.0080462458409467554 -0.0012714077457026854 0 -0.0078637950269443441 -0.0011199399775037114 0 -0.0078637950269443441 -0.0011199399775037114 0 -0.0071789686076196395 -0.0015009198584944338 0 -0.0070157101706889323 -0.0015862887379836945 0 -0.0074540810437232433 -0.0015964343580869441 0 -0.0075375988124808139 -0.0019029940137181779 0 -0.0070157101706889323 -0.0015862887379836945 0 -0.0072048717293474 -0.0014305527588746522 0 -0.0074540810437232433 -0.0015964343580869441 0 -0.0076822583441305834 -0.0013489962706248386 0 -0.0072048717293474 -0.0014305527588746522 0 -0.0074540810437232433 -0.0015964343580869441 0 -0.0074540810437232433 -0.0015964343580869441 0 -0.0078390522233037583 -0.0016880005050319863 0 -0.0075375988124808139 -0.0019029940137181779 0 -0.0076822583441305834 -0.0013489962706248386 0 -0.0078390522233037583 -0.0016880005050319863 0 -0.0080956414416955107 -0.0011274153579999406 0 -0.0076822583441305834 -0.0013489962706248386 0 -0.0074540810437232433 -0.0015964343580869441 0 -0.0078390522233037583 -0.0016880005050319863 0 -0.0078390522233037583 -0.0016880005050319863 0 -0.0081914724572211082 -0.0017000233145114813 0 -0.0080334987485685787 -0.0018534248390665651 0 -0.0078390522233037583 -0.0016880005050319863 0 -0.008270677839349044 -0.0013861366674092473 0 -0.0082624174810939695 -0.00094713127069765172 0 -0.0078390522233037583 -0.0016880005050319863 0 -0.0081914724572211082 -0.0017000233145114813 0 -0.008270677839349044 -0.0013861366674092473 0 -0.0079134905600832285 -0.0016124544142547324 0 -0.0081085265203274543 -0.0010984555443083114 0 -0.0081914724572211082 -0.0017000233145114813 0 -0.008270677839349044 -0.0013861366674092473 0 -0.008459448885040766 -0.0016327698158074249 0 -0.008270677839349044 -0.0013861366674092473 0 -0.0084588307648094715 -0.0013531407221587743 0 -0.008459448885040766 -0.0016327698158074249 0 -0.008270677839349044 -0.0013861366674092473 0 -0.008445260772368306 -0.0011757113308628188 0 -0.0084588307648094715 -0.0013531407221587743 0 -0.0078390522233037583 -0.0016880005050319863 0 -0.00825734542420852 -0.0011333034993215893 0 -0.0080956414416955107 -0.0011274153579999406 0 -0.008270677839349044 -0.0013861366674092473 0 -0.0082624174810939695 -0.00094713127069765172 0 -0.008445260772368306 -0.0011757113308628188 0 -0.00825734542420852 -0.0011333034993215893 0 -0.0080956414416955107 -0.0011274153579999406 0 -0.0082031343312788108 -0.00090725351543309834 0 -0.0080956414416955107 -0.0011274153579999406 0 -0.0079979755282486228 -0.00099083429140532728 0 -0.0082031343312788108 -0.00090725351543309834 0 -0.0087634328847999206 -0.00067853108011314085 0 -0.0088732135668881645 -0.00095229160165230921 0 -0.0085966825197269069 -0.00099633512072775255 0 -0.0087634328847999206 -0.00067853108011314085 0 -0.0088732135668881645 -0.00095229160165230921 0 -0.0091688832023346812 -0.00061110127175544699 0 -0.0082624174810939695 -0.00094713127069765172 0 -0.0087634328847999206 -0.00067853108011314085 0 -0.0085966825197269069 -0.00099633512072775255 0 -0.0082624174810939695 -0.00094713127069765172 0 -0.0085966825197269069 -0.00099633512072775255 0 -0.008445260772368306 -0.0011757113308628188 0 -0.0088732135668881645 -0.00095229160165230921 0 -0.0085966825197269069 -0.00099633512072775255 0 -0.0086647400548249386 -0.0012130496723661546 0 -0.0085966825197269069 -0.00099633512072775255 0 -0.008445260772368306 -0.0011757113308628188 0 -0.0086647400548249386 -0.0012130496723661546 0 -0.0088732135668881645 -0.00095229160165230921 0 -0.0086647400548249386 -0.0012130496723661546 0 -0.0091670401413156931 -0.0011522454930536898 0 -0.008459448885040766 -0.0016327698158074249 0 -0.0090328708055327691 -0.0014988101717972365 0 -0.0090336177631580861 -0.0011556329863366354 0 -0.008459448885040766 -0.0016327698158074249 0 -0.0090328708055327691 -0.0014988101717972365 0 -0.0083589668215406105 -0.0019208288172206393 0 -0.0089223639355985717 -0.001534321129143641 0 -0.0083850185828462098 -0.0019052823036619989 0 -0.0086647400548249386 -0.0012130496723661546 0 -0.008459448885040766 -0.0016327698158074249 0 -0.0091670401413156931 -0.0011522454930536898 0 -0.0085103213028073412 -0.0016047808590393061 0 -0.0091069725161105602 -0.0011454712400384406 0 -0.0086647400548249386 -0.0012130496723661546 0 -0.0084588307648094715 -0.0013531407221587743 0 -0.008459448885040766 -0.0016327698158074249 0 -0.008445260772368306 -0.0011757113308628188 0 -0.0086647400548249386 -0.0012130496723661546 0 -0.0084588307648094715 -0.0013531407221587743 0 -0.0088017090311851079 -0.0017800538931560782 0 -0.0087523572725680329 -0.0016069936951773188 0 -0.0086397577196574756 -0.0018870650903986988 0 -0.0089223639355985717 -0.001534321129143641 0 -0.0092774222421076954 -0.0012337546061936436 0 -0.0087523572725680329 -0.0016069936951773188 0 -0.0090436083609583308 -0.0015940679911862121 0 -0.0091545091342413384 -0.0013028647769032183 0 -0.0088017090311851079 -0.0017800538931560782 0 -0.0089062763250703676 -0.0017290305577427095 0 -0.0087523572725680329 -0.0016069936951773188 0 -0.0089062763250703676 -0.0017290305577427095 0 -0.0087523572725680329 -0.0016069936951773188 0 -0.0090436083609583308 -0.0015940679911862121 0 -0.0091924857273346112 -0.0016517937589291404 0 -0.0090645413756612839 -0.0017751009442822387 0 -0.0092641060049857542 -0.0018141223179157047 0 -0.0093862400626428307 -0.001589282795340764 0 -0.0091924857273346112 -0.0016517937589291404 0 -0.0092641060049857542 -0.0018141223179157047 0 -0.0091924857273346112 -0.0016517937589291404 0 -0.0090645413756612839 -0.0017751009442822387 0 -0.0090436083609583308 -0.0015940679911862121 0 -0.0089062763250703676 -0.0017290305577427095 0 -0.0090645413756612839 -0.0017751009442822387 0 -0.0090436083609583308 -0.0015940679911862121 0 -0.0090436083609583308 -0.0015940679911862121 0 -0.0092358739438109828 -0.0015024170448599309 0 -0.0091545091342413384 -0.0013028647769032183 0 -0.0091924857273346112 -0.0016517937589291404 0 -0.0090436083609583308 -0.0015940679911862121 0 -0.0092358739438109828 -0.0015024170448599309 0 -0.0093862400626428307 -0.001589282795340764 0 -0.0091924857273346112 -0.0016517937589291404 0 -0.0092358739438109828 -0.0015024170448599309 0 -0.0097323848526608258 -0.0010177843894609905 0 -0.0090336177631580861 -0.0011556329863366354 0 -0.009647803973669997 -0.00063704304245507982 0 -0.0094041275166776052 -0.0013709536445507039 0 -0.0092358739438109828 -0.0015024170448599309 0 -0.0091545091342413384 -0.0013028647769032183 0 -0.010092151055970319 -0.00050147746788773567 0 -0.0097323848526608258 -0.0010177843894609905 0 -0.009647803973669997 -0.00063704304245507982 0 -0.0091069725161105602 -0.0011454712400384406 0 -0.0096806850345939905 -0.00063141612266650075 0 -0.0090328708055327691 -0.0014988101717972365 0 -0.0097323848526608258 -0.0010177843894609905 0 -0.0090336177631580861 -0.0011556329863366354 0 -0.0091670401413156931 -0.0011522454930536898 0 -0.0091688832023346812 -0.00061110127175544699 0 -0.0098805508268416473 -0.00057898737096199039 0 -0.0088732135668881645 -0.00095229160165230921 0 -0.0091670401413156931 -0.0011522454930536898 0 -0.0091688832023346812 -0.00061110127175544699 0 -0.009526997218910066 -0.00014488850544083708 0 -0.0091688832023346812 -0.00061110127175544699 0 -0.0087952446429845135 -0.00010839259273189239 0 -0.009526997218910066 -0.00014488850544083708 0 -0.0091688832023346812 -0.00061110127175544699 0 -0.0098805508268416473 -0.00057898737096199039 0 -0.0095604158834429551 -0.00018378964733930568 0 -0.0097128578693696857 -0.00037645779888160791 0 -0.010446738419479511 -0.00013679582828114524 0 -0.0098805508268416473 -0.00057898737096199039 0 -0.010197747659611608 -0.00024190403705148626 0 -0.010292835544801876 -9.651277729380411e-05 0 -0.010092151055970319 -0.00050147746788773567 0 -0.009647803973669997 -0.00063704304245507982 0 -0.009526997218910066 -0.00014488850544083708 0 -0.0098805508268416473 -0.00057898737096199039 0 -0.010197747659611608 -0.00024190403705148626 0 -0.010959091030319848 -0.00022174856474489694 0 -0.0096806850345939905 -0.00063141612266650075 0 -0.0095604158834429551 -0.00018378964733930568 0 -0.010174855447794284 -0.00022964997807128592 0 -0.01038482321316626 7.9894905647774362e-05 0 -0.0098093699950294964 -0.00022645573153551405 0 -0.010197747659611608 -0.00024190403705148626 0 -0.01038482321316626 7.9894905647774362e-05 0 -0.0097642876885717846 0.0003254284103574486 0 -0.0098093699950294964 -0.00022645573153551405 0 -0.0097642876885717846 0.0003254284103574486 0 -0.0098093699950294964 -0.00022645573153551405 0 -0.00941833728137372 -0.00021273372148661063 0 -0.011186773085111911 -0.00043055109968547764 0 -0.0097128578693696857 -0.00037645779888160791 0 -0.012035465457442777 -0.00072150518376534875 0 -0.011894591936241346 -0.00075546796517386792 0 -0.01186282746164022 -0.000985460009858099 0 -0.011682971473456424 -0.00079268975825295171 0 -0.011894591936241346 -0.00075546796517386792 0 -0.01186282746164022 -0.000985460009858099 0 -0.011856375920131508 -0.00070005963240039274 0 -0.010275653892540124 -0.00086737320060986754 0 -0.011682971473456424 -0.00079268975825295171 0 -0.011531012670585247 -0.00097915457996267455 0 -0.01186282746164022 -0.000985460009858099 0 -0.0079381926233431585 -0.00061647543530631596 0 -0.0082053668007658152 -0.00068782647240834692 0 -0.0085854277416827218 -0.00062812976092588193 0 -0.00825734542420852 -0.0011333034993215893 0 -0.0082031343312788108 -0.00090725351543309834 0 -0.0085854277416827218 -0.00062812976092588193 0 -0.0082053668007658152 -0.00068782647240834692 0 -0.0082031343312788108 -0.00090725351543309834 0 -0.0085854277416827218 -0.00062812976092588193 0 -0.010275653892540124 -0.00086737320060986754 0 -0.0097128578693696857 -0.00037645779888160791 0 -0.0090931590765775377 -0.00094656323650254214 0 -0.0078288517868696644 -0.00070896694912536142 0 -0.0079835026023605798 -0.0008730367343047664 0 -0.0078616439526282451 -0.00068345518328439907 0 -0.0082053668007658152 -0.00068782647240834692 0 -0.0079835026023605798 -0.0008730367343047664 0 -0.0082053668007658152 -0.00068782647240834692 0 -0.0082031343312788108 -0.00090725351543309834 0 -0.0079835026023605798 -0.0008730367343047664 0 -0.0079979755282486228 -0.00099083429140532728 0 -0.0082031343312788108 -0.00090725351543309834 0 -0.0081085265203274543 -0.0010984555443083114 0 -0.0097128578693696857 -0.00037645779888160791 0 -0.0082624174810939695 -0.00094713127069765172 0 -0.0087634328847999206 -0.00067853108011314085 0 -0.0087952446429845135 -0.00010839259273189239 0 -0.0087634328847999206 -0.00067853108011314085 0 -0.0091688832023346812 -0.00061110127175544699 0 -0.0087952446429845135 -0.00010839259273189239 0 -0.0098118978317224981 -0.0016449869487478867 0 -0.0072265101355693199 -0.0020366031464975265 0 -0.0076173159643093081 -0.0019891231810710897 0 -0.0079987508159527244 -0.0016714346788957999 0 -0.0075689198554599758 -0.0015454885861339496 0 -0.0073510382004448515 -0.0016783167655190021 0 -0.0076173159643093081 -0.0019891231810710897 0 -0.0071964176970776431 -0.0018102374933509906 0 -0.0073510382004448515 -0.0016783167655190021 0 -0.0076173159643093081 -0.0019891231810710897 0 -0.0075689198554599758 -0.0015454885861339496 0 -0.010491749940944669 -0.00092325139211196653 0 -0.010736111459500514 -0.00095988101149260005 0 -0.010696089006785869 -0.00069947008477464325 0 -0.0098118978317224981 -0.0016449869487478867 0 -0.0087659619472018769 -0.0013115368421996476 0 -0.0076058125789157088 -0.0022154277288981288 0 -0.0081375659738942337 -0.0023348380039582223 0 -0.0079987508159527244 -0.0016714346788957999 0 -0.0098118978317224981 -0.0016449869487478867 0 -0.010591249746556354 -0.0022682799458041778 0 -0.01312006215310599 -0.002146332861834477 0 -0.012816278680404688 -0.0020956418656960882 0 -0.013033785915523937 -0.0018819859287755145 0 -0.0086961468892482238 -0.0024538647136154328 0 -0.0084855166272313001 -0.0019668455974254503 0 -0.0088930782505436297 -0.0020959668921673997 0 -0.0081375659738942337 -0.0023348380039582223 0 -0.0086961468892482238 -0.0024538647136154328 0 -0.0084855166272313001 -0.0019668455974254503 0 -0.010591249746556354 -0.0022682799458041778 0 -0.010614893908747034 -0.0022721200017602446 0 -0.0084855166272313001 -0.0019668455974254503 0 -0.0085406538470141676 -0.0015055709426190981 0 -0.008884624309974682 -0.0016742888784326978 0 -0.0084855166272313001 -0.0019668455974254503 0 -0.0079987508159527244 -0.0016714346788957999 0 -0.0085406538470141676 -0.0015055709426190981 0 -0.0081375659738942337 -0.0023348380039582223 0 -0.0084855166272313001 -0.0019668455974254503 0 -0.0079987508159527244 -0.0016714346788957999 0 -0.0079987508159527244 -0.0016714346788957999 0 -0.008220917660946632 -0.0013283298201919767 0 -0.0085406538470141676 -0.0015055709426190981 0 -0.0079987508159527244 -0.0016714346788957999 0 -0.008220917660946632 -0.0013283298201919767 0 -0.0078204921222853451 -0.0012678827060514169 0 -0.008220917660946632 -0.0013283298201919767 0 -0.0085406538470141676 -0.0015055709426190981 0 -0.0085175192492151913 -0.0011782654740704979 0 -0.0085406538470141676 -0.0015055709426190981 0 -0.0085175192492151913 -0.0011782654740704979 0 -0.0088588564520524649 -0.0012945422304386351 0 -0.0085175192492151913 -0.0011782654740704979 0 -0.0088588564520524649 -0.0012945422304386351 0 -0.0087848411647937618 -0.0010350647755724221 0 -0.0085175192492151913 -0.0011782654740704979 0 -0.0081796186123599506 -0.0010026867704649664 0 -0.0085578684899437329 -0.00092932007756729989 0 -0.0087848411647937618 -0.0010350647755724221 0 -0.008763369540335221 -0.0008163498649134685 0 -0.0085578684899437329 -0.00092932007756729989 0 -0.0085175192492151913 -0.0011782654740704979 0 -0.0087848411647937618 -0.0010350647755724221 0 -0.0085578684899437329 -0.00092932007756729989 0 -0.008220917660946632 -0.0013283298201919767 0 -0.0081796186123599506 -0.0010026867704649664 0 -0.0078204921222853451 -0.0012678827060514169 0 -0.008220917660946632 -0.0013283298201919767 0 -0.0085175192492151913 -0.0011782654740704979 0 -0.0081796186123599506 -0.0010026867704649664 0 -0.0081796186123599506 -0.0010026867704649664 0 -0.0078204921222853451 -0.0012678827060514169 0 -0.0075667622589332328 -0.00088237897965482955 0 -0.0078204921222853451 -0.0012678827060514169 0 -0.0074646983251750567 -0.0011915643798843696 0 -0.0075667622589332328 -0.00088237897965482955 0 -0.0078204921222853451 -0.0012678827060514169 0 -0.0075689198554599758 -0.0015454885861339496 0 -0.0074646983251750567 -0.0011915643798843696 0 -0.0079987508159527244 -0.0016714346788957999 0 -0.0078204921222853451 -0.0012678827060514169 0 -0.0075689198554599758 -0.0015454885861339496 0 -0.0075689198554599758 -0.0015454885861339496 0 -0.0074646983251750567 -0.0011915643798843696 0 -0.0072535055623388503 -0.0013757573808600748 0 -0.0073510382004448515 -0.0016783167655190021 0 -0.0075689198554599758 -0.0015454885861339496 0 -0.0072535055623388503 -0.0013757573808600748 0 -0.0074646983251750567 -0.0011915643798843696 0 -0.0072535055623388503 -0.0013757573808600748 0 -0.0071269497515720421 -0.00089429926405661553 0 -0.0068659438165655194 -0.0012141071279372713 0 -0.0072535055623388503 -0.0013757573808600748 0 -0.0071269497515720421 -0.00089429926405661553 0 -0.0069536365901004876 -0.0013324911639858307 0 -0.0071448766417105966 -0.0016339528144410221 0 -0.0071006551117731818 -0.0015255019347277601 0 -0.0070874452434098447 -0.0015872043024540829 0 -0.0071489842203596001 -0.0016342237618211092 0 -0.0071006551117731818 -0.0015255019347277601 0 -0.0070874452434098447 -0.0015872043024540829 0 -0.0070463692092267828 -0.0015525628256971998 0 -0.0068659438165655194 -0.0012141071279372713 0 -0.0072535055623388503 -0.0013757573808600748 0 -0.0071489842203596001 -0.0016342237618211092 0 -0.0073510382004448515 -0.0016783167655190021 0 -0.0072535055623388503 -0.0013757573808600748 0 -0.0071489842203596001 -0.0016342237618211092 0 -0.0071006551117731818 -0.0015255019347277601 0 -0.0070575409111607807 -0.0015146748660369892 0 -0.0070463692092267828 -0.0015525628256971998 0 -0.0071006551117731818 -0.0015255019347277601 0 -0.0070575409111607807 -0.0015146748660369892 0 -0.0070724471632436416 -0.0014781073997620715 0 -0.0070259334412267485 -0.001524634239151806 0 -0.0070575409111607807 -0.0015146748660369892 0 -0.0070463692092267828 -0.0015525628256971998 0 -0.0070874452434098447 -0.0015872043024540829 0 -0.0070463692092267828 -0.0015525628256971998 0 -0.0070590503541882723 -0.0016378255728405633 0 -0.0070259334412267485 -0.001524634239151806 0 -0.0070463692092267828 -0.0015525628256971998 0 -0.0070233115238521699 -0.0015341292497494479 0 -0.010037627603412955 -0.0010086623741983631 0 -0.010230981309317783 -0.0010157151496792375 0 -0.0089792202700206304 -0.0011191434260964797 0 -0.0090079765113091816 -0.0011006560222345586 0 -0.0090518969306204299 -0.0011286507412503054 0 -0.0090518969306204299 -0.0011286507412503054 0 -0.0090774767434910145 -0.0011263062278998404 0 -0.0091170608747268098 -0.0011427882185323767 0 -0.0090079765113091816 -0.0011006560222345586 0 -0.0090518969306204299 -0.0011286507412503054 0 -0.0090774767434910145 -0.0011263062278998404 0 -0.0080390192818174822 -0.0013215629593788412 0 -0.0079557531393131247 -0.0013464350623457247 0 -0.0070463692092267828 -0.0015525628256971998 0 -0.0070233115238521699 -0.0015341292497494479 0 -0.0070590503541882723 -0.0016378255728405633 0 -0.010230981309317783 -0.0010157151496792375 0 -0.0091844256030026144 -0.0012482881913013636 0 -0.011070320841103347 -0.00095238258455405652 0 -0.011147693494613465 -0.00084700815624950986 0 -0.011048178638800874 -0.00080459508913229363 0 -0.011070320841103347 -0.00095238258455405652 0 -0.010949799204236872 -0.00087280372018443575 0 -0.011048178638800874 -0.00080459508913229363 0 -0.010949799204236872 -0.00087280372018443575 0 -0.010945362265928214 -0.00077846265492142444 0 -0.011048178638800874 -0.00080459508913229363 0 -0.01122003407804744 -0.00088818074442696237 0 -0.011070320841103347 -0.00095238258455405652 0 -0.011176959032092338 -0.00090056575557795587 0 -0.011070320841103347 -0.00095238258455405652 0 -0.011147693494613465 -0.00084700815624950986 0 -0.011176959032092338 -0.00090056575557795587 0 -0.011229208261840554 -0.00079291778202773161 0 -0.01120899115142544 -0.00086171470710243853 0 -0.011147693494613465 -0.00084700815624950986 0 -0.01120899115142544 -0.00086171470710243853 0 -0.011147693494613465 -0.00084700815624950986 0 -0.011176959032092338 -0.00090056575557795587 0 -0.0071489842203596001 -0.0016342237618211092 0 -0.0071191407928653284 -0.0017172326295149241 0 -0.0071964176970776431 -0.0018102374933509906 0 -0.0073510382004448515 -0.0016783167655190021 0 -0.0071489842203596001 -0.0016342237618211092 0 -0.0071964176970776431 -0.0018102374933509906 0 -0.0070874452434098447 -0.0015872043024540829 0 -0.0070590503541882723 -0.0016378255728405633 0 -0.0071489842203596001 -0.0016342237618211092 0 -0.0070590503541882723 -0.0016378255728405633 0 -0.0071489842203596001 -0.0016342237618211092 0 -0.0071191407928653284 -0.0017172326295149241 0 -0.0079557531393131247 -0.0013464350623457247 0 -0.0091844256030026144 -0.0012482881913013636 0 -0.010829269392955256 -0.00097210616257752331 0 -0.010949799204236872 -0.00087280372018443575 0 -0.010840941997369373 -0.00082821492692728544 0 -0.011070320841103347 -0.00095238258455405652 0 -0.010829269392955256 -0.00097210616257752331 0 -0.010949799204236872 -0.00087280372018443575 0 -0.010949799204236872 -0.00087280372018443575 0 -0.010840941997369373 -0.00082821492692728544 0 -0.010945362265928214 -0.00077846265492142444 0 -0.010840941997369373 -0.00082821492692728544 0 -0.010736111459500514 -0.00095988101149260005 0 -0.010696089006785869 -0.00069947008477464325 0 -0.010829269392955256 -0.00097210616257752331 0 -0.010840941997369373 -0.00082821492692728544 0 -0.010736111459500514 -0.00095988101149260005 0 -0.0091844256030026144 -0.0012482881913013636 0 -0.0087659619472018769 -0.0013115368421996476 0 -0.010840941997369373 -0.00082821492692728544 0 -0.010696089006785869 -0.00069947008477464325 0 -0.010878758119632468 -0.00068458623228809235 0 -0.010840941997369373 -0.00082821492692728544 0 -0.010878758119632468 -0.00068458623228809235 0 -0.010945362265928214 -0.00077846265492142444 0 -0.010878758119632468 -0.00068458623228809235 0 -0.010945362265928214 -0.00077846265492142444 0 -0.011017778181328876 -0.00066476981463497629 0 -0.010878758119632468 -0.00068458623228809235 0 -0.011017778181328876 -0.00066476981463497629 0 -0.010887136846101972 -0.00050658449724733557 0 -0.010696089006785869 -0.00069947008477464325 0 -0.010878758119632468 -0.00068458623228809235 0 -0.010887136846101972 -0.00050658449724733557 0 -0.012408066691357269 -0.0011492770770510283 0 -0.012211932075990735 -0.0010370204943176023 0 -0.013407048452723861 -0.001813077325121894 0 -0.013656618609868797 -0.0014907239331062756 0 -0.013259515490710059 -0.0015407248708869576 0 -0.011147693494613465 -0.00084700815624950986 0 -0.01114328872853527 -0.00071454218832755774 0 -0.011048178638800874 -0.00080459508913229363 0 -0.011229208261840554 -0.00079291778202773161 0 -0.011270236917054153 -0.00069907601423965034 0 -0.01114328872853527 -0.00071454218832755774 0 -0.011229208261840554 -0.00079291778202773161 0 -0.011147693494613465 -0.00084700815624950986 0 -0.01114328872853527 -0.00071454218832755774 0 -0.01114328872853527 -0.00071454218832755774 0 -0.011048178638800874 -0.00080459508913229363 0 -0.011017778181328876 -0.00066476981463497629 0 -0.010945362265928214 -0.00077846265492142444 0 -0.011048178638800874 -0.00080459508913229363 0 -0.011017778181328876 -0.00066476981463497629 0 -0.01114328872853527 -0.00071454218832755774 0 -0.011017778181328876 -0.00066476981463497629 0 -0.011079204936932903 -0.00053673272945794527 0 -0.011017778181328876 -0.00066476981463497629 0 -0.011079204936932903 -0.00053673272945794527 0 -0.010887136846101972 -0.00050658449724733557 0 -0.011266253964806707 -0.0005757072629861274 0 -0.01114328872853527 -0.00071454218832755774 0 -0.011079204936932903 -0.00053673272945794527 0 -0.011266253964806707 -0.0005757072629861274 0 -0.011198196217869933 -0.00044944910069634328 0 -0.011079204936932903 -0.00053673272945794527 0 -0.011198196217869933 -0.00044944910069634328 0 -0.011079204936932903 -0.00053673272945794527 0 -0.011061579413268506 -0.000324257685007495 0 -0.011079204936932903 -0.00053673272945794527 0 -0.011061579413268506 -0.000324257685007495 0 -0.010887136846101972 -0.00050658449724733557 0 -0.011198196217869933 -0.00044944910069634328 0 -0.011061579413268506 -0.000324257685007495 0 -0.011227595077828353 -0.00032284355513891792 0 -0.013656618609868797 -0.0014907239331062756 0 -0.013494046626385087 -0.0012509939547055114 0 -0.013259515490710059 -0.0015407248708869576 0 -0.013656618609868797 -0.0014907239331062756 0 -0.01369166133528619 -0.0012098536650363481 0 -0.013494046626385087 -0.0012509939547055114 0 -0.013849393852992144 -0.0012041775311245125 0 -0.013656618609868797 -0.0014907239331062756 0 -0.01369166133528619 -0.0012098536650363481 0 -0.012400563297063159 -0.00074023662189342003 0 -0.012211932075990735 -0.0010370204943176023 0 -0.01369166133528619 -0.0012098536650363481 0 -0.013494046626385087 -0.0012509939547055114 0 -0.013651886082171879 -0.0010426127387073 0 -0.013494046626385087 -0.0012509939547055114 0 -0.013246042966325672 -0.0012345348603307821 0 -0.013259515490710059 -0.0015407248708869576 0 -0.013494046626385087 -0.0012509939547055114 0 -0.013246042966325672 -0.0012345348603307821 0 -0.013398950666416555 -0.0010391931706358909 0 -0.013246042966325672 -0.0012345348603307821 0 -0.012999948891150394 -0.0013590688183647487 0 -0.013071680728060385 -0.0011389619544822148 0 -0.012999948891150394 -0.0013590688183647487 0 -0.013259515490710059 -0.0015407248708869576 0 -0.012952860580634752 -0.0016373125657931841 0 -0.013246042966325672 -0.0012345348603307821 0 -0.012999948891150394 -0.0013590688183647487 0 -0.013259515490710059 -0.0015407248708869576 0 -0.013407048452723861 -0.001813077325121894 0 -0.013259515490710059 -0.0015407248708869576 0 -0.013033785915523937 -0.0018819859287755145 0 -0.013259515490710059 -0.0015407248708869576 0 -0.012952860580634752 -0.0016373125657931841 0 -0.013033785915523937 -0.0018819859287755145 0 -0.01312006215310599 -0.002146332861834477 0 -0.013407048452723861 -0.001813077325121894 0 -0.013033785915523937 -0.0018819859287755145 0 -0.0098118978317224981 -0.0016449869487478867 0 -0.012408066691357269 -0.0011492770770510283 0 -0.012496584641117449 -0.0020505541658919465 0 -0.012709693814907948 -0.0017924936798206187 0 -0.012412505948955002 -0.0017857858888514304 0 -0.012816278680404688 -0.0020956418656960882 0 -0.012496584641117449 -0.0020505541658919465 0 -0.012709693814907948 -0.0017924936798206187 0 -0.012816278680404688 -0.0020956418656960882 0 -0.013033785915523937 -0.0018819859287755145 0 -0.012709693814907948 -0.0017924936798206187 0 -0.012952860580634752 -0.0016373125657931841 0 -0.012709693814907948 -0.0017924936798206187 0 -0.012778025389721439 -0.0015202565160926695 0 -0.012952860580634752 -0.0016373125657931841 0 -0.013033785915523937 -0.0018819859287755145 0 -0.012709693814907948 -0.0017924936798206187 0 -0.012709693814907948 -0.0017924936798206187 0 -0.012509384757545783 -0.0015426215364746727 0 -0.012412505948955002 -0.0017857858888514304 0 -0.012709693814907948 -0.0017924936798206187 0 -0.012509384757545783 -0.0015426215364746727 0 -0.012778025389721439 -0.0015202565160926695 0 -0.012509384757545783 -0.0015426215364746727 0 -0.012764881245085518 -0.0012788775065948406 0 -0.012305636673116667 -0.0012306560545293928 0 -0.012509384757545783 -0.0015426215364746727 0 -0.012778025389721439 -0.0015202565160926695 0 -0.012764881245085518 -0.0012788775065948406 0 -0.012999948891150394 -0.0013590688183647487 0 -0.012952860580634752 -0.0016373125657931841 0 -0.012778025389721439 -0.0015202565160926695 0 -0.012999948891150394 -0.0013590688183647487 0 -0.012778025389721439 -0.0015202565160926695 0 -0.012764881245085518 -0.0012788775065948406 0 -0.012999948891150394 -0.0013590688183647487 0 -0.012904898067923292 -0.0011868048138031627 0 -0.012764881245085518 -0.0012788775065948406 0 -0.012999948891150394 -0.0013590688183647487 0 -0.012904898067923292 -0.0011868048138031627 0 -0.013071680728060385 -0.0011389619544822148 0 -0.012904898067923292 -0.0011868048138031627 0 -0.012764881245085518 -0.0012788775065948406 0 -0.012782413904160662 -0.0011193461756080043 0 -0.012764881245085518 -0.0012788775065948406 0 -0.012623915859578234 -0.0012187535777146629 0 -0.012512361436623385 -0.0012943657165553704 0 -0.0127355336991904 -0.0012736911166063446 0 -0.012414110496496662 -0.0012645832150457335 0 -0.012764881245085518 -0.0012788775065948406 0 -0.012623915859578234 -0.0012187535777146629 0 -0.012782413904160662 -0.0011193461756080043 0 -0.012782413904160662 -0.0011193461756080043 0 -0.012783258697279119 -0.00094565989527559146 0 -0.012586026007928729 -0.0010129590579974093 0 -0.012783258697279119 -0.00094565989527559146 0 -0.012586026007928729 -0.0010129590579974093 0 -0.012642465720506335 -0.00083792559490061141 0 -0.012783258697279119 -0.00094565989527559146 0 -0.012840590522409287 -0.00077847694263259552 0 -0.012642465720506335 -0.00083792559490061141 0 -0.012962114099378979 -0.00088246089212629857 0 -0.013052449223202273 -0.00074448268687824339 0 -0.012840590522409287 -0.00077847694263259552 0 -0.012783258697279119 -0.00094565989527559146 0 -0.012962114099378979 -0.00088246089212629857 0 -0.012840590522409287 -0.00077847694263259552 0 -0.012783258697279119 -0.00094565989527559146 0 -0.012962114099378979 -0.00088246089212629857 0 -0.012933047318521225 -0.0010368659096148477 0 -0.012962114099378979 -0.00088246089212629857 0 -0.012933047318521225 -0.0010368659096148477 0 -0.013105081041036219 -0.00094815557215715684 0 -0.012782413904160662 -0.0011193461756080043 0 -0.012783258697279119 -0.00094565989527559146 0 -0.012933047318521225 -0.0010368659096148477 0 -0.012904898067923292 -0.0011868048138031627 0 -0.012782413904160662 -0.0011193461756080043 0 -0.012933047318521225 -0.0010368659096148477 0 -0.012904898067923292 -0.0011868048138031627 0 -0.012933047318521225 -0.0010368659096148477 0 -0.013071680728060385 -0.0011389619544822148 0 -0.012933047318521225 -0.0010368659096148477 0 -0.013071680728060385 -0.0011389619544822148 0 -0.013105081041036219 -0.00094815557215715684 0 -0.013246042966325672 -0.0012345348603307821 0 -0.013071680728060385 -0.0011389619544822148 0 -0.01321944010447695 -0.0010375689706693173 0 -0.013071680728060385 -0.0011389619544822148 0 -0.01321944010447695 -0.0010375689706693173 0 -0.013105081041036219 -0.00094815557215715684 0 -0.013246042966325672 -0.0012345348603307821 0 -0.01321944010447695 -0.0010375689706693173 0 -0.013398950666416555 -0.0010391931706358909 0 -0.01321944010447695 -0.0010375689706693173 0 -0.013398950666416555 -0.0010391931706358909 0 -0.013276555357459236 -0.00083207323388196199 0 -0.013398950666416555 -0.0010391931706358909 0 -0.013276555357459236 -0.00083207323388196199 0 -0.013447502092492765 -0.00087143602300290498 0 -0.013276555357459236 -0.00083207323388196199 0 -0.013412629633564932 -0.00072734633598926172 0 -0.013447502092492765 -0.00087143602300290498 0 -0.013276555357459236 -0.00083207323388196199 0 -0.013105081041036219 -0.00094815557215715684 0 -0.013052449223202273 -0.00074448268687824339 0 -0.01321944010447695 -0.0010375689706693173 0 -0.013276555357459236 -0.00083207323388196199 0 -0.013105081041036219 -0.00094815557215715684 0 -0.012962114099378979 -0.00088246089212629857 0 -0.013105081041036219 -0.00094815557215715684 0 -0.013052449223202273 -0.00074448268687824339 0 -0.013276555357459236 -0.00083207323388196199 0 -0.013052449223202273 -0.00074448268687824339 0 -0.013285265581027519 -0.00061410089315819196 0 -0.013052449223202273 -0.00074448268687824339 0 -0.013285265581027519 -0.00061410089315819196 0 -0.013029249001202371 -0.00052967578356071811 0 -0.013276555357459236 -0.00083207323388196199 0 -0.013412629633564932 -0.00072734633598926172 0 -0.013285265581027519 -0.00061410089315819196 0 -0.013412629633564932 -0.00072734633598926172 0 -0.013285265581027519 -0.00061410089315819196 0 -0.013549228536383292 -0.0006173355851029638 0 -0.013285265581027519 -0.00061410089315819196 0 -0.013447969437200094 -0.00047651417981140707 0 -0.013549228536383292 -0.0006173355851029638 0 -0.013285265581027519 -0.00061410089315819196 0 -0.013447969437200094 -0.00047651417981140707 0 -0.01326313391559039 -0.00042009277717002278 0 -0.01326313391559039 -0.00042009277717002278 0 -0.013029249001202371 -0.00052967578356071811 0 -0.013031074017837298 -0.00034499832990433031 0 -0.013285265581027519 -0.00061410089315819196 0 -0.01326313391559039 -0.00042009277717002278 0 -0.013029249001202371 -0.00052967578356071811 0 -0.013610505986379305 -0.00027275187798815083 0 -0.013857501734030775 -0.00017178104278233125 0 -0.013029249001202371 -0.00052967578356071811 0 -0.012721161048786588 -0.0004921400490711707 0 -0.013031074017837298 -0.00034499832990433031 0 -0.013029249001202371 -0.00052967578356071811 0 -0.012721161048786588 -0.0004921400490711707 0 -0.012869505323283327 -0.00061278091810626413 0 -0.014935610311862029 8.6436334392571003e-05 0 -0.014939986960899709 -2.1130747790369397e-05 0 -0.014963666665983675 5.4184501311784106e-05 0 -0.013622379610491765 -0.00018756326593981156 0 -0.013671955374572938 -0.00016366032577814859 0 -0.01367105870996831 -0.00022457919765867383 0 -0.013610505986379305 -0.00027275187798815083 0 -0.014004930244952361 -0.00012897018771440945 0 -0.012715850297688109 -0.00049396402851926199 0 -0.012742828414301065 -0.00064050555729633178 0 -0.012665298358264701 -0.00051942729224645689 0 -0.013610505986379305 -0.00027275187798815083 0 -0.013195115941210981 -0.00045825977731156286 0 -0.013610505986379305 -0.00027275187798815083 0 -0.012741929572812864 -0.00045369564594718398 0 -0.012715850297688109 -0.00049396402851926199 0 -0.012742828414301065 -0.00064050555729633178 0 -0.012869505323283327 -0.00061278091810626413 0 -0.012742828414301065 -0.00064050555729633178 0 -0.012840590522409287 -0.00077847694263259552 0 -0.012869505323283327 -0.00061278091810626413 0 -0.012742828414301065 -0.00064050555729633178 0 -0.012840590522409287 -0.00077847694263259552 0 -0.012642465720506335 -0.00083792559490061141 0 -0.012742828414301065 -0.00064050555729633178 0 -0.012642465720506335 -0.00083792559490061141 0 -0.012665298358264701 -0.00051942729224645689 0 -0.013052449223202273 -0.00074448268687824339 0 -0.012840590522409287 -0.00077847694263259552 0 -0.012869505323283327 -0.00061278091810626413 0 -0.013052449223202273 -0.00074448268687824339 0 -0.013029249001202371 -0.00052967578356071811 0 -0.012869505323283327 -0.00061278091810626413 0 -0.013034986396890925 -0.00074410662019303714 0 -0.014043945824601965 -0.00098368053983205602 0 -0.013971702260781435 -0.00086816235490778297 0 -0.014069843677802327 -0.00093286442701580438 0 -0.013887043314609037 -0.00098393635469901162 0 -0.013718551146746664 -0.00069476179217717662 0 -0.014088143005101771 -0.0006957083227920282 0 -0.014131436984629906 -0.00085184510053211003 0 -0.014054068932685569 -0.00086354630754378208 0 -0.014069843677802327 -0.00093286442701580438 0 -0.014131436984629906 -0.00085184510053211003 0 -0.014054068932685569 -0.00086354630754378208 0 -0.014041804808179677 -0.00080211703282011368 0 -0.014054068932685569 -0.00086354630754378208 0 -0.013971702260781435 -0.00086816235490778297 0 -0.014041804808179677 -0.00080211703282011368 0 -0.013969567648039732 -0.00085079616786584147 0 -0.014088143005101771 -0.0006957083227920282 0 -0.014054068932685569 -0.00086354630754378208 0 -0.013971702260781435 -0.00086816235490778297 0 -0.014069843677802327 -0.00093286442701580438 0 -0.011061579413268506 -0.000324257685007495 0 -0.011227595077828353 -0.00032284355513891792 0 -0.011230714975156937 -0.00014327792340672685 0 -0.012400563297063159 -0.00074023662189342003 0 -0.013034986396890925 -0.00074410662019303714 0 -0.013849393852992144 -0.0012041775311245125 0 -0.01369166133528619 -0.0012098536650363481 0 -0.01383761226090614 -0.0010192719314588599 0 -0.013849393852992144 -0.0012041775311245125 0 -0.014002766062815799 -0.00098126550969691948 0 -0.01383761226090614 -0.0010192719314588599 0 -0.013971702260781435 -0.00086816235490778297 0 -0.013887043314609037 -0.00098393635469901162 0 -0.013787613561795406 -0.00085684366528755111 0 -0.013887043314609037 -0.00098393635469901162 0 -0.013787613561795406 -0.00085684366528755111 0 -0.013651886082171879 -0.0010426127387073 0 -0.013787613561795406 -0.00085684366528755111 0 -0.013651886082171879 -0.0010426127387073 0 -0.013612387088223646 -0.00077552280774360676 0 -0.01369166133528619 -0.0012098536650363481 0 -0.01383761226090614 -0.0010192719314588599 0 -0.013651886082171879 -0.0010426127387073 0 -0.014043945824601965 -0.00098368053983205602 0 -0.013601155534455974 -0.0010507909371731969 0 -0.013398950666416555 -0.0010391931706358909 0 -0.013651886082171879 -0.0010426127387073 0 -0.013447502092492765 -0.00087143602300290498 0 -0.013494046626385087 -0.0012509939547055114 0 -0.013398950666416555 -0.0010391931706358909 0 -0.013651886082171879 -0.0010426127387073 0 -0.013651886082171879 -0.0010426127387073 0 -0.013447502092492765 -0.00087143602300290498 0 -0.013612387088223646 -0.00077552280774360676 0 -0.013412629633564932 -0.00072734633598926172 0 -0.013612387088223646 -0.00077552280774360676 0 -0.013549228536383292 -0.0006173355851029638 0 -0.013412629633564932 -0.00072734633598926172 0 -0.013447502092492765 -0.00087143602300290498 0 -0.013612387088223646 -0.00077552280774360676 0 -0.013549228536383292 -0.0006173355851029638 0 -0.01361722339776744 -0.00046812248423444189 0 -0.013800782684990668 -0.00063413670714575275 0 -0.013447969437200094 -0.00047651417981140707 0 -0.013549228536383292 -0.0006173355851029638 0 -0.01361722339776744 -0.00046812248423444189 0 -0.01361910470526268 -0.00046797459135090695 0 -0.013886308911560834 -0.0006161118778482132 0 -0.01361722339776744 -0.00046812248423444189 0 -0.013958011016294234 -0.0005843152513361282 0 -0.013935133539765651 -0.00038257704957821815 0 -0.013612387088223646 -0.00077552280774360676 0 -0.013549228536383292 -0.0006173355851029638 0 -0.013800782684990668 -0.00063413670714575275 0 -0.013787613561795406 -0.00085684366528755111 0 -0.013612387088223646 -0.00077552280774360676 0 -0.013800782684990668 -0.00063413670714575275 0 -0.013971702260781435 -0.00086816235490778297 0 -0.013787613561795406 -0.00085684366528755111 0 -0.013800782684990668 -0.00063413670714575275 0 -0.013886308911560834 -0.0006161118778482132 0 -0.014088143005101771 -0.0006957083227920282 0 -0.013971702260781435 -0.00086816235490778297 0 -0.013800782684990668 -0.00063413670714575275 0 -0.014057248347740775 -0.00078592352367587068 0 -0.013958011016294234 -0.0005843152513361282 0 -0.014215648015083029 -0.00046357512429219419 0 -0.014079074844648881 -0.00036968179529127241 0 -0.013958011016294234 -0.0005843152513361282 0 -0.014079074844648881 -0.00036968179529127241 0 -0.013935133539765651 -0.00038257704957821815 0 -0.014401677032072575 -0.00051412820181777233 0 -0.014215648015083029 -0.00046357512429219419 0 -0.014216446757258801 -0.00070547405084805319 0 -0.013958011016294234 -0.0005843152513361282 0 -0.014215648015083029 -0.00046357512429219419 0 -0.014216446757258801 -0.00070547405084805319 0 -0.0148843600035011 -2.4740934141443086e-05 0 -0.014835378163688575 -6.6734724931127485e-05 0 -0.014876035356647175 -3.1051078135106571e-05 0 -0.014619129369208153 -8.9957036610908728e-05 0 -0.014392325734990077 -0.00021627047996690678 0 -0.0148843600035011 -2.4740934141443086e-05 0 -0.014835378163688575 -6.6734724931127485e-05 0 -0.014762682681720591 -0.00022350390292348474 0 -0.014362996227461991 -0.00013779217996838188 0 -0.014225042586155368 -0.00030280534583699322 0 -0.014058617138953391 -0.00022496879318212738 0 -0.014379558195606729 -0.00033007024993189903 0 -0.014215648015083029 -0.00046357512429219419 0 -0.014225042586155368 -0.00030280534583699322 0 -0.014215648015083029 -0.00046357512429219419 0 -0.014225042586155368 -0.00030280534583699322 0 -0.014079074844648881 -0.00036968179529127241 0 -0.014225042586155368 -0.00030280534583699322 0 -0.014079074844648881 -0.00036968179529127241 0 -0.014058617138953391 -0.00022496879318212738 0 -0.014079074844648881 -0.00036968179529127241 0 -0.014058617138953391 -0.00022496879318212738 0 -0.013935133539765651 -0.00038257704957821815 0 -0.014835378163688575 -6.6734724931127485e-05 0 -0.014762682681720591 -0.00022350390292348474 0 -0.01467681833622241 -1.791094184707408e-05 0 -0.014762682681720591 -0.00022350390292348474 0 -0.01467681833622241 -1.791094184707408e-05 0 -0.014447490204976732 -3.0999584431402286e-05 0 -0.014447490204976732 -3.0999584431402286e-05 0 -0.013772974960763164 -0.00033001257850309685 0 -0.013786562016232668 -3.4678849171668891e-05 0 -0.01467681833622241 -1.791094184707408e-05 0 -0.014277579332521148 6.0982417024214104e-05 0 -0.014447490204976732 -3.0999584431402286e-05 0 -0.014277579332521148 6.0982417024214104e-05 0 -0.014447490204976732 -3.0999584431402286e-05 0 -0.014167902814804519 -7.4081181304658133e-05 0 -0.014762682681720591 -0.00022350390292348474 0 -0.014447490204976732 -3.0999584431402286e-05 0 -0.013772974960763164 -0.00033001257850309685 0 -0.014401666539298918 -1.8400123411806524e-05 0 -0.013935836157030026 -7.4345718533442984e-05 0 -0.014058617138953391 -0.00022496879318212738 0 -0.013935133539765651 -0.00038257704957821815 0 -0.013772974960763164 -0.00033001257850309685 0 -0.014392325734990077 -0.00021627047996690678 0 -0.013816734015214138 -0.00032927629809291465 0 -0.013772974960763164 -0.00033001257850309685 0 -0.013602571355273225 -0.00021927566804475472 0 -0.013786562016232668 -3.4678849171668891e-05 0 -0.01361722339776744 -0.00046812248423444189 0 -0.013935133539765651 -0.00038257704957821815 0 -0.013772974960763164 -0.00033001257850309685 0 -0.013447969437200094 -0.00047651417981140707 0 -0.01361722339776744 -0.00046812248423444189 0 -0.013598219159011807 -0.00035280093314239035 0 -0.01361722339776744 -0.00046812248423444189 0 -0.013772974960763164 -0.00033001257850309685 0 -0.013598219159011807 -0.00035280093314239035 0 -0.013598219159011807 -0.00035280093314239035 0 -0.013602571355273225 -0.00021927566804475472 0 -0.013476291715849945 -0.00023456882311111613 0 -0.013772974960763164 -0.00033001257850309685 0 -0.013598219159011807 -0.00035280093314239035 0 -0.013602571355273225 -0.00021927566804475472 0 -0.014277579332521148 6.0982417024214104e-05 0 -0.014167902814804519 -7.4081181304658133e-05 0 -0.013889199347414529 -0.0001286782177479853 0 -0.013935836157030026 -7.4345718533442984e-05 0 -0.013955754927488323 -0.00010378611127637547 0 -0.014448295556461948 1.5204716749329329e-05 0 -0.013955754927488323 -0.00010378611127637547 0 -0.014542024037925183 -7.1829992242761338e-06 0 -0.0144420662420257 1.4884466362578766e-06 0 -0.014301817554860066 -0.00011697963010638068 0 -0.013602571355273225 -0.00021927566804475472 0 -0.013786562016232668 -3.4678849171668891e-05 0 -0.01339819551850358 -0.00012975122796324927 0 -0.014997052751697409 1.3331823313174225e-05 0 -0.014998538498566324 9.4632341367321385e-06 0 -0.014999079560480195 8.586322210104369e-06 0 -0.014997052751697409 1.3331823313174225e-05 0 -0.014998538498566324 9.4632341367321385e-06 0 -0.014999566936717819 9.4161689221505113e-06 0 -0.014999079560480195 8.586322210104369e-06 0 -0.01499999672180592 -1.5420438382238473e-09 0 -0.01499999942368151 1.037394861511019e-08 0 -0.014998538498566324 9.4632341367321385e-06 0 -0.014999079560480195 8.586322210104369e-06 0 -0.01499999942368151 1.037394861511019e-08 0 -0.014999079560480195 8.586322210104369e-06 0 -0.01499999672180592 -1.5420438382238473e-09 0 -0.014993824352838936 1.106228403161568e-05 0 -0.01499999672180592 -1.5420438382238473e-09 0 -0.014993824352838936 1.106228403161568e-05 0 -0.014974341602894596 9.7683706139879974e-06 0 -0.014448295556461948 1.5204716749329329e-05 0 -0.014771313265948452 5.9182514583677823e-05 0 -0.014997052751697409 1.3331823313174225e-05 0 -0.014999079560480195 8.586322210104369e-06 0 -0.014992826508822712 2.7545970698829749e-05 0 -0.014542024037925183 -7.1829992242761338e-06 0 -0.0144420662420257 1.4884466362578766e-06 0 -0.014648822379414454 5.7909986968363025e-05 0 -0.014999079560480195 8.586322210104369e-06 0 -0.014993824352838936 1.106228403161568e-05 0 -0.014992826508822712 2.7545970698829749e-05 0 -0.014701129337798652 7.5682543048527465e-06 0 -0.014820713573140465 3.7332314060700143e-05 0 -0.014993824352838936 1.106228403161568e-05 0 -0.014992826508822712 2.7545970698829749e-05 0 -0.014974341602894596 9.7683706139879974e-06 0 -0.014542024037925183 -7.1829992242761338e-06 0 -0.014648822379414454 5.7909986968363025e-05 0 -0.014823965285175824 4.7211758520668665e-05 0 -0.014820713573140465 3.7332314060700143e-05 0 -0.014889594065784292 4.1341792662779858e-05 0 -0.014992826508822712 2.7545970698829749e-05 0 -0.014974341602894596 9.7683706139879974e-06 0 -0.014909784320001245 3.9107170297872006e-05 0 -0.01467681833622241 -1.791094184707408e-05 0 -0.014277579332521148 6.0982417024214104e-05 0 -0.014823965285175824 4.7211758520668665e-05 0 -0.014648822379414454 5.7909986968363025e-05 0 -0.014823965285175824 4.7211758520668665e-05 0 -0.014909784320001245 3.9107170297872006e-05 0 -0.014835378163688575 -6.6734724931127485e-05 0 -0.01467681833622241 -1.791094184707408e-05 0 -0.014847064826804642 -3.581807415688665e-06 0 -0.01467681833622241 -1.791094184707408e-05 0 -0.014823965285175824 4.7211758520668665e-05 0 -0.014847064826804642 -3.581807415688665e-06 0 -0.014823965285175824 4.7211758520668665e-05 0 -0.014872405119794579 2.4395540127206259e-05 0 -0.014847064826804642 -3.581807415688665e-06 0 -0.014823965285175824 4.7211758520668665e-05 0 -0.014909784320001245 3.9107170297872006e-05 0 -0.014872405119794579 2.4395540127206259e-05 0 -0.01499999672180592 -1.5420438382238473e-09 0 -0.014974341602894596 9.7683706139879974e-06 0 -0.01499983156503472 2.5264007160376854e-08 0 -0.014974341602894596 9.7683706139879974e-06 0 -0.01499983156503472 2.5264007160376854e-08 0 -0.014909784320001245 3.9107170297872006e-05 0 -0.014951324335149927 1.7420858659527937e-05 0 -0.014911761757675531 4.1835269156636556e-06 0 -0.014909784320001245 3.9107170297872006e-05 0 -0.01499983156503472 2.5264007160376854e-08 0 -0.014951324335149927 1.7420858659527937e-05 0 -0.014909784320001245 3.9107170297872006e-05 0 -0.014968928376483621 1.1670790482510033e-05 0 -0.01499983156503472 2.5264007160376854e-08 0 -0.014951324335149927 1.7420858659527937e-05 0 -0.014968928376483621 1.1670790482510033e-05 0 -0.014951324335149927 1.7420858659527937e-05 0 -0.014911761757675531 4.1835269156636556e-06 0 -0.014854767494464922 -5.7842048547206571e-05 0 -0.014911761757675531 4.1835269156636556e-06 0 -0.014876035356647175 -3.1051078135106571e-05 0 -0.014911761757675531 4.1835269156636556e-06 0 -0.014909784320001245 3.9107170297872006e-05 0 -0.014872405119794579 2.4395540127206259e-05 0 -0.014911761757675531 4.1835269156636556e-06 0 -0.014872405119794579 2.4395540127206259e-05 0 -0.014847064826804642 -3.581807415688665e-06 0 -0.014911761757675531 4.1835269156636556e-06 0 -0.014847064826804642 -3.581807415688665e-06 0 -0.014876035356647175 -3.1051078135106571e-05 0 -0.014835378163688575 -6.6734724931127485e-05 0 -0.014847064826804642 -3.581807415688665e-06 0 -0.014876035356647175 -3.1051078135106571e-05 0 -0.014977253918866435 -3.3991551363405162e-05 0 -0.014964562054266333 -3.3996528620380404e-05 0 -0.014983504887393499 -4.1392638149809613e-05 0 -0.014983245996146591 -3.3391726642885483e-05 0 -0.014977253918866435 -3.3991551363405162e-05 0 -0.014983504887393499 -4.1392638149809613e-05 0 -0.014983245996146591 -3.3391726642885483e-05 0 -0.014977253918866435 -3.3991551363405162e-05 0 -0.01498356562492162 -2.313170153603773e-05 0 -0.014983245996146591 -3.3391726642885483e-05 0 -0.014990064071279121 -2.7348078714492843e-05 0 -0.01498356562492162 -2.313170153603773e-05 0 -0.014977253918866435 -3.3991551363405162e-05 0 -0.014964562054266333 -3.3996528620380404e-05 0 -0.01498356562492162 -2.313170153603773e-05 0 -0.014969999528188952 -2.9657980595707845e-05 0 -0.014964562054266333 -3.3996528620380404e-05 0 -0.01498356562492162 -2.313170153603773e-05 0 -0.014969999528188952 -2.9657980595707845e-05 0 -0.014958115121634039 -5.0640331110397804e-05 0 -0.01497043571394906 -1.5262684889274831e-05 0 -0.015036265284030194 2.1728093658237811e-05 0 -0.014972089465515986 -1.456440799119645e-05 0 -0.014969999528188952 -2.9657980595707845e-05 0 -0.014956967155561315 -3.8453926850344235e-05 0 -0.014958115121634039 -5.0640331110397804e-05 0 -0.014969999528188952 -2.9657980595707845e-05 0 -0.014956967155561315 -3.8453926850344235e-05 0 -0.014964562054266333 -3.3996528620380404e-05 0 -0.015036265284030194 2.1728093658237811e-05 0 -0.014004930244952361 -0.00012897018771440945 0 -0.014935610311862029 8.6436334392571003e-05 0 -0.014939986960899709 -2.1130747790369397e-05 0 -0.014699012352479652 5.7405910170322115e-06 0 -0.014958115121634039 -5.0640331110397804e-05 0 -0.014939986960899709 -2.1130747790369397e-05 0 -0.014963666665983675 5.4184501311784106e-05 0 -0.014956967155561315 -3.8453926850344235e-05 0 -0.014964562054266333 -3.3996528620380404e-05 0 -0.014939986960899709 -2.1130747790369397e-05 0 -0.014956967155561315 -3.8453926850344235e-05 0 -0.014958115121634039 -5.0640331110397804e-05 0 -0.014939986960899709 -2.1130747790369397e-05 0 -0.014939986960899709 -2.1130747790369397e-05 0 -0.014699012352479652 5.7405910170322115e-06 0 -0.014694487660430442 -8.59838079813287e-05 0 -0.014887149904095932 -3.4690916916530416e-05 0 -0.014957159614104723 -4.7702591780455638e-05 0 -0.014964562054266333 -3.3996528620380404e-05 0 -0.014939986960899709 -2.1130747790369397e-05 0 -0.014983504887393499 -4.1392638149809613e-05 0 -0.01326313391559039 -0.00042009277717002278 0 -0.013031074017837298 -0.00034499832990433031 0 -0.013370579326359348 -0.00017648647283430681 0 -0.014957159614104723 -4.7702591780455638e-05 0 -0.014144438644659463 -8.7789749282547773e-05 0 -0.014699012352479652 5.7405910170322115e-06 0 -0.014694487660430442 -8.59838079813287e-05 0 -0.014391601859203781 -0.00013746277727981476 0 -0.013857501734030775 -0.00017178104278233125 0 -0.014144438644659463 -8.7789749282547773e-05 0 -0.01326313391559039 -0.00042009277717002278 0 -0.013436432931754453 -0.00033759027929636373 0 -0.013370579326359348 -0.00017648647283430681 0 -0.013447969437200094 -0.00047651417981140707 0 -0.013598219159011807 -0.00035280093314239035 0 -0.013436432931754453 -0.00033759027929636373 0 -0.013447969437200094 -0.00047651417981140707 0 -0.01326313391559039 -0.00042009277717002278 0 -0.013436432931754453 -0.00033759027929636373 0 -0.013587235019572147 -0.00018062816043514678 0 -0.014144438644659463 -8.7789749282547773e-05 0 -0.013602571355273225 -0.00021927566804475472 0 -0.013476291715849945 -0.00023456882311111613 0 -0.01339819551850358 -0.00012975122796324927 0 -0.013436432931754453 -0.00033759027929636373 0 -0.013476291715849945 -0.00023456882311111613 0 -0.013339205265521707 -0.00014357458871350735 0 -0.013598219159011807 -0.00035280093314239035 0 -0.013436432931754453 -0.00033759027929636373 0 -0.013476291715849945 -0.00023456882311111613 0 -0.014997052751697409 1.3331823313174225e-05 0 -0.014999017138172378 1.1099799407146788e-05 0 -0.014999566936717819 9.4161689221505113e-06 0 -0.014701129337798652 7.5682543048527465e-06 0 -0.014742953069804492 -0.00010471956752672521 0 -0.0144420662420257 1.4884466362578766e-06 0 -0.014301817554860066 -0.00011697963010638068 0 -0.014251281229182698 -7.4246567729670289e-05 0 -0.013476291715849945 -0.00023456882311111613 0 -0.01339819551850358 -0.00012975122796324927 0 -0.013339205265521707 -0.00014357458871350735 0 -0.014144438644659463 -8.7789749282547773e-05 0 -0.014742953069804492 -0.00010471956752672521 0 -0.013955754927488323 -0.00010378611127637547 0 -0.014144438644659463 -8.7789749282547773e-05 0 -0.014301817554860066 -0.00011697963010638068 0 -0.014270785521347897 -0.00012302226999460586 0 -0.014251281229182698 -7.4246567729670289e-05 0 -0.015000708179609653 -3.341172557319742e-05 0 -0.014990064071279121 -2.7348078714492843e-05 0 -0.014998128890686673 -1.3869386543954076e-05 0 -0.014983504887393499 -4.1392638149809613e-05 0 -0.014978995880345937 -3.6890202460949631e-05 0 -0.014983695602315793 -3.9052070796503078e-05 0 -0.014983245996146591 -3.3391726642885483e-05 0 -0.014983504887393499 -4.1392638149809613e-05 0 -0.014983695602315793 -3.9052070796503078e-05 0 -0.014983245996146591 -3.3391726642885483e-05 0 -0.014983695602315793 -3.9052070796503078e-05 0 -0.014990064071279121 -2.7348078714492843e-05 0 -0.014742953069804492 -0.00010471956752672521 0 -0.015045906541569785 -9.4431531434904114e-06 0 -0.014978995880345937 -3.6890202460949631e-05 0 -0.014979253604334414 -3.8632759438911272e-05 0 -0.014983695602315793 -3.9052070796503078e-05 0 -0.015000708179609653 -3.341172557319742e-05 0 -0.014983695602315793 -3.9052070796503078e-05 0 -0.014990064071279121 -2.7348078714492843e-05 0 -0.014742953069804492 -0.00010471956752672521 0 -0.015017504298738923 1.4688258066226838e-06 0 -0.014990064071279121 -2.7348078714492843e-05 0 -0.014998128890686673 -1.3869386543954076e-05 0 -0.01498356562492162 -2.313170153603773e-05 0 -0.014999017138172378 1.1099799407146788e-05 0 -0.015001797445619079 6.2704966827943864e-06 0 -0.014999566936717819 9.4161689221505113e-06 0 -0.014998538498566324 9.4632341367321385e-06 0 -0.014999566936717819 9.4161689221505113e-06 0 -0.01499999942368151 1.037394861511019e-08 0 -0.015001797445619079 6.2704966827943864e-06 0 -0.014999566936717819 9.4161689221505113e-06 0 -0.01499999942368151 1.037394861511019e-08 0 -0.015001797445619079 6.2704966827943864e-06 0 -0.01499999942368151 1.037394861511019e-08 0 -0.015000007667755231 -6.0311171855322162e-10 0 -0.015017504298738923 1.4688258066226838e-06 0 -0.014999993451971829 1.8292074287584506e-09 0 -0.014998128890686673 -1.3869386543954076e-05 0 -0.015000000268901061 -4.0028934769166253e-09 0 -0.014992971038783462 -8.5608178509769996e-06 0 -0.015000000268901061 -4.0028934769166253e-09 0 -0.01499998938542841 -3.8744900112772117e-09 0 -0.014992971038783462 -8.5608178509769996e-06 0 -0.01499998938542841 -3.8744900112772117e-09 0 -0.014992971038783462 -8.5608178509769996e-06 0 -0.014988113779149532 -7.0957083706399217e-06 0 -0.014992971038783462 -8.5608178509769996e-06 0 -0.01498356562492162 -2.313170153603773e-05 0 -0.014988113779149532 -7.0957083706399217e-06 0 -0.014998128890686673 -1.3869386543954076e-05 0 -0.014992971038783462 -8.5608178509769996e-06 0 -0.01498356562492162 -2.313170153603773e-05 0 -0.014969999528188952 -2.9657980595707845e-05 0 -0.01498356562492162 -2.313170153603773e-05 0 -0.014988113779149532 -7.0957083706399217e-06 0 -0.014969999528188952 -2.9657980595707845e-05 0 -0.01497043571394906 -1.5262684889274831e-05 0 -0.014988113779149532 -7.0957083706399217e-06 0 -0.01497043571394906 -1.5262684889274831e-05 0 -0.014999969507792045 2.3694410387078751e-10 0 -0.014988113779149532 -7.0957083706399217e-06 0 -0.01499998938542841 -3.8744900112772117e-09 0 -0.014999969507792045 2.3694410387078751e-10 0 -0.014988113779149532 -7.0957083706399217e-06 0 -0.014972089465515986 -1.456440799119645e-05 0 -0.014999990888230416 7.4627755879993745e-09 0 -0.014999976214957265 2.2924887806281727e-09 0 -0.01499061453181783 2.053665338899611e-06 0 -0.014999998613437236 -2.2933132561431913e-09 0 -0.01498262877811425 4.2504293164625884e-06 0 -0.014999976214957265 2.2924887806281727e-09 0 -0.01499061453181783 2.053665338899611e-06 0 -0.014999998613437236 -2.2933132561431913e-09 0 -0.014988189863073636 2.5119224945160986e-06 0 -0.014999946544317954 1.5165328120952125e-08 0 -0.01499061453181783 2.053665338899611e-06 0 -0.014999998613437236 -2.2933132561431913e-09 0 -0.014988189863073636 2.5119224945160986e-06 0 -0.015308872364740825 8.1417775213479899e-05 0 -0.013411753039350327 0.00014698001895449708 0 -0.014988189863073636 2.5119224945160986e-06 0 -0.014978939213916334 7.6565117313993639e-06 0 -0.014973268906971695 1.099900840480403e-05 0 -0.01499061453181783 2.053665338899611e-06 0 -0.014988189863073636 2.5119224945160986e-06 0 -0.014978939213916334 7.6565117313993639e-06 0 -0.01498262877811425 4.2504293164625884e-06 0 -0.01499061453181783 2.053665338899611e-06 0 -0.014978939213916334 7.6565117313993639e-06 0 -0.014967947997216248 1.1348066508849484e-05 0 -0.01498262877811425 4.2504293164625884e-06 0 -0.014978939213916334 7.6565117313993639e-06 0 -0.014967947997216248 1.1348066508849484e-05 0 -0.014978939213916334 7.6565117313993639e-06 0 -0.014969612764187996 1.499971620868748e-05 0 -0.014978939213916334 7.6565117313993639e-06 0 -0.014969612764187996 1.499971620868748e-05 0 -0.014973268906971695 1.099900840480403e-05 0 -0.013944597397007454 1.6397704123736252e-05 0 -0.013411753039350327 0.00014698001895449708 0 -0.014967947997216248 1.1348066508849484e-05 0 -0.014969612764187996 1.499971620868748e-05 0 -0.014956097371071403 2.0688798110096725e-05 0 -0.013944597397007454 1.6397704123736252e-05 0 -0.014004930244952361 -0.00012897018771440945 0 -0.01139251400842489 -0.00015563029619871296 0 -0.011193351521654307 -6.9608873239302986e-05 0 -0.011130812365495074 -0.00023326104173588492 0 -0.01139251400842489 -0.00015563029619871296 0 -0.011341185318901301 9.8469850915511767e-05 0 -0.011193351521654307 -6.9608873239302986e-05 0 -0.01139251400842489 -0.00015563029619871296 0 -0.011554903227322078 0.00011540179536255688 0 -0.011341185318901301 9.8469850915511767e-05 0 -0.01164650898253199 -0.0001896498887924082 0 -0.013411753039350327 0.00014698001895449708 0 -0.012814085250217015 5.0057607109124717e-05 0 -0.012237993539590656 -0.00013584441996078981 0 -0.01245591909256503 0.00032577277076296902 0 -0.013411753039350327 0.00014698001895449708 0 -0.013861379555066021 5.1944650145036138e-05 0 -0.011554903227322078 0.00011540179536255688 0 -0.011341185318901301 9.8469850915511767e-05 0 -0.011307442855485407 0.00031356973000976903 0 -0.011341185318901301 9.8469850915511767e-05 0 -0.011139454638820729 0.0001110708353078637 0 -0.011193351521654307 -6.9608873239302986e-05 0 -0.013861379555066021 5.1944650145036138e-05 0 -0.012613402699547719 -5.4683160286332477e-05 0 -0.011341185318901301 9.8469850915511767e-05 0 -0.011307442855485407 0.00031356973000976903 0 -0.011139454638820729 0.0001110708353078637 0 -0.013861379555066021 5.1944650145036138e-05 0 -0.015152090826284333 -0.00034995760434671316 0 -0.014988189863073636 2.5119224945160986e-06 0 -0.01496882627579531 -5.7694681279782922e-06 0 -0.014965471199203721 3.4533106394998734e-07 0 -0.014988189863073636 2.5119224945160986e-06 0 -0.014965471199203721 3.4533106394998734e-07 0 -0.014999946544317954 1.5165328120952125e-08 0 -0.015000162202384548 -9.3927731241100897e-08 0 -0.014999868502228102 8.1830223404861381e-08 0 -0.015028144171847078 -0.00010311999368544487 0 -0.013861379555066021 5.1944650145036138e-05 0 -0.015001089037468584 4.4735856382450121e-07 0 -0.015023780695800867 -9.3983935526627247e-05 0 -0.015000162202384548 -9.3927731241100897e-08 0 -0.015028144171847078 -0.00010311999368544487 0 -0.014999868502228102 8.1830223404861381e-08 0 -0.015028144171847078 -0.00010311999368544487 0 -0.015027755694927779 -0.00019742866021207743 0 -0.014999868502228102 8.1830223404861381e-08 0 -0.015027755694927779 -0.00019742866021207743 0 -0.015000747765704451 -7.700693231324382e-07 0 -0.015027755694927779 -0.00019742866021207743 0 -0.01501366396978124 -0.00033648988504568614 0 -0.015031624129874745 -0.00024029040748809965 0 -0.015088744668585122 -0.00017226774955090275 0 -0.01503552568324267 -0.00018165521099716166 0 -0.015031624129874745 -0.00024029040748809965 0 -0.015028144171847078 -0.00010311999368544487 0 -0.015027755694927779 -0.00019742866021207743 0 -0.01503552568324267 -0.00018165521099716166 0 -0.015027755694927779 -0.00019742866021207743 0 -0.01503552568324267 -0.00018165521099716166 0 -0.015031624129874745 -0.00024029040748809965 0 -0.015088744668585122 -0.00017226774955090275 0 -0.015028144171847078 -0.00010311999368544487 0 -0.01503552568324267 -0.00018165521099716166 0 -0.014997347315362912 1.6796605709193796e-06 0 -0.014974263655959327 -0.00025739811583350294 0 -0.014658248794039234 -0.000825494404214229 0 -0.015027755694927779 -0.00019742866021207743 0 -0.014974263655959327 -0.00025739811583350294 0 -0.015000747765704451 -7.700693231324382e-07 0 -0.014997347315362912 1.6796605709193796e-06 0 -0.014974263655959327 -0.00025739811583350294 0 -0.015000747765704451 -7.700693231324382e-07 0 -0.015027755694927779 -0.00019742866021207743 0 -0.014974263655959327 -0.00025739811583350294 0 -0.01501366396978124 -0.00033648988504568614 0 -0.014974263655959327 -0.00025739811583350294 0 -0.014658248794039234 -0.000825494404214229 0 -0.01501366396978124 -0.00033648988504568614 0 -0.012775708333358851 -0.00056335945307299485 0 -0.01302991904690399 -0.00034535105453875213 0 -0.011035845507796313 -0.00040969983547660898 0 -0.010979723770730134 -0.00019848928211876673 0 -0.01090408952220588 -0.00024312319984652139 0 -0.010979723770730134 -0.00019848928211876673 0 -0.01090408952220588 -0.00024312319984652139 0 -0.010890655835434358 -0.00015955295091556114 0 -0.010979723770730134 -0.00019848928211876673 0 -0.010890655835434358 -0.00015955295091556114 0 -0.010721840301421839 -0.00016176826428707276 0 -0.010979723770730134 -0.00019848928211876673 0 -0.010721840301421839 -0.00016176826428707276 0 -0.01088626387464541 -0.00014542784907229731 0 -0.01302991904690399 -0.00034535105453875213 0 -0.012613402699547719 -5.4683160286332477e-05 0 -0.01090408952220588 -0.00024312319984652139 0 -0.010909849635474764 -0.00018347880059438164 0 -0.010917579409428904 -0.00017990058181750767 0 -0.01090408952220588 -0.00024312319984652139 0 -0.010890655835434358 -0.00015955295091556114 0 -0.010917579409428904 -0.00017990058181750767 0 -0.010890655835434358 -0.00015955295091556114 0 -0.010951403537925005 -0.00015000036265615244 0 -0.010880023928357047 -0.00021611805589343713 0 -0.010890655835434358 -0.00015955295091556114 0 -0.010917579409428904 -0.00017990058181750767 0 -0.010951403537925005 -0.00015000036265615244 0 -0.010909849635474764 -0.00018347880059438164 0 -0.010917579409428904 -0.00017990058181750767 0 -0.010951403537925005 -0.00015000036265615244 0 -0.010951403537925005 -0.00015000036265615244 0 -0.011193351521654307 -6.9608873239302986e-05 0 -0.011130812365495074 -0.00023326104173588492 0 -0.012613402699547719 -5.4683160286332477e-05 0 -0.010547821895590604 -0.00030756318112045019 0 -0.011139454638820729 0.0001110708353078637 0 -0.010951403537925005 -0.00015000036265615244 0 -0.011193351521654307 -6.9608873239302986e-05 0 -0.010951403537925005 -0.00015000036265615244 0 -0.011130812365495074 -0.00023326104173588492 0 -0.01101467166566333 -0.00032929069255056739 0 -0.010951403537925005 -0.00015000036265615244 0 -0.01101467166566333 -0.00032929069255056739 0 -0.010880023928357047 -0.00021611805589343713 0 -0.01101467166566333 -0.00032929069255056739 0 -0.010880023928357047 -0.00021611805589343713 0 -0.010824313074024726 -0.00038675278063277199 0 -0.01101467166566333 -0.00032929069255056739 0 -0.011141359281750271 -0.00053831958189707728 0 -0.011240432104718652 -0.00036202915220976171 0 -0.011130812365495074 -0.00023326104173588492 0 -0.01101467166566333 -0.00032929069255056739 0 -0.011240432104718652 -0.00036202915220976171 0 -0.010890655835434358 -0.00015955295091556114 0 -0.010721840301421839 -0.00016176826428707276 0 -0.010880023928357047 -0.00021611805589343713 0 -0.010677068683087697 -0.00015572087612584788 0 -0.010585186371615523 -0.00017888867549577256 0 -0.010721840301421839 -0.00016176826428707276 0 -0.010880023928357047 -0.00021611805589343713 0 -0.010824313074024726 -0.00038675278063277199 0 -0.010721840301421839 -0.00016176826428707276 0 -0.010545809131958262 2.7719202109392095e-05 0 -0.010695764500086283 9.9971084592462306e-06 0 -0.010721840301421839 -0.00016176826428707276 0 -0.010286381800491061 5.1507219610937921e-05 0 -0.010545809131958262 2.7719202109392095e-05 0 -0.010274252272963495 0.00023758618967427723 0 -0.010320620959614935 0.00032818886769276354 0 -0.010491123296439661 0.00018282059648337391 0 -0.010545809131958262 2.7719202109392095e-05 0 -0.010274252272963495 0.00023758618967427723 0 -0.010491123296439661 0.00018282059648337391 0 -0.010286381800491061 5.1507219610937921e-05 0 -0.010274252272963495 0.00023758618967427723 0 -0.010099354075172788 0.00027411740892200833 0 -0.010585186371615523 -0.00017888867549577256 0 -0.01042712958178826 -4.6627015219045289e-05 0 -0.010286381800491061 5.1507219610937921e-05 0 -0.010545809131958262 2.7719202109392095e-05 0 -0.010274252272963495 0.00023758618967427723 0 -0.010274252272963495 0.00023758618967427723 0 -0.010173338970836544 0.00036734848285087694 0 -0.010320620959614935 0.00032818886769276354 0 -0.010274252272963495 0.00023758618967427723 0 -0.010173338970836544 0.00036734848285087694 0 -0.010099354075172788 0.00027411740892200833 0 -0.010173338970836544 0.00036734848285087694 0 -0.010320620959614935 0.00032818886769276354 0 -0.01022653348905055 0.00040607791652060921 0 -0.01101467166566333 -0.00032929069255056739 0 -0.010824313074024726 -0.00038675278063277199 0 -0.010936953895033285 -0.00055899579797680427 0 -0.01101467166566333 -0.00032929069255056739 0 -0.011141359281750271 -0.00053831958189707728 0 -0.010936953895033285 -0.00055899579797680427 0 -0.010173338970836544 0.00036734848285087694 0 -0.010099354075172788 0.00027411740892200833 0 -0.010101596719228322 0.00040040845219137933 0 -0.01042712958178826 -4.6627015219045289e-05 0 -0.011091164889832562 -0.00054080606393943926 0 -0.010099354075172788 0.00027411740892200833 0 -0.010025513031141265 0.00040710896763184286 0 -0.010101596719228322 0.00040040845219137933 0 -0.011855710763898178 -0.00094594485656493291 0 -0.01188816900745167 -0.0010867906736631221 0 -0.011725771579341501 -0.0012045787773513987 0 -0.011514716418453872 -0.00081661931985896048 0 -0.011091164889832562 -0.00054080606393943926 0 -0.011141359281750271 -0.00053831958189707728 0 -0.010936953895033285 -0.00055899579797680427 0 -0.011053224487559866 -0.00072250001292813463 0 -0.01188816900745167 -0.0010867906736631221 0 -0.01197012949675361 -0.0011169608366764598 0 -0.012004035110914645 -0.00098836268017264564 0 -0.01188816900745167 -0.0010867906736631221 0 -0.01197012949675361 -0.0011169608366764598 0 -0.011894425021815029 -0.0011733278678329113 0 -0.01197012949675361 -0.0011169608366764598 0 -0.012100593658060292 -0.0010891618824645575 0 -0.012116254819034096 -0.0012470923079087959 0 -0.01197012949675361 -0.0011169608366764598 0 -0.012004035110914645 -0.00098836268017264564 0 -0.012100593658060292 -0.0010891618824645575 0 -0.012004035110914645 -0.00098836268017264564 0 -0.012159028453808784 -0.00099616976671553165 0 -0.012100593658060292 -0.0010891618824645575 0 -0.011855710763898178 -0.00094594485656493291 0 -0.01188816900745167 -0.0010867906736631221 0 -0.012004035110914645 -0.00098836268017264564 0 -0.011855710763898178 -0.00094594485656493291 0 -0.011958249682940044 -0.00084287483310403614 0 -0.012029580344596447 -0.00059017275151635991 0 -0.011958249682940044 -0.00084287483310403614 0 -0.012108960229059544 -0.00088748499757993794 0 -0.012186620204090063 -0.00074356368928901284 0 -0.011982967553743899 -0.00083906174370195277 0 -0.012271020160927217 -0.00072170112646468437 0 -0.011514716418453872 -0.00081661931985896048 0 -0.01166078871849888 -0.00044451944394596283 0 -0.011855710763898178 -0.00094594485656493291 0 -0.012004035110914645 -0.00098836268017264564 0 -0.011958249682940044 -0.00084287483310403614 0 -0.012004035110914645 -0.00098836268017264564 0 -0.012108960229059544 -0.00088748499757993794 0 -0.012159028453808784 -0.00099616976671553165 0 -0.012004035110914645 -0.00098836268017264564 0 -0.011958249682940044 -0.00084287483310403614 0 -0.012108960229059544 -0.00088748499757993794 0 -0.012264836028074197 -0.00086390851440563087 0 -0.012108960229059544 -0.00088748499757993794 0 -0.012186620204090063 -0.00074356368928901284 0 -0.012264836028074197 -0.00086390851440563087 0 -0.012108960229059544 -0.00088748499757993794 0 -0.012159028453808784 -0.00099616976671553165 0 -0.012264836028074197 -0.00086390851440563087 0 -0.012159028453808784 -0.00099616976671553165 0 -0.012296711267969522 -0.00099271419038545416 0 -0.012159028453808784 -0.00099616976671553165 0 -0.01225147318067594 -0.0011015399730229091 0 -0.012296711267969522 -0.00099271419038545416 0 -0.012100593658060292 -0.0010891618824645575 0 -0.01225147318067594 -0.0011015399730229091 0 -0.012116254819034096 -0.0012470923079087959 0 -0.012159028453808784 -0.00099616976671553165 0 -0.012100593658060292 -0.0010891618824645575 0 -0.01225147318067594 -0.0011015399730229091 0 -0.01225147318067594 -0.0011015399730229091 0 -0.012402213912309352 -0.0010539467816460862 0 -0.012470918389482494 -0.0011768196447560456 0 -0.01225147318067594 -0.0011015399730229091 0 -0.012402213912309352 -0.0010539467816460862 0 -0.012296711267969522 -0.00099271419038545416 0 -0.012402213912309352 -0.0010539467816460862 0 -0.012296711267969522 -0.00099271419038545416 0 -0.012432688268683661 -0.00091229745222537895 0 -0.012766179384221506 -0.0011212937332210759 0 -0.012450332699377425 -0.0011731400140722278 0 -0.012782413904160662 -0.0011193461756080043 0 -0.012586026007928729 -0.0010129590579974093 0 -0.012470918389482494 -0.0011768196447560456 0 -0.012402213912309352 -0.0010539467816460862 0 -0.012586026007928729 -0.0010129590579974093 0 -0.012432688268683661 -0.00091229745222537895 0 -0.012402213912309352 -0.0010539467816460862 0 -0.012586026007928729 -0.0010129590579974093 0 -0.012470918389482494 -0.0011768196447560456 0 -0.012586026007928729 -0.0010129590579974093 0 -0.012642465720506335 -0.00083792559490061141 0 -0.012432688268683661 -0.00091229745222537895 0 -0.012642465720506335 -0.00083792559490061141 0 -0.012432688268683661 -0.00091229745222537895 0 -0.012420075101356868 -0.00063274448108207877 0 -0.012264836028074197 -0.00086390851440563087 0 -0.012432688268683661 -0.00091229745222537895 0 -0.012420075101356868 -0.00063274448108207877 0 -0.012264836028074197 -0.00086390851440563087 0 -0.012296711267969522 -0.00099271419038545416 0 -0.012432688268683661 -0.00091229745222537895 0 -0.012543427187164932 -0.00059109850806904948 0 -0.012271020160927217 -0.00072170112646468437 0 -0.012759978473316117 -0.00052933676211667309 0 -0.01250921804100273 -0.00036615744005733225 0 -0.012343357784625695 -0.0007100686450659218 0 -0.012264836028074197 -0.00086390851440563087 0 -0.012420075101356868 -0.00063274448108207877 0 -0.012186620204090063 -0.00074356368928901284 0 -0.012642465720506335 -0.00083792559490061141 0 -0.012420075101356868 -0.00063274448108207877 0 -0.012660146153917081 -0.00051668754062967703 0 -0.012519588625941392 -0.00085042489022323607 0 -0.013195115941210981 -0.00045825977731156286 0 -0.012814085250217015 5.0057607109124717e-05 0 -0.012890416286638711 -0.0002718279255452536 0 -0.013179186766124744 -0.00022818560365933091 0 -0.012543427187164932 -0.00059109850806904948 0 -0.013195115941210981 -0.00045825977731156286 0 -0.012759978473316117 -0.00052933676211667309 0 -0.013175127466042415 -0.00033517214554006341 0 -0.012890416286638711 -0.0002718279255452536 0 -0.013175127466042415 -0.00033517214554006341 0 -0.012890416286638711 -0.0002718279255452536 0 -0.013179186766124744 -0.00022818560365933091 0 -0.013195115941210981 -0.00045825977731156286 0 -0.014004930244952361 -0.00012897018771440945 0 -0.012759978473316117 -0.00052933676211667309 0 -0.012890416286638711 -0.0002718279255452536 0 -0.01250921804100273 -0.00036615744005733225 0 -0.012814085250217015 5.0057607109124717e-05 0 -0.012890416286638711 -0.0002718279255452536 0 -0.01250921804100273 -0.00036615744005733225 0 -0.012237993539590656 -0.00013584441996078981 0 -0.01250921804100273 -0.00036615744005733225 0 -0.012029580344596447 -0.00059017275151635991 0 -0.012814085250217015 5.0057607109124717e-05 0 -0.012237993539590656 -0.00013584441996078981 0 -0.01250921804100273 -0.00036615744005733225 0 -0.01139251400842489 -0.00015563029619871296 0 -0.011130812365495074 -0.00023326104173588492 0 -0.011240432104718652 -0.00036202915220976171 0 -0.01164650898253199 -0.0001896498887924082 0 -0.01166078871849888 -0.00044451944394596283 0 -0.011958249682940044 -0.00084287483310403614 0 -0.012029580344596447 -0.00059017275151635991 0 -0.012343357784625695 -0.0007100686450659218 0 -0.01250921804100273 -0.00036615744005733225 0 -0.012029580344596447 -0.00059017275151635991 0 -0.012343357784625695 -0.0007100686450659218 0 -0.013134175743968947 -7.1446758078332974e-07 0 -0.014196237472958858 4.6575639939185605e-07 0 -0.014560804575566261 4.8234111338699022e-05 0 -0.013132215072211552 -1.7679119296581647e-07 0 -0.013166725693413825 -0.00030884634170575575 0 -0.013134175743968947 -7.1446758078332974e-07 0 -0.013973868604338406 -0.00017468665538006845 0 -0.014196237472958858 4.6575639939185605e-07 0 -0.011902091972725804 -0.00043808946391788779 0 -0.01227682941658024 -0.00057069975199891532 0 -0.011808665262736388 -0.0007895417511061451 0 -0.011902091972725804 -0.00043808946391788779 0 -0.01227682941658024 -0.00057069975199891532 0 -0.011971476994117339 -0.00018060262864075461 0 -0.013973868604338406 -0.00017468665538006845 0 -0.014264039768003257 -5.0409256983216802e-05 0 -0.014475238789043131 -0.0001346161741370955 0 -0.013166725693413825 -0.00030884634170575575 0 -0.012894425984743843 -0.0003595656610203473 0 -0.014264039768003257 -5.0409256983216802e-05 0 -0.014196237472958858 4.6575639939185605e-07 0 -0.014443261142442992 1.0685124805729625e-05 0 -0.013973868604338406 -0.00017468665538006845 0 -0.014264039768003257 -5.0409256983216802e-05 0 -0.014196237472958858 4.6575639939185605e-07 0 -0.014196237472958858 4.6575639939185605e-07 0 -0.014443261142442992 1.0685124805729625e-05 0 -0.014558579176721504 5.8324261902021852e-05 0 -0.013744331196557163 -0.00027355906964909843 0 -0.012894425984743843 -0.0003595656610203473 0 -0.014264039768003257 -5.0409256983216802e-05 0 -0.014443261142442992 1.0685124805729625e-05 0 -0.014475238789043131 -0.0001346161741370955 0 -0.013134175743968947 -7.1446758078332974e-07 0 -0.014560804575566261 4.8234111338699022e-05 0 -0.014999355343690785 4.0072949885687864e-07 0 -0.014560804575566261 4.8234111338699022e-05 0 -0.014999355343690785 4.0072949885687864e-07 0 -0.014999205778768076 -1.0087027252980422e-07 0 -0.014999205778768076 -1.0087027252980422e-07 0 -0.014558579176721504 5.8324261902021852e-05 0 -0.014589117240210349 6.3696649646562736e-05 0 -0.014560804575566261 4.8234111338699022e-05 0 -0.014999205778768076 -1.0087027252980422e-07 0 -0.014558579176721504 5.8324261902021852e-05 0 -0.014443261142442992 1.0685124805729625e-05 0 -0.014558579176721504 5.8324261902021852e-05 0 -0.014589117240210349 6.3696649646562736e-05 0 -0.014196237472958858 4.6575639939185605e-07 0 -0.014560804575566261 4.8234111338699022e-05 0 -0.014558579176721504 5.8324261902021852e-05 0 -0.014933387640740625 -1.0216292268951427e-06 0 -0.013005074440904152 -0.00020875193002206318 0 -0.014982958266864379 -5.9706283064873659e-06 0 -0.014983540031066311 -6.8976792295362354e-06 0 -0.014965240880158243 -1.4824180222560587e-05 0 -0.014999985990395511 -5.1110000169074179e-10 0 -0.014982958266864379 -5.9706283064873659e-06 0 -0.014999970665333822 -6.2648459888226234e-09 0 -0.014917866282384101 4.0055532088101927e-05 0 -0.014933387640740625 -1.0216292268951427e-06 0 -0.014999970665333822 -6.2648459888226234e-09 0 -0.014983540031066311 -6.8976792295362354e-06 0 -0.014989835725690426 -5.0155287806558706e-06 0 -0.014982958266864379 -5.9706283064873659e-06 0 -0.014999970665333822 -6.2648459888226234e-09 0 -0.014983540031066311 -6.8976792295362354e-06 0 -0.014983540031066311 -6.8976792295362354e-06 0 -0.014965240880158243 -1.4824180222560587e-05 0 -0.014978022445816501 -1.1884444432130919e-05 0 -0.013005074440904152 -0.00020875193002206318 0 -0.013108811364198222 -0.00015743450549537648 0 -0.01126818010864286 -0.00030149371187475837 0 -0.011164417884015603 -0.00026731216671446381 0 -0.011194508639467823 -0.0003267852852791175 0 -0.014443261142442992 1.0685124805729625e-05 0 -0.014589117240210349 6.3696649646562736e-05 0 -0.01453632822496769 -1.0421911760435305e-05 0 -0.014443261142442992 1.0685124805729625e-05 0 -0.01453632822496769 -1.0421911760435305e-05 0 -0.014455297042041924 -4.6390137971453965e-05 0 -0.013005074440904152 -0.00020875193002206318 0 -0.012894425984743843 -0.0003595656610203473 0 -0.011158175023134296 -0.00038916305436214867 0 -0.011302999627696809 -0.00048027758864795935 0 -0.011169082776711515 -0.00019520381424179651 0 -0.011902091972725804 -0.00043808946391788779 0 -0.011808665262736388 -0.0007895417511061451 0 -0.011582884076032628 -0.00023717944902101567 0 -0.011158175023134296 -0.00038916305436214867 0 -0.011029715652614069 -0.00028987896218156883 0 -0.011169082776711515 -0.00019520381424179651 0 -0.011145186497816586 -0.000556545902435375 0 -0.011158175023134296 -0.00038916305436214867 0 -0.011302999627696809 -0.00048027758864795935 0 -0.012894425984743843 -0.0003595656610203473 0 -0.011227709527817268 -0.00022934712100562948 0 -0.011145186497816586 -0.000556545902435375 0 -0.011158175023134296 -0.00038916305436214867 0 -0.011029715652614069 -0.00028987896218156883 0 -0.01126818010864286 -0.00030149371187475837 0 -0.011221691168324456 -0.00020732755076543477 0 -0.011164417884015603 -0.00026731216671446381 0 -0.011221691168324456 -0.00020732755076543477 0 -0.011164417884015603 -0.00026731216671446381 0 -0.011111169526085551 -0.00016446792486277852 0 -0.013005074440904152 -0.00020875193002206318 0 -0.010961971292398459 -0.00021925204343480143 0 -0.011164417884015603 -0.00026731216671446381 0 -0.011066333115004002 -0.00018643912524550339 0 -0.011111169526085551 -0.00016446792486277852 0 -0.011164417884015603 -0.00026731216671446381 0 -0.011168743689487611 -0.00030785570335046701 0 -0.011066333115004002 -0.00018643912524550339 0 -0.011168743689487611 -0.00030785570335046701 0 -0.010998555999163381 -0.00017658063534817269 0 -0.011066333115004002 -0.00018643912524550339 0 -0.011168743689487611 -0.00030785570335046701 0 -0.011242930764905019 -0.00034230552578482285 0 -0.011194508639467823 -0.0003267852852791175 0 -0.011168743689487611 -0.00030785570335046701 0 -0.011242930764905019 -0.00034230552578482285 0 -0.011379105056973059 -0.00034039383987280805 0 -0.011164417884015603 -0.00026731216671446381 0 -0.011168743689487611 -0.00030785570335046701 0 -0.011194508639467823 -0.0003267852852791175 0 -0.014999970665333822 -6.2648459888226234e-09 0 -0.014989835725690426 -5.0155287806558706e-06 0 -0.014999976892368313 -5.7785014347053179e-09 0 -0.014978022445816501 -1.1884444432130919e-05 0 -0.014989835725690426 -5.0155287806558706e-06 0 -0.014986499601282864 -7.7241835568316429e-06 0 -0.014983540031066311 -6.8976792295362354e-06 0 -0.014978022445816501 -1.1884444432130919e-05 0 -0.014989835725690426 -5.0155287806558706e-06 0 -0.013108811364198222 -0.00015743450549537648 0 -0.013101844739123002 -0.00017628864703097486 0 -0.014989835725690426 -5.0155287806558706e-06 0 -0.014986499601282864 -7.7241835568316429e-06 0 -0.014999976892368313 -5.7785014347053179e-09 0 -0.011242930764905019 -0.00034230552578482285 0 -0.011194508639467823 -0.0003267852852791175 0 -0.011194492999637833 -0.00032306072330823781 0 -0.011242930764905019 -0.00034230552578482285 0 -0.011194492999637833 -0.00032306072330823781 0 -0.011479762546495607 -0.00038618306413031468 0 -0.011194492999637833 -0.00032306072330823781 0 -0.011479762546495607 -0.00038618306413031468 0 -0.011980278676393513 -0.00038002230396274185 0 -0.011242930764905019 -0.00034230552578482285 0 -0.011479762546495607 -0.00038618306413031468 0 -0.011379105056973059 -0.00034039383987280805 0 -0.011479762546495607 -0.00038618306413031468 0 -0.01159625287222402 -0.00036517584779969126 0 -0.011379105056973059 -0.00034039383987280805 0 -0.01159625287222402 -0.00036517584779969126 0 -0.011414742689581992 -0.00032070982211219144 0 -0.011379105056973059 -0.00034039383987280805 0 -0.01159625287222402 -0.00036517584779969126 0 -0.011980278676393513 -0.00038002230396274185 0 -0.011414742689581992 -0.00032070982211219144 0 -0.011479762546495607 -0.00038618306413031468 0 -0.01159625287222402 -0.00036517584779969126 0 -0.011980278676393513 -0.00038002230396274185 0 -0.013101844739123002 -0.00017628864703097486 0 -0.013638459363736416 -0.00012475491153847063 0 -0.014986499601282864 -7.7241835568316429e-06 0 -0.014999976892368313 -5.7785014347053179e-09 0 -0.014995537367255387 -2.8828336980483988e-06 0 -0.011194492999637833 -0.00032306072330823781 0 -0.012303611882359716 -0.00015661362473036453 0 -0.011980278676393513 -0.00038002230396274185 0 -0.015000000703054139 9.9593428421247221e-10 0 -0.014999976892368313 -5.7785014347053179e-09 0 -0.014995537367255387 -2.8828336980483988e-06 0 -0.014997347315362912 1.6796605709193796e-06 0 -0.014658248794039234 -0.000825494404214229 0 -0.012303611882359716 -0.00015661362473036453 0 -0.014999461269230619 -9.5123838770942767e-10 0 -0.013638459363736416 -0.00012475491153847063 0 -0.011035845507796313 -0.00040969983547660898 0 -0.011980278676393513 -0.00038002230396274185 0 -0.011414742689581992 -0.00032070982211219144 0 -0.014658248794039234 -0.000825494404214229 0 -0.012303611882359716 -0.00015661362473036453 0 -0.011980278676393513 -0.00038002230396274185 0 -0.012775708333358851 -0.00056335945307299485 0 -0.012011589534894345 -0.0003914237481562002 0 -0.010979723770730134 -0.00019848928211876673 0 -0.011414742689581992 -0.00032070982211219144 0 -0.011151852046071321 -0.00024975625973561508 0 -0.011035845507796313 -0.00040969983547660898 0 -0.010979723770730134 -0.00019848928211876673 0 -0.011414742689581992 -0.00032070982211219144 0 -0.011168743689487611 -0.00030785570335046701 0 -0.011379105056973059 -0.00034039383987280805 0 -0.011151852046071321 -0.00024975625973561508 0 -0.011414742689581992 -0.00032070982211219144 0 -0.011379105056973059 -0.00034039383987280805 0 -0.011151852046071321 -0.00024975625973561508 0 -0.011168743689487611 -0.00030785570335046701 0 -0.011151852046071321 -0.00024975625973561508 0 -0.010998555999163381 -0.00017658063534817269 0 -0.011151852046071321 -0.00024975625973561508 0 -0.01088626387464541 -0.00014542784907229731 0 -0.010998555999163381 -0.00017658063534817269 0 -0.010979723770730134 -0.00019848928211876673 0 -0.011151852046071321 -0.00024975625973561508 0 -0.01088626387464541 -0.00014542784907229731 0 -0.010721840301421839 -0.00016176826428707276 0 -0.01088626387464541 -0.00014542784907229731 0 -0.010695764500086283 9.9971084592462306e-06 0 -0.01088626387464541 -0.00014542784907229731 0 -0.010998555999163381 -0.00017658063534817269 0 -0.01084689389132506 -3.5208655135808476e-05 0 -0.01088626387464541 -0.00014542784907229731 0 -0.01084689389132506 -3.5208655135808476e-05 0 -0.010695764500086283 9.9971084592462306e-06 0 -0.01084689389132506 -3.5208655135808476e-05 0 -0.010695764500086283 9.9971084592462306e-06 0 -0.010717065323587524 9.6475511285339045e-05 0 -0.010545809131958262 2.7719202109392095e-05 0 -0.010695764500086283 9.9971084592462306e-06 0 -0.010491123296439661 0.00018282059648337391 0 -0.010695764500086283 9.9971084592462306e-06 0 -0.010491123296439661 0.00018282059648337391 0 -0.010566798387858237 0.00019786784568764777 0 -0.010320620959614935 0.00032818886769276354 0 -0.010491123296439661 0.00018282059648337391 0 -0.010428091411284554 0.00034228728627708882 0 -0.010491123296439661 0.00018282059648337391 0 -0.010428091411284554 0.00034228728627708882 0 -0.010566798387858237 0.00019786784568764777 0 -0.010320620959614935 0.00032818886769276354 0 -0.010428091411284554 0.00034228728627708882 0 -0.010288908682859954 0.00044824221928923565 0 -0.010428091411284554 0.00034228728627708882 0 -0.010566798387858237 0.00019786784568764777 0 -0.010521806932365926 0.00033497583139722412 0 -0.010428091411284554 0.00034228728627708882 0 -0.010521806932365926 0.00033497583139722412 0 -0.010378327598436267 0.00043982951339283707 0 -0.010566798387858237 0.00019786784568764777 0 -0.010679856071467809 0.0001961792311488436 0 -0.010521806932365926 0.00033497583139722412 0 -0.010695764500086283 9.9971084592462306e-06 0 -0.010566798387858237 0.00019786784568764777 0 -0.010717065323587524 9.6475511285339045e-05 0 -0.010566798387858237 0.00019786784568764777 0 -0.010717065323587524 9.6475511285339045e-05 0 -0.010679856071467809 0.0001961792311488436 0 -0.010717065323587524 9.6475511285339045e-05 0 -0.010679856071467809 0.0001961792311488436 0 -0.010889243133688718 2.2565353206057157e-05 0 -0.010679856071467809 0.0001961792311488436 0 -0.010521806932365926 0.00033497583139722412 0 -0.01058598981989591 0.00035184777254987425 0 -0.010679856071467809 0.0001961792311488436 0 -0.010736156702919733 0.00026494343407303757 0 -0.010848462201903145 0.0001528479922794871 0 -0.010679856071467809 0.0001961792311488436 0 -0.01058598981989591 0.00035184777254987425 0 -0.010736156702919733 0.00026494343407303757 0 -0.010736156702919733 0.00026494343407303757 0 -0.010848462201903145 0.0001528479922794871 0 -0.010899817985807005 0.00023033709214748309 0 -0.010874654932496782 0.0001392811799139329 0 -0.011024154543994304 -5.7596464556846762e-05 0 -0.010679856071467809 0.0001961792311488436 0 -0.010848462201903145 0.0001528479922794871 0 -0.010889243133688718 2.2565353206057157e-05 0 -0.010889243133688718 2.2565353206057157e-05 0 -0.011014345706109286 -9.3557249797935048e-05 0 -0.011104818868941274 -3.6850980733826108e-05 0 -0.010848462201903145 0.0001528479922794871 0 -0.010889243133688718 2.2565353206057157e-05 0 -0.011104818868941274 -3.6850980733826108e-05 0 -0.01084689389132506 -3.5208655135808476e-05 0 -0.010717065323587524 9.6475511285339045e-05 0 -0.010889243133688718 2.2565353206057157e-05 0 -0.01084689389132506 -3.5208655135808476e-05 0 -0.010889243133688718 2.2565353206057157e-05 0 -0.010961946967028634 -0.00010217437063727468 0 -0.010889243133688718 2.2565353206057157e-05 0 -0.010961946967028634 -0.00010217437063727468 0 -0.011014345706109286 -9.3557249797935048e-05 0 -0.010998555999163381 -0.00017658063534817269 0 -0.01084689389132506 -3.5208655135808476e-05 0 -0.010961946967028634 -0.00010217437063727468 0 -0.010998555999163381 -0.00017658063534817269 0 -0.010961946967028634 -0.00010217437063727468 0 -0.011066333115004002 -0.00018643912524550339 0 -0.011111169526085551 -0.00016446792486277852 0 -0.011014345706109286 -9.3557249797935048e-05 0 -0.011104818868941274 -3.6850980733826108e-05 0 -0.011066333115004002 -0.00018643912524550339 0 -0.011111169526085551 -0.00016446792486277852 0 -0.011014345706109286 -9.3557249797935048e-05 0 -0.010961946967028634 -0.00010217437063727468 0 -0.011066333115004002 -0.00018643912524550339 0 -0.011014345706109286 -9.3557249797935048e-05 0 -0.010961971292398459 -0.00021925204343480143 0 -0.011024154543994304 -5.7596464556846762e-05 0 -0.011029715652614069 -0.00028987896218156883 0 -0.011169082776711515 -0.00019520381424179651 0 -0.010923244140927038 -4.2997324315410372e-05 0 -0.011221691168324456 -0.00020732755076543477 0 -0.011111169526085551 -0.00016446792486277852 0 -0.011104818868941274 -3.6850980733826108e-05 0 -0.011582884076032628 -0.00023717944902101567 0 -0.011625628298618684 -5.7793551264455708e-05 0 -0.011971476994117339 -0.00018060262864075461 0 -0.011227709527817268 -0.00022934712100562948 0 -0.011169926533961688 3.2944178059199473e-05 0 -0.011582884076032628 -0.00023717944902101567 0 -0.011625628298618684 -5.7793551264455708e-05 0 -0.011304534788446462 -2.8855431656454835e-06 0 -0.011625628298618684 -5.7793551264455708e-05 0 -0.011304534788446462 -2.8855431656454835e-06 0 -0.011516531237106845 6.2411529345432907e-05 0 -0.011169082776711515 -0.00019520381424179651 0 -0.011032093861198685 5.4989221440751876e-05 0 -0.010923244140927038 -4.2997324315410372e-05 0 -0.011304534788446462 -2.8855431656454835e-06 0 -0.010899817985807005 0.00023033709214748309 0 -0.011229886541746923 0.00014000992769787053 0 -0.010848462201903145 0.0001528479922794871 0 -0.011032093861198685 5.4989221440751876e-05 0 -0.010923244140927038 -4.2997324315410372e-05 0 -0.010848462201903145 0.0001528479922794871 0 -0.011032093861198685 5.4989221440751876e-05 0 -0.010899817985807005 0.00023033709214748309 0 -0.011169926533961688 3.2944178059199473e-05 0 -0.010934835749644474 0.00024060574820877395 0 -0.010899817985807005 0.00023033709214748309 0 -0.011000114194848103 0.0003090634451359145 0 -0.011229886541746923 0.00014000992769787053 0 -0.010736156702919733 0.00026494343407303757 0 -0.010899817985807005 0.00023033709214748309 0 -0.010634325933049199 0.000441893485930162 0 -0.011000114194848103 0.0003090634451359145 0 -0.01136957863439802 0.00017641568030007056 0 -0.011229886541746923 0.00014000992769787053 0 -0.011000114194848103 0.0003090634451359145 0 -0.01136957863439802 0.00017641568030007056 0 -0.011205040836748092 0.00030005683099651031 0 -0.01136957863439802 0.00017641568030007056 0 -0.011229886541746923 0.00014000992769787053 0 -0.011516531237106845 6.2411529345432907e-05 0 -0.011304534788446462 -2.8855431656454835e-06 0 -0.011229886541746923 0.00014000992769787053 0 -0.011516531237106845 6.2411529345432907e-05 0 -0.011702698403396791 9.1571067365940864e-05 0 -0.01200504728953748 5.1588454383822189e-05 0 -0.011811348415530243 2.0771858935822687e-05 0 -0.01136957863439802 0.00017641568030007056 0 -0.011516531237106845 6.2411529345432907e-05 0 -0.011702698403396791 9.1571067365940864e-05 0 -0.011516531237106845 6.2411529345432907e-05 0 -0.011702698403396791 9.1571067365940864e-05 0 -0.011811348415530243 2.0771858935822687e-05 0 -0.01136957863439802 0.00017641568030007056 0 -0.011702698403396791 9.1571067365940864e-05 0 -0.011504766683767584 0.00015760240675319635 0 -0.01136957863439802 0.00017641568030007056 0 -0.011504766683767584 0.00015760240675319635 0 -0.011205040836748092 0.00030005683099651031 0 -0.011702698403396791 9.1571067365940864e-05 0 -0.011504766683767584 0.00015760240675319635 0 -0.011786372833515664 2.4092791115531368e-07 0 -0.011504766683767584 0.00015760240675319635 0 -0.011786372833515664 2.4092791115531368e-07 0 -0.011115052601485695 2.5121448935781815e-08 0 -0.011702698403396791 9.1571067365940864e-05 0 -0.011786372833515664 2.4092791115531368e-07 0 -0.01200504728953748 5.1588454383822189e-05 0 -0.011786372833515664 2.4092791115531368e-07 0 -0.01200504728953748 5.1588454383822189e-05 0 -0.012459459781443305 4.3844510222866161e-07 0 -0.01200504728953748 5.1588454383822189e-05 0 -0.011811348415530243 2.0771858935822687e-05 0 -0.012405168152857894 -8.9299415668591507e-06 0 -0.01200504728953748 5.1588454383822189e-05 0 -0.012459459781443305 4.3844510222866161e-07 0 -0.012405168152857894 -8.9299415668591507e-06 0 -0.011625628298618684 -5.7793551264455708e-05 0 -0.011811348415530243 2.0771858935822687e-05 0 -0.011971476994117339 -0.00018060262864075461 0 -0.011811348415530243 2.0771858935822687e-05 0 -0.011971476994117339 -0.00018060262864075461 0 -0.012405168152857894 -8.9299415668591507e-06 0 -0.011625628298618684 -5.7793551264455708e-05 0 -0.011516531237106845 6.2411529345432907e-05 0 -0.011811348415530243 2.0771858935822687e-05 0 -0.01227682941658024 -0.00057069975199891532 0 -0.011971476994117339 -0.00018060262864075461 0 -0.012405168152857894 -8.9299415668591507e-06 0 -0.011902091972725804 -0.00043808946391788779 0 -0.011582884076032628 -0.00023717944902101567 0 -0.011971476994117339 -0.00018060262864075461 0 -0.013130760081861228 -1.4336835749700929e-06 0 -0.01227682941658024 -0.00057069975199891532 0 -0.012405168152857894 -8.9299415668591507e-06 0 -0.013130760081861228 -1.4336835749700929e-06 0 -0.012459459781443305 4.3844510222866161e-07 0 -0.012405168152857894 -8.9299415668591507e-06 0 -0.0097534216992156159 2.9428039475044568e-05 0 -0.0093929955430031766 6.2968198727684207e-08 0 -0.010253522880962977 1.370065175721702e-07 0 -0.0086131038329454786 0.0015316029671493397 0 -0.0090757324376425641 0.0017347615050862448 0 -0.0089511827211356965 0.0010819884902289528 0 -0.010414197207756645 0.00058244135935580385 0 -0.0098307901242060836 0.001462744171220881 0 -0.0086131038329454786 0.0015316029671493397 0 -0.0086679364026148124 0.0021689607039050477 0 -0.0090757324376425641 0.0017347615050862448 0 -0.00906077085114162 0.00092218923421916285 0 -0.010414197207756645 0.00058244135935580385 0 -0.0097534216992156159 2.9428039475044568e-05 0 -0.010253522880962977 1.370065175721702e-07 0 -0.010341898100055992 -2.5698327089858159e-05 0 -0.010253522880962977 1.370065175721702e-07 0 -0.010341898100055992 -2.5698327089858159e-05 0 -0.011113164575789593 -2.8806761568896716e-07 0 -0.010414197207756645 0.00058244135935580385 0 -0.011114561124765351 -9.0666557295905484e-07 0 -0.011649175452296254 -3.8764713187984062e-05 0 -0.010414197207756645 0.00058244135935580385 0 -0.011504766683767584 0.00015760240675319635 0 -0.011478210014369692 -0.00039493345351010635 0 -0.011115052601485695 2.5121448935781815e-08 0 -0.011504766683767584 0.00015760240675319635 0 -0.01139835924112011 0.00060044753250222552 0 -0.011198300585189822 0.00043972587498338948 0 -0.011504766683767584 0.00015760240675319635 0 -0.011198300585189822 0.00043972587498338948 0 -0.011205040836748092 0.00030005683099651031 0 -0.01139835924112011 0.00060044753250222552 0 -0.010957993566154829 0.00061661723796176593 0 -0.010804228945035941 0.00092050473472875857 0 -0.01139835924112011 0.00060044753250222552 0 -0.011198300585189822 0.00043972587498338948 0 -0.010957993566154829 0.00061661723796176593 0 -0.010957993566154829 0.00061661723796176593 0 -0.010558311521142083 0.00064364987381611413 0 -0.010804228945035941 0.00092050473472875857 0 -0.010957993566154829 0.00061661723796176593 0 -0.01087764773373286 0.00048234228079143001 0 -0.010558311521142083 0.00064364987381611413 0 -0.011198300585189822 0.00043972587498338948 0 -0.010957993566154829 0.00061661723796176593 0 -0.01087764773373286 0.00048234228079143001 0 -0.011198300585189822 0.00043972587498338948 0 -0.01087764773373286 0.00048234228079143001 0 -0.011205040836748092 0.00030005683099651031 0 -0.011000114194848103 0.0003090634451359145 0 -0.01087764773373286 0.00048234228079143001 0 -0.011205040836748092 0.00030005683099651031 0 -0.010899817985807005 0.00023033709214748309 0 -0.011000114194848103 0.0003090634451359145 0 -0.010634325933049199 0.000441893485930162 0 -0.011000114194848103 0.0003090634451359145 0 -0.01087764773373286 0.00048234228079143001 0 -0.010634325933049199 0.000441893485930162 0 -0.010634325933049199 0.000441893485930162 0 -0.010558311521142083 0.00064364987381611413 0 -0.0103253385211995 0.00067753828096536956 0 -0.01087764773373286 0.00048234228079143001 0 -0.010634325933049199 0.000441893485930162 0 -0.010558311521142083 0.00064364987381611413 0 -0.010558311521142083 0.00064364987381611413 0 -0.010207280882675225 0.00086083317090160003 0 -0.0103253385211995 0.00067753828096536956 0 -0.010558311521142083 0.00064364987381611413 0 -0.010207280882675225 0.00086083317090160003 0 -0.010804228945035941 0.00092050473472875857 0 -0.010207280882675225 0.00086083317090160003 0 -0.010804228945035941 0.00092050473472875857 0 -0.0097372227460520728 0.001105047653407816 0 -0.0098307901242060836 0.001462744171220881 0 -0.0098552179920282663 0.0010457765262850951 0 -0.0090757324376425641 0.0017347615050862448 0 -0.0097372227460520728 0.001105047653407816 0 -0.0089511827211356965 0.0010819884902289528 0 -0.010207280882675225 0.00086083317090160003 0 -0.0097372227460520728 0.001105047653407816 0 -0.0099965767388225726 0.00087610187911370469 0 -0.0097372227460520728 0.001105047653407816 0 -0.0099965767388225726 0.00087610187911370469 0 -0.0098071789507972202 0.00084579933537579793 0 -0.0099965767388225726 0.00087610187911370469 0 -0.010144116264006684 0.00073792788395514702 0 -0.0099450323571098429 0.00077924169658988469 0 -0.0099965767388225726 0.00087610187911370469 0 -0.0099450323571098429 0.00077924169658988469 0 -0.0098071789507972202 0.00084579933537579793 0 -0.010144116264006684 0.00073792788395514702 0 -0.010132630896246162 0.00068185284257847763 0 -0.0099450323571098429 0.00077924169658988469 0 -0.0099965767388225726 0.00087610187911370469 0 -0.010144116264006684 0.00073792788395514702 0 -0.0103253385211995 0.00067753828096536956 0 -0.010207280882675225 0.00086083317090160003 0 -0.0099965767388225726 0.00087610187911370469 0 -0.0103253385211995 0.00067753828096536956 0 -0.010144116264006684 0.00073792788395514702 0 -0.0103253385211995 0.00067753828096536956 0 -0.010352410112013327 0.00054073330710642325 0 -0.010634325933049199 0.000441893485930162 0 -0.0103253385211995 0.00067753828096536956 0 -0.010352410112013327 0.00054073330710642325 0 -0.01058598981989591 0.00035184777254987425 0 -0.010634325933049199 0.000441893485930162 0 -0.010352410112013327 0.00054073330710642325 0 -0.01058598981989591 0.00035184777254987425 0 -0.010736156702919733 0.00026494343407303757 0 -0.010634325933049199 0.000441893485930162 0 -0.010521806932365926 0.00033497583139722412 0 -0.01058598981989591 0.00035184777254987425 0 -0.010352410112013327 0.00054073330710642325 0 -0.010521806932365926 0.00033497583139722412 0 -0.010352410112013327 0.00054073330710642325 0 -0.010378327598436267 0.00043982951339283707 0 -0.010144116264006684 0.00073792788395514702 0 -0.010352410112013327 0.00054073330710642325 0 -0.010132630896246162 0.00068185284257847763 0 -0.010352410112013327 0.00054073330710642325 0 -0.010194823821100669 0.00057622094971960711 0 -0.010132630896246162 0.00068185284257847763 0 -0.010352410112013327 0.00054073330710642325 0 -0.010194823821100669 0.00057622094971960711 0 -0.010378327598436267 0.00043982951339283707 0 -0.010428091411284554 0.00034228728627708882 0 -0.010378327598436267 0.00043982951339283707 0 -0.010288908682859954 0.00044824221928923565 0 -0.010194823821100669 0.00057622094971960711 0 -0.010378327598436267 0.00043982951339283707 0 -0.010288908682859954 0.00044824221928923565 0 -0.010288908682859954 0.00044824221928923565 0 -0.01017692245068238 0.00052956304462836712 0 -0.010222994059426465 0.00045215719155142697 0 -0.010194823821100669 0.00057622094971960711 0 -0.01017692245068238 0.00052956304462836712 0 -0.010069478175808838 0.00060393447009355434 0 -0.010194823821100669 0.00057622094971960711 0 -0.010288908682859954 0.00044824221928923565 0 -0.01017692245068238 0.00052956304462836712 0 -0.010194823821100669 0.00057622094971960711 0 -0.010038197010681022 0.00068659163864810593 0 -0.010069478175808838 0.00060393447009355434 0 -0.010038197010681022 0.00068659163864810593 0 -0.010069478175808838 0.00060393447009355434 0 -0.0099809871385599346 0.00066646352435522868 0 -0.010038197010681022 0.00068659163864810593 0 -0.010132630896246162 0.00068185284257847763 0 -0.0099450323571098429 0.00077924169658988469 0 -0.010194823821100669 0.00057622094971960711 0 -0.010038197010681022 0.00068659163864810593 0 -0.010132630896246162 0.00068185284257847763 0 -0.010038197010681022 0.00068659163864810593 0 -0.0099450323571098429 0.00077924169658988469 0 -0.0099026130903930396 0.00069920832467137929 0 -0.010038197010681022 0.00068659163864810593 0 -0.0099026130903930396 0.00069920832467137929 0 -0.0099809871385599346 0.00066646352435522868 0 -0.0099026130903930396 0.00069920832467137929 0 -0.0098262852541949868 0.0007321583996061212 0 -0.0097718540217446841 0.00061268070026907764 0 -0.0099450323571098429 0.00077924169658988469 0 -0.0099026130903930396 0.00069920832467137929 0 -0.0098262852541949868 0.0007321583996061212 0 -0.0098262852541949868 0.0007321583996061212 0 -0.0097718540217446841 0.00061268070026907764 0 -0.0096673691059230189 0.00071315296183966411 0 -0.0099026130903930396 0.00069920832467137929 0 -0.0097718540217446841 0.00061268070026907764 0 -0.0098721221746158709 0.00061258497982739164 0 -0.0097718540217446841 0.00061268070026907764 0 -0.0096876224571289492 0.00041700131887274333 0 -0.0098134254176438403 0.00048731999158929082 0 -0.0096876224571289492 0.00041700131887274333 0 -0.0095317496206297082 0.00053099024244231531 0 -0.0094571135270689281 0.00032476304838813171 0 -0.0097718540217446841 0.00061268070026907764 0 -0.0096876224571289492 0.00041700131887274333 0 -0.0095317496206297082 0.00053099024244231531 0 -0.0097718540217446841 0.00061268070026907764 0 -0.0095317496206297082 0.00053099024244231531 0 -0.0096673691059230189 0.00071315296183966411 0 -0.0095317496206297082 0.00053099024244231531 0 -0.0093343014343036674 0.00061840010260118662 0 -0.0096673691059230189 0.00071315296183966411 0 -0.0095317496206297082 0.00053099024244231531 0 -0.0090675999787793813 0.000380303303913429 0 -0.0094571135270689281 0.00032476304838813171 0 -0.0095317496206297082 0.00053099024244231531 0 -0.0093343014343036674 0.00061840010260118662 0 -0.0090675999787793813 0.000380303303913429 0 -0.0093343014343036674 0.00061840010260118662 0 -0.0089473056157994349 0.00054427612497511099 0 -0.0090675999787793813 0.000380303303913429 0 -0.0093343014343036674 0.00061840010260118662 0 -0.0095596422070984809 0.00081904517399563573 0 -0.0096673691059230189 0.00071315296183966411 0 -0.0095596422070984809 0.00081904517399563573 0 -0.0096673691059230189 0.00071315296183966411 0 -0.0098071789507972202 0.00084579933537579793 0 -0.0099450323571098429 0.00077924169658988469 0 -0.0098262852541949868 0.0007321583996061212 0 -0.0098071789507972202 0.00084579933537579793 0 -0.0098262852541949868 0.0007321583996061212 0 -0.0096673691059230189 0.00071315296183966411 0 -0.0098071789507972202 0.00084579933537579793 0 -0.0097372227460520728 0.001105047653407816 0 -0.0095596422070984809 0.00081904517399563573 0 -0.0098071789507972202 0.00084579933537579793 0 -0.0097372227460520728 0.001105047653407816 0 -0.0095596422070984809 0.00081904517399563573 0 -0.0090670266102700139 0.00073087458860111669 0 -0.0097372227460520728 0.001105047653407816 0 -0.0090670266102700139 0.00073087458860111669 0 -0.0089511827211356965 0.0010819884902289528 0 -0.0090670266102700139 0.00073087458860111669 0 -0.0087028314494316701 0.00060773698245613055 0 -0.0086732775545640042 0.00076904531650951716 0 -0.0090670266102700139 0.00073087458860111669 0 -0.0086732775545640042 0.00076904531650951716 0 -0.0089511827211356965 0.0010819884902289528 0 -0.0093343014343036674 0.00061840010260118662 0 -0.0095596422070984809 0.00081904517399563573 0 -0.0090670266102700139 0.00073087458860111669 0 -0.0093343014343036674 0.00061840010260118662 0 -0.0090670266102700139 0.00073087458860111669 0 -0.0089473056157994349 0.00054427612497511099 0 -0.0089473056157994349 0.00054427612497511099 0 -0.0086986202753201562 0.00037877485466269247 0 -0.0090675999787793813 0.000380303303913429 0 -0.0086986202753201562 0.00037877485466269247 0 -0.0085339343184713291 0.00041215803409521822 0 -0.0082315749267739408 0.00019584658807610009 0 -0.0089473056157994349 0.00054427612497511099 0 -0.0086986202753201562 0.00037877485466269247 0 -0.0085339343184713291 0.00041215803409521822 0 -0.0089473056157994349 0.00054427612497511099 0 -0.0085339343184713291 0.00041215803409521822 0 -0.0087028314494316701 0.00060773698245613055 0 -0.0090670266102700139 0.00073087458860111669 0 -0.0089473056157994349 0.00054427612497511099 0 -0.0087028314494316701 0.00060773698245613055 0 -0.0085339343184713291 0.00041215803409521822 0 -0.0087028314494316701 0.00060773698245613055 0 -0.0082833683756982097 0.00061107541137083094 0 -0.0087028314494316701 0.00060773698245613055 0 -0.0082833683756982097 0.00061107541137083094 0 -0.0086732775545640042 0.00076904531650951716 0 -0.0082833683756982097 0.00061107541137083094 0 -0.0076839586892048306 0.00011309100868661624 0 -0.0082315749267739408 0.00019584658807610009 0 -0.0085339343184713291 0.00041215803409521822 0 -0.0082833683756982097 0.00061107541137083094 0 -0.0082315749267739408 0.00019584658807610009 0 -0.0076721104409295067 6.2586297000805078e-07 0 -0.0081574759313240049 1.988452840157877e-05 0 -0.0076839586892048306 0.00011309100868661624 0 -0.0082084759096831567 0.0003254863172651936 0 -0.0077746781504443559 0.00010966690452611187 0 -0.0076721104409295067 6.2586297000805078e-07 0 -0.0081574759313240049 1.988452840157877e-05 0 -0.0085325747374477238 -1.2494537820075248e-07 0 -0.0081574759313240049 1.988452840157877e-05 0 -0.0085325747374477238 -1.2494537820075248e-07 0 -0.0089620513944883903 4.0477216061953597e-06 0 -0.0082084759096831567 0.0003254863172651936 0 -0.0087668647955565192 0.00047222001786440519 0 -0.0082833683756982097 0.00061107541137083094 0 -0.0086732775545640042 0.00076904531650951716 0 -0.0085557217274853277 0.0009129175741036719 0 -0.0086732775545640042 0.00076904531650951716 0 -0.0089511827211356965 0.0010819884902289528 0 -0.0085557217274853277 0.0009129175741036719 0 -0.0086131038329454786 0.0015316029671493397 0 -0.0089511827211356965 0.0010819884902289528 0 -0.0085557217274853277 0.0009129175741036719 0 -0.0093929955430031766 6.2968198727684207e-08 0 -0.0085325747374477238 -1.2494537820075248e-07 0 -0.0089620513944883903 4.0477216061953597e-06 0 -0.00906077085114162 0.00092218923421916285 0 -0.0087668647955565192 0.00047222001786440519 0 -0.0097534216992156159 2.9428039475044568e-05 0 -0.0093929955430031766 6.2968198727684207e-08 0 -0.0089620513944883903 4.0477216061953597e-06 0 -0.010464873669006123 -0.0012973288858966201 0 -0.010503230415703935 -0.0013289004146772936 0 -0.010433114225917578 -0.0013342241305792221 0 -0.010464873669006123 -0.0012973288858966201 0 -0.010503230415703935 -0.0013289004146772936 0 -0.010522556146637939 -0.0012917855320813945 0 -0.010503230415703935 -0.0013289004146772936 0 -0.010522556146637939 -0.0012917855320813945 0 -0.010580951083221742 -0.0013220243953287925 0 -0.010501468729619155 -0.0012591386947781876 0 -0.010556925662377982 -0.0012648566271099427 0 -0.010533029773998307 -0.0012029363772875475 0 -0.010522556146637939 -0.0012917855320813945 0 -0.010501468729619155 -0.0012591386947781876 0 -0.010556925662377982 -0.0012648566271099427 0 -0.010501468729619155 -0.0012591386947781876 0 -0.010465438615950723 -0.0012556226887148335 0 -0.010488449846528206 -0.0012347702774561562 0 -0.010464873669006123 -0.0012973288858966201 0 -0.010522556146637939 -0.0012917855320813945 0 -0.010501468729619155 -0.0012591386947781876 0 -0.010464873669006123 -0.0012973288858966201 0 -0.010501468729619155 -0.0012591386947781876 0 -0.010465438615950723 -0.0012556226887148335 0 -0.01042445241683772 -0.0012634791987927016 0 -0.010418522922416922 -0.0012627906707201326 0 -0.010433114225917578 -0.0013342241305792221 0 -0.010472091956896879 -0.0019170314529317091 0 -0.010516200758099623 -0.001971601897855323 0 -0.010464873669006123 -0.0012973288858966201 0 -0.010465438615950723 -0.0012556226887148335 0 -0.01042445241683772 -0.0012634791987927016 0 -0.010614893908747034 -0.0022721200017602446 0 -0.010516200758099623 -0.001971601897855323 0 -0.012496584641117449 -0.0020505541658919465 0 -0.012155075764219717 -0.001993760317037531 0 -0.012412505948955002 -0.0017857858888514304 0 -0.012509384757545783 -0.0015426215364746727 0 -0.012412505948955002 -0.0017857858888514304 0 -0.0121780581925084 -0.0015442829841599093 0 -0.012155075764219717 -0.001993760317037531 0 -0.012412505948955002 -0.0017857858888514304 0 -0.0121780581925084 -0.0015442829841599093 0 -0.010516200758099623 -0.001971601897855323 0 -0.011651804012637938 -0.0013271844240548014 0 -0.010464873669006123 -0.0012973288858966201 0 -0.01042445241683772 -0.0012634791987927016 0 -0.010433114225917578 -0.0013342241305792221 0 -0.01211998023765265 -0.001394893073659036 0 -0.012305636673116667 -0.0012306560545293928 0 -0.01180539766912299 -0.001213021402100892 0 -0.01211366295879935 -0.0015777392885988673 0 -0.01211998023765265 -0.001394893073659036 0 -0.01180539766912299 -0.001213021402100892 0 -0.011651804012637938 -0.0013271844240548014 0 -0.011884968027896129 -0.001447179240814712 0 -0.012509384757545783 -0.0015426215364746727 0 -0.01211998023765265 -0.001394893073659036 0 -0.012305636673116667 -0.0012306560545293928 0 -0.012659148040073512 -0.0015587856123925128 0 -0.011651804012637938 -0.0013271844240548014 0 -0.012509384757545783 -0.0015426215364746727 0 -0.012114612425061604 -0.001562421960295638 0 -0.01211998023765265 -0.001394893073659036 0 -0.012623915859578234 -0.0012187535777146629 0 -0.012782413904160662 -0.0011193461756080043 0 -0.012422682313900538 -0.0011686045454781979 0 -0.012623915859578234 -0.0012187535777146629 0 -0.012512361436623385 -0.0012943657165553704 0 -0.012422682313900538 -0.0011686045454781979 0 -0.012414110496496662 -0.0012645832150457335 0 -0.011990035840822914 -0.0012557215567186842 0 -0.012512361436623385 -0.0012943657165553704 0 -0.012422682313900538 -0.0011686045454781979 0 -0.012217057881932935 -0.0013058185400276847 0 -0.012450332699377425 -0.0011731400140722278 0 -0.012087795637652873 -0.0012397068582962964 0 -0.012422682313900538 -0.0011686045454781979 0 -0.012217057881932935 -0.0013058185400276847 0 -0.012068002510423319 -0.0012328296853539456 0 -0.011990035840822914 -0.0012557215567186842 0 -0.011702487314413612 -0.0013143979581308393 0 -0.012217057881932935 -0.0013058185400276847 0 -0.012068002510423319 -0.0012328296853539456 0 -0.011937354858810324 -0.0013149437904361591 0 -0.01225147318067594 -0.0011015399730229091 0 -0.012470918389482494 -0.0011768196447560456 0 -0.012116254819034096 -0.0012470923079087959 0 -0.011468390675656017 -0.0015916149606468139 0 -0.01180539766912299 -0.001213021402100892 0 -0.011286668671140249 -0.0012134906479013292 0 -0.010934285153314939 -0.0015218589022461457 0 -0.011651804012637938 -0.0013271844240548014 0 -0.011468390675656017 -0.0015916149606468139 0 -0.01211366295879935 -0.0015777392885988673 0 -0.01180539766912299 -0.001213021402100892 0 -0.011468390675656017 -0.0015916149606468139 0 -0.011286668671140249 -0.0012134906479013292 0 -0.011032271777625269 -0.0013543754464700327 0 -0.01197012949675361 -0.0011169608366764598 0 -0.012116254819034096 -0.0012470923079087959 0 -0.011894425021815029 -0.0011733278678329113 0 -0.012116254819034096 -0.0012470923079087959 0 -0.011894425021815029 -0.0011733278678329113 0 -0.011764867476270187 -0.0012663504189757899 0 -0.012087795637652873 -0.0012397068582962964 0 -0.011752263431420249 -0.0012952267843152061 0 -0.012068002510423319 -0.0012328296853539456 0 -0.011937354858810324 -0.0013149437904361591 0 -0.011734427552701238 -0.0012975219031683405 0 -0.011702487314413612 -0.0013143979581308393 0 -0.010781933426676726 -0.00073272871407360394 0 -0.011894425021815029 -0.0011733278678329113 0 -0.011764867476270187 -0.0012663504189757899 0 -0.011725771579341501 -0.0012045787773513987 0 -0.012116254819034096 -0.0012470923079087959 0 -0.011734427552701238 -0.0012975219031683405 0 -0.011764867476270187 -0.0012663504189757899 0 -0.011937354858810324 -0.0013149437904361591 0 -0.011734427552701238 -0.0012975219031683405 0 -0.011665712963063964 -0.0013289055083818269 0 -0.01188816900745167 -0.0010867906736631221 0 -0.011894425021815029 -0.0011733278678329113 0 -0.011725771579341501 -0.0012045787773513987 0 -0.011734427552701238 -0.0012975219031683405 0 -0.011716488272265985 -0.0012017488748708733 0 -0.011665712963063964 -0.0013289055083818269 0 -0.011091164889832562 -0.00054080606393943926 0 -0.010781933426676726 -0.00073272871407360394 0 -0.011734427552701238 -0.0012975219031683405 0 -0.011764867476270187 -0.0012663504189757899 0 -0.011716488272265985 -0.0012017488748708733 0 -0.011540390139730619 -0.0011102564996382364 0 -0.011091164889832562 -0.00054080606393943926 0 -0.010781933426676726 -0.00073272871407360394 0 -0.010057173984018815 0.00028635097354173501 0 -0.010025513031141265 0.00040710896763184286 0 -0.010101596719228322 0.00040040845219137933 0 -0.010056259433929658 0.00046661013214074952 0 -0.01012332119000507 0.00044093769395759107 0 -0.010056259433929658 0.00046661013214074952 0 -0.010152459277914078 0.00047333069422181545 0 -0.010101596719228322 0.00040040845219137933 0 -0.01012332119000507 0.00044093769395759107 0 -0.010148293165306613 0.00041655111851903446 0 -0.010101596719228322 0.00040040845219137933 0 -0.01012332119000507 0.00044093769395759107 0 -0.010056259433929658 0.00046661013214074952 0 -0.01041574789922617 -0.00017387657531030783 0 -0.010229837128518344 -0.00017574437751535649 0 -0.010329286633274764 -0.00036139343524732793 0 -0.010229837128518344 -0.00017574437751535649 0 -0.010289911752833803 -0.00036239160790797666 0 -0.010329286633274764 -0.00036139343524732793 0 -0.010781933426676726 -0.00073272871407360394 0 -0.01032717481132598 -0.000580773637649633 0 -0.01077174440667736 -0.0012202667144468487 0 -0.010772048031572804 -0.0014788514443554795 0 -0.010600833692664131 -0.0016002937927296346 0 -0.01077174440667736 -0.0012202667144468487 0 -0.010772048031572804 -0.0014788514443554795 0 -0.010861248430966109 -0.001373705350990777 0 -0.010772048031572804 -0.0014788514443554795 0 -0.010818563775010715 -0.0015907508167485953 0 -0.010600833692664131 -0.0016002937927296346 0 -0.010695875955474282 -0.0014394536186100775 0 -0.010554453086852494 -0.0011622061728558636 0 -0.011032271777625269 -0.0013543754464700327 0 -0.010861248430966109 -0.001373705350990777 0 -0.010821240584191448 -0.0016010434184594708 0 -0.010772048031572804 -0.0014788514443554795 0 -0.010861248430966109 -0.001373705350990777 0 -0.010821240584191448 -0.0016010434184594708 0 -0.011468390675656017 -0.0015916149606468139 0 -0.011032271777625269 -0.0013543754464700327 0 -0.010821240584191448 -0.0016010434184594708 0 -0.011286668671140249 -0.0012134906479013292 0 -0.01077174440667736 -0.0012202667144468487 0 -0.011032271777625269 -0.0013543754464700327 0 -0.01077174440667736 -0.0012202667144468487 0 -0.011032271777625269 -0.0013543754464700327 0 -0.010861248430966109 -0.001373705350990777 0 -0.010320620959614935 0.00032818886769276354 0 -0.010288908682859954 0.00044824221928923565 0 -0.010222994059426465 0.00045215719155142697 0 -0.010320620959614935 0.00032818886769276354 0 -0.010222994059426465 0.00045215719155142697 0 -0.01022653348905055 0.00040607791652060921 0 -0.01017692245068238 0.00052956304462836712 0 -0.010222994059426465 0.00045215719155142697 0 -0.010154644503137468 0.00049969126736488536 0 -0.010222994059426465 0.00045215719155142697 0 -0.01022653348905055 0.00040607791652060921 0 -0.010172362211679251 0.00045900261529045749 0 -0.010222994059426465 0.00045215719155142697 0 -0.010172362211679251 0.00045900261529045749 0 -0.010154644503137468 0.00049969126736488536 0 -0.010172362211679251 0.00045900261529045749 0 -0.010153880617500392 0.00046370213489232948 0 -0.010154644503137468 0.00049969126736488536 0 -0.010172362211679251 0.00045900261529045749 0 -0.010158717999687868 0.00045001251020752669 0 -0.010153880617500392 0.00046370213489232948 0 -0.010172362211679251 0.00045900261529045749 0 -0.010174146319068565 0.00042300776906541404 0 -0.010158717999687868 0.00045001251020752669 0 -0.010173338970836544 0.00036734848285087694 0 -0.01022653348905055 0.00040607791652060921 0 -0.010174146319068565 0.00042300776906541404 0 -0.01022653348905055 0.00040607791652060921 0 -0.010172362211679251 0.00045900261529045749 0 -0.010174146319068565 0.00042300776906541404 0 -0.010173338970836544 0.00036734848285087694 0 -0.010101596719228322 0.00040040845219137933 0 -0.010148293165306613 0.00041655111851903446 0 -0.010173338970836544 0.00036734848285087694 0 -0.010174146319068565 0.00042300776906541404 0 -0.010148293165306613 0.00041655111851903446 0 -0.010174146319068565 0.00042300776906541404 0 -0.010148293165306613 0.00041655111851903446 0 -0.010158717999687868 0.00045001251020752669 0 -0.01012332119000507 0.00044093769395759107 0 -0.010148293165306613 0.00041655111851903446 0 -0.010158717999687868 0.00045001251020752669 0 -0.010065592207168001 0.00038232905775286883 0 -0.010057173984018815 0.00028635097354173501 0 -0.01012332119000507 0.00044093769395759107 0 -0.010158717999687868 0.00045001251020752669 0 -0.010152459277914078 0.00047333069422181545 0 -0.010100750519577416 0.00054879829583854569 0 -0.010069478175808838 0.00060393447009355434 0 -0.010097144290304972 0.00054282443828324229 0 -0.010083648815277979 0.00051915234872311662 0 -0.010100750519577416 0.00054879829583854569 0 -0.010097144290304972 0.00054282443828324229 0 -0.010057173984018815 0.00028635097354173501 0 -0.01014731860094539 -2.3794875122199599e-06 0 -0.010057173984018815 0.00028635097354173501 0 -0.010172293617141177 0.0004582983348202549 0 -0.010083648815277979 0.00051915234872311662 0 -0.010100750519577416 0.00054879829583854569 0 -0.010154644503137468 0.00049969126736488536 0 -0.010100750519577416 0.00054879829583854569 0 -0.010154644503137468 0.00049969126736488536 0 -0.010069478175808838 0.00060393447009355434 0 -0.01017692245068238 0.00052956304462836712 0 -0.010154644503137468 0.00049969126736488536 0 -0.010069478175808838 0.00060393447009355434 0 -0.010069478175808838 0.00060393447009355434 0 -0.0099668759277426154 0.00063754087237478517 0 -0.0099809871385599346 0.00066646352435522868 0 -0.010069478175808838 0.00060393447009355434 0 -0.0099668759277426154 0.00063754087237478517 0 -0.0099087335054263773 0.0005984650198971054 0 -0.01001150194100745 0.00075705979353077367 0 -0.01014731860094539 -2.3794875122199599e-06 0 -0.0099668759277426154 0.00063754087237478517 0 -0.0099410289888048706 0.00063993831660889215 0 -0.009945605189863314 0.00065148864348182564 0 -0.0099668759277426154 0.00063754087237478517 0 -0.0099288680930400639 0.00062674306668322765 0 -0.0099087335054263773 0.0005984650198971054 0 -0.0099668759277426154 0.00063754087237478517 0 -0.0099288680930400639 0.00062674306668322765 0 -0.0099410289888048706 0.00063993831660889215 0 -0.0099288680930400639 0.00062674306668322765 0 -0.0099410289888048706 0.00063993831660889215 0 -0.0099300527442088664 0.00063399473242955313 0 -0.0099410289888048706 0.00063993831660889215 0 -0.0099300527442088664 0.00063399473242955313 0 -0.0099365979863979444 0.00064107242622060071 0 -0.0099365979863979444 0.00064107242622060071 0 -0.0099375214304460863 0.00064376122177124153 0 -0.009945605189863314 0.00065148864348182564 0 -0.0099410289888048706 0.00063993831660889215 0 -0.0099365979863979444 0.00064107242622060071 0 -0.009945605189863314 0.00065148864348182564 0 -0.0099365979863979444 0.00064107242622060071 0 -0.0099375214304460863 0.00064376122177124153 0 -0.0099366995916096729 0.00064011504845434939 0 -0.0099375214304460863 0.00064376122177124153 0 -0.0099331976396519767 0.00064521670881447358 0 -0.009945605189863314 0.00065148864348182564 0 -0.0099375214304460863 0.00064376122177124153 0 -0.0099331976396519767 0.00064521670881447358 0 -0.0099412597166360032 0.00063779999295501203 0 -0.0099331976396519767 0.00064521670881447358 0 -0.009945605189863314 0.00065148864348182564 0 -0.0099294179210757325 0.00065777311611848305 0 -0.0099668759277426154 0.00063754087237478517 0 -0.009945605189863314 0.00065148864348182564 0 -0.0099809871385599346 0.00066646352435522868 0 -0.0099026130903930396 0.00069920832467137929 0 -0.0099294179210757325 0.00065777311611848305 0 -0.0099809871385599346 0.00066646352435522868 0 -0.009945605189863314 0.00065148864348182564 0 -0.0099294179210757325 0.00065777311611848305 0 -0.0099809871385599346 0.00066646352435522868 0 -0.010934285153314939 -0.0015218589022461457 0 -0.010554453086852494 -0.0011622061728558636 0 -0.010522556146637939 -0.0012917855320813945 0 -0.010580951083221742 -0.0013220243953287925 0 -0.010556925662377982 -0.0012648566271099427 0 -0.010150340771465647 -0.0005434842808882571 0 -0.010159726653942854 -0.000415417199637498 0 -0.010085425444007177 -0.00037299787753910927 0 -0.010554453086852494 -0.0011622061728558636 0 -0.010303898882806374 -0.00078338324087690644 0 -0.010150340771465647 -0.0005434842808882571 0 -0.010233651696923782 -0.00053906424882165969 0 -0.010213933618915785 -0.00051028751345931012 0 -0.010554453086852494 -0.0011622061728558636 0 -0.01032717481132598 -0.000580773637649633 0 -0.010150340771465647 -0.0005434842808882571 0 -0.010194255000984519 -0.0004867342700626476 0 -0.010159726653942854 -0.000415417199637498 0 -0.010150340771465647 -0.0005434842808882571 0 -0.010213933618915785 -0.00051028751345931012 0 -0.010194255000984519 -0.0004867342700626476 0 -0.010355707989077428 -0.00029937439317585064 0 -0.010277082087274346 -0.00030314551026928201 0 -0.010323392783624624 -0.00019872661136112035 0 -0.01014731860094539 -2.3794875122199599e-06 0 -0.01032717481132598 -0.000580773637649633 0 -0.010233651696923782 -0.00053906424882165969 0 -0.010213933618915785 -0.00051028751345931012 0 -0.010251210634771708 -0.00049857980053190137 0 -0.01032717481132598 -0.000580773637649633 0 -0.010189897436731961 -7.1476853942399734e-05 0 -0.010213933618915785 -0.00051028751345931012 0 -0.010251210634771708 -0.00049857980053190137 0 -0.010215528768867896 -0.00048249228176045666 0 -0.0099288680930400639 0.00062674306668322765 0 -0.0099087335054263773 0.0005984650198971054 0 -0.009914379940967645 0.00062585787562465097 0 -0.01014731860094539 -2.3794875122199599e-06 0 -0.010189897436731961 -7.1476853942399734e-05 0 -0.0099300527442088664 0.00063399473242955313 0 -0.009914379940967645 0.00062585787562465097 0 -0.0099306545426656716 0.00063365625671883469 0 -0.010251210634771708 -0.00049857980053190137 0 -0.010215528768867896 -0.00048249228176045666 0 -0.010202724224194109 -0.00043443756770702177 0 -0.0099288680930400639 0.00062674306668322765 0 -0.0099300527442088664 0.00063399473242955313 0 -0.009914379940967645 0.00062585787562465097 0 -0.010194255000984519 -0.0004867342700626476 0 -0.010202724224194109 -0.00043443756770702177 0 -0.010159726653942854 -0.000415417199637498 0 -0.010215528768867896 -0.00048249228176045666 0 -0.010194255000984519 -0.0004867342700626476 0 -0.010202724224194109 -0.00043443756770702177 0 -0.010213933618915785 -0.00051028751345931012 0 -0.010215528768867896 -0.00048249228176045666 0 -0.010194255000984519 -0.0004867342700626476 0 -0.0099306545426656716 0.00063365625671883469 0 -0.0099422287613206931 0.00063986984023388404 0 -0.0099656959312952494 0.0006406607670519411 0 -0.010202724224194109 -0.00043443756770702177 0 -0.010159726653942854 -0.000415417199637498 0 -0.010178764600193804 -0.00028561140407414541 0 -0.010251210634771708 -0.00049857980053190137 0 -0.010202724224194109 -0.00043443756770702177 0 -0.010178764600193804 -0.00028561140407414541 0 -0.009914379940967645 0.00062585787562465097 0 -0.0099306545426656716 0.00063365625671883469 0 -0.0099656959312952494 0.0006406607670519411 0 -0.010159726653942854 -0.000415417199637498 0 -0.010135644636621647 -0.00033281464217771683 0 -0.010178764600193804 -0.00028561140407414541 0 -0.010189897436731961 -7.1476853942399734e-05 0 -0.010053003717765741 0.00020610701091048996 0 -0.0099306545426656716 0.00063365625671883469 0 -0.0099366995916096729 0.00064011504845434939 0 -0.0099422287613206931 0.00063986984023388404 0 -0.0099300527442088664 0.00063399473242955313 0 -0.0099365979863979444 0.00064107242622060071 0 -0.0099306545426656716 0.00063365625671883469 0 -0.0099365979863979444 0.00064107242622060071 0 -0.0099306545426656716 0.00063365625671883469 0 -0.0099366995916096729 0.00064011504845434939 0 -0.0099375214304460863 0.00064376122177124153 0 -0.0099366995916096729 0.00064011504845434939 0 -0.0099422287613206931 0.00063986984023388404 0 -0.0099422287613206931 0.00063986984023388404 0 -0.0099412597166360032 0.00063779999295501203 0 -0.0099656959312952494 0.0006406607670519411 0 -0.0099375214304460863 0.00064376122177124153 0 -0.0099422287613206931 0.00063986984023388404 0 -0.0099412597166360032 0.00063779999295501203 0 -0.010159726653942854 -0.000415417199637498 0 -0.010135644636621647 -0.00033281464217771683 0 -0.010085425444007177 -0.00037299787753910927 0 -0.010135644636621647 -0.00033281464217771683 0 -0.010085425444007177 -0.00037299787753910927 0 -0.01004060257703843 -0.00025491694032158996 0 -0.010135644636621647 -0.00033281464217771683 0 -0.010178764600193804 -0.00028561140407414541 0 -0.0099759120405583102 -0.00018744403088065547 0 -0.010178764600193804 -0.00028561140407414541 0 -0.010086763211536703 -3.9709843709011397e-05 0 -0.0099759120405583102 -0.00018744403088065547 0 -0.010303898882806374 -0.00078338324087690644 0 -0.010199808750829913 -0.00067648602432282155 0 -0.010018117819262075 -0.00017862722854362442 0 -0.010199808750829913 -0.00067648602432282155 0 -0.0099412597166360032 0.00063779999295501203 0 -0.0099413278095217619 0.00061671164494352256 0 -0.0099193857306662005 0.00061812079544754518 0 -0.0099412597166360032 0.00063779999295501203 0 -0.0099656959312952494 0.0006406607670519411 0 -0.0099413278095217619 0.00061671164494352256 0 -0.0099656959312952494 0.0006406607670519411 0 -0.0099413278095217619 0.00061671164494352256 0 -0.0099464102568253086 0.00056239541655865306 0 -0.0099413278095217619 0.00061671164494352256 0 -0.0099464102568253086 0.00056239541655865306 0 -0.0099193857306662005 0.00061812079544754518 0 -0.0099656959312952494 0.0006406607670519411 0 -0.0099464102568253086 0.00056239541655865306 0 -0.010018721245378504 0.00047685596721384421 0 -0.0099464102568253086 0.00056239541655865306 0 -0.0098920581994556746 0.0005363421388504114 0 -0.0099268005365283993 0.00046059523407087949 0 -0.0099464102568253086 0.00056239541655865306 0 -0.010018721245378504 0.00047685596721384421 0 -0.0099268005365283993 0.00046059523407087949 0 -0.010053003717765741 0.00020610701091048996 0 -0.010049397612866974 0.0002081666912617791 0 -0.0099026130903930396 0.00069920832467137929 0 -0.0099294179210757325 0.00065777311611848305 0 -0.0098721221746158709 0.00061258497982739164 0 -0.0099294179210757325 0.00065777311611848305 0 -0.0099193857306662005 0.00061812079544754518 0 -0.0098721221746158709 0.00061258497982739164 0 -0.0099331976396519767 0.00064521670881447358 0 -0.0099294179210757325 0.00065777311611848305 0 -0.0099193857306662005 0.00061812079544754518 0 -0.0099331976396519767 0.00064521670881447358 0 -0.0099412597166360032 0.00063779999295501203 0 -0.0099193857306662005 0.00061812079544754518 0 -0.0099193857306662005 0.00061812079544754518 0 -0.0098920581994556746 0.0005363421388504114 0 -0.0098721221746158709 0.00061258497982739164 0 -0.0099464102568253086 0.00056239541655865306 0 -0.0099193857306662005 0.00061812079544754518 0 -0.0098920581994556746 0.0005363421388504114 0 -0.0098920581994556746 0.0005363421388504114 0 -0.0098721221746158709 0.00061258497982739164 0 -0.0098134254176438403 0.00048731999158929082 0 -0.0097718540217446841 0.00061268070026907764 0 -0.0098721221746158709 0.00061258497982739164 0 -0.0098134254176438403 0.00048731999158929082 0 -0.0098134254176438403 0.00048731999158929082 0 -0.0098687300183201501 0.00038805287652244767 0 -0.0097782381961407216 0.00030651811715593419 0 -0.0098920581994556746 0.0005363421388504114 0 -0.0098134254176438403 0.00048731999158929082 0 -0.0098687300183201501 0.00038805287652244767 0 -0.0098920581994556746 0.0005363421388504114 0 -0.0098687300183201501 0.00038805287652244767 0 -0.0099268005365283993 0.00046059523407087949 0 -0.0098687300183201501 0.00038805287652244767 0 -0.0097782381961407216 0.00030651811715593419 0 -0.0098725609084171027 0.0002192438884679575 0 -0.0096876224571289492 0.00041700131887274333 0 -0.0098134254176438403 0.00048731999158929082 0 -0.0097782381961407216 0.00030651811715593419 0 -0.0096876224571289492 0.00041700131887274333 0 -0.0097782381961407216 0.00030651811715593419 0 -0.0096666717074857245 0.00017319812624237092 0 -0.010049397612866974 0.0002081666912617791 0 -0.0099996132866537676 0.00017457246782785882 0 -0.010086763211536703 -3.9709843709011397e-05 0 -0.009989690205299535 0.00015924409116337726 0 -0.0099382685405558641 7.6725149723198949e-05 0 -0.010018721245378504 0.00047685596721384421 0 -0.0099355761780789455 0.00031239610507150482 0 -0.009989690205299535 0.00015924409116337726 0 -0.0098687300183201501 0.00038805287652244767 0 -0.0099355761780789455 0.00031239610507150482 0 -0.0099268005365283993 0.00046059523407087949 0 -0.010018721245378504 0.00047685596721384421 0 -0.0099355761780789455 0.00031239610507150482 0 -0.0099268005365283993 0.00046059523407087949 0 -0.0098687300183201501 0.00038805287652244767 0 -0.0099355761780789455 0.00031239610507150482 0 -0.0098725609084171027 0.0002192438884679575 0 -0.0099355761780789455 0.00031239610507150482 0 -0.0098725609084171027 0.0002192438884679575 0 -0.009989690205299535 0.00015924409116337726 0 -0.0098940457541828314 7.9449424538320098e-05 0 -0.0099382685405558641 7.6725149723198949e-05 0 -0.0099283709767571844 0.0001031588939022179 0 -0.009989690205299535 0.00015924409116337726 0 -0.0099382685405558641 7.6725149723198949e-05 0 -0.0099283709767571844 0.0001031588939022179 0 -0.009933999371303218 -0.00034278573251219664 0 -0.0097037562416613845 -0.00017664137412118038 0 -0.0095552479542476351 -0.00037731958784445647 0 -0.009933999371303218 -0.00034278573251219664 0 -0.0097037562416613845 -0.00017664137412118038 0 -0.0098162660592679626 3.7315779822658621e-05 0 -0.0099099014771378263 -0.00013372467392682526 0 -0.0098240713616329703 3.5939090250617929e-05 0 -0.009933999371303218 -0.00034278573251219664 0 -0.0098835960752986351 -0.00067567535121235882 0 -0.0095552479542476351 -0.00037731958784445647 0 -0.009933999371303218 -0.00034278573251219664 0 -0.010059884568614492 -0.00065193095916510986 0 -0.0098835960752986351 -0.00067567535121235882 0 -0.0098940457541828314 7.9449424538320098e-05 0 -0.0099382685405558641 7.6725149723198949e-05 0 -0.0099126200354935495 -1.0025145490780959e-05 0 -0.0099099014771378263 -0.00013372467392682526 0 -0.0099732258979399017 -0.00030812053618536959 0 -0.010086763211536703 -3.9709843709011397e-05 0 -0.0099382685405558641 7.6725149723198949e-05 0 -0.0099126200354935495 -1.0025145490780959e-05 0 -0.0099732258979399017 -0.00030812053618536959 0 -0.010199808750829913 -0.00067648602432282155 0 -0.010259404781967652 -0.00096388837533150024 0 -0.010199808750829913 -0.00067648602432282155 0 -0.010059884568614492 -0.00065193095916510986 0 -0.0098835960752986351 -0.00067567535121235882 0 -0.010185460136729158 -0.00094304170167030252 0 -0.010086763211536703 -3.9709843709011397e-05 0 -0.0099126200354935495 -1.0025145490780959e-05 0 -0.0099759120405583102 -0.00018744403088065547 0 -0.010471624438834953 -0.0011438850136675956 0 -0.010454615413177203 -0.0012204209733672404 0 -0.010533029773998307 -0.0012029363772875475 0 -0.010454615413177203 -0.0012204209733672404 0 -0.010488449846528206 -0.0012347702774561562 0 -0.010533029773998307 -0.0012029363772875475 0 -0.010465438615950723 -0.0012556226887148335 0 -0.010454615413177203 -0.0012204209733672404 0 -0.010488449846528206 -0.0012347702774561562 0 -0.010501468729619155 -0.0012591386947781876 0 -0.010488449846528206 -0.0012347702774561562 0 -0.010533029773998307 -0.0012029363772875475 0 -0.0086961468892482238 -0.0024538647136154328 0 -0.0092504135205728755 -0.0025579639965787574 0 -0.0088930782505436297 -0.0020959668921673997 0 -0.0092504135205728755 -0.0025579639965787574 0 -0.0088930782505436297 -0.0020959668921673997 0 -0.0092543260148283037 -0.0019019381940763454 0 -0.010516200758099623 -0.001971601897855323 0 -0.0097650206981930218 -0.0015795384682580123 0 -0.01041546488607846 -0.0012625778948624959 0 -0.010454615413177203 -0.0012204209733672404 0 -0.010399008471978074 -0.0011750570132147752 0 -0.010465438615950723 -0.0012556226887148335 0 -0.01042445241683772 -0.0012634791987927016 0 -0.010454615413177203 -0.0012204209733672404 0 -0.01042445241683772 -0.0012634791987927016 0 -0.01041546488607846 -0.0012625778948624959 0 -0.010454615413177203 -0.0012204209733672404 0 -0.010471624438834953 -0.0011438850136675956 0 -0.010454615413177203 -0.0012204209733672404 0 -0.010399008471978074 -0.0011750570132147752 0 -0.0084855166272313001 -0.0019668455974254503 0 -0.0088930782505436297 -0.0020959668921673997 0 -0.008884624309974682 -0.0016742888784326978 0 -0.0088930782505436297 -0.0020959668921673997 0 -0.0092543260148283037 -0.0019019381940763454 0 -0.008884624309974682 -0.0016742888784326978 0 -0.008884624309974682 -0.0016742888784326978 0 -0.0093043487974843742 -0.0012499365910043332 0 -0.0088588564520524649 -0.0012945422304386351 0 -0.0092543260148283037 -0.0019019381940763454 0 -0.008884624309974682 -0.0016742888784326978 0 -0.0093043487974843742 -0.0012499365910043332 0 -0.0085406538470141676 -0.0015055709426190981 0 -0.008884624309974682 -0.0016742888784326978 0 -0.0088588564520524649 -0.0012945422304386351 0 -0.0097650206981930218 -0.0015795384682580123 0 -0.0097078223466789022 -0.00090444040061665254 0 -0.010471624438834953 -0.0011438850136675956 0 -0.010399008471978074 -0.0011750570132147752 0 -0.010390450203952243 -0.0010724791382239506 0 -0.010259404781967652 -0.00096388837533150024 0 -0.0097078223466789022 -0.00090444040061665254 0 -0.0093926716637094138 -0.0013305784103513399 0 -0.0092067558163512631 -0.0011553204825068756 0 -0.00949376958120755 5.4908287629896527e-05 0 -0.0097078223466789022 -0.00090444040061665254 0 -0.009551372273294249 -0.00094168822927735588 0 -0.0088588564520524649 -0.0012945422304386351 0 -0.0090166866174865648 -0.0011333400482463481 0 -0.0087848411647937618 -0.0010350647755724221 0 -0.0093043487974843742 -0.0012499365910043332 0 -0.0092067558163512631 -0.0011553204825068756 0 -0.0090166866174865648 -0.0011333400482463481 0 -0.0093043487974843742 -0.0012499365910043332 0 -0.0088588564520524649 -0.0012945422304386351 0 -0.0090166866174865648 -0.0011333400482463481 0 -0.0092067558163512631 -0.0011553204825068756 0 -0.0090166866174865648 -0.0011333400482463481 0 -0.0089826618771993109 -0.00088869214619751802 0 -0.0089826618771993109 -0.00088869214619751802 0 -0.0087848411647937618 -0.0010350647755724221 0 -0.008763369540335221 -0.0008163498649134685 0 -0.0090166866174865648 -0.0011333400482463481 0 -0.0089826618771993109 -0.00088869214619751802 0 -0.0087848411647937618 -0.0010350647755724221 0 -0.0089826618771993109 -0.00088869214619751802 0 -0.0089068184498594348 -0.00014723334855853829 0 -0.00949376958120755 5.4908287629896527e-05 0 -0.0089826618771993109 -0.00088869214619751802 0 -0.008763369540335221 -0.0008163498649134685 0 -0.0088505393070270506 -0.00064539294847553873 0 -0.008975101195642779 -0.00084208180965357265 0 -0.0088909755147447318 -0.0003840296580610601 0 -0.008763369540335221 -0.0008163498649134685 0 -0.0088505393070270506 -0.00064539294847553873 0 -0.0085054046693492473 -0.00066638501655883484 0 -0.0097078223466789022 -0.00090444040061665254 0 -0.0094282619271931645 4.6987904997005581e-05 0 -0.0097037562416613845 -0.00017664137412118038 0 -0.00949376958120755 5.4908287629896527e-05 0 -0.0098162660592679626 3.7315779822658621e-05 0 -0.0092067558163512631 -0.0011553204825068756 0 -0.0089826618771993109 -0.00088869214619751802 0 -0.00949376958120755 5.4908287629896527e-05 0 -0.0097037562416613845 -0.00017664137412118038 0 -0.0095552479542476351 -0.00037731958784445647 0 -0.00949376958120755 5.4908287629896527e-05 0 -0.00949376958120755 5.4908287629896527e-05 0 -0.0097832147134917658 0.00024924019382031572 0 -0.0098162660592679626 3.7315779822658621e-05 0 -0.00949376958120755 5.4908287629896527e-05 0 -0.0088788813068326408 0.00042750172921811688 0 -0.0097832147134917658 0.00024924019382031572 0 -0.0094319788648555124 -0.00011880501490180903 0 -0.009450780640880169 -0.00011431594479267363 0 -0.0094533960172349923 -0.00012989369124405525 0 -0.0090574658611855124 -0.00011849091240413076 0 -0.0096280428758165094 9.766301777516436e-05 0 -0.0089068184498594348 -0.00014723334855853829 0 -0.00949376958120755 5.4908287629896527e-05 0 -0.0088788813068326408 0.00042750172921811688 0 -0.0088505393070270506 -0.00064539294847553873 0 -0.0087741718447288293 -0.00031309259950772656 0 -0.0085054046693492473 -0.00066638501655883484 0 -0.0088909755147447318 -0.0003840296580610601 0 -0.0090574658611855124 -0.00011849091240413076 0 -0.0094319788648555124 -0.00011880501490180903 0 -0.009440805704729811 -0.00010926910640117067 0 -0.0094369614757338696 -0.00010980681927715379 0 -0.0090574658611855124 -0.00011849091240413076 0 -0.0092122710645993443 0.00020157639611614604 0 -0.0094319788648555124 -0.00011880501490180903 0 -0.0094432798247433905 -0.00011165488598804046 0 -0.009440805704729811 -0.00010926910640117067 0 -0.0094319788648555124 -0.00011880501490180903 0 -0.009450780640880169 -0.00011431594479267363 0 -0.0094432798247433905 -0.00011165488598804046 0 -0.009450780640880169 -0.00011431594479267363 0 -0.0094474678426781748 -0.00010401996158843419 0 -0.0094632593311279462 -0.00010027058404029253 0 -0.009450780640880169 -0.00011431594479267363 0 -0.0094432798247433905 -0.00011165488598804046 0 -0.0094474678426781748 -0.00010401996158843419 0 -0.0094432798247433905 -0.00011165488598804046 0 -0.0094474678426781748 -0.00010401996158843419 0 -0.009440805704729811 -0.00010926910640117067 0 -0.0094474678426781748 -0.00010401996158843419 0 -0.009440805704729811 -0.00010926910640117067 0 -0.0094414466570812827 -0.00011404859589248553 0 -0.009440805704729811 -0.00010926910640117067 0 -0.0094414466570812827 -0.00011404859589248553 0 -0.0094369614757338696 -0.00010980681927715379 0 -0.0094414466570812827 -0.00011404859589248553 0 -0.0094368831841678685 -0.00012032237143805032 0 -0.0094369614757338696 -0.00010980681927715379 0 -0.0095212288866041994 -8.4068459979606998e-05 0 -0.0094632593311279462 -0.00010027058404029253 0 -0.0094602089144079724 -7.0626427550036903e-05 0 -0.0094632593311279462 -0.00010027058404029253 0 -0.0094549923596112927 -9.4733600609138286e-05 0 -0.0094602089144079724 -7.0626427550036903e-05 0 -0.0094474678426781748 -0.00010401996158843419 0 -0.0094632593311279462 -0.00010027058404029253 0 -0.0094549923596112927 -9.4733600609138286e-05 0 -0.009450780640880169 -0.00011431594479267363 0 -0.0094632593311279462 -0.00010027058404029253 0 -0.0094533960172349923 -0.00012989369124405525 0 -0.0094632593311279462 -0.00010027058404029253 0 -0.00950378155598809 -0.00010573552601790542 0 -0.0094533960172349923 -0.00012989369124405525 0 -0.0095212288866041994 -8.4068459979606998e-05 0 -0.0094632593311279462 -0.00010027058404029253 0 -0.00950378155598809 -0.00010573552601790542 0 -0.009750401767861917 -5.5705372960040819e-06 0 -0.0096280428758165094 9.766301777516436e-05 0 -0.00950378155598809 -0.00010573552601790542 0 -0.0095476707786913539 -0.00014060205659385399 0 -0.0094533960172349923 -0.00012989369124405525 0 -0.0099820093035929564 0.0001261116071513524 0 -0.0097832147134917658 0.00024924019382031572 0 -0.0098162660592679626 3.7315779822658621e-05 0 -0.0098940457541828314 7.9449424538320098e-05 0 -0.0098162660592679626 3.7315779822658621e-05 0 -0.0099283709767571844 0.0001031588939022179 0 -0.0099820093035929564 0.0001261116071513524 0 -0.0098162660592679626 3.7315779822658621e-05 0 -0.0099283709767571844 0.0001031588939022179 0 -0.0099820093035929564 0.0001261116071513524 0 -0.0099283709767571844 0.0001031588939022179 0 -0.00994730759223127 0.00013877012422726753 0 -0.0098725609084171027 0.0002192438884679575 0 -0.009989690205299535 0.00015924409116337726 0 -0.00994730759223127 0.00013877012422726753 0 -0.009989690205299535 0.00015924409116337726 0 -0.0099283709767571844 0.0001031588939022179 0 -0.00994730759223127 0.00013877012422726753 0 -0.0098725609084171027 0.0002192438884679575 0 -0.00994730759223127 0.00013877012422726753 0 -0.0097667367063930741 9.9380404505585898e-06 0 -0.0099820093035929564 0.0001261116071513524 0 -0.00994730759223127 0.00013877012422726753 0 -0.0097667367063930741 9.9380404505585898e-06 0 -0.0095476707786913539 -0.00014060205659385399 0 -0.0097667367063930741 9.9380404505585898e-06 0 -0.0096195270373775708 -7.3614533457608183e-05 0 -0.009750401767861917 -5.5705372960040819e-06 0 -0.0097546488364468713 7.9391159951044481e-06 0 -0.0097782381961407216 0.00030651811715593419 0 -0.0097543316228628427 0.00014313659451198438 0 -0.0096666717074857245 0.00017319812624237092 0 -0.0098725609084171027 0.0002192438884679575 0 -0.0097667367063930741 9.9380404505585898e-06 0 -0.0097543316228628427 0.00014313659451198438 0 -0.0097782381961407216 0.00030651811715593419 0 -0.0098725609084171027 0.0002192438884679575 0 -0.0097543316228628427 0.00014313659451198438 0 -0.0097667367063930741 9.9380404505585898e-06 0 -0.0097543316228628427 0.00014313659451198438 0 -0.009692258374301951 1.5523450457680841e-05 0 -0.0097667367063930741 9.9380404505585898e-06 0 -0.009692258374301951 1.5523450457680841e-05 0 -0.0096897560971197678 -5.5205112893406067e-05 0 -0.0097543316228628427 0.00014313659451198438 0 -0.009692258374301951 1.5523450457680841e-05 0 -0.0096666717074857245 0.00017319812624237092 0 -0.009683735263771056 1.6442859601688044e-05 0 -0.0095219205910617062 -1.516951292315421e-05 0 -0.009692258374301951 1.5523450457680841e-05 0 -0.0096666717074857245 0.00017319812624237092 0 -0.0096215080837056977 -1.6235459664033059e-06 0 -0.009692258374301951 1.5523450457680841e-05 0 -0.009586637017785048 -0.00016244125165521258 0 -0.0094795879552693162 -0.00015665699199594711 0 -0.009692258374301951 1.5523450457680841e-05 0 -0.0094263619255931606 -1.7217526500664746e-05 0 -0.0094795879552693162 -0.00015665699199594711 0 -0.009692258374301951 1.5523450457680841e-05 0 -0.0096564337732496699 -9.6782789715216217e-05 0 -0.0096897560971197678 -5.5205112893406067e-05 0 -0.009692258374301951 1.5523450457680841e-05 0 -0.0096564337732496699 -9.6782789715216217e-05 0 -0.009586637017785048 -0.00016244125165521258 0 -0.0096564337732496699 -9.6782789715216217e-05 0 -0.0096288631103525636 -0.00014886194119549385 0 -0.0096274536003868663 -0.00010063816833961863 0 -0.0096288631103525636 -0.00014886194119549385 0 -0.009586637017785048 -0.00016244125165521258 0 -0.009585065396334868 -0.00020933704264958076 0 -0.0096288631103525636 -0.00014886194119549385 0 -0.009585065396334868 -0.00020933704264958076 0 -0.0096200348418899202 -0.00016410043059860972 0 -0.0096564337732496699 -9.6782789715216217e-05 0 -0.0096288631103525636 -0.00014886194119549385 0 -0.009586637017785048 -0.00016244125165521258 0 -0.009586637017785048 -0.00016244125165521258 0 -0.0095100397918444837 -0.00024686800368457811 0 -0.009585065396334868 -0.00020933704264958076 0 -0.009586637017785048 -0.00016244125165521258 0 -0.0095100397918444837 -0.00024686800368457811 0 -0.0094795879552693162 -0.00015665699199594711 0 -0.0095212288866041994 -8.4068459979606998e-05 0 -0.00950378155598809 -0.00010573552601790542 0 -0.0096195270373775708 -7.3614533457608183e-05 0 -0.00950378155598809 -0.00010573552601790542 0 -0.0095476707786913539 -0.00014060205659385399 0 -0.0096195270373775708 -7.3614533457608183e-05 0 -0.0097667367063930741 9.9380404505585898e-06 0 -0.0096195270373775708 -7.3614533457608183e-05 0 -0.0096897560971197678 -5.5205112893406067e-05 0 -0.0096195270373775708 -7.3614533457608183e-05 0 -0.0096897560971197678 -5.5205112893406067e-05 0 -0.0096274536003868663 -0.00010063816833961863 0 -0.0096564337732496699 -9.6782789715216217e-05 0 -0.0096897560971197678 -5.5205112893406067e-05 0 -0.0096274536003868663 -0.00010063816833961863 0 -0.0096288631103525636 -0.00014886194119549385 0 -0.0096274536003868663 -0.00010063816833961863 0 -0.0095523365934992079 -0.00011289488126146703 0 -0.0096274536003868663 -0.00010063816833961863 0 -0.0095331855461769262 -9.2272479836818676e-05 0 -0.0095523365934992079 -0.00011289488126146703 0 -0.0096195270373775708 -7.3614533457608183e-05 0 -0.0096274536003868663 -0.00010063816833961863 0 -0.0095331855461769262 -9.2272479836818676e-05 0 -0.0095212288866041994 -8.4068459979606998e-05 0 -0.0096195270373775708 -7.3614533457608183e-05 0 -0.0095331855461769262 -9.2272479836818676e-05 0 -0.0095212288866041994 -8.4068459979606998e-05 0 -0.0095331855461769262 -9.2272479836818676e-05 0 -0.0094602089144079724 -7.0626427550036903e-05 0 -0.0095331855461769262 -9.2272479836818676e-05 0 -0.0094057348927439628 -3.2983625659745772e-05 0 -0.0095523365934992079 -0.00011289488126146703 0 -0.0095331855461769262 -9.2272479836818676e-05 0 -0.0094057348927439628 -3.2983625659745772e-05 0 -0.0094602089144079724 -7.0626427550036903e-05 0 -0.0094057348927439628 -3.2983625659745772e-05 0 -0.0095523365934992079 -0.00011289488126146703 0 -0.0096387151444650467 -0.00015170490947484221 0 -0.0094057348927439628 -3.2983625659745772e-05 0 -0.0090275072551581435 -7.3479147264949725e-05 0 -0.008769259818542801 0.00019142399334938338 0 -0.00938629102163069 -2.1766133648207821e-05 0 -0.0091886979452395039 6.2750346526400706e-06 0 -0.0090275072551581435 -7.3479147264949725e-05 0 -0.0092368153948051233 -0.00022418874512407404 0 -0.0088060875446107148 -0.00029687074345651306 0 -0.0094057348927439628 -3.2983625659745772e-05 0 -0.0090275072551581435 -7.3479147264949725e-05 0 -0.0092368153948051233 -0.00022418874512407404 0 -0.0094057348927439628 -3.2983625659745772e-05 0 -0.0092368153948051233 -0.00022418874512407404 0 -0.0094506364956978197 -0.00012322343138819301 0 -0.0095100397918444837 -0.00024686800368457811 0 -0.009585065396334868 -0.00020933704264958076 0 -0.0094611265236178802 -0.00038984366660848419 0 -0.008769259818542801 0.00019142399334938338 0 -0.0086941354809242869 2.5539193374314924e-05 0 -0.0080087689610572176 0.00021484693786209027 0 -0.0091886979452395039 6.2750346526400706e-06 0 -0.0087244591015476058 -8.4304415230923536e-05 0 -0.009585065396334868 -0.00020933704264958076 0 -0.0096387151444650467 -0.00015170490947484221 0 -0.0094611265236178802 -0.00038984366660848419 0 -0.009585065396334868 -0.00020933704264958076 0 -0.0096200348418899202 -0.00016410043059860972 0 -0.0096387151444650467 -0.00015170490947484221 0 -0.0096200348418899202 -0.00016410043059860972 0 -0.0096114326531812518 -0.00014644288030852659 0 -0.0096387151444650467 -0.00015170490947484221 0 -0.0096288631103525636 -0.00014886194119549385 0 -0.0095523365934992079 -0.00011289488126146703 0 -0.0096114326531812518 -0.00014644288030852659 0 -0.0095523365934992079 -0.00011289488126146703 0 -0.0096114326531812518 -0.00014644288030852659 0 -0.0096387151444650467 -0.00015170490947484221 0 -0.0096288631103525636 -0.00014886194119549385 0 -0.0096200348418899202 -0.00016410043059860972 0 -0.0096114326531812518 -0.00014644288030852659 0 -0.0090275072551581435 -7.3479147264949725e-05 0 -0.0086941354809242869 2.5539193374314924e-05 0 -0.0088060875446107148 -0.00029687074345651306 0 -0.0086941354809242869 2.5539193374314924e-05 0 -0.0083783312781495166 -0.00026208946504146884 0 -0.0088060875446107148 -0.00029687074345651306 0 -0.0090275072551581435 -7.3479147264949725e-05 0 -0.008769259818542801 0.00019142399334938338 0 -0.0086941354809242869 2.5539193374314924e-05 0 -0.0086941354809242869 2.5539193374314924e-05 0 -0.0083783312781495166 -0.00026208946504146884 0 -0.0079996435363094403 6.0278379213248023e-06 0 -0.0086941354809242869 2.5539193374314924e-05 0 -0.0080087689610572176 0.00021484693786209027 0 -0.0080408325817481734 -9.8091587144478388e-05 0 -0.0086477095450012073 2.3049502827134773e-05 0 -0.008026977042411166 -4.8808697782968848e-05 0 -0.0083783312781495166 -0.00026208946504146884 0 -0.0088060875446107148 -0.00029687074345651306 0 -0.0082568691504366996 -0.00069291694272291808 0 -0.0083783312781495166 -0.00026208946504146884 0 -0.0082568691504366996 -0.00069291694272291808 0 -0.0079622216914498872 -0.00039620364048954056 0 -0.0088060875446107148 -0.00029687074345651306 0 -0.0082568691504366996 -0.00069291694272291808 0 -0.0089348741171979967 -0.00057420372412588232 0 -0.0036686464379215192 0.00012648359189306355 0 -0.0033831381205346751 -9.2242654479429001e-05 0 -0.0036355439995210395 -0.00016378694150471514 0 -0.0057585570138965116 -0.00031290707474759762 0 -0.0062902891195508112 -0.00021966652710026332 0 -0.0032486066631225636 7.0039987079898773e-05 0 -0.0036686464379215192 0.00012648359189306355 0 -0.0033831381205346751 -9.2242654479429001e-05 0 -0.0032486066631225636 7.0039987079898773e-05 0 -0.0031395909551786912 -1.5496327468156353e-05 0 -0.0033831381205346751 -9.2242654479429001e-05 0 -0.0092368153948051233 -0.00022418874512407404 0 -0.0093237324169387504 -0.00036155263448489703 0 -0.0094506364956978197 -0.00012322343138819301 0 -0.0092368153948051233 -0.00022418874512407404 0 -0.0088060875446107148 -0.00029687074345651306 0 -0.0089348741171979967 -0.00057420372412588232 0 -0.0092368153948051233 -0.00022418874512407404 0 -0.0089348741171979967 -0.00057420372412588232 0 -0.0093237324169387504 -0.00036155263448489703 0 -0.0062902891195508112 -0.00021966652710026332 0 -0.0067486099633773571 -0.00010582776071070375 0 -0.0036686464379215192 0.00012648359189306355 0 -0.0037896914499634224 -9.0036020164855141e-05 0 -0.0040033998861870104 -4.3814043081944422e-05 0 -0.0036686464379215192 0.00012648359189306355 0 -0.0037896914499634224 -9.0036020164855141e-05 0 -0.0036355439995210395 -0.00016378694150471514 0 -0.0041749262217514104 0.00016319332912281655 0 -0.0040033998861870104 -4.3814043081944422e-05 0 -0.0042430867292954444 -0.00016578129433245862 0 -0.0036686464379215192 0.00012648359189306355 0 -0.0041749262217514104 0.00016319332912281655 0 -0.0040033998861870104 -4.3814043081944422e-05 0 -0.0041749262217514104 0.00016319332912281655 0 -0.0047198182243562304 0.0001429506544780897 0 -0.0042430867292954444 -0.00016578129433245862 0 -0.0067486099633773571 -0.00010582776071070375 0 -0.0070255425694758155 -4.1354154014217386e-05 0 -0.0093237324169387504 -0.00036155263448489703 0 -0.0094280530477909748 -0.0002295518696341507 0 -0.0094506364956978197 -0.00012322343138819301 0 -0.0094280530477909748 -0.0002295518696341507 0 -0.009445972324843491 -0.00014356518069773592 0 -0.0094506364956978197 -0.00012322343138819301 0 -0.0070255425694758155 -4.1354154014217386e-05 0 -0.0074884813024773747 -5.778445815060767e-05 0 -0.0047198182243562304 0.0001429506544780897 0 -0.0051971906524861606 0.00010278406384754418 0 -0.0049919099662396075 -0.00015638845847877966 0 -0.0094230698301003574 -0.00015366839734993915 0 -0.0094303797590539057 -0.00014007457578581669 0 -0.0094111035406246168 -0.00013888417057152712 0 -0.0094230698301003574 -0.00015366839734993915 0 -0.009445972324843491 -0.00014356518069773592 0 -0.0094303797590539057 -0.00014007457578581669 0 -0.0094280530477909748 -0.0002295518696341507 0 -0.0094230698301003574 -0.00015366839734993915 0 -0.009445972324843491 -0.00014356518069773592 0 -0.009445972324843491 -0.00014356518069773592 0 -0.0094405944014906117 -0.00012768283347183577 0 -0.0094479542133104107 -0.00011417438205756543 0 -0.009445972324843491 -0.00014356518069773592 0 -0.0094303797590539057 -0.00014007457578581669 0 -0.0094405944014906117 -0.00012768283347183577 0 -0.0094303797590539057 -0.00014007457578581669 0 -0.0094405944014906117 -0.00012768283347183577 0 -0.0094324095245422301 -0.0001289141121481297 0 -0.0094405944014906117 -0.00012768283347183577 0 -0.0094368831841678685 -0.00012032237143805032 0 -0.0094324095245422301 -0.0001289141121481297 0 -0.0094405944014906117 -0.00012768283347183577 0 -0.0094414466570812827 -0.00011404859589248553 0 -0.0094368831841678685 -0.00012032237143805032 0 -0.0094474678426781748 -0.00010401996158843419 0 -0.0094479542133104107 -0.00011417438205756543 0 -0.0094549923596112927 -9.4733600609138286e-05 0 -0.0094474678426781748 -0.00010401996158843419 0 -0.0094414466570812827 -0.00011404859589248553 0 -0.0094479542133104107 -0.00011417438205756543 0 -0.0094405944014906117 -0.00012768283347183577 0 -0.0094414466570812827 -0.00011404859589248553 0 -0.0094479542133104107 -0.00011417438205756543 0 -0.0094479542133104107 -0.00011417438205756543 0 -0.0094549923596112927 -9.4733600609138286e-05 0 -0.0094506364956978197 -0.00012322343138819301 0 -0.0094549923596112927 -9.4733600609138286e-05 0 -0.0094602089144079724 -7.0626427550036903e-05 0 -0.0094506364956978197 -0.00012322343138819301 0 -0.0094057348927439628 -3.2983625659745772e-05 0 -0.0094602089144079724 -7.0626427550036903e-05 0 -0.0094506364956978197 -0.00012322343138819301 0 -0.009445972324843491 -0.00014356518069773592 0 -0.0094479542133104107 -0.00011417438205756543 0 -0.0094506364956978197 -0.00012322343138819301 0 -0.0065420695981455905 -0.00014589472895463744 0 -0.0073125328607979738 -0.00091354286093544049 0 -0.0055188070867144227 -1.7410237211330648e-06 0 -0.0065420695981455905 -0.00014589472895463744 0 -0.0061649834960883221 2.5361554631501913e-07 0 -0.0055188070867144227 -1.7410237211330648e-06 0 -0.0065420695981455905 -0.00014589472895463744 0 -0.007308228452248859 -0.00025658363548314208 0 -0.0073125328607979738 -0.00091354286093544049 0 -0.0065420695981455905 -0.00014589472895463744 0 -0.007308228452248859 -0.00025658363548314208 0 -0.0068625675796616407 5.3612558756725331e-05 0 -0.007308228452248859 -0.00025658363548314208 0 -0.0068625675796616407 5.3612558756725331e-05 0 -0.0078056932180457757 -7.5140805745248302e-05 0 -0.0068625675796616407 5.3612558756725331e-05 0 -0.0071813203395271067 0.00040369422698120717 0 -0.0078056932180457757 -7.5140805745248302e-05 0 -0.0065420695981455905 -0.00014589472895463744 0 -0.0068625675796616407 5.3612558756725331e-05 0 -0.0061649834960883221 2.5361554631501913e-07 0 -0.0068625675796616407 5.3612558756725331e-05 0 -0.0061649834960883221 2.5361554631501913e-07 0 -0.00681053300636525 7.1404836967213693e-07 0 -0.0068625675796616407 5.3612558756725331e-05 0 -0.00681053300636525 7.1404836967213693e-07 0 -0.0071813203395271067 0.00040369422698120717 0 -0.0068129674682152674 -8.9604349035099751e-07 0 -0.0076839586892048306 0.00011309100868661624 0 -0.0080831267623452351 -0.00013810982194230575 0 -0.0068118675464813368 4.8276482207773135e-08 0 -0.0076530149444901533 0.00014014066587195412 0 -0.0076721104409295067 6.2586297000805078e-07 0 -0.0068129674682152674 -8.9604349035099751e-07 0 -0.0076839586892048306 0.00011309100868661624 0 -0.0076839586892048306 0.00011309100868661624 0 -0.0082315749267739408 0.00019584658807610009 0 -0.0080831267623452351 -0.00013810982194230575 0 -0.0076530149444901533 0.00014014066587195412 0 -0.0083306571098808475 0.00027020567316104278 0 -0.0071813203395271067 0.00040369422698120717 0 -0.0084364604900637637 0.00029534816276237017 0 -0.0078056932180457757 -7.5140805745248302e-05 0 -0.0082315749267739408 0.00019584658807610009 0 -0.0080831267623452351 -0.00013810982194230575 0 -0.0084364604900637637 0.00029534816276237017 0 -0.0086986202753201562 0.00037877485466269247 0 -0.0082315749267739408 0.00019584658807610009 0 -0.0084364604900637637 0.00029534816276237017 0 -0.0086986202753201562 0.00037877485466269247 0 -0.0084364604900637637 0.00029534816276237017 0 -0.0090675999787793813 0.000380303303913429 0 -0.0084364604900637637 0.00029534816276237017 0 -0.0085964164289642989 -0.00021248842825639748 0 -0.0090590439821907013 0.00013919127692172762 0 -0.0084364604900637637 0.00029534816276237017 0 -0.0078056932180457757 -7.5140805745248302e-05 0 -0.0085964164289642989 -0.00021248842825639748 0 -0.0078056932180457757 -7.5140805745248302e-05 0 -0.0079653794183497974 -0.00044106781509453653 0 -0.0085964164289642989 -0.00021248842825639748 0 -0.007308228452248859 -0.00025658363548314208 0 -0.0079653794183497974 -0.00044106781509453653 0 -0.0073125328607979738 -0.00091354286093544049 0 -0.007308228452248859 -0.00025658363548314208 0 -0.0078056932180457757 -7.5140805745248302e-05 0 -0.0079653794183497974 -0.00044106781509453653 0 -0.0079653794183497974 -0.00044106781509453653 0 -0.0085964164289642989 -0.00021248842825639748 0 -0.0084660797385111234 -0.00081946428317129663 0 -0.008815061689359166 -0.00047022594550073636 0 -0.0085964164289642989 -0.00021248842825639748 0 -0.0084660797385111234 -0.00081946428317129663 0 -0.008815061689359166 -0.00047022594550073636 0 -0.0090669654519731357 -0.00034980489400965564 0 -0.0090796550573822733 -8.5938763041140624e-05 0 -0.008815061689359166 -0.00047022594550073636 0 -0.0090669654519731357 -0.00034980489400965564 0 -0.0090812764477505217 -0.00059224756636059499 0 -0.008815061689359166 -0.00047022594550073636 0 -0.0090796550573822733 -8.5938763041140624e-05 0 -0.0085964164289642989 -0.00021248842825639748 0 -0.0092944352160556024 -0.0001490399770464993 0 -0.0085964164289642989 -0.00021248842825639748 0 -0.0090590439821907013 0.00013919127692172762 0 -0.0091728004547210387 -0.0001138269894354006 0 -0.0086374577306664348 -0.00020923464523800155 0 -0.0084364604900637637 0.00029534816276237017 0 -0.0090590439821907013 0.00013919127692172762 0 -0.0090675999787793813 0.000380303303913429 0 -0.0090590439821907013 0.00013919127692172762 0 -0.0090675999787793813 0.000380303303913429 0 -0.0094571135270689281 0.00032476304838813171 0 -0.0090590439821907013 0.00013919127692172762 0 -0.0094630271076408291 0.00010457665097313669 0 -0.0094571135270689281 0.00032476304838813171 0 -0.0092944352160556024 -0.0001490399770464993 0 -0.0090590439821907013 0.00013919127692172762 0 -0.0094630271076408291 0.00010457665097313669 0 -0.0094630271076408291 0.00010457665097313669 0 -0.0094571135270689281 0.00032476304838813171 0 -0.0096666717074857245 0.00017319812624237092 0 -0.0096876224571289492 0.00041700131887274333 0 -0.0094571135270689281 0.00032476304838813171 0 -0.0096666717074857245 0.00017319812624237092 0 -0.0094630271076408291 0.00010457665097313669 0 -0.0096666717074857245 0.00017319812624237092 0 -0.0096215080837056977 -1.6235459664033059e-06 0 -0.0094263619255931606 -1.7217526500664746e-05 0 -0.0092722526843245084 -0.0002422049928830852 0 -0.0094795879552693162 -0.00015665699199594711 0 -0.0092944352160556024 -0.0001490399770464993 0 -0.0094630271076408291 0.00010457665097313669 0 -0.0096215080837056977 -1.6235459664033059e-06 0 -0.0091728004547210387 -0.0001138269894354006 0 -0.0095219205910617062 -1.516951292315421e-05 0 -0.0090796550573822733 -8.5938763041140624e-05 0 -0.0094263619255931606 -1.7217526500664746e-05 0 -0.0092722526843245084 -0.0002422049928830852 0 -0.0090669654519731357 -0.00034980489400965564 0 -0.0090796550573822733 -8.5938763041140624e-05 0 -0.0092722526843245084 -0.0002422049928830852 0 -0.0090669654519731357 -0.00034980489400965564 0 -0.0092722526843245084 -0.0002422049928830852 0 -0.0090812764477505217 -0.00059224756636059499 0 -0.0092722526843245084 -0.0002422049928830852 0 -0.0093756425790604576 -0.00031438792317119575 0 -0.0090812764477505217 -0.00059224756636059499 0 -0.0092722526843245084 -0.0002422049928830852 0 -0.0093756425790604576 -0.00031438792317119575 0 -0.0094795879552693162 -0.00015665699199594711 0 -0.0095100397918444837 -0.00024686800368457811 0 -0.0093756425790604576 -0.00031438792317119575 0 -0.0094795879552693162 -0.00015665699199594711 0 -0.0095100397918444837 -0.00024686800368457811 0 -0.0093756425790604576 -0.00031438792317119575 0 -0.0094611265236178802 -0.00038984366660848419 0 -0.0087244591015476058 -8.4304415230923536e-05 0 -0.0081271501524395016 -0.00018664687339959698 0 -0.0093756425790604576 -0.00031438792317119575 0 -0.0094611265236178802 -0.00038984366660848419 0 -0.0090812764477505217 -0.00059224756636059499 0 -0.0080087689610572176 0.00021484693786209027 0 -0.0076701526131793245 8.1903534833624567e-06 0 -0.0071874749086520088 0.00022336730430833177 0 -0.0072829454678149195 -0.00011201075202684444 0 -0.0079996435363094403 6.0278379213248023e-06 0 -0.0076697906070663209 -0.00031177368229292002 0 -0.0076701526131793245 8.1903534833624567e-06 0 -0.007339272608945905 -0.00020384681028459003 0 -0.0080408325817481734 -9.8091587144478388e-05 0 -0.0076701526131793245 8.1903534833624567e-06 0 -0.007339272608945905 -0.00020384681028459003 0 -0.0071874749086520088 0.00022336730430833177 0 -0.0073061763615697986 -0.00015902035133059228 0 -0.008026977042411166 -4.8808697782968848e-05 0 -0.0079996435363094403 6.0278379213248023e-06 0 -0.0079622216914498872 -0.00039620364048954056 0 -0.0076697906070663209 -0.00031177368229292002 0 -0.0080087689610572176 0.00021484693786209027 0 -0.0076701526131793245 8.1903534833624567e-06 0 -0.0080408325817481734 -9.8091587144478388e-05 0 -0.0083783312781495166 -0.00026208946504146884 0 -0.0079996435363094403 6.0278379213248023e-06 0 -0.0079622216914498872 -0.00039620364048954056 0 -0.0079622216914498872 -0.00039620364048954056 0 -0.0074914306789931034 -0.00071837316962256048 0 -0.0076697906070663209 -0.00031177368229292002 0 -0.0082568691504366996 -0.00069291694272291808 0 -0.0079622216914498872 -0.00039620364048954056 0 -0.0074914306789931034 -0.00071837316962256048 0 -0.0032486066631225636 7.0039987079898773e-05 0 -0.0031395909551786912 -1.5496327468156353e-05 0 -0.0032417617649660125 -8.6361267855500389e-05 0 -0.0057585570138965116 -0.00031290707474759762 0 -0.0053768052833632913 -0.00039550890805604484 0 -0.0031395909551786912 -1.5496327468156353e-05 0 -0.0032417617649660125 -8.6361267855500389e-05 0 -0.0033777107118309105 8.4050362017498739e-05 0 -0.0072829454678149195 -0.00011201075202684444 0 -0.0074914306789931034 -0.00071837316962256048 0 -0.0070106309049697219 -0.00039786555433030856 0 -0.0072829454678149195 -0.00011201075202684444 0 -0.0074914306789931034 -0.00071837316962256048 0 -0.0076697906070663209 -0.00031177368229292002 0 -0.0074914306789931034 -0.00071837316962256048 0 -0.0070106309049697219 -0.00039786555433030856 0 -0.0068024028125644254 -0.00068970744623133163 0 -0.0053768052833632913 -0.00039550890805604484 0 -0.0051924490500099667 -0.00041037792321354713 0 -0.0032417617649660125 -8.6361267855500389e-05 0 -0.0035868496122500823 -0.00013610002194415019 0 -0.0033777107118309105 8.4050362017498739e-05 0 -0.0036004804541425405 1.5126607641850596e-05 0 -0.0035868496122500823 -0.00013610002194415019 0 -0.0033777107118309105 8.4050362017498739e-05 0 -0.0037334422863270623 -1.8369783365214107e-05 0 -0.0035868496122500823 -0.00013610002194415019 0 -0.0039019700646785913 -0.00012008465721478692 0 -0.0037334422863270623 -1.8369783365214107e-05 0 -0.0036004804541425405 1.5126607641850596e-05 0 -0.0035868496122500823 -0.00013610002194415019 0 -0.0070106309049697219 -0.00039786555433030856 0 -0.0068024028125644254 -0.00068970744623133163 0 -0.0066672426459568248 -0.00026517318951374167 0 -0.0068024028125644254 -0.00068970744623133163 0 -0.0066672426459568248 -0.00026517318951374167 0 -0.0062099507110911535 -0.00065761735647328339 0 -0.007339272608945905 -0.00020384681028459003 0 -0.0066672426459568248 -0.00026517318951374167 0 -0.0071874749086520088 0.00022336730430833177 0 -0.0073061763615697986 -0.00015902035133059228 0 -0.0067100559687364109 -0.00025494671227402718 0 -0.0072829454678149195 -0.00011201075202684444 0 -0.0070106309049697219 -0.00039786555433030856 0 -0.0066672426459568248 -0.00026517318951374167 0 -0.0066672426459568248 -0.00026517318951374167 0 -0.0071874749086520088 0.00022336730430833177 0 -0.00645241257179879 0.00019606353990937007 0 -0.0081271501524395016 -0.00018664687339959698 0 -0.0074428499138230481 -0.00031281843695361535 0 -0.008815061689359166 -0.00047022594550073636 0 -0.0090812764477505217 -0.00059224756636059499 0 -0.0084660797385111234 -0.00081946428317129663 0 -0.00645241257179879 0.00019606353990937007 0 -0.0061878331174257256 -0.00016884740955678653 0 -0.005815942242053806 0.00012708205185744484 0 -0.0074428499138230481 -0.00031281843695361535 0 -0.0065933547820132207 -0.00036076289631981924 0 -0.0079653794183497974 -0.00044106781509453653 0 -0.0084660797385111234 -0.00081946428317129663 0 -0.0073125328607979738 -0.00091354286093544049 0 -0.0061878331174257256 -0.00016884740955678653 0 -0.0058433428531923281 -0.00026082645345467591 0 -0.005815942242053806 0.00012708205185744484 0 -0.0066672426459568248 -0.00026517318951374167 0 -0.00645241257179879 0.00019606353990937007 0 -0.0061878331174257256 -0.00016884740955678653 0 -0.0066672426459568248 -0.00026517318951374167 0 -0.0061878331174257256 -0.00016884740955678653 0 -0.0062099507110911535 -0.00065761735647328339 0 -0.0051924490500099667 -0.00041037792321354713 0 -0.0050683219180113603 -0.00039195722830398451 0 -0.0039019700646785913 -0.00012008465721478692 0 -0.003845020388437633 2.7745098920433994e-05 0 -0.0039492149803399199 2.3364647360475696e-05 0 -0.0037334422863270623 -1.8369783365214107e-05 0 -0.0039019700646785913 -0.00012008465721478692 0 -0.003845020388437633 2.7745098920433994e-05 0 -0.0039019700646785913 -0.00012008465721478692 0 -0.0040184029961647123 1.4010486532395975e-07 0 -0.0040573859880721321 -2.8408412884203443e-05 0 -0.0039019700646785913 -0.00012008465721478692 0 -0.0041072655765459392 -7.3012586022902607e-05 0 -0.0040573859880721321 -2.8408412884203443e-05 0 -0.0040184029961647123 1.4010486532395975e-07 0 -0.0039492149803399199 2.3364647360475696e-05 0 -0.004002341742034521 3.6315342577344985e-05 0 -0.0040184029961647123 1.4010486532395975e-07 0 -0.0040534518406809862 2.3507773047324441e-05 0 -0.0040299918366512996 3.4368369785948634e-05 0 -0.0039019700646785913 -0.00012008465721478692 0 -0.0040184029961647123 1.4010486532395975e-07 0 -0.0039492149803399199 2.3364647360475696e-05 0 -0.0061878331174257256 -0.00016884740955678653 0 -0.0062099507110911535 -0.00065761735647328339 0 -0.0058433428531923281 -0.00026082645345467591 0 -0.0050683219180113603 -0.00039195722830398451 0 -0.0048394800712310932 -0.00031039028927624956 0 -0.0062099507110911535 -0.00065761735647328339 0 -0.0056939279347449486 -0.0006180646388451546 0 -0.0058433428531923281 -0.00026082645345467591 0 -0.0056939279347449486 -0.0006180646388451546 0 -0.0055239084736663563 -0.00028743874099895663 0 -0.0058433428531923281 -0.00026082645345467591 0 -0.0048394800712310932 -0.00031039028927624956 0 -0.0050850984467440503 -0.00012002861050535037 0 -0.0041072655765459392 -7.3012586022902607e-05 0 -0.0040573859880721321 -2.8408412884203443e-05 0 -0.0041131970562612412 -2.5880698990727258e-05 0 -0.0041072655765459392 -7.3012586022902607e-05 0 -0.0041131970562612412 -2.5880698990727258e-05 0 -0.0041588945840119801 1.1924726588140441e-05 0 -0.0040573859880721321 -2.8408412884203443e-05 0 -0.0041131970562612412 -2.5880698990727258e-05 0 -0.004117281842603536 7.8282458498125287e-06 0 -0.0041131970562612412 -2.5880698990727258e-05 0 -0.004117281842603536 7.8282458498125287e-06 0 -0.0041588945840119801 1.1924726588140441e-05 0 -0.0040184029961647123 1.4010486532395975e-07 0 -0.004077400763568783 7.4034952004497651e-06 0 -0.0040534518406809862 2.3507773047324441e-05 0 -0.0040184029961647123 1.4010486532395975e-07 0 -0.0040573859880721321 -2.8408412884203443e-05 0 -0.004077400763568783 7.4034952004497651e-06 0 -0.0040573859880721321 -2.8408412884203443e-05 0 -0.004117281842603536 7.8282458498125287e-06 0 -0.004077400763568783 7.4034952004497651e-06 0 -0.004117281842603536 7.8282458498125287e-06 0 -0.004077400763568783 7.4034952004497651e-06 0 -0.0040860624264498959 2.7876521142938471e-05 0 -0.0041072655765459392 -7.3012586022902607e-05 0 -0.0041588945840119801 1.1924726588140441e-05 0 -0.004278484622279497 2.8754548946350972e-07 0 -0.0039750739579944832 1.0169181057418542e-07 0 -0.0038424631960351126 1.8570178168193849e-05 0 -0.0039762357446124627 -1.7887927493952525e-07 0 -0.0041588945840119801 1.1924726588140441e-05 0 -0.0041453600880033388 6.0899091518634863e-06 0 -0.004117281842603536 7.8282458498125287e-06 0 -0.0041588945840119801 1.1924726588140441e-05 0 -0.0041453600880033388 6.0899091518634863e-06 0 -0.0039762357446124627 -1.7887927493952525e-07 0 -0.0041588945840119801 1.1924726588140441e-05 0 -0.004278484622279497 2.8754548946350972e-07 0 -0.0039762357446124627 -1.7887927493952525e-07 0 -0.004278484622279497 2.8754548946350972e-07 0 -0.0046484129982535946 2.2264745520748218e-07 0 -0.0045012778966821362 -1.3962205961604347e-05 0 -0.0044561167989109517 1.8096792220754117e-05 0 -0.0045595822994056717 8.6222020832916964e-06 0 -0.0048394800712310932 -0.00031039028927624956 0 -0.0040954359711033199 -1.1439462482890294e-05 0 -0.0045012778966821362 -1.3962205961604347e-05 0 -0.004278484622279497 2.8754548946350972e-07 0 -0.0044561167989109517 1.8096792220754117e-05 0 -0.004278484622279497 2.8754548946350972e-07 0 -0.0044561167989109517 1.8096792220754117e-05 0 -0.0046484129982535946 2.2264745520748218e-07 0 -0.0044561167989109517 1.8096792220754117e-05 0 -0.0046484129982535946 2.2264745520748218e-07 0 -0.0045595822994056717 8.6222020832916964e-06 0 -0.0055239084736663563 -0.00028743874099895663 0 -0.0056267244856632904 -1.8877968327730231e-05 0 -0.0053238835028336607 -5.6359443629504448e-07 0 -0.0050850984467440503 -0.00012002861050535037 0 -0.0053219012046455292 7.0707766326263511e-08 0 -0.0046484129982535946 2.2264745520748218e-07 0 -0.0045595822994056717 8.6222020832916964e-06 0 -0.0053217129751167791 -2.7343117362092851e-07 0 -0.0055239084736663563 -0.00028743874099895663 0 -0.0058433428531923281 -0.00026082645345467591 0 -0.0056267244856632904 -1.8877968327730231e-05 0 -0.0058433428531923281 -0.00026082645345467591 0 -0.0056267244856632904 -1.8877968327730231e-05 0 -0.005815942242053806 0.00012708205185744484 0 -0.0065933547820132207 -0.00036076289631981924 0 -0.0055178856182027686 -1.5545573522664334e-07 0 -0.0056267244856632904 -1.8877968327730231e-05 0 -0.005815942242053806 0.00012708205185744484 0 -0.0055157859709721764 6.2546514189606827e-07 0 -0.0056267244856632904 -1.8877968327730231e-05 0 -0.0055157859709721764 6.2546514189606827e-07 0 -0.0053238835028336607 -5.6359443629504448e-07 0 -0.0019421231523997398 7.1710909907936299e-05 0 -0.0020599023593374376 -4.7021792469133607e-06 0 -0.0025416502403525498 -1.1065759783149225e-07 0 -0.0019421231523997398 7.1710909907936299e-05 0 -0.0025416502403525498 -1.1065759783149225e-07 0 -0.0016720625519691507 -3.0296666918124366e-08 0 -0.0019421231523997398 7.1710909907936299e-05 0 -0.0019404561904293681 9.5352372843174755e-05 0 -0.0020599023593374376 -4.7021792469133607e-06 0 -0.0019421231523997398 7.1710909907936299e-05 0 -0.0019404561904293681 9.5352372843174755e-05 0 -0.0018890539713676772 2.8085010782573764e-05 0 -0.0019404561904293681 9.5352372843174755e-05 0 -0.0020599023593374376 -4.7021792469133607e-06 0 -0.0019573901589111441 -0.00013754833790680012 0 -0.0019404561904293681 9.5352372843174755e-05 0 -0.0019573901589111441 -0.00013754833790680012 0 -0.0017981746521915038 -0.00022185443348745408 0 -0.0020599023593374376 -4.7021792469133607e-06 0 -0.0019573901589111441 -0.00013754833790680012 0 -0.0021349845922143803 -0.00025699903084773853 0 -0.0020599023593374376 -4.7021792469133607e-06 0 -0.0025416502403525498 -1.1065759783149225e-07 0 -0.0021349845922143803 -0.00025699903084773853 0 -0.0025440002112641067 2.2450809642959298e-09 0 -0.0030284607618440294 -5.1602031978259946e-09 0 -0.0028686566312069012 2.916573913983789e-05 0 -0.0025428097153884005 -5.518678396993175e-09 0 -0.0024707248328285237 -0.00012032809230369568 0 -0.0030298803451767348 2.5507216226058648e-08 0 -0.0030783233898022469 -0.00017166771298997012 0 -0.0030284607618440294 -5.1602031978259946e-09 0 -0.0028686566312069012 2.916573913983789e-05 0 -0.0027361283817319876 -0.00010645445686960539 0 -0.003030749169534476 -1.9538093151508252e-07 0 -0.0034247470003580332 5.4139618099146984e-05 0 -0.0035413079821788357 -7.7475797827178874e-05 0 -0.0039748019478429821 -2.0097816043944359e-07 0 -0.0035022017822587534 1.9724632424196666e-07 0 -0.0034247470003580332 5.4139618099146984e-05 0 -0.003030749169534476 -1.9538093151508252e-07 0 -0.0035022017822587534 1.9724632424196666e-07 0 -0.0034247470003580332 5.4139618099146984e-05 0 -0.0040479057515698516 4.600637842786674e-05 0 -0.0040860624264498959 2.7876521142938471e-05 0 -0.0040580650546029381 6.8979375263031835e-05 0 -0.0040479057515698516 4.600637842786674e-05 0 -0.0040580650546029381 6.8979375263031835e-05 0 -0.0040172103530343103 6.1116147080946762e-05 0 -0.0040479057515698516 4.600637842786674e-05 0 -0.0040534518406809862 2.3507773047324441e-05 0 -0.0040860624264498959 2.7876521142938471e-05 0 -0.0040479057515698516 4.600637842786674e-05 0 -0.0040534518406809862 2.3507773047324441e-05 0 -0.0040299918366512996 3.4368369785948634e-05 0 -0.004077400763568783 7.4034952004497651e-06 0 -0.0040534518406809862 2.3507773047324441e-05 0 -0.0040860624264498959 2.7876521142938471e-05 0 -0.004117281842603536 7.8282458498125287e-06 0 -0.0041453600880033388 6.0899091518634863e-06 0 -0.0040860624264498959 2.7876521142938471e-05 0 -0.0041453600880033388 6.0899091518634863e-06 0 -0.0040860624264498959 2.7876521142938471e-05 0 -0.0040580650546029381 6.8979375263031835e-05 0 -0.0038424631960351126 1.8570178168193849e-05 0 -0.0030783233898022469 -0.00017166771298997012 0 -0.0041453600880033388 6.0899091518634863e-06 0 -0.0040580650546029381 6.8979375263031835e-05 0 -0.0040663835641748282 0.00014114712686247779 0 -0.0040580650546029381 6.8979375263031835e-05 0 -0.0040663835641748282 0.00014114712686247779 0 -0.0040209593554957424 0.00010831169874484318 0 -0.0025686022994633119 -9.2802296836032625e-05 0 -0.0025936307369551692 -0.00011820099574914693 0 -0.0026527385193600953 -7.4327684288322493e-05 0 -0.0040663835641748282 0.00014114712686247779 0 -0.0040251100711515145 0.00013652555526909256 0 -0.0040209593554957424 0.00010831169874484318 0 -0.0019573901589111441 -0.00013754833790680012 0 -0.0021349845922143803 -0.00025699903084773853 0 -0.0019302930688718154 -0.00037378111912510871 0 -0.0030783233898022469 -0.00017166771298997012 0 -0.0025551472220649526 -0.00014583250358373258 0 -0.0019573901589111441 -0.00013754833790680012 0 -0.0019302930688718154 -0.00037378111912510871 0 -0.0017981746521915038 -0.00022185443348745408 0 -0.00250840775741685 -0.00013529254527644424 0 -0.0025551472220649526 -0.00014583250358373258 0 -0.0030783233898022469 -0.00017166771298997012 0 -0.00250840775741685 -0.00013529254527644424 0 -0.0028686566312069012 2.916573913983789e-05 0 -0.0027361283817319876 -0.00010645445686960539 0 -0.002717645582195677 -8.8123016815695168e-05 0 -0.0024707248328285237 -0.00012032809230369568 0 -0.00250840775741685 -0.00013529254527644424 0 -0.00250840775741685 -0.00013529254527644424 0 -0.001726437638356109 -0.00024214455581437089 0 -0.0017715613259141412 -0.00027808755316350117 0 -0.0017220373000658875 -0.0002871747205792959 0 -0.0018094145598183424 -0.00021321355417968223 0 -0.0017708376271148212 -0.0003034206221245275 0 -0.0017727984025559074 -0.00030174588094086867 0 -0.0017614639236061011 -0.00030178720438030421 0 -0.001726437638356109 -0.00024214455581437089 0 -0.0017361138855692788 -0.00029225802202211958 0 -0.0017708376271148212 -0.0003034206221245275 0 -0.0017537166217795187 -0.00029227014487312952 0 -0.0017727984025559074 -0.00030174588094086867 0 -0.0017537166217795187 -0.00029227014487312952 0 -0.0017715613259141412 -0.00027808755316350117 0 -0.0017727984025559074 -0.00030174588094086867 0 -0.0017537166217795187 -0.00029227014487312952 0 -0.0017715613259141412 -0.00027808755316350117 0 -0.0017220373000658875 -0.0002871747205792959 0 -0.0017130250261059099 -0.00029473864596715158 0 -0.0017440849901543883 -0.00032147802202629722 0 -0.0017220373000658875 -0.0002871747205792959 0 -0.0017440849901543883 -0.00032147802202629722 0 -0.0017537166217795187 -0.00029227014487312952 0 -0.0017220373000658875 -0.0002871747205792959 0 -0.002142247959246113 -0.00013132877331702961 0 -0.0021954725133854908 -9.1250878857694487e-05 0 -0.0023390582737586635 -8.853595947644047e-05 0 -0.0025551472220649526 -0.00014583250358373258 0 -0.0033605236721972881 5.2863095818389368e-05 0 -0.0040251100711515145 0.00013652555526909256 0 -0.0040209593554957424 0.00010831169874484318 0 -0.0039651009105563847 0.00010132454586013802 0 -0.0025551472220649526 -0.00014583250358373258 0 -0.0019504179290869823 -0.00017175356900471693 0 -0.0038286039787757292 0.00011915657109675051 0 -0.0033605236721972881 5.2863095818389368e-05 0 -0.0040209593554957424 0.00010831169874484318 0 -0.0040082693660872621 8.9794542888196963e-05 0 -0.0039840112915144532 0.00011166090039870531 0 -0.0040580650546029381 6.8979375263031835e-05 0 -0.0040082693660872621 8.9794542888196963e-05 0 -0.0040172103530343103 6.1116147080946762e-05 0 -0.0040580650546029381 6.8979375263031835e-05 0 -0.0040209593554957424 0.00010831169874484318 0 -0.0040082693660872621 8.9794542888196963e-05 0 -0.0040082693660872621 8.9794542888196963e-05 0 -0.0039840112915144532 0.00011166090039870531 0 -0.0039851815691214557 7.2037827909524562e-05 0 -0.0039840112915144532 0.00011166090039870531 0 -0.0039392753955035968 0.00010032210965998695 0 -0.0039851815691214557 7.2037827909524562e-05 0 -0.0033605236721972881 5.2863095818389368e-05 0 -0.003767486971235232 0.00021483211230159674 0 -0.0039492149803399199 2.3364647360475696e-05 0 -0.0039392753955035968 0.00010032210965998695 0 -0.0039851815691214557 7.2037827909524562e-05 0 -0.003845020388437633 2.7745098920433994e-05 0 -0.0039492149803399199 2.3364647360475696e-05 0 -0.0039392753955035968 0.00010032210965998695 0 -0.0039492149803399199 2.3364647360475696e-05 0 -0.004002341742034521 3.6315342577344985e-05 0 -0.0039851815691214557 7.2037827909524562e-05 0 -0.004002341742034521 3.6315342577344985e-05 0 -0.0040299918366512996 3.4368369785948634e-05 0 -0.0040172103530343103 6.1116147080946762e-05 0 -0.0040184029961647123 1.4010486532395975e-07 0 -0.004002341742034521 3.6315342577344985e-05 0 -0.0040299918366512996 3.4368369785948634e-05 0 -0.0040479057515698516 4.600637842786674e-05 0 -0.0040299918366512996 3.4368369785948634e-05 0 -0.0040172103530343103 6.1116147080946762e-05 0 -0.0040082693660872621 8.9794542888196963e-05 0 -0.0040172103530343103 6.1116147080946762e-05 0 -0.0039851815691214557 7.2037827909524562e-05 0 -0.004002341742034521 3.6315342577344985e-05 0 -0.0040172103530343103 6.1116147080946762e-05 0 -0.0039851815691214557 7.2037827909524562e-05 0 -0.0033605236721972881 5.2863095818389368e-05 0 -0.0030092377689323871 2.7663953745409058e-05 0 -0.0021954725133854908 -9.1250878857694487e-05 0 -0.0023390582737586635 -8.853595947644047e-05 0 -0.0024236313178761858 -4.9297236775387944e-05 0 -0.0039948573364566014 0.0001318506194522088 0 -0.0039392753955035968 0.00010032210965998695 0 -0.0037198938219378725 0.00012588294211356618 0 -0.003845020388437633 2.7745098920433994e-05 0 -0.0039392753955035968 0.00010032210965998695 0 -0.0037198938219378725 0.00012588294211356618 0 -0.0037334422863270623 -1.8369783365214107e-05 0 -0.003845020388437633 2.7745098920433994e-05 0 -0.0037198938219378725 0.00012588294211356618 0 -0.0017750518346228413 -0.0002861485033699949 0 -0.0020317962013913587 -0.00058462627142110703 0 -0.0018089889991181709 -0.00030459070696168156 0 -0.0017614639236061011 -0.00030178720438030421 0 -0.0017285006786370454 -0.00029711225421230657 0 -0.0018094145598183424 -0.00021321355417968223 0 -0.0018089889991181709 -0.00030459070696168156 0 -0.0021037926242591532 -0.00027056631340473231 0 -0.0017715613259141412 -0.00027808755316350117 0 -0.0018089889991181709 -0.00030459070696168156 0 -0.0017727984025559074 -0.00030174588094086867 0 -0.0017715613259141412 -0.00027808755316350117 0 -0.0018094145598183424 -0.00021321355417968223 0 -0.0018089889991181709 -0.00030459070696168156 0 -0.0018089889991181709 -0.00030459070696168156 0 -0.0017727984025559074 -0.00030174588094086867 0 -0.0017614639236061011 -0.00030178720438030421 0 -0.001726437638356109 -0.00024214455581437089 0 -0.0017234269934358953 -0.00029867662366088677 0 -0.0017708376271148212 -0.0003034206221245275 0 -0.0017614639236061011 -0.00030178720438030421 0 -0.0017237506356713476 -0.00029265300703842819 0 -0.0017614639236061011 -0.00030178720438030421 0 -0.0017237506356713476 -0.00029265300703842819 0 -0.0017285006786370454 -0.00029711225421230657 0 -0.0019208898358391393 -9.5758544812338635e-05 0 -0.001726437638356109 -0.00024214455581437089 0 -0.0016609898478351446 -0.00022551338458017505 0 -0.0016770590459499063 -0.00028072732786853526 0 -0.0017237506356713476 -0.00029265300703842819 0 -0.0016434962467805757 -0.00029537710232029513 0 -0.0016609898478351446 -0.00022551338458017505 0 -0.0016770590459499063 -0.00028072732786853526 0 -0.0016434962467805757 -0.00029537710232029513 0 -0.0016770590459499063 -0.00028072732786853526 0 -0.0016845634431808571 -0.00030664510014978585 0 -0.0016845634431808571 -0.00030664510014978585 0 -0.0017237506356713476 -0.00029265300703842819 0 -0.0017135981207462311 -0.00030949637986372102 0 -0.0016770590459499063 -0.00028072732786853526 0 -0.0016845634431808571 -0.00030664510014978585 0 -0.0017237506356713476 -0.00029265300703842819 0 -0.0017285006786370454 -0.00029711225421230657 0 -0.0017243420282967727 -0.00031201914058043512 0 -0.0017135981207462311 -0.00030949637986372102 0 -0.0017237506356713476 -0.00029265300703842819 0 -0.0017285006786370454 -0.00029711225421230657 0 -0.0017135981207462311 -0.00030949637986372102 0 -0.0020317962013913587 -0.00058462627142110703 0 -0.001341436819152278 -0.00066820899355692 0 -0.0026810503586643256 -0.00067865339612744712 0 -0.0027183615210346341 -0.00092966587041211162 0 -0.0025577635540169519 -0.0010581947153203077 0 -0.003004322458821831 -0.00080696218563613899 0 -0.001341436819152278 -0.00066820899355692 0 -0.0023915203624871972 -0.00064239787613249897 0 -0.0026810503586643256 -0.00067865339612744712 0 -0.002386267389294728 -0.0012071586396552939 0 -0.0023915203624871972 -0.00064239787613249897 0 -0.0021179807114506542 -0.00077415958513923672 0 -0.002386267389294728 -0.0012071586396552939 0 -0.0023915203624871972 -0.00064239787613249897 0 -0.0021179807114506542 -0.00077415958513923672 0 -0.0021710213684283152 -0.00043882280675119027 0 -0.0018089889991181709 -0.00030459070696168156 0 -0.0021179807114506542 -0.00077415958513923672 0 -0.0021710213684283152 -0.00043882280675119027 0 -0.0018089889991181709 -0.00030459070696168156 0 -0.0021710213684283152 -0.00043882280675119027 0 -0.0021037926242591532 -0.00027056631340473231 0 -0.0021710213684283152 -0.00043882280675119027 0 -0.0021037926242591532 -0.00027056631340473231 0 -0.0023710622563432367 -0.00033610743485044947 0 -0.0023390582737586635 -8.853595947644047e-05 0 -0.0024236313178761858 -4.9297236775387944e-05 0 -0.0025798260849804618 -5.5126400833535214e-05 0 -0.0030092377689323871 2.7663953745409058e-05 0 -0.0030687066960543236 2.8446859328817904e-05 0 -0.0019504179290869823 -0.00017175356900471693 0 -0.0024954543875944594 -6.772503766845144e-05 0 -0.0018094145598183424 -0.00021321355417968223 0 -0.0021037926242591532 -0.00027056631340473231 0 -0.0023363158934800727 -7.928604521571618e-05 0 -0.0036004804541425405 1.5126607641850596e-05 0 -0.0037198938219378725 0.00012588294211356618 0 -0.0033777107118309105 8.4050362017498739e-05 0 -0.0021037926242591532 -0.00027056631340473231 0 -0.0023363158934800727 -7.928604521571618e-05 0 -0.0023710622563432367 -0.00033610743485044947 0 -0.0037334422863270623 -1.8369783365214107e-05 0 -0.0036004804541425405 1.5126607641850596e-05 0 -0.0037198938219378725 0.00012588294211356618 0 -0.0027246137537399353 -1.9954113512073905e-05 0 -0.0025798260849804618 -5.5126400833535214e-05 0 -0.0029002215536248362 -3.6013322374591156e-05 0 -0.0023363158934800727 -7.928604521571618e-05 0 -0.0026647943306609347 -0.00033247675483193421 0 -0.0029002215536248362 -3.6013322374591156e-05 0 -0.0024236313178761858 -4.9297236775387944e-05 0 -0.0027246137537399353 -1.9954113512073905e-05 0 -0.0025798260849804618 -5.5126400833535214e-05 0 -0.0024954543875944594 -6.772503766845144e-05 0 -0.0028557009043425393 -3.1419642509408238e-05 0 -0.0023363158934800727 -7.928604521571618e-05 0 -0.0023710622563432367 -0.00033610743485044947 0 -0.0026647943306609347 -0.00033247675483193421 0 -0.0023915203624871972 -0.00064239787613249897 0 -0.0026647943306609347 -0.00033247675483193421 0 -0.0026810503586643256 -0.00067865339612744712 0 -0.0023915203624871972 -0.00064239787613249897 0 -0.0023710622563432367 -0.00033610743485044947 0 -0.0026647943306609347 -0.00033247675483193421 0 -0.0023915203624871972 -0.00064239787613249897 0 -0.0021710213684283152 -0.00043882280675119027 0 -0.0023710622563432367 -0.00033610743485044947 0 -0.0026647943306609347 -0.00033247675483193421 0 -0.0030054087548161052 -0.00022360756910716037 0 -0.0030098391552056169 -0.00049227773123582293 0 -0.0026647943306609347 -0.00033247675483193421 0 -0.0030098391552056169 -0.00049227773123582293 0 -0.0026810503586643256 -0.00067865339612744712 0 -0.0031258524221944215 -5.5661645308914378e-06 0 -0.0030687066960543236 2.8446859328817904e-05 0 -0.0026647943306609347 -0.00033247675483193421 0 -0.0029002215536248362 -3.6013322374591156e-05 0 -0.0030054087548161052 -0.00022360756910716037 0 -0.0031395909551786912 -1.5496327468156353e-05 0 -0.0027246137537399353 -1.9954113512073905e-05 0 -0.0029002215536248362 -3.6013322374591156e-05 0 -0.0031395909551786912 -1.5496327468156353e-05 0 -0.0030054087548161052 -0.00022360756910716037 0 -0.0032641493523345518 -0.00031133656098506255 0 -0.0031395909551786912 -1.5496327468156353e-05 0 -0.0029002215536248362 -3.6013322374591156e-05 0 -0.0030054087548161052 -0.00022360756910716037 0 -0.0030054087548161052 -0.00022360756910716037 0 -0.0030098391552056169 -0.00049227773123582293 0 -0.0032641493523345518 -0.00031133656098506255 0 -0.0030098391552056169 -0.00049227773123582293 0 -0.0029705828124175849 -0.00079151397950978099 0 -0.0033075996741460311 -0.00066537213255509452 0 -0.0030098391552056169 -0.00049227773123582293 0 -0.0029705828124175849 -0.00079151397950978099 0 -0.0026810503586643256 -0.00067865339612744712 0 -0.0029705828124175849 -0.00079151397950978099 0 -0.0026810503586643256 -0.00067865339612744712 0 -0.0027183615210346341 -0.00092966587041211162 0 -0.0029705828124175849 -0.00079151397950978099 0 -0.0027183615210346341 -0.00092966587041211162 0 -0.0028835707727235165 -0.0010111966000359957 0 -0.0027183615210346341 -0.00092966587041211162 0 -0.0026375151847530622 -0.0010809826663501058 0 -0.0025577635540169519 -0.0010581947153203077 0 -0.0027183615210346341 -0.00092966587041211162 0 -0.0028835707727235165 -0.0010111966000359957 0 -0.0026375151847530622 -0.0010809826663501058 0 -0.0029705828124175849 -0.00079151397950978099 0 -0.0028835707727235165 -0.0010111966000359957 0 -0.0031334096838184881 -0.0010057437756994462 0 -0.0029705828124175849 -0.00079151397950978099 0 -0.0031334096838184881 -0.0010057437756994462 0 -0.0033075996741460311 -0.00066537213255509452 0 -0.0031334096838184881 -0.0010057437756994462 0 -0.0029447616761045909 -0.0012453945375317155 0 -0.0032054069083079281 -0.0013655680322163821 0 -0.0026642653440844197 -0.001147462405404448 0 -0.0027498715652364719 -0.0008651822303977685 0 -0.0028835707727235165 -0.0010111966000359957 0 -0.0031334096838184881 -0.0010057437756994462 0 -0.0029447616761045909 -0.0012453945375317155 0 -0.0028835707727235165 -0.0010111966000359957 0 -0.0029447616761045909 -0.0012453945375317155 0 -0.0026375151847530622 -0.0010809826663501058 0 -0.0026642653440844197 -0.001147462405404448 0 -0.0026245821255784681 -0.001098337584774076 0 -0.0023695823459111767 -0.0010719560161076939 0 -0.0026375151847530622 -0.0010809826663501058 0 -0.0024063564656702507 -0.00093837281867086085 0 -0.0026375151847530622 -0.0010809826663501058 0 -0.0026171232380057135 -0.00094291482618559963 0 -0.0024063564656702507 -0.00093837281867086085 0 -0.0024063564656702507 -0.00093837281867086085 0 -0.0022182283972202463 -0.00080293558690913323 0 -0.0021259018382032775 -0.00099384043350219677 0 -0.0023695823459111767 -0.0010719560161076939 0 -0.0024063564656702507 -0.00093837281867086085 0 -0.0021259018382032775 -0.00099384043350219677 0 -0.0021124100158604756 -0.001001372329391784 0 -0.0027498715652364719 -0.0008651822303977685 0 -0.0022182283972202463 -0.00080293558690913323 0 -0.0020680674385179648 -0.00040911311778931716 0 -0.0023794269079592638 -0.00047379078717412474 0 -0.0024063564656702507 -0.00093837281867086085 0 -0.0022182283972202463 -0.00080293558690913323 0 -0.0023794269079592638 -0.00047379078717412474 0 -0.0022182283972202463 -0.00080293558690913323 0 -0.0020680674385179648 -0.00040911311778931716 0 -0.0019032520454620619 -0.00061631739514369426 0 0.0008199659079931006 -0.0001666561663500867 0 0.00090450997181053597 -0.00014355471644446848 0 0.00087705571833174745 -0.0001006358309134746 0 1.1600709260190671e-05 -0.00020356580684473244 0 -0.00084900928646227682 -0.00029008928072863711 0 -0.0020174737149705594 0.0001209656266711336 0 -0.0020680674385179648 -0.00040911311778931716 0 -0.0023794269079592638 -0.00047379078717412474 0 0.00090450997181053597 -0.00014355471644446848 0 0.00093848370335246161 -0.00015235297342200421 0 0.00091712781565848119 -0.00010930194284621312 0 0.00090450997181053597 -0.00014355471644446848 0 0.00087705571833174745 -0.0001006358309134746 0 0.00091712781565848119 -0.00010930194284621312 0 -0.0026171232380057135 -0.00094291482618559963 0 -0.0024063564656702507 -0.00093837281867086085 0 -0.0023794269079592638 -0.00047379078717412474 0 0.00089731022038968243 -8.6619317954069938e-05 0 0.00087705571833174745 -0.0001006358309134746 0 0.00091533917769655488 -8.920520707320282e-05 0 0.00087705571833174745 -0.0001006358309134746 0 0.00091533917769655488 -8.920520707320282e-05 0 0.00091712781565848119 -0.00010930194284621312 0 -0.00075972683345009123 -0.00046483964745529829 0 -0.00084900928646227682 -0.00029008928072863711 0 0.00091533917769655488 -8.920520707320282e-05 0 0.00091712781565848119 -0.00010930194284621312 0 0.00094328004651685776 -8.7180397458240245e-05 0 0.00091533917769655488 -8.920520707320282e-05 0 0.00094328004651685776 -8.7180397458240245e-05 0 0.0009237752460149654 -8.8738059671987827e-05 0 0.00091712781565848119 -0.00010930194284621312 0 0.00095087524143943345 -0.00012684676835397101 0 0.00094328004651685776 -8.7180397458240245e-05 0 0.00093848370335246161 -0.00015235297342200421 0 0.00091712781565848119 -0.00010930194284621312 0 0.00095087524143943345 -0.00012684676835397101 0 0.00095087524143943345 -0.00012684676835397101 0 0.00099284227713692264 -0.00012466102821118968 0 0.00094328004651685776 -8.7180397458240245e-05 0 0.00099284227713692264 -0.00012466102821118968 0 0.00099694830529282628 -9.3082695262421231e-05 0 0.00094328004651685776 -8.7180397458240245e-05 0 0.00099284227713692264 -0.00012466102821118968 0 0.00099694830529282628 -9.3082695262421231e-05 0 0.0010441320182021433 -0.00010406753245832466 0 0.0011073734888418704 5.5642478663631864e-05 0 0.00010061995468970693 -5.7348455981005348e-05 0 0.00099694830529282628 -9.3082695262421231e-05 0 0.00094328004651685776 -8.7180397458240245e-05 0 0.0010093933615704699 -4.5768959337641857e-05 0 0.00094328004651685776 -8.7180397458240245e-05 0 0.0009237752460149654 -8.8738059671987827e-05 0 0.00091863980381238553 -8.789044082969992e-05 0 0.00091533917769655488 -8.920520707320282e-05 0 0.0009237752460149654 -8.8738059671987827e-05 0 0.00090743811667179288 -8.7951447430207182e-05 0 -0.00037247051242992571 -0.00018616568052770528 0 0.00010061995468970693 -5.7348455981005348e-05 0 0.0009237752460149654 -8.8738059671987827e-05 0 0.00090743811667179288 -8.7951447430207182e-05 0 0.00091863980381238553 -8.789044082969992e-05 0 -0.0017064536386025724 -0.0003356203313867599 0 -0.0016811677553850834 -0.00034261519039044462 0 -0.0016765538465275001 -0.00036206645453887716 0 0.00089731022038968243 -8.6619317954069938e-05 0 0.00091533917769655488 -8.920520707320282e-05 0 0.00090743811667179288 -8.7951447430207182e-05 0 0.00089731022038968243 -8.6619317954069938e-05 0 0.00090743811667179288 -8.7951447430207182e-05 0 0.00088316897805094247 -9.1265267096516089e-05 0 -0.00075972683345009123 -0.00046483964745529829 0 -0.001341436819152278 -0.00066820899355692 0 -0.0026375151847530622 -0.0010809826663501058 0 -0.0026171232380057135 -0.00094291482618559963 0 -0.0025577635540169519 -0.0010581947153203077 0 -0.0017064536386025724 -0.0003356203313867599 0 -0.0017243420282967727 -0.00031201914058043512 0 -0.0017135981207462311 -0.00030949637986372102 0 -0.00037247051242992571 -0.00018616568052770528 0 -0.001341436819152278 -0.00066820899355692 0 -0.0017064536386025724 -0.0003356203313867599 0 -0.0017135981207462311 -0.00030949637986372102 0 -0.001684193188738491 -0.00032323769620999209 0 -0.0016845634431808571 -0.00030664510014978585 0 -0.0017135981207462311 -0.00030949637986372102 0 -0.001684193188738491 -0.00032323769620999209 0 -0.0016434962467805757 -0.00029537710232029513 0 -0.0016845634431808571 -0.00030664510014978585 0 -0.001655466608008643 -0.00032384258461907572 0 -0.0016845634431808571 -0.00030664510014978585 0 -0.001684193188738491 -0.00032323769620999209 0 -0.001655466608008643 -0.00032384258461907572 0 0.0010790844336796789 -4.1838408914955731e-05 0 0.0011224190343566891 -6.8872582094459846e-05 0 0.0011332436851605168 -1.1304741625284957e-05 0 -0.001684193188738491 -0.00032323769620999209 0 -0.001655466608008643 -0.00032384258461907572 0 -0.0016541180370828227 -0.00035043308447113813 0 -0.001655466608008643 -0.00032384258461907572 0 -0.0016541180370828227 -0.00035043308447113813 0 -0.0016228381006169986 -0.00033781381922863042 0 -0.00027784347177587466 -0.00020637604790227731 0 -0.00077397150880642736 -0.00017749051140268049 0 -0.0017064536386025724 -0.0003356203313867599 0 -0.001684193188738491 -0.00032323769620999209 0 -0.0016811677553850834 -0.00034261519039044462 0 -0.0016541180370828227 -0.00035043308447113813 0 -0.0016811677553850834 -0.00034261519039044462 0 -0.0016765538465275001 -0.00036206645453887716 0 -0.001684193188738491 -0.00032323769620999209 0 -0.0016541180370828227 -0.00035043308447113813 0 -0.0016811677553850834 -0.00034261519039044462 0 0.0010166620153805174 -6.8769515132480731e-05 0 0.0010441320182021433 -0.00010406753245832466 0 0.0010800180364564397 -8.8949316547355363e-05 0 -0.00027784347177587466 -0.00020637604790227731 0 0.00010061995468970693 -5.7348455981005348e-05 0 0.0010790844336796789 -4.1838408914955731e-05 0 0.0010166620153805174 -6.8769515132480731e-05 0 0.0010800180364564397 -8.8949316547355363e-05 0 0.00010061995468970693 -5.7348455981005348e-05 0 0.00098380738378517113 -0.00025314967066930821 0 0.00099694830529282628 -9.3082695262421231e-05 0 0.0010093933615704699 -4.5768959337641857e-05 0 0.0010441320182021433 -0.00010406753245832466 0 0.0010584794462682469 -0.00016151396856272979 0 0.0010441320182021433 -0.00010406753245832466 0 0.0010991884848984758 -0.00013085401411991047 0 0.0010584794462682469 -0.00016151396856272979 0 0.00099284227713692264 -0.00012466102821118968 0 0.0010441320182021433 -0.00010406753245832466 0 0.0010441320182021433 -0.00010406753245832466 0 0.0010991884848984758 -0.00013085401411991047 0 0.0010800180364564397 -8.8949316547355363e-05 0 0.001153023677447214 -0.00015436291702190661 0 0.0010991884848984758 -0.00013085401411991047 0 0.0011225819882228945 -0.00011877184194548645 0 0.0010991884848984758 -0.00013085401411991047 0 0.0011225819882228945 -0.00011877184194548645 0 0.0010800180364564397 -8.8949316547355363e-05 0 0.0011225819882228945 -0.00011877184194548645 0 0.0010800180364564397 -8.8949316547355363e-05 0 0.0011224190343566891 -6.8872582094459846e-05 0 0.0010790844336796789 -4.1838408914955731e-05 0 0.0010800180364564397 -8.8949316547355363e-05 0 0.0011224190343566891 -6.8872582094459846e-05 0 0.0011224190343566891 -6.8872582094459846e-05 0 0.0011790405978458368 -8.7182870710023416e-05 0 0.0011332436851605168 -1.1304741625284957e-05 0 0.0011225819882228945 -0.00011877184194548645 0 0.0011224190343566891 -6.8872582094459846e-05 0 0.0011790405978458368 -8.7182870710023416e-05 0 0.0011225819882228945 -0.00011877184194548645 0 0.0011702606893250948 -0.00015434893548489962 0 0.0011790405978458368 -8.7182870710023416e-05 0 0.001182861456224004 -0.00018146802632670547 0 0.001153023677447214 -0.00015436291702190661 0 0.0011702606893250948 -0.00015434893548489962 0 0.001153023677447214 -0.00015436291702190661 0 0.0011225819882228945 -0.00011877184194548645 0 0.0011702606893250948 -0.00015434893548489962 0 6.9495399391001389e-05 6.2983537239525834e-10 0 -5.2844633928327928e-06 -1.850501155659154e-05 0 -0.0007279396309128771 4.5395702914836927e-05 0 0.00057236551997768973 -6.8025579683918258e-05 0 0.00033112489616678002 6.0427735416099218e-06 0 0.0011977779220922616 -0.00022912511373647502 0 0.0011702606893250948 -0.00015434893548489962 0 0.0011790405978458368 -8.7182870710023416e-05 0 6.9495399391001389e-05 6.2983537239525834e-10 0 -0.0007279396309128771 4.5395702914836927e-05 0 -0.00080084562657140328 1.6245770784844612e-07 0 -0.0007279396309128771 4.5395702914836927e-05 0 -0.00080084562657140328 1.6245770784844612e-07 0 -0.0010115583943870348 1.6799036670198731e-05 0 -0.0010115583943870348 1.6799036670198731e-05 0 -0.0009596000484111101 -3.6370719233461727e-05 0 -0.0015542793900258291 -1.9178327270332852e-05 0 -0.00080084562657140328 1.6245770784844612e-07 0 -0.0016720625519691507 -3.0296666918124366e-08 0 -0.0015542793900258291 -1.9178327270332852e-05 0 -0.00080084562657140328 1.6245770784844612e-07 0 -0.0010115583943870348 1.6799036670198731e-05 0 -0.0015542793900258291 -1.9178327270332852e-05 0 -0.0007279396309128771 4.5395702914836927e-05 0 -0.0010115583943870348 1.6799036670198731e-05 0 -0.0009596000484111101 -3.6370719233461727e-05 0 0.00033112489616678002 6.0427735416099218e-06 0 -0.00077397150880642736 -0.00017749051140268049 0 -0.0016434962467805757 -0.00029537710232029513 0 -0.001655466608008643 -0.00032384258461907572 0 -0.0016228381006169986 -0.00033781381922863042 0 -0.0019404561904293681 9.5352372843174755e-05 0 -0.0019607753008473367 -0.00014650715070622957 0 -0.0018890539713676772 2.8085010782573764e-05 0 -0.0019208898358391393 -9.5758544812338635e-05 0 -0.00077397150880642736 -0.00017749051140268049 0 -0.0019607753008473367 -0.00014650715070622957 0 -0.0018890539713676772 2.8085010782573764e-05 0 -0.0015542793900258291 -1.9178327270332852e-05 0 -0.0019421231523997398 7.1710909907936299e-05 0 -0.0018890539713676772 2.8085010782573764e-05 0 -0.0015542793900258291 -1.9178327270332852e-05 0 -0.00077397150880642736 -0.00017749051140268049 0 -0.0017267723929135287 -8.9470393057653044e-05 0 -0.0019421231523997398 7.1710909907936299e-05 0 -0.0016720625519691507 -3.0296666918124366e-08 0 -0.0015542793900258291 -1.9178327270332852e-05 0 -0.0037743479411627436 -0.00035380868407232759 0 -0.0037581796799992253 -0.00033700371487723607 0 -0.0037362159566378607 -0.00035245078143584851 0 -0.0037743479411627436 -0.00035380868407232759 0 -0.0037782292705150155 -0.00033935624528624403 0 -0.0037581796799992253 -0.00033700371487723607 0 -0.0037743479411627436 -0.00035380868407232759 0 -0.0037973931046741383 -0.00033924249729423716 0 -0.0037782292705150155 -0.00033935624528624403 0 -0.0037782292705150155 -0.00033935624528624403 0 -0.0037756429131814606 -0.00034356041968866525 0 -0.0037567580482754056 -0.00034805643669470575 0 -0.0037973931046741383 -0.00033924249729423716 0 -0.0037782292705150155 -0.00033935624528624403 0 -0.0037756429131814606 -0.00034356041968866525 0 -0.0037782292705150155 -0.00033935624528624403 0 -0.0037581796799992253 -0.00033700371487723607 0 -0.0037665576969434177 -0.00030637351830021397 0 -0.0037581796799992253 -0.00033700371487723607 0 -0.0037362159566378607 -0.00035245078143584851 0 -0.0037323707971568787 -0.00032188577189787239 0 -0.0053400341522411958 -0.0010449225457184082 0 -0.0050199781807504593 -0.0008598418796719185 0 -0.0054542322831182422 -0.00078416990125427112 0 -0.0038872388161339789 -0.00058804252174107698 0 -0.0044932623989366767 -0.00065208136546267064 0 -0.0036980412828964285 -0.00033769802578242046 0 -0.0037362159566378607 -0.00035245078143584851 0 -0.0037323707971568787 -0.00032188577189787239 0 -0.0050199781807504593 -0.0008598418796719185 0 -0.0052650867257184953 -0.00055881486569324705 0 -0.0054542322831182422 -0.00078416990125427112 0 -0.0050199781807504593 -0.0008598418796719185 0 -0.0050083294932361279 -0.00046481557000561111 0 -0.0052650867257184953 -0.00055881486569324705 0 -0.0042028954866037667 -0.00050480691795562341 0 -0.0044932623989366767 -0.00065208136546267064 0 -0.0046817635087002506 -0.00068111225235224749 0 -0.0050199781807504593 -0.0008598418796719185 0 -0.0050083294932361279 -0.00046481557000561111 0 -0.0050083294932361279 -0.00046481557000561111 0 -0.0052650867257184953 -0.00055881486569324705 0 -0.0053329893900861732 -0.00025716371251891158 0 -0.0051971906524861606 0.00010278406384754418 0 -0.0053329893900861732 -0.00025716371251891158 0 -0.0055230369759301963 -0.0001371190657358719 0 -0.0050083294932361279 -0.00046481557000561111 0 -0.0053329893900861732 -0.00025716371251891158 0 -0.0049919099662396075 -0.00015638845847877966 0 -0.0051971906524861606 0.00010278406384754418 0 -0.0053329893900861732 -0.00025716371251891158 0 -0.0049919099662396075 -0.00015638845847877966 0 -0.0050083294932361279 -0.00046481557000561111 0 -0.0049919099662396075 -0.00015638845847877966 0 -0.0046676739563895004 -0.00029738896203621539 0 -0.0047198182243562304 0.0001429506544780897 0 -0.0049919099662396075 -0.00015638845847877966 0 -0.0046676739563895004 -0.00029738896203621539 0 -0.0046817635087002506 -0.00068111225235224749 0 -0.0046676739563895004 -0.00029738896203621539 0 -0.0043073340764673155 -0.00050206628435671614 0 -0.0046817635087002506 -0.00068111225235224749 0 -0.0050083294932361279 -0.00046481557000561111 0 -0.0046676739563895004 -0.00029738896203621539 0 -0.0042028954866037667 -0.00050480691795562341 0 -0.0040610442914912285 -0.00041663272452414939 0 -0.0037743479411627436 -0.00035380868407232759 0 -0.0037973931046741383 -0.00033924249729423716 0 -0.0038207007060964315 -0.00034146482489740817 0 -0.0046676739563895004 -0.00029738896203621539 0 -0.0043073340764673155 -0.00050206628435671614 0 -0.0042430867292954444 -0.00016578129433245862 0 -0.0047198182243562304 0.0001429506544780897 0 -0.0046676739563895004 -0.00029738896203621539 0 -0.0042430867292954444 -0.00016578129433245862 0 -0.0038207007060964315 -0.00034146482489740817 0 -0.0038540421515049191 -0.00030310180997734492 0 -0.003863575302771375 -0.00028015149941432578 0 -0.0043073340764673155 -0.00050206628435671614 0 -0.0042430867292954444 -0.00016578129433245862 0 -0.003863575302771375 -0.00028015149941432578 0 -0.0040033998861870104 -4.3814043081944422e-05 0 -0.0042430867292954444 -0.00016578129433245862 0 -0.003863575302771375 -0.00028015149941432578 0 -0.0037896914499634224 -9.0036020164855141e-05 0 -0.0040033998861870104 -4.3814043081944422e-05 0 -0.003863575302771375 -0.00028015149941432578 0 -0.0038540421515049191 -0.00030310180997734492 0 -0.003863575302771375 -0.00028015149941432578 0 -0.0036954892055866538 -0.00035475027218640403 0 -0.0037896914499634224 -9.0036020164855141e-05 0 -0.003863575302771375 -0.00028015149941432578 0 -0.0036355439995210395 -0.00016378694150471514 0 -0.003863575302771375 -0.00028015149941432578 0 -0.0036954892055866538 -0.00035475027218640403 0 -0.0036355439995210395 -0.00016378694150471514 0 -0.0038540421515049191 -0.00030310180997734492 0 -0.0036954892055866538 -0.00035475027218640403 0 -0.0037228493469126994 -0.00060723074881429675 0 -0.0038529330643255503 -0.00031141478340656828 0 -0.0037224374873602393 -0.00048429764607679858 0 -0.0038540421515049191 -0.00030310180997734492 0 -0.0038094338253723504 -0.00033172297582758742 0 -0.0037664858881750725 -0.00033385992604072402 0 -0.0038207007060964315 -0.00034146482489740817 0 -0.0038540421515049191 -0.00030310180997734492 0 -0.0038094338253723504 -0.00033172297582758742 0 -0.0037973931046741383 -0.00033924249729423716 0 -0.0038207007060964315 -0.00034146482489740817 0 -0.0038094338253723504 -0.00033172297582758742 0 -0.0040610442914912285 -0.00041663272452414939 0 -0.0038697448893954341 -0.00028945108680857197 0 -0.0033831381205346751 -9.2242654479429001e-05 0 -0.0034728915149641873 -0.00027638058071652202 0 -0.0032641493523345518 -0.00031133656098506255 0 -0.0031395909551786912 -1.5496327468156353e-05 0 -0.0033831381205346751 -9.2242654479429001e-05 0 -0.0032641493523345518 -0.00031133656098506255 0 -0.0033831381205346751 -9.2242654479429001e-05 0 -0.0034728915149641873 -0.00027638058071652202 0 -0.0036355439995210395 -0.00016378694150471514 0 -0.0036954892055866538 -0.00035475027218640403 0 -0.0034728915149641873 -0.00027638058071652202 0 -0.0036355439995210395 -0.00016378694150471514 0 -0.0036954892055866538 -0.00035475027218640403 0 -0.0035029491196786771 -0.00046872752957837421 0 -0.0037228493469126994 -0.00060723074881429675 0 -0.0036954892055866538 -0.00035475027218640403 0 -0.0034728915149641873 -0.00027638058071652202 0 -0.0035029491196786771 -0.00046872752957837421 0 -0.0030098391552056169 -0.00049227773123582293 0 -0.0032641493523345518 -0.00031133656098506255 0 -0.0033075996741460311 -0.00066537213255509452 0 -0.0034728915149641873 -0.00027638058071652202 0 -0.0035029491196786771 -0.00046872752957837421 0 -0.0032641493523345518 -0.00031133656098506255 0 -0.0035029491196786771 -0.00046872752957837421 0 -0.0032641493523345518 -0.00031133656098506255 0 -0.0033075996741460311 -0.00066537213255509452 0 -0.0033075996741460311 -0.00066537213255509452 0 -0.003480180737345003 -0.000978491058926604 0 -0.0037228493469126994 -0.00060723074881429675 0 -0.0035029491196786771 -0.00046872752957837421 0 -0.0033075996741460311 -0.00066537213255509452 0 -0.0037228493469126994 -0.00060723074881429675 0 -0.0037203080257257951 -0.00062912067333172853 0 -0.0037224374873602393 -0.00048429764607679858 0 -0.0031334096838184881 -0.0010057437756994462 0 -0.0033075996741460311 -0.00066537213255509452 0 -0.003480180737345003 -0.000978491058926604 0 -0.0037367283004525252 -0.00034507715221395526 0 -0.0037664858881750725 -0.00033385992604072402 0 -0.0037756429131814606 -0.00034356041968866525 0 -0.0037367283004525252 -0.00034507715221395526 0 -0.0037756429131814606 -0.00034356041968866525 0 -0.0037481424375547696 -0.00035215684542026961 0 -0.0038094338253723504 -0.00033172297582758742 0 -0.0037664858881750725 -0.00033385992604072402 0 -0.0037756429131814606 -0.00034356041968866525 0 -0.0037973931046741383 -0.00033924249729423716 0 -0.0038094338253723504 -0.00033172297582758742 0 -0.0037756429131814606 -0.00034356041968866525 0 -0.0037756429131814606 -0.00034356041968866525 0 -0.0037567580482754056 -0.00034805643669470575 0 -0.0037481424375547696 -0.00035215684542026961 0 -0.0037567580482754056 -0.00034805643669470575 0 -0.0037481424375547696 -0.00035215684542026961 0 -0.0037378091091443961 -0.00034501098739783497 0 -0.0037481424375547696 -0.00035215684542026961 0 -0.0037322628572821078 -0.00035740524184328627 0 -0.0037365713750270339 -0.00034090722909273387 0 -0.0037481424375547696 -0.00035215684542026961 0 -0.0037365713750270339 -0.00034090722909273387 0 -0.0037378091091443961 -0.00034501098739783497 0 -0.0037367283004525252 -0.00034507715221395526 0 -0.0037324052567666911 -0.0003538821788883344 0 -0.0037106896446578762 -0.00036051029195223482 0 -0.0037203080257257951 -0.00062912067333172853 0 -0.0027498715652364719 -0.0008651822303977685 0 -0.0031334096838184881 -0.0010057437756994462 0 -0.003480180737345003 -0.000978491058926604 0 -0.0032054069083079281 -0.0013655680322163821 0 -0.0037367283004525252 -0.00034507715221395526 0 -0.0037481424375547696 -0.00035215684542026961 0 -0.0037324052567666911 -0.0003538821788883344 0 -0.0037481424375547696 -0.00035215684542026961 0 -0.0037324052567666911 -0.0003538821788883344 0 -0.0037322628572821078 -0.00035740524184328627 0 -0.0037324052567666911 -0.0003538821788883344 0 -0.0037322628572821078 -0.00035740524184328627 0 -0.0037106896446578762 -0.00036051029195223482 0 -0.0014075055119041314 -0.00091071918481866747 0 -0.0018996158117010771 -0.00088252008446221676 0 -0.001957544529364536 -0.001177796252252567 0 -0.0025775302519304897 -0.00062574073002164801 0 -0.0027498715652364719 -0.0008651822303977685 0 -0.0022182283972202463 -0.00080293558690913323 0 -0.0018996158117010771 -0.00088252008446221676 0 -0.001957544529364536 -0.001177796252252567 0 -0.0014075055119041314 -0.00091071918481866747 0 -0.0018996158117010771 -0.00088252008446221676 0 -0.0019032520454620619 -0.00061631739514369426 0 -0.0022182283972202463 -0.00080293558690913323 0 -0.0018996158117010771 -0.00088252008446221676 0 -0.0019032520454620619 -0.00061631739514369426 0 -0.0014075055119041314 -0.00091071918481866747 0 -0.0019032520454620619 -0.00061631739514369426 0 -0.0015317393224835549 -0.00044319021977296067 0 -0.0014075055119041314 -0.00091071918481866747 0 -0.0015317393224835549 -0.00044319021977296067 0 -0.0011344910537421412 -0.00036178818922903678 0 -0.001404512746335031 -0.00010616165072919743 0 -0.0015317393224835549 -0.00044319021977296067 0 -0.0011344910537421412 -0.00036178818922903678 0 -0.001404512746335031 -0.00010616165072919743 0 -0.0015317393224835549 -0.00044319021977296067 0 -0.0018084574407419647 -0.00024087198007523265 0 -0.0019032520454620619 -0.00061631739514369426 0 -0.0015317393224835549 -0.00044319021977296067 0 -0.0018084574407419647 -0.00024087198007523265 0 -0.0018848079981419591 -0.00056187304990880111 0 -0.0018042410688531223 -0.00027136989333188837 0 -0.0020680674385179648 -0.00040911311778931716 0 -0.0019032520454620619 -0.00061631739514369426 0 -0.0018349546325013169 -0.0002243258702599525 0 -0.0020174737149705594 0.0001209656266711336 0 -0.0020680674385179648 -0.00040911311778931716 0 -0.0018349546325013169 -0.0002243258702599525 0 -0.00232600359335096 -0.00050481577356425837 0 -0.001990193527862292 -0.00035187634593382048 0 -0.0037365713750270339 -0.00034090722909273387 0 -0.0037176239491885994 -0.00031551966949170421 0 -0.0037378091091443961 -0.00034501098739783497 0 -0.0014075055119041314 -0.00091071918481866747 0 -0.00089188748768116667 -0.00066150150592114536 0 -0.0011344910537421412 -0.00036178818922903678 0 -0.0025775302519304897 -0.00062574073002164801 0 -0.00232600359335096 -0.00050481577356425837 0 -0.00089188748768116667 -0.00066150150592114536 0 -0.0011344910537421412 -0.00036178818922903678 0 -0.00084537879258425727 -0.00012478854062292918 0 -0.001404512746335031 -0.00010616165072919743 0 -0.0011344910537421412 -0.00036178818922903678 0 -0.00084537879258425727 -0.00012478854062292918 0 -0.0004380297579131959 4.139682884989457e-06 0 -0.00084537879258425727 -0.00012478854062292918 0 -0.00040451521680308263 -0.00040595168415116534 0 -0.00089188748768116667 -0.00066150150592114536 0 -0.00084537879258425727 -0.00012478854062292918 0 -0.00040451521680308263 -0.00040595168415116534 0 -0.001990193527862292 -0.00035187634593382048 0 -0.0022563609156716299 -0.00013145349818018253 0 -0.0022563609156716299 -0.00013145349818018253 0 -0.0038714762339188175 -0.00035726416140730054 0 -0.0037053696785659465 -0.00020900041780784389 0 -0.003726077419476316 -0.00021777179192450174 0 -0.00372403635936653 -0.00024530076492286165 0 -0.0037176239491885994 -0.00031551966949170421 0 -0.0036693942978106809 -0.00028897458036820152 0 -0.0037029462167319669 -0.00033398608954148863 0 -0.003726077419476316 -0.00021777179192450174 0 -0.0037495599346213503 -0.00026541233934702143 0 -0.00372403635936653 -0.00024530076492286165 0 -0.00014010851351210432 3.6058751943933232e-05 0 -0.00040451521680308263 -0.00040595168415116534 0 -4.131253588104431e-06 -0.00016621065034484655 0 -0.0024649451210260079 -6.7993402518363988e-05 0 -0.0022563609156716299 -0.00013145349818018253 0 -0.0037495599346213503 -0.00026541233934702143 0 -0.00372403635936653 -0.00024530076492286165 0 -0.0037296122223188827 -0.00028397587692072652 0 -0.0037176239491885994 -0.00031551966949170421 0 -0.0037029462167319669 -0.00033398608954148863 0 -0.0037378091091443961 -0.00034501098739783497 0 -0.0037029462167319669 -0.00033398608954148863 0 -0.0037378091091443961 -0.00034501098739783497 0 -0.0037415936288173563 -0.00034958505500726022 0 -0.0037495599346213503 -0.00026541233934702143 0 -0.0037665576969434177 -0.00030637351830021397 0 -0.0037296122223188827 -0.00028397587692072652 0 -0.0038714762339188175 -0.00035726416140730054 0 -0.003738076569344198 -0.00030962825093842309 0 -0.0037665576969434177 -0.00030637351830021397 0 -0.0037323707971568787 -0.00032188577189787239 0 -0.0037296122223188827 -0.00028397587692072652 0 -0.0037581796799992253 -0.00033700371487723607 0 -0.0037665576969434177 -0.00030637351830021397 0 -0.0037323707971568787 -0.00032188577189787239 0 -0.0037770789944809816 -0.00034488530160406471 0 -0.003738076569344198 -0.00030962825093842309 0 -0.0037567580482754056 -0.00034805643669470575 0 -0.0037378091091443961 -0.00034501098739783497 0 -0.0037415936288173563 -0.00034958505500726022 0 -0.0037782292705150155 -0.00033935624528624403 0 -0.0037567580482754056 -0.00034805643669470575 0 -0.0037415936288173563 -0.00034958505500726022 0 -0.0023131535979817623 -0.00060984486912612666 0 -0.0023768989063857964 -0.00041664935458176451 0 -0.0022330605845514401 -0.00043668509044606955 0 -0.0036980412828964285 -0.00033769802578242046 0 -0.0037323707971568787 -0.00032188577189787239 0 -0.0037025779561174485 -0.00029939113919850286 0 -0.0038872388161339789 -0.00058804252174107698 0 -0.0029264134652713905 -0.00037344190062547146 0 -0.0037323707971568787 -0.00032188577189787239 0 -0.0037296122223188827 -0.00028397587692072652 0 -0.0037025779561174485 -0.00029939113919850286 0 -0.0037296122223188827 -0.00028397587692072652 0 -0.0037025779561174485 -0.00029939113919850286 0 -0.0037036552235844944 -0.00025727343820802914 0 -0.0029264134652713905 -0.00037344190062547146 0 -0.0031638532514054194 -0.00022275899054799295 0 -0.0023768989063857964 -0.00041664935458176451 0 -0.0022971485142829558 -0.00029526261191280484 0 -0.0024438427607469631 -0.00022736913907680202 0 -0.0023768989063857964 -0.00041664935458176451 0 -0.0022971485142829558 -0.00029526261191280484 0 -0.0022330605845514401 -0.00043668509044606955 0 -0.0022971485142829558 -0.00029526261191280484 0 -0.0023211796562744086 -0.00018178029530254577 0 -0.0024438427607469631 -0.00022736913907680202 0 -0.00372403635936653 -0.00024530076492286165 0 -0.0037296122223188827 -0.00028397587692072652 0 -0.0037036552235844944 -0.00025727343820802914 0 -0.0037053696785659465 -0.00020900041780784389 0 -0.00372403635936653 -0.00024530076492286165 0 -0.0037036552235844944 -0.00025727343820802914 0 -0.0024649451210260079 -6.7993402518363988e-05 0 -0.0031638532514054194 -0.00022275899054799295 0 -0.0025152500422310504 -3.6704442019991802e-05 0 -0.0024438427607469631 -0.00022736913907680202 0 -0.0023855870303959373 -9.8168081241681716e-05 0 -0.0023211796562744086 -0.00018178029530254577 0 -0.0024438427607469631 -0.00022736913907680202 0 -0.0023855870303959373 -9.8168081241681716e-05 0 -0.0023211796562744086 -0.00018178029530254577 0 -0.0023855870303959373 -9.8168081241681716e-05 0 -0.0022794712279452095 -7.2328838863304547e-05 0 -0.0021831657571975663 -6.0900718176261282e-05 0 -0.0020960892312026093 -0.0001400501584261177 0 -0.0022076217625796972 -0.00019240920802470368 0 -0.0021831657571975663 -6.0900718176261282e-05 0 -0.0022794712279452095 -7.2328838863304547e-05 0 -0.0022076217625796972 -0.00019240920802470368 0 -0.0023211796562744086 -0.00018178029530254577 0 -0.0022794712279452095 -7.2328838863304547e-05 0 -0.0022076217625796972 -0.00019240920802470368 0 -0.0021105016818654889 -1.6321140771716891e-06 0 -0.0021831657571975663 -6.0900718176261282e-05 0 -0.0020960892312026093 -0.0001400501584261177 0 -0.0021105016818654889 -1.6321140771716891e-06 0 -0.0020960892312026093 -0.0001400501584261177 0 -0.0019930788978954469 -0.00010628974499975343 0 -0.0014304254447420554 -0.0001886393441129427 0 -0.0014184589824857963 -0.0002533750158548062 0 -0.0020960892312026093 -0.0001400501584261177 0 -0.0020033910193682433 -0.00010798121955875626 0 -0.0020050472819513128 -0.00022723276043505513 0 -0.0021421955789959462 -0.00024568828166488308 0 -0.0014184589824857963 -0.0002533750158548062 0 -0.0020960892312026093 -0.0001400501584261177 0 -0.0021098484894016903 -0.00023328000905542122 0 -0.0022076217625796972 -0.00019240920802470368 0 -0.0020960892312026093 -0.0001400501584261177 0 -0.0021098484894016903 -0.00023328000905542122 0 -0.0020050472819513128 -0.00022723276043505513 0 -0.0021098484894016903 -0.00023328000905542122 0 -0.0020529821149230104 -0.00029129860460814708 0 -0.0020050472819513128 -0.00022723276043505513 0 -0.0021098484894016903 -0.00023328000905542122 0 -0.0020529821149230104 -0.00029129860460814708 0 -0.0021697182223146894 -0.00031068481084845596 0 -0.0022971485142829558 -0.00029526261191280484 0 -0.0022076217625796972 -0.00019240920802470368 0 -0.0021697182223146894 -0.00031068481084845596 0 -0.0021098484894016903 -0.00023328000905542122 0 -0.0022076217625796972 -0.00019240920802470368 0 -0.0021697182223146894 -0.00031068481084845596 0 -0.0022971485142829558 -0.00029526261191280484 0 -0.0023211796562744086 -0.00018178029530254577 0 -0.0022076217625796972 -0.00019240920802470368 0 -0.00096477163742746152 -0.00023050212486607069 0 -0.0010738146246861435 -0.00048825004777025566 0 -0.00080777267717384109 -0.00036622001182104122 0 -0.00096477163742746152 -0.00023050212486607069 0 -0.0012487411068019235 -0.00032982106883314827 0 -0.0010738146246861435 -0.00048825004777025566 0 -0.00042251119565278632 -0.00045696898308363835 0 -0.0014184589824857963 -0.0002533750158548062 0 -0.0014184589824857963 -0.0002533750158548062 0 -0.0014908261899528915 -0.00034472937242931829 0 -0.0020033910193682433 -0.00010798121955875626 0 -0.0020050472819513128 -0.00022723276043505513 0 -0.0018936323900801072 -0.00020722516079397458 0 -0.0020529821149230104 -0.00029129860460814708 0 -0.0020050472819513128 -0.00022723276043505513 0 -0.0019777971129986078 -0.00032418859625623373 0 -0.0020050472819513128 -0.00022723276043505513 0 -0.001900299878825468 -0.00028971786544055883 0 -0.0019777971129986078 -0.00032418859625623373 0 -0.0020050472819513128 -0.00022723276043505513 0 -0.0018936323900801072 -0.00020722516079397458 0 -0.001900299878825468 -0.00028971786544055883 0 -0.0010738146246861435 -0.00048825004777025566 0 -0.0009002365984636351 -0.00064638687395405581 0 -0.00080777267717384109 -0.00036622001182104122 0 -0.0018936323900801072 -0.00020722516079397458 0 -0.001900299878825468 -0.00028971786544055883 0 -0.0017802031502231683 -0.00030827704589265331 0 -0.0014908261899528915 -0.00034472937242931829 0 -0.0014464136753129155 -0.00039347758187628255 0 -0.0023896620154710952 0.00023543882228223417 0 -0.0024629033100927104 0.00026447325718842977 0 -0.0024127894835507847 0.00016677441368439852 0 -0.0023896620154710952 0.00023543882228223417 0 -0.0023751294252909705 0.00030403500086098069 0 -0.0024629033100927104 0.00026447325718842977 0 -0.0014464136753129155 -0.00039347758187628255 0 -0.0022022953954520235 -9.3585514486952166e-05 0 -0.001900299878825468 -0.00028971786544055883 0 -0.0017802031502231683 -0.00030827704589265331 0 -0.0018931230465233351 -0.00037236035613458278 0 -0.0018931230465233351 -0.00037236035613458278 0 -0.0019777971129986078 -0.00032418859625623373 0 -0.0020052216831678983 -0.00043503020802022744 0 -0.0022022953954520235 -9.3585514486952166e-05 0 -0.0023659546089448355 -0.00012256460744946947 0 -0.001900299878825468 -0.00028971786544055883 0 -0.0018931230465233351 -0.00037236035613458278 0 -0.0019777971129986078 -0.00032418859625623373 0 -0.002051871915471118 -0.00038887021865169282 0 -0.0023659546089448355 -0.00012256460744946947 0 -0.0019777971129986078 -0.00032418859625623373 0 -0.0020062820219993692 -0.0004379753653413486 0 -0.0020854178585264713 -0.0003730534970014872 0 -0.0024629033100927104 0.00026447325718842977 0 -0.0025614092280817065 0.00021708887132535035 0 -0.002507129646030724 0.00016493986535965035 0 -0.0025614092280817065 0.00021708887132535035 0 -0.002507129646030724 0.00016493986535965035 0 -0.0025996026640508025 9.89529708890599e-05 0 -0.0023659546089448355 -0.00012256460744946947 0 -0.0027412438962752181 6.8906420500298651e-05 0 -0.0024629033100927104 0.00026447325718842977 0 -0.002507129646030724 0.00016493986535965035 0 -0.0024127894835507847 0.00016677441368439852 0 -0.002507129646030724 0.00016493986535965035 0 -0.0024127894835507847 0.00016677441368439852 0 -0.0025071934505331633 6.042681396554642e-05 0 -0.0024547811162774834 0.0001275922435618739 0 -0.0023980698184233773 0.00015292724325059799 0 -0.0022971485142829558 -0.00029526261191280484 0 -0.0021697182223146894 -0.00031068481084845596 0 -0.0022330605845514401 -0.00043668509044606955 0 -0.0021697182223146894 -0.00031068481084845596 0 -0.0020854178585264713 -0.0003730534970014872 0 -0.0022330605845514401 -0.00043668509044606955 0 -0.0020529821149230104 -0.00029129860460814708 0 -0.0021697182223146894 -0.00031068481084845596 0 -0.0020854178585264713 -0.0003730534970014872 0 -0.0020529821149230104 -0.00029129860460814708 0 -0.0019777971129986078 -0.00032418859625623373 0 -0.0020854178585264713 -0.0003730534970014872 0 -0.0028660606773954441 7.5477767146926193e-05 0 -0.0029867146428003972 6.439015109873458e-06 0 -0.0029041654370117265 -7.042170980236651e-05 0 -0.0029867146428003972 6.439015109873458e-06 0 -0.0031041635466363413 -6.3586421919441209e-05 0 -0.0029041654370117265 -7.042170980236651e-05 0 -0.0020854178585264713 -0.0003730534970014872 0 -0.0021195456203836715 -0.00050308171408067464 0 -0.0022330605845514401 -0.00043668509044606955 0 -0.0020062820219993692 -0.0004379753653413486 0 -0.0020854178585264713 -0.0003730534970014872 0 -0.0021195456203836715 -0.00050308171408067464 0 -0.0023659546089448355 -0.00012256460744946947 0 -0.0025137337604738529 -0.00020668116818543916 0 -0.0025137337604738529 -0.00020668116818543916 0 -0.0032678931089143081 -0.00022512364735370222 0 -0.0023131535979817623 -0.00060984486912612666 0 -0.0022330605845514401 -0.00043668509044606955 0 -0.0022364125959776849 -0.00056891736533226786 0 -0.0021195456203836715 -0.00050308171408067464 0 -0.0022330605845514401 -0.00043668509044606955 0 -0.0022364125959776849 -0.00056891736533226786 0 -0.0038872388161339789 -0.00058804252174107698 0 -0.0048204295902661547 -0.00058869486760029614 0 -0.0038872388161339789 -0.00058804252174107698 0 -0.0032678931089143081 -0.00022512364735370222 0 -0.004171729494431768 -0.00044180434322741612 0 -0.0041747825893565845 -0.00043641569549065861 0 -0.0041808752161278497 -0.00043261311277006855 0 -0.004168088009904555 -0.00043981504793829431 0 -0.004171729494431768 -0.00044180434322741612 0 -0.0041747825893565845 -0.00043641569549065861 0 -0.004168088009904555 -0.00043981504793829431 0 -0.0041747825893565845 -0.00043641569549065861 0 -0.0041780140315239777 -0.00043177065082098911 0 -0.0041780140315239777 -0.00043177065082098911 0 -0.0041808752161278497 -0.00043261311277006855 0 -0.0041868428256320615 -0.00042679377212882845 0 -0.0048204295902661547 -0.00058869486760029614 0 -0.0051523396111907713 -0.00051577366409108136 0 -0.0041747825893565845 -0.00043641569549065861 0 -0.0041780140315239777 -0.00043177065082098911 0 -0.0041808752161278497 -0.00043261311277006855 0 -0.0041808752161278497 -0.00043261311277006855 0 -0.0041855740505496461 -0.00043043787939061533 0 -0.0041868428256320615 -0.00042679377212882845 0 -0.0047476794780980528 0.00050358424903563744 0 -0.0047056901387073115 0.00054422778382055739 0 -0.0046925416057075533 0.00034111127699111354 0 -0.0044128955201999647 -0.00018892845186020254 0 -0.0051523396111907713 -0.00051577366409108136 0 -0.0041808752161278497 -0.00043261311277006855 0 -0.0041855740505496461 -0.00043043787939061533 0 -0.0041851337745898139 -0.00043199212794980431 0 -0.0044128955201999647 -0.00018892845186020254 0 -0.0036004956211929933 -0.00010646830261808865 0 -0.0040085124279059725 -3.4265812637307162e-05 0 -0.0039395794045495869 3.4041985506116358e-05 0 -0.0039830405558722018 7.4156095598784856e-05 0 -0.0044128955201999647 -0.00018892845186020254 0 -0.0035899282768070764 7.6570372702915764e-05 0 -0.0035899282768070764 7.6570372702915764e-05 0 -0.0036004956211929933 -0.00010646830261808865 0 -0.0032678931089143081 -0.00022512364735370222 0 -0.0036004956211929933 -0.00010646830261808865 0 -0.0031041635466363413 -6.3586421919441209e-05 0 -0.002940695648083979 -0.0002146277811293975 0 -0.0029041654370117265 -7.042170980236651e-05 0 -0.0036004956211929933 -0.00010646830261808865 0 -0.0027412438962752181 6.8906420500298651e-05 0 -0.004171729494431768 -0.00044180434322741612 0 -0.0041808752161278497 -0.00043261311277006855 0 -0.0041851337745898139 -0.00043199212794980431 0 -0.0026393518693703598 -3.622625731340601e-05 0 -0.0025996026640508025 9.89529708890599e-05 0 -0.0025071934505331633 6.042681396554642e-05 0 -0.002507129646030724 0.00016493986535965035 0 -0.0025996026640508025 9.89529708890599e-05 0 -0.0025071934505331633 6.042681396554642e-05 0 -0.0035899282768070764 7.6570372702915764e-05 0 -0.0023980698184233773 0.00015292724325059799 0 -0.0026233485607295138 -5.1422112095216745e-05 0 -0.0026393518693703598 -3.622625731340601e-05 0 -0.0025071934505331633 6.042681396554642e-05 0 -0.0024127894835507847 0.00016677441368439852 0 -0.0024941467746408402 0.0001037228299330376 0 -0.0024047522024100111 9.187433429502773e-05 0 -0.0024941467746408402 0.0001037228299330376 0 -0.0024047522024100111 9.187433429502773e-05 0 -0.0024520504059917089 2.9544089889475499e-05 0 -0.0024047522024100111 9.187433429502773e-05 0 -0.0024520504059917089 2.9544089889475499e-05 0 -0.0023529239911365359 3.4350960871061775e-05 0 -0.0024520504059917089 2.9544089889475499e-05 0 -0.002488678710024375 -4.7241848585922861e-05 0 -0.0023959913215212745 -3.7333532261670431e-05 0 -0.0024520504059917089 2.9544089889475499e-05 0 -0.0023959913215212745 -3.7333532261670431e-05 0 -0.0023529239911365359 3.4350960871061775e-05 0 -0.0025795080802825036 3.0550465225415209e-05 0 -0.0024520504059917089 2.9544089889475499e-05 0 -0.002488678710024375 -4.7241848585922861e-05 0 -0.0025795080802825036 3.0550465225415209e-05 0 -0.0024941467746408402 0.0001037228299330376 0 -0.0024520504059917089 2.9544089889475499e-05 0 -0.0047056901387073115 0.00054422778382055739 0 -0.004497098527243607 0.00036103457496737394 0 -0.0046925416057075533 0.00034111127699111354 0 -0.0035899282768070764 7.6570372702915764e-05 0 -0.0035160122438399237 0.00019173194469176568 0 -0.004497098527243607 0.00036103457496737394 0 -0.0046726190780347473 0.00012220561351534084 0 -0.0046925416057075533 0.00034111127699111354 0 -0.002488678710024375 -4.7241848585922861e-05 0 -0.0023959913215212745 -3.7333532261670431e-05 0 -0.0024012156562606998 -0.00012139000884531817 0 -0.0035160122438399237 0.00019173194469176568 0 -0.0033383056565570515 -2.6171378626862733e-05 0 -0.004497098527243607 0.00036103457496737394 0 -0.0044529519275394351 3.391467182138543e-05 0 -0.0042729249510905856 0.00016873279443197756 0 -0.0044529519275394351 3.391467182138543e-05 0 -0.0042729249510905856 0.00016873279443197756 0 -0.0041806606559473365 -0.0001647610958695778 0 -0.0044529519275394351 3.391467182138543e-05 0 -0.0046726190780347473 0.00012220561351534084 0 -0.0046001725449063783 -0.00017456387921619261 0 -0.004497098527243607 0.00036103457496737394 0 -0.0044529519275394351 3.391467182138543e-05 0 -0.0046726190780347473 0.00012220561351534084 0 -0.0048389135886810711 0.00017044307797388955 0 -0.0047689568702780462 -2.2986626601964054e-05 0 -0.0049298530641617658 -0.00015736019528187338 0 -0.0056398459246774744 -0.00029893322603181412 0 -0.0055230369759301963 -0.0001371190657358719 0 -0.0056060488793374854 7.0776465952855768e-05 0 -0.0051664885071616602 -5.7766770287784514e-05 0 -0.0066801775808958859 0.00020552966288119758 0 -0.0046726190780347473 0.00012220561351534084 0 -0.0048389135886810711 0.00017044307797388955 0 -0.0047689568702780462 -2.2986626601964054e-05 0 -0.0056398459246774744 -0.00029893322603181412 0 -0.0055230369759301963 -0.0001371190657358719 0 -0.0055873905269130022 -0.00032415376654709195 0 -0.0053329893900861732 -0.00025716371251891158 0 -0.0055230369759301963 -0.0001371190657358719 0 -0.0055873905269130022 -0.00032415376654709195 0 -0.0052650867257184953 -0.00055881486569324705 0 -0.0053329893900861732 -0.00025716371251891158 0 -0.0055690395014910106 -0.00051624926980238137 0 -0.0053329893900861732 -0.00025716371251891158 0 -0.005540089205402365 -0.00044071273228847157 0 -0.0055873905269130022 -0.00032415376654709195 0 -0.0052650867257184953 -0.00055881486569324705 0 -0.0054542322831182422 -0.00078416990125427112 0 -0.0055690395014910106 -0.00051624926980238137 0 -0.0051523396111907713 -0.00051577366409108136 0 -0.0054305337261798068 -0.00028917879823365953 0 -0.0054420854839779794 -0.00031788058229596561 0 -0.0051523396111907713 -0.00051577366409108136 0 -0.0044128955201999647 -0.00018892845186020254 0 -0.0051664885071616602 -5.7766770287784514e-05 0 -0.0046726190780347473 0.00012220561351534084 0 -0.0048389135886810711 0.00017044307797388955 0 -0.0046925416057075533 0.00034111127699111354 0 -0.0047476794780980528 0.00050358424903563744 0 -0.0048389135886810711 0.00017044307797388955 0 -0.0046925416057075533 0.00034111127699111354 0 -0.0056439378915487349 -0.00048663568407933318 0 -0.0056398459246774744 -0.00029893322603181412 0 -0.005556399731372225 -0.00038620674338568189 0 -0.0056398459246774744 -0.00029893322603181412 0 -0.005556399731372225 -0.00038620674338568189 0 -0.0055873905269130022 -0.00032415376654709195 0 -0.0020428694367543637 0.00077380014782444544 0 -0.002168379808971531 0.00073398906889304903 0 -0.0021620898233054623 0.00087918410659728165 0 -0.002168379808971531 0.00073398906889304903 0 -0.0021620898233054623 0.00087918410659728165 0 -0.0022480947548151288 0.00077881406444566068 0 -0.0020428694367543637 0.00077380014782444544 0 -0.002168379808971531 0.00073398906889304903 0 -0.0021757327039930944 0.0005847204672737433 0 -0.0021620898233054623 0.00087918410659728165 0 -0.0023134035276428824 0.00089754008063696038 0 -0.0022450937754546693 0.001004142929774155 0 -0.0021620898233054623 0.00087918410659728165 0 -0.0022480947548151288 0.00077881406444566068 0 -0.0023134035276428824 0.00089754008063696038 0 -0.0020428694367543637 0.00077380014782444544 0 -0.0021620898233054623 0.00087918410659728165 0 -0.0020487854135418392 0.00091293295862982079 0 -0.0021620898233054623 0.00087918410659728165 0 -0.0020487854135418392 0.00091293295862982079 0 -0.0021127025195898184 0.00099268464933271365 0 -0.0020449444332720822 0.00038101053756705699 0 -0.0028726582390321961 0.00041021874557435606 0 -0.0021927445122731887 -8.2008602828712748e-05 0 -0.0023158569493556052 -6.2283945287207559e-05 0 -0.0023164887148390844 -0.00019562808878070489 0 -0.0020428694367543637 0.00077380014782444544 0 -0.0020487854135418392 0.00091293295862982079 0 -0.0019377366832812601 0.00092798593120219574 0 -0.0024012156562606998 -0.00012139000884531817 0 -0.0023158569493556052 -6.2283945287207559e-05 0 -0.0023164887148390844 -0.00019562808878070489 0 -0.0042729249510905856 0.00016873279443197756 0 -0.0040446639216006712 -2.9387206898328739e-05 0 -0.0041806606559473365 -0.0001647610958695778 0 -0.0033383056565570515 -2.6171378626862733e-05 0 -0.0028726582390321961 0.00041021874557435606 0 -0.0023959913215212745 -3.7333532261670431e-05 0 -0.0024012156562606998 -0.00012139000884531817 0 -0.0023158569493556052 -6.2283945287207559e-05 0 -0.0021927445122731887 -8.2008602828712748e-05 0 -0.0023158569493556052 -6.2283945287207559e-05 0 -0.0022368231311501239 2.7802233198157185e-05 0 -0.0023959913215212745 -3.7333532261670431e-05 0 -0.0023158569493556052 -6.2283945287207559e-05 0 -0.0023529239911365359 3.4350960871061775e-05 0 -0.0023158569493556052 -6.2283945287207559e-05 0 -0.0022368231311501239 2.7802233198157185e-05 0 -0.0023529239911365359 3.4350960871061775e-05 0 -0.0022368231311501239 2.7802233198157185e-05 0 -0.0023529239911365359 3.4350960871061775e-05 0 -0.0023102191186668568 0.0001122672290803601 0 -0.0024047522024100111 9.187433429502773e-05 0 -0.0023529239911365359 3.4350960871061775e-05 0 -0.0023102191186668568 0.0001122672290803601 0 -0.0024127894835507847 0.00016677441368439852 0 -0.0024047522024100111 9.187433429502773e-05 0 -0.0023102191186668568 0.0001122672290803601 0 -0.0022368231311501239 2.7802233198157185e-05 0 -0.0023102191186668568 0.0001122672290803601 0 -0.0021744082484983782 0.00011976233115438778 0 -0.0013997404505151382 -0.00023480859688092625 0 -0.0017648590387077468 0.00014624036779145849 0 -0.0022368231311501239 2.7802233198157185e-05 0 -0.0021744082484983782 0.00011976233115438778 0 -0.0020724735383349886 3.2496113451288893e-05 0 -0.0021927445122731887 -8.2008602828712748e-05 0 -0.0022368231311501239 2.7802233198157185e-05 0 -0.0020724735383349886 3.2496113451288893e-05 0 -0.0020449444332720822 0.00038101053756705699 0 -0.0017648590387077468 0.00014624036779145849 0 -0.002168379808971531 0.00073398906889304903 0 -0.0021757327039930944 0.0005847204672737433 0 -0.0022854868980663858 0.00065049922805867039 0 -0.0010593573101929789 4.7710553306573514e-05 0 -0.0010583130077388401 -0.00036771825802032549 0 -0.0017376470980880459 -0.00030743948155536932 0 -0.00069433269078583108 -0.00055780626376936778 0 -0.0010593573101929789 4.7710553306573514e-05 0 -0.0010583130077388401 -0.00036771825802032549 0 -0.0017648590387077468 0.00014624036779145849 0 -0.0016339913749583135 -0.00021490882443942985 0 -0.00069433269078583108 -0.00055780626376936778 0 -0.0010583130077388401 -0.00036771825802032549 0 -0.0010306984223795855 -0.00071038030948252829 0 -0.0010583130077388401 -0.00036771825802032549 0 -0.0010306984223795855 -0.00071038030948252829 0 -0.0017376470980880459 -0.00030743948155536932 0 -0.00069433269078583108 -0.00055780626376936778 0 -0.0010306984223795855 -0.00071038030948252829 0 -0.00083370288540154654 -0.00070872731250778758 0 -0.0010306984223795855 -0.00071038030948252829 0 -0.00087421378669056739 -0.00071326662343342158 0 -0.00077777759731384542 -0.00069327061083510272 0 -0.00087421378669056739 -0.00071326662343342158 0 -0.00083370288540154654 -0.00070872731250778758 0 -0.00081945850687627263 -0.000724705735805775 0 -0.0010306984223795855 -0.00071038030948252829 0 -0.00087421378669056739 -0.00071326662343342158 0 -0.00083370288540154654 -0.00070872731250778758 0 -0.00069433269078583108 -0.00055780626376936778 0 -0.00083370288540154654 -0.00070872731250778758 0 -0.00062612480711384606 -0.00070048012464573445 0 -0.00083370288540154654 -0.00070872731250778758 0 -0.00080196000238662356 -0.0007437771020051625 0 -0.00062612480711384606 -0.00070048012464573445 0 -0.00080196000238662356 -0.0007437771020051625 0 -0.00080267025988759778 -0.00073446858902196646 0 -0.0008033388325594423 -0.00073293152043435146 0 -0.00078841798904207938 -0.00075062320264377964 0 -0.00077314330563123387 -0.00074483297398073511 0 -0.00080196000238662356 -0.0007437771020051625 0 -0.00080267025988759778 -0.00073446858902196646 0 -0.00081945850687627263 -0.000724705735805775 0 -0.00080267025988759778 -0.00073446858902196646 0 -0.00081945850687627263 -0.000724705735805775 0 -0.00079921131521884785 -0.00073310491671052644 0 -0.00081945850687627263 -0.000724705735805775 0 -0.00078163249386017106 -0.00070847418475429743 0 -0.00068474742726514588 -0.00071660777131487522 0 -0.00087421378669056739 -0.00071326662343342158 0 -0.00081945850687627263 -0.000724705735805775 0 -0.00078163249386017106 -0.00070847418475429743 0 -0.00083370288540154654 -0.00070872731250778758 0 -0.00080196000238662356 -0.0007437771020051625 0 -0.00081945850687627263 -0.000724705735805775 0 -0.0024127894835507847 0.00016677441368439852 0 -0.0023102191186668568 0.0001122672290803601 0 -0.0022733120999837491 0.00020723555013662533 0 -0.0023896620154710952 0.00023543882228223417 0 -0.0024127894835507847 0.00016677441368439852 0 -0.0022733120999837491 0.00020723555013662533 0 -0.0023102191186668568 0.0001122672290803601 0 -0.0021744082484983782 0.00011976233115438778 0 -0.0022733120999837491 0.00020723555013662533 0 -0.0013997404505151382 -0.00023480859688092625 0 -0.0014670644356428288 -0.00021493301844512222 0 -0.00080196000238662356 -0.0007437771020051625 0 -0.00062612480711384606 -0.00070048012464573445 0 -0.0007145397191066175 -0.00080772190645096655 0 -0.00062612480711384606 -0.00070048012464573445 0 -0.0006300245636456219 -0.00078519863301829552 0 -0.0007145397191066175 -0.00080772190645096655 0 -0.0023896620154710952 0.00023543882228223417 0 -0.0023751294252909705 0.00030403500086098069 0 -0.0022733120999837491 0.00020723555013662533 0 -0.0014464136753129155 -0.00039347758187628255 0 -0.0014670644356428288 -0.00021493301844512222 0 -0.00054913926868489576 -0.00079174894596405936 0 -0.00062612480711384606 -0.00070048012464573445 0 -0.0006300245636456219 -0.00078519863301829552 0 -0.00054913926868489576 -0.00079174894596405936 0 -0.0006300245636456219 -0.00078519863301829552 0 -0.00064102570946350664 -0.00085629285490191514 0 -0.0014464136753129155 -0.00039347758187628255 0 -0.00039792551014490325 -0.00066301689012874881 0 -0.0009002365984636351 -0.00064638687395405581 0 -0.00064962886819798678 -0.00050229466767479438 0 -0.00080777267717384109 -0.00036622001182104122 0 -0.00080143770850338585 -0.00073003631047331707 0 -0.0008033388325594423 -0.00073293152043435146 0 -0.00080039710739925507 -0.00072627651345832066 0 -0.0006300245636456219 -0.00078519863301829552 0 -0.00064102570946350664 -0.00085629285490191514 0 -0.0007145397191066175 -0.00080772190645096655 0 -0.00039792551014490325 -0.00066301689012874881 0 -0.00077314330563123387 -0.00074483297398073511 0 0.00013063411824111587 -0.00055025916465413385 0 0.00010294358300372305 -0.00057984890927295966 0 0.00016787689736295319 -0.00057612011543441816 0 -0.00039792551014490325 -0.00066301689012874881 0 -0.00031525503353405001 -0.00065222059297266393 0 9.8267050357156514e-05 -0.00062923140818108762 0 0.00010294358300372305 -0.00057984890927295966 0 0.00016787689736295319 -0.00057612011543441816 0 7.9940975240261957e-05 -0.00052452639099879843 0 0.00010294358300372305 -0.00057984890927295966 0 5.0048628905928521e-05 -0.00059031268463468516 0 -0.00039792551014490325 -0.00066301689012874881 0 -0.00038836545192531905 -0.00047370401399497453 0 9.8267050357156514e-05 -0.00062923140818108762 0 0.00010294358300372305 -0.00057984890927295966 0 5.0048628905928521e-05 -0.00059031268463468516 0 -0.00042251119565278632 -0.00045696898308363835 0 -0.00038836545192531905 -0.00047370401399497453 0 -0.00081945850687627263 -0.000724705735805775 0 -0.00058746805919439706 -0.00072711429840996596 0 -0.00068474742726514588 -0.00071660777131487522 0 -0.00081945850687627263 -0.000724705735805775 0 -0.00079921131521884785 -0.00073310491671052644 0 -0.00078355805130739492 -0.00073233871515992783 0 -0.00079222631467205083 -0.00072762993400951137 0 -0.00072535848855500662 -0.00075427905154530097 0 -0.00079921131521884785 -0.00073310491671052644 0 -0.00079373591965955679 -0.00072659161003191426 0 -0.00078355805130739492 -0.00073233871515992783 0 -0.00080267025988759778 -0.00073446858902196646 0 -0.0008033388325594423 -0.00073293152043435146 0 -0.00079921131521884785 -0.00073310491671052644 0 -0.0008033388325594423 -0.00073293152043435146 0 -0.00079921131521884785 -0.00073310491671052644 0 -0.00080039710739925507 -0.00072627651345832066 0 -0.00079921131521884785 -0.00073310491671052644 0 -0.00080039710739925507 -0.00072627651345832066 0 -0.00079373591965955679 -0.00072659161003191426 0 0.00014134516307080067 -0.00055823901700849182 0 0.00017303784166476809 -0.0005574585841100349 0 0.00016787689736295319 -0.00057612011543441816 0 0.00017303784166476809 -0.0005574585841100349 0 0.00013063411824111587 -0.00055025916465413385 0 0.00016787689736295319 -0.00057612011543441816 0 -0.00031099255533634175 -0.00062515617434219723 0 -0.00031525503353405001 -0.00065222059297266393 0 -0.00078804274982779965 -0.00071117702281381031 0 -0.00079373591965955679 -0.00072659161003191426 0 -0.00078355805130739492 -0.00073233871515992783 0 -0.00078804274982779965 -0.00071117702281381031 0 -0.00080039710739925507 -0.00072627651345832066 0 -0.00079373591965955679 -0.00072659161003191426 0 -0.00039015734949055181 -0.00073363205821022214 0 -0.00072535848855500662 -0.00075427905154530097 0 -0.00058746805919439706 -0.00072711429840996596 0 -0.00057346242419541789 -0.0007349483415479926 0 -0.00050396426095299584 -0.00078294068076076415 0 -0.00041146904075234673 -0.00085023108351567735 0 -0.00058746805919439706 -0.00072711429840996596 0 -0.00050396426095299584 -0.00078294068076076415 0 -0.00058746805919439706 -0.00072711429840996596 0 -0.00057346242419541789 -0.0007349483415479926 0 -0.00068474742726514588 -0.00071660777131487522 0 -0.00057346242419541789 -0.0007349483415479926 0 -0.00068474742726514588 -0.00071660777131487522 0 -0.00063379683808444077 -0.00070207718341742866 0 -0.00057346242419541789 -0.0007349483415479926 0 -0.00056978743866925076 -0.00073404513777129731 0 -0.00063379683808444077 -0.00070207718341742866 0 -0.00057346242419541789 -0.0007349483415479926 0 -0.00050465463040908019 -0.00079112587304560613 0 -0.00056978743866925076 -0.00073404513777129731 0 -0.00044127021586632423 -0.00083526771152540803 0 -0.00050396426095299584 -0.00078294068076076415 0 -0.00050465463040908019 -0.00079112587304560613 0 -0.00057346242419541789 -0.0007349483415479926 0 -0.00050396426095299584 -0.00078294068076076415 0 -0.00050465463040908019 -0.00079112587304560613 0 -0.00050465463040908019 -0.00079112587304560613 0 -0.00052347038393001501 -0.00081728299017402655 0 -0.00055613736688686188 -0.00077079894759462218 0 -0.0004635902573284796 -0.00085247465991522347 0 -0.00050465463040908019 -0.00079112587304560613 0 -0.00052347038393001501 -0.00081728299017402655 0 -0.00052347038393001501 -0.00081728299017402655 0 -0.00058653557353776687 -0.00078319609881748555 0 -0.00059468521459879594 -0.00084365810534202477 0 -0.00049605446060359639 -0.00087179447119316994 0 -0.00052347038393001501 -0.00081728299017402655 0 -0.00059468521459879594 -0.00084365810534202477 0 -0.00052347038393001501 -0.00081728299017402655 0 -0.00058653557353776687 -0.00078319609881748555 0 -0.00055613736688686188 -0.00077079894759462218 0 -0.00055613736688686188 -0.00077079894759462218 0 -0.00056978743866925076 -0.00073404513777129731 0 -0.00060121912141248245 -0.00073504759196062208 0 -0.00058653557353776687 -0.00078319609881748555 0 -0.00055613736688686188 -0.00077079894759462218 0 -0.00060121912141248245 -0.00073504759196062208 0 -0.00050465463040908019 -0.00079112587304560613 0 -0.00055613736688686188 -0.00077079894759462218 0 -0.00056978743866925076 -0.00073404513777129731 0 -0.00056978743866925076 -0.00073404513777129731 0 -0.00059573048650095762 -0.00070383084297856338 0 -0.00063379683808444077 -0.00070207718341742866 0 -0.00056978743866925076 -0.00073404513777129731 0 -0.00059573048650095762 -0.00070383084297856338 0 -0.00060121912141248245 -0.00073504759196062208 0 -0.00059573048650095762 -0.00070383084297856338 0 -0.00060121912141248245 -0.00073504759196062208 0 -0.00062339602707274326 -0.00068520355086895181 0 -0.00062339602707274326 -0.00068520355086895181 0 -0.00060597326684677405 -0.00068485632288903394 0 -0.00061536954512560009 -0.00063536263801875447 0 -0.00059573048650095762 -0.00070383084297856338 0 -0.00062339602707274326 -0.00068520355086895181 0 -0.00060597326684677405 -0.00068485632288903394 0 -0.00059573048650095762 -0.00070383084297856338 0 -0.00060597326684677405 -0.00068485632288903394 0 -0.00060939421279892559 -0.00069748273821679425 0 -0.0006670766409659246 -0.00070118871878306502 0 -0.00077777759731384542 -0.00069327061083510272 0 -0.00063379683808444077 -0.00070207718341742866 0 -0.00059573048650095762 -0.00070383084297856338 0 -0.0006670766409659246 -0.00070118871878306502 0 -0.00060939421279892559 -0.00069748273821679425 0 -0.0010306984223795855 -0.00071038030948252829 0 -0.0006670766409659246 -0.00070118871878306502 0 -0.00077777759731384542 -0.00069327061083510272 0 -0.00077777759731384542 -0.00069327061083510272 0 -0.00078163249386017106 -0.00070847418475429743 0 -0.00068474742726514588 -0.00071660777131487522 0 -0.00077777759731384542 -0.00069327061083510272 0 -0.00068474742726514588 -0.00071660777131487522 0 -0.00063379683808444077 -0.00070207718341742866 0 -0.00087421378669056739 -0.00071326662343342158 0 -0.00077777759731384542 -0.00069327061083510272 0 -0.00078163249386017106 -0.00070847418475429743 0 -0.00059573048650095762 -0.00070383084297856338 0 -0.0006670766409659246 -0.00070118871878306502 0 -0.00063379683808444077 -0.00070207718341742866 0 -0.0010131734777645482 -0.00084462339032250497 0 -0.00090140984306202692 -0.00083244459691294854 0 -0.00098693861928728435 -0.00077829871977603345 0 -0.00090140984306202692 -0.00083244459691294854 0 -0.00093792000457233141 -0.00089250211044366614 0 -0.00081389676779149416 -0.00088425216293217868 0 -0.0010131734777645482 -0.00084462339032250497 0 -0.00090140984306202692 -0.00083244459691294854 0 -0.00093792000457233141 -0.00089250211044366614 0 -0.00090140984306202692 -0.00083244459691294854 0 -0.00081389676779149416 -0.00088425216293217868 0 -0.00076774190608180936 -0.00082002005237325555 0 -0.00081389676779149416 -0.00088425216293217868 0 -0.00076774190608180936 -0.00082002005237325555 0 -0.00071141329107551475 -0.00087504492535917747 0 -0.00076774190608180936 -0.00082002005237325555 0 -0.00074583370117700957 -0.00076625879219222991 0 -0.00084655976211438081 -0.0007762685900121112 0 -0.00090140984306202692 -0.00083244459691294854 0 -0.00076774190608180936 -0.00082002005237325555 0 -0.00084655976211438081 -0.0007762685900121112 0 -0.00076774190608180936 -0.00082002005237325555 0 -0.00067499234708133342 -0.00083076601014505291 0 -0.00065997649876945765 -0.00078416651179259993 0 -0.00076774190608180936 -0.00082002005237325555 0 -0.00065997649876945765 -0.00078416651179259993 0 -0.00074583370117700957 -0.00076625879219222991 0 -0.00067499234708133342 -0.00083076601014505291 0 -0.00071141329107551475 -0.00087504492535917747 0 -0.00059468521459879594 -0.00084365810534202477 0 -0.00076774190608180936 -0.00082002005237325555 0 -0.00067499234708133342 -0.00083076601014505291 0 -0.00071141329107551475 -0.00087504492535917747 0 -0.00058653557353776687 -0.00078319609881748555 0 -0.00059468521459879594 -0.00084365810534202477 0 -0.00065997649876945765 -0.00078416651179259993 0 -0.00067499234708133342 -0.00083076601014505291 0 -0.00059468521459879594 -0.00084365810534202477 0 -0.00065997649876945765 -0.00078416651179259993 0 -0.00058653557353776687 -0.00078319609881748555 0 -0.00060121912141248245 -0.00073504759196062208 0 -0.00065997649876945765 -0.00078416651179259993 0 -0.00060121912141248245 -0.00073504759196062208 0 -0.00065997649876945765 -0.00078416651179259993 0 -0.00068048148857482592 -0.00072692151605383861 0 -0.00060121912141248245 -0.00073504759196062208 0 -0.00062339602707274326 -0.00068520355086895181 0 -0.00068048148857482592 -0.00072692151605383861 0 -0.00062339602707274326 -0.00068520355086895181 0 -0.00068048148857482592 -0.00072692151605383861 0 -0.00070858248815765734 -0.00066814215058239295 0 -0.00062339602707274326 -0.00068520355086895181 0 -0.00070858248815765734 -0.00066814215058239295 0 -0.00066717183116084971 -0.00060768198009365326 0 -0.00068048148857482592 -0.00072692151605383861 0 -0.00070858248815765734 -0.00066814215058239295 0 -0.00078476156639979049 -0.00071939347922833369 0 -0.00070858248815765734 -0.00066814215058239295 0 -0.00078476156639979049 -0.00071939347922833369 0 -0.00084039816226591253 -0.00064595301606487025 0 -0.00068048148857482592 -0.00072692151605383861 0 -0.00078476156639979049 -0.00071939347922833369 0 -0.00074583370117700957 -0.00076625879219222991 0 -0.00065997649876945765 -0.00078416651179259993 0 -0.00068048148857482592 -0.00072692151605383861 0 -0.00074583370117700957 -0.00076625879219222991 0 -0.00078476156639979049 -0.00071939347922833369 0 -0.00074583370117700957 -0.00076625879219222991 0 -0.00084655976211438081 -0.0007762685900121112 0 -0.00078476156639979049 -0.00071939347922833369 0 -0.00084655976211438081 -0.0007762685900121112 0 -0.00088819431980447731 -0.00072626078467427798 0 -0.00084039816226591253 -0.00064595301606487025 0 -0.00088819431980447731 -0.00072626078467427798 0 -0.00098020354865604163 -0.00069298680898364357 0 -0.00078476156639979049 -0.00071939347922833369 0 -0.00084039816226591253 -0.00064595301606487025 0 -0.00088819431980447731 -0.00072626078467427798 0 -0.0010926677450202515 -0.00075024082520802138 0 -0.00098020354865604163 -0.00069298680898364357 0 -0.00098693861928728435 -0.00077829871977603345 0 -0.00088819431980447731 -0.00072626078467427798 0 -0.00098020354865604163 -0.00069298680898364357 0 -0.00098693861928728435 -0.00077829871977603345 0 -0.0010926677450202515 -0.00075024082520802138 0 -0.0010996001335931169 -0.00066470285656128987 0 -0.00098020354865604163 -0.00069298680898364357 0 -0.00090140984306202692 -0.00083244459691294854 0 -0.00084655976211438081 -0.0007762685900121112 0 -0.00098693861928728435 -0.00077829871977603345 0 -0.00084655976211438081 -0.0007762685900121112 0 -0.00088819431980447731 -0.00072626078467427798 0 -0.00098693861928728435 -0.00077829871977603345 0 -0.0012117123583763095 -0.00053426037549985197 0 -0.0010243036794910167 -0.00042731437818988152 0 -0.00097796381214488985 -0.00056005686642941754 0 -0.0012117123583763095 -0.00053426037549985197 0 -0.0010243036794910167 -0.00042731437818988152 0 -0.0010956400203282208 -0.00024173236880855115 0 -0.00094461907315480779 -0.00031331479312783405 0 -0.0010243036794910167 -0.00042731437818988152 0 -0.0010956400203282208 -0.00024173236880855115 0 -0.00094461907315480779 -0.00031331479312783405 0 -0.0010243036794910167 -0.00042731437818988152 0 -0.00092409179325469938 -0.0004493931228872566 0 -0.0010243036794910167 -0.00042731437818988152 0 -0.00097796381214488985 -0.00056005686642941754 0 -0.00092409179325469938 -0.0004493931228872566 0 -0.00084039816226591253 -0.00064595301606487025 0 -0.00098020354865604163 -0.00069298680898364357 0 -0.00097796381214488985 -0.00056005686642941754 0 -0.0010996001335931169 -0.00066470285656128987 0 -0.00098020354865604163 -0.00069298680898364357 0 -0.00097796381214488985 -0.00056005686642941754 0 -0.00084039816226591253 -0.00064595301606487025 0 -0.00084507652280084856 -0.0005209178343166883 0 -0.00074876177505999841 -0.00057304587614107614 0 -0.00084039816226591253 -0.00064595301606487025 0 -0.00097796381214488985 -0.00056005686642941754 0 -0.00084507652280084856 -0.0005209178343166883 0 -0.00084507652280084856 -0.0005209178343166883 0 -0.00084249413532327966 -0.00040464682473658652 0 -0.00076454075922330951 -0.00046701985908834034 0 -0.00084507652280084856 -0.0005209178343166883 0 -0.00092409179325469938 -0.0004493931228872566 0 -0.00084249413532327966 -0.00040464682473658652 0 -0.00097796381214488985 -0.00056005686642941754 0 -0.00084507652280084856 -0.0005209178343166883 0 -0.00092409179325469938 -0.0004493931228872566 0 -0.00094461907315480779 -0.00031331479312783405 0 -0.00092409179325469938 -0.0004493931228872566 0 -0.00084249413532327966 -0.00040464682473658652 0 -0.00094461907315480779 -0.00031331479312783405 0 -0.00084249413532327966 -0.00040464682473658652 0 -0.00085710846873796151 -0.00028293855664484826 0 -0.00084249413532327966 -0.00040464682473658652 0 -0.00077034587732562954 -0.00035328963688319783 0 -0.00085710846873796151 -0.00028293855664484826 0 -0.00084249413532327966 -0.00040464682473658652 0 -0.00076454075922330951 -0.00046701985908834034 0 -0.00077034587732562954 -0.00035328963688319783 0 -0.00072193581371148062 -0.00043315282399880822 0 -0.00066518839837949588 -0.00040673317029733011 0 -0.00077034587732562954 -0.00035328963688319783 0 -0.00072193581371148062 -0.00043315282399880822 0 -0.00076454075922330951 -0.00046701985908834034 0 -0.00077034587732562954 -0.00035328963688319783 0 -0.00072193581371148062 -0.00043315282399880822 0 -0.00069717567646280371 -0.00050622967954574549 0 -0.00066518839837949588 -0.00040673317029733011 0 -0.00072193581371148062 -0.00043315282399880822 0 -0.00069717567646280371 -0.00050622967954574549 0 -0.00076454075922330951 -0.00046701985908834034 0 -0.00069717567646280371 -0.00050622967954574549 0 -0.00076454075922330951 -0.00046701985908834034 0 -0.00074876177505999841 -0.00057304587614107614 0 -0.00070858248815765734 -0.00066814215058239295 0 -0.00084039816226591253 -0.00064595301606487025 0 -0.00074876177505999841 -0.00057304587614107614 0 -0.00070858248815765734 -0.00066814215058239295 0 -0.00074876177505999841 -0.00057304587614107614 0 -0.00066717183116084971 -0.00060768198009365326 0 -0.00084507652280084856 -0.0005209178343166883 0 -0.00076454075922330951 -0.00046701985908834034 0 -0.00074876177505999841 -0.00057304587614107614 0 -0.00069717567646280371 -0.00050622967954574549 0 -0.00074876177505999841 -0.00057304587614107614 0 -0.00066717183116084971 -0.00060768198009365326 0 -0.00069717567646280371 -0.00050622967954574549 0 -0.00066717183116084971 -0.00060768198009365326 0 -0.00064298932087565944 -0.00055473173700720801 0 -0.00066717183116084971 -0.00060768198009365326 0 -0.00064298932087565944 -0.00055473173700720801 0 -0.00061536954512560009 -0.00063536263801875447 0 -0.00064298932087565944 -0.00055473173700720801 0 -0.00066518839837949588 -0.00040673317029733011 0 -0.00059837822222894965 -0.00060014497979949289 0 -0.00069717567646280371 -0.00050622967954574549 0 -0.00064298932087565944 -0.00055473173700720801 0 -0.00066518839837949588 -0.00040673317029733011 0 -0.003389990199059945 0.00062440103511319448 0 -0.0033501749330192908 0.00068196377889302674 0 -0.00326991321179351 0.00062349004714337642 0 -0.003389990199059945 0.00062440103511319448 0 -0.0033501749330192908 0.00068196377889302674 0 -0.0033871017509750825 0.00064634092137984018 0 -0.0033501749330192908 0.00068196377889302674 0 -0.0033164666944030022 0.00076682821727514297 0 -0.0032613129620745595 0.00073247000502533479 0 -0.0033164666944030022 0.00076682821727514297 0 -0.0033945577531720897 0.00072490183694299984 0 -0.0033442741997892836 0.00087414127142944472 0 -0.0033501749330192908 0.00068196377889302674 0 -0.0033164666944030022 0.00076682821727514297 0 -0.0033945577531720897 0.00072490183694299984 0 -0.0033501749330192908 0.00068196377889302674 0 -0.0033945577531720897 0.00072490183694299984 0 -0.0033871017509750825 0.00064634092137984018 0 -0.0033945577531720897 0.00072490183694299984 0 -0.0034250509090378912 0.00070333474881389729 0 -0.0033871017509750825 0.00064634092137984018 0 -0.003410062666263286 0.00064730849029902835 0 -0.0033332584394268647 0.00068783897256058867 0 -0.0034250509090378912 0.00070333474881389729 0 -0.0033871017509750825 0.00064634092137984018 0 -0.0034681998849774441 0.00068929000000227916 0 -0.0033945577531720897 0.00072490183694299984 0 -0.0034250509090378912 0.00070333474881389729 0 -0.0034167022759561102 0.00072877580712895219 0 -0.003389990199059945 0.00062440103511319448 0 -0.0033871017509750825 0.00064634092137984018 0 -0.003348519067944184 0.00064915475497666548 0 -0.00066518839837949588 -0.00040673317029733011 0 -0.00077034587732562954 -0.00035328963688319783 0 -0.00082406335267151795 -0.00014101087235065285 0 -0.0020564135988985106 0.00010922119169884021 0 -0.0019695018464350308 0.00027861270155882462 0 -0.0033871017509750825 0.00064634092137984018 0 -0.003348519067944184 0.00064915475497666548 0 -0.0033391382486899442 0.00062441136386267031 0 -0.00077034587732562954 -0.00035328963688319783 0 -0.00085710846873796151 -0.00028293855664484826 0 -0.00082406335267151795 -0.00014101087235065285 0 -0.00094461907315480779 -0.00031331479312783405 0 -0.00085710846873796151 -0.00028293855664484826 0 -0.00093236644564076735 -0.00019029278635801722 0 -0.00085710846873796151 -0.00028293855664484826 0 -0.00093236644564076735 -0.00019029278635801722 0 -0.00082406335267151795 -0.00014101087235065285 0 -0.00093236644564076735 -0.00019029278635801722 0 -0.00082406335267151795 -0.00014101087235065285 0 -0.001043015522228026 -3.3587256010412782e-05 0 -0.0034250509090378912 0.00070333474881389729 0 -0.0034535826672230296 0.0007083560911141279 0 -0.0034396590548018886 0.00072605969383949631 0 -0.0034250509090378912 0.00070333474881389729 0 -0.0034535826672230296 0.0007083560911141279 0 -0.0034681998849774441 0.00068929000000227916 0 -0.0034535826672230296 0.0007083560911141279 0 -0.0034681998849774441 0.00068929000000227916 0 -0.0034786512408046416 0.00071088952579367198 0 -0.0032239652579640799 0.00059380223852545388 0 -0.003348519067944184 0.00064915475497666548 0 -0.0033391382486899442 0.00062441136386267031 0 -0.0032239652579640799 0.00059380223852545388 0 -0.0033391382486899442 0.00062441136386267031 0 -0.0032408846429919434 0.00057590672804467191 0 -0.0012087527627044359 0.00026292711046249092 0 -0.00082406335267151795 -0.00014101087235065285 0 -0.001043015522228026 -3.3587256010412782e-05 0 -0.0034681998849774441 0.00068929000000227916 0 -0.0034786512408046416 0.00071088952579367198 0 -0.0035113078329133815 0.00070281331473175015 0 -0.0033332584394268647 0.00068783897256058867 0 -0.0038725440129118945 7.3521945212262358e-05 0 -0.0028539555340786052 0.00016288446161801529 0 -0.0019695018464350308 0.00027861270155882462 0 -0.0012087527627044359 0.00026292711046249092 0 -0.0011517449498259706 4.7875923362264245e-05 0 -0.001043015522228026 -3.3587256010412782e-05 0 -0.0012169750350953903 1.3025911097981052e-06 0 -0.0011517449498259706 4.7875923362264245e-05 0 -0.0011219430631705812 -9.7187074933308937e-05 0 -0.0011219430631705812 -9.7187074933308937e-05 0 -0.001043015522228026 -3.3587256010412782e-05 0 -0.0010218557093740158 -0.00016664828266720969 0 -0.0011517449498259706 4.7875923362264245e-05 0 -0.0011219430631705812 -9.7187074933308937e-05 0 -0.001043015522228026 -3.3587256010412782e-05 0 -0.00093236644564076735 -0.00019029278635801722 0 -0.001043015522228026 -3.3587256010412782e-05 0 -0.0010218557093740158 -0.00016664828266720969 0 -0.00094461907315480779 -0.00031331479312783405 0 -0.0010218557093740158 -0.00016664828266720969 0 -0.0010956400203282208 -0.00024173236880855115 0 -0.00094461907315480779 -0.00031331479312783405 0 -0.00093236644564076735 -0.00019029278635801722 0 -0.0010218557093740158 -0.00016664828266720969 0 -0.0011219430631705812 -9.7187074933308937e-05 0 -0.0010218557093740158 -0.00016664828266720969 0 -0.0010956400203282208 -0.00024173236880855115 0 -0.0026680949700875439 0.00040518543020024518 0 -0.002727241826046251 -0.00015201406810985585 0 -0.0029591946172481975 0.00041686227052466614 0 -0.0026680949700875439 0.00040518543020024518 0 -0.0023131426898126296 0.00015886848010268596 0 -0.002727241826046251 -0.00015201406810985585 0 -0.0026680949700875439 0.00040518543020024518 0 -0.0029591946172481975 0.00041686227052466614 0 -0.002938329055689332 0.0006729550342894448 0 -0.0026680949700875439 0.00040518543020024518 0 -0.0023910312583973227 0.00044094710081822792 0 -0.0025886648018669206 0.00066392896199285163 0 -0.0026680949700875439 0.00040518543020024518 0 -0.0023910312583973227 0.00044094710081822792 0 -0.0023131426898126296 0.00015886848010268596 0 -0.0023910312583973227 0.00044094710081822792 0 -0.002001325735840193 0.00022657095851692015 0 -0.0022854868980663858 0.00065049922805867039 0 -0.0014924702675936995 0.0002118829666309562 0 -0.002001325735840193 0.00022657095851692015 0 -0.0022854868980663858 0.00065049922805867039 0 -0.0017648590387077468 0.00014624036779145849 0 -0.0022713592451660387 0.00069689591096945254 0 -0.0014924702675936995 0.0002118829666309562 0 -0.002001325735840193 0.00022657095851692015 0 -0.0017376470980880459 -0.00030743948155536932 0 -0.0023910312583973227 0.00044094710081822792 0 -0.002001325735840193 0.00022657095851692015 0 -0.0023131426898126296 0.00015886848010268596 0 -0.0023131426898126296 0.00015886848010268596 0 -0.0017376470980880459 -0.00030743948155536932 0 -0.002727241826046251 -0.00015201406810985585 0 -0.0010828945172933965 -0.00070045363348961013 0 -0.0016698638981562488 -0.00044396501139367344 0 -0.0010306984223795855 -0.00071038030948252829 0 -0.0017376470980880459 -0.00030743948155536932 0 -0.002727241826046251 -0.00015201406810985585 0 -0.0010306984223795855 -0.00071038030948252829 0 -0.0006670766409659246 -0.00070118871878306502 0 -0.00065331410737755411 -0.00076954708206388085 0 -0.002001325735840193 0.00022657095851692015 0 -0.0023131426898126296 0.00015886848010268596 0 -0.0017376470980880459 -0.00030743948155536932 0 -0.0006670766409659246 -0.00070118871878306502 0 -0.00065331410737755411 -0.00076954708206388085 0 -0.00060939421279892559 -0.00069748273821679425 0 -0.00060597326684677405 -0.00068485632288903394 0 -0.00060939421279892559 -0.00069748273821679425 0 -0.00061536954512560009 -0.00063536263801875447 0 -0.00060939421279892559 -0.00069748273821679425 0 -0.00061536954512560009 -0.00063536263801875447 0 -0.00059837822222894965 -0.00060014497979949289 0 -0.00065331410737755411 -0.00076954708206388085 0 -0.00060939421279892559 -0.00069748273821679425 0 -0.00059837822222894965 -0.00060014497979949289 0 -0.00062339602707274326 -0.00068520355086895181 0 -0.00066717183116084971 -0.00060768198009365326 0 -0.00061536954512560009 -0.00063536263801875447 0 -0.00064298932087565944 -0.00055473173700720801 0 -0.00061536954512560009 -0.00063536263801875447 0 -0.00059837822222894965 -0.00060014497979949289 0 -0.003389990199059945 0.00062440103511319448 0 -0.0032473639981630089 0.00040295237906531217 0 -0.00326991321179351 0.00062349004714337642 0 -0.0020564135988985106 0.00010922119169884021 0 -0.001916513616420245 -0.0001107196606945457 0 -0.0032473639981630089 0.00040295237906531217 0 -0.0031213764861766926 0.00056796538907670556 0 -0.00326991321179351 0.00062349004714337642 0 -0.0016698638981562488 -0.00044396501139367344 0 -0.001916513616420245 -0.0001107196606945457 0 -0.002727241826046251 -0.00015201406810985585 0 -0.0032473639981630089 0.00040295237906531217 0 -0.0029591946172481975 0.00041686227052466614 0 -0.0032473639981630089 0.00040295237906531217 0 -0.0029591946172481975 0.00041686227052466614 0 -0.0031213764861766926 0.00056796538907670556 0 -0.0029591946172481975 0.00041686227052466614 0 -0.0031213764861766926 0.00056796538907670556 0 -0.002938329055689332 0.0006729550342894448 0 -0.0031213764861766926 0.00056796538907670556 0 -0.0031430747842075687 0.00070886066283919755 0 -0.002938329055689332 0.0006729550342894448 0 -0.0031213764861766926 0.00056796538907670556 0 -0.0031430747842075687 0.00070886066283919755 0 -0.00326991321179351 0.00062349004714337642 0 -0.0031430747842075687 0.00070886066283919755 0 -0.0030439544038023819 0.00083027915700635351 0 -0.002938329055689332 0.0006729550342894448 0 -0.0031430747842075687 0.00070886066283919755 0 -0.00326991321179351 0.00062349004714337642 0 -0.0032613129620745595 0.00073247000502533479 0 -0.0033501749330192908 0.00068196377889302674 0 -0.00326991321179351 0.00062349004714337642 0 -0.0032613129620745595 0.00073247000502533479 0 -0.0031430747842075687 0.00070886066283919755 0 -0.0032613129620745595 0.00073247000502533479 0 -0.0031717116670296405 0.00080099817775636099 0 -0.0031717116670296405 0.00080099817775636099 0 -0.0031751154534311789 0.00086972331063475531 0 -0.0032358098691188122 0.0008387090368061344 0 -0.0032613129620745595 0.00073247000502533479 0 -0.0031717116670296405 0.00080099817775636099 0 -0.0032358098691188122 0.0008387090368061344 0 -0.0033164666944030022 0.00076682821727514297 0 -0.0032613129620745595 0.00073247000502533479 0 -0.0032358098691188122 0.0008387090368061344 0 -0.0031430747842075687 0.00070886066283919755 0 -0.0030439544038023819 0.00083027915700635351 0 -0.0031717116670296405 0.00080099817775636099 0 -0.0031717116670296405 0.00080099817775636099 0 -0.0031118893547003091 0.00090028366512182468 0 -0.0031751154534311789 0.00086972331063475531 0 -0.0030439544038023819 0.00083027915700635351 0 -0.0031717116670296405 0.00080099817775636099 0 -0.0031118893547003091 0.00090028366512182468 0 -0.0030439544038023819 0.00083027915700635351 0 -0.0030597992900235314 0.00088463775656675723 0 -0.0031118893547003091 0.00090028366512182468 0 -0.0030439544038023819 0.00083027915700635351 0 -0.0030597992900235314 0.00088463775656675723 0 -0.0029903199490206446 0.0008783475312515842 0 -0.0030597992900235314 0.00088463775656675723 0 -0.0029903199490206446 0.0008783475312515842 0 -0.0030833094532967636 0.00092132740101691238 0 -0.0029903199490206446 0.0008783475312515842 0 -0.0028806155682649754 0.00080858463439643534 0 -0.0029518909992434497 0.00087256966535185251 0 -0.0030439544038023819 0.00083027915700635351 0 -0.0029903199490206446 0.0008783475312515842 0 -0.0028806155682649754 0.00080858463439643534 0 -0.0030439544038023819 0.00083027915700635351 0 -0.0028806155682649754 0.00080858463439643534 0 -0.002938329055689332 0.0006729550342894448 0 -0.0028806155682649754 0.00080858463439643534 0 -0.0025886648018669206 0.00066392896199285163 0 -0.002938329055689332 0.0006729550342894448 0 -0.0026680949700875439 0.00040518543020024518 0 -0.0025886648018669206 0.00066392896199285163 0 -0.002938329055689332 0.0006729550342894448 0 -0.0025886648018669206 0.00066392896199285163 0 -0.0022480947548151288 0.00077881406444566068 0 -0.0023134035276428824 0.00089754008063696038 0 -0.0026319935564033652 0.00066234083856433015 0 -0.0026150093601055328 0.00083830003642361482 0 -0.002168379808971531 0.00073398906889304903 0 -0.0022854868980663858 0.00065049922805867039 0 -0.0022480947548151288 0.00077881406444566068 0 -0.0028806155682649754 0.00080858463439643534 0 -0.0025886648018669206 0.00066392896199285163 0 -0.0029518909992434497 0.00087256966535185251 0 -0.0023910312583973227 0.00044094710081822792 0 -0.0025886648018669206 0.00066392896199285163 0 -0.0022854868980663858 0.00065049922805867039 0 -0.0025886648018669206 0.00066392896199285163 0 -0.0022854868980663858 0.00065049922805867039 0 -0.0022480947548151288 0.00077881406444566068 0 -0.0026150093601055328 0.00083830003642361482 0 -0.0031567435294527183 0.0012195017313263083 0 -0.0029903199490206446 0.0008783475312515842 0 -0.0029518909992434497 0.00087256966535185251 0 -0.0030612690420665101 0.0009237287880000276 0 -0.0029518909992434497 0.00087256966535185251 0 -0.0030612690420665101 0.0009237287880000276 0 -0.0031398970258189559 0.00097541783323052442 0 -0.0029518909992434497 0.00087256966535185251 0 -0.0031398970258189559 0.00097541783323052442 0 -0.0031187439627366506 0.00097751733592119994 0 -0.0030612690420665101 0.0009237287880000276 0 -0.0031395674361596776 0.00095429831438594687 0 -0.0031398970258189559 0.00097541783323052442 0 -0.0031395674361596776 0.00095429831438594687 0 -0.0031948728111829919 0.00097023545754665243 0 -0.0031398970258189559 0.00097541783323052442 0 -0.0031395674361596776 0.00095429831438594687 0 -0.0031948728111829919 0.00097023545754665243 0 -0.0031861081314591873 0.00095119417454256599 0 -0.00320507604132007 0.0009795039879639594 0 -0.0032656711604804839 0.00097933816028430488 0 -0.0032431724484180938 0.0010040653685913668 0 -0.0031398970258189559 0.00097541783323052442 0 -0.00320507604132007 0.0009795039879639594 0 -0.0032431724484180938 0.0010040653685913668 0 -0.003160959893299117 0.0011372947390515392 0 -0.0031567435294527183 0.0012195017313263083 0 -0.0031948728111829919 0.00097023545754665243 0 -0.00320507604132007 0.0009795039879639594 0 -0.0032656711604804839 0.00097933816028430488 0 -0.0031948728111829919 0.00097023545754665243 0 -0.0031398970258189559 0.00097541783323052442 0 -0.00320507604132007 0.0009795039879639594 0 -0.0032656711604804839 0.00097933816028430488 0 -0.0033377837937161579 0.0009678191141746299 0 -0.0033688357147976418 0.00098605832144149901 0 -0.0032656711604804839 0.00097933816028430488 0 -0.0032451536432584228 0.00095902141110525293 0 -0.0033377837937161579 0.0009678191141746299 0 -0.0031948728111829919 0.00097023545754665243 0 -0.0032656711604804839 0.00097933816028430488 0 -0.0032451536432584228 0.00095902141110525293 0 -0.0032451536432584228 0.00095902141110525293 0 -0.0032315889594882676 0.00093418983006976334 0 -0.0031861081314591873 0.00095119417454256599 0 -0.0031948728111829919 0.00097023545754665243 0 -0.0032451536432584228 0.00095902141110525293 0 -0.0031861081314591873 0.00095119417454256599 0 -0.0032451536432584228 0.00095902141110525293 0 -0.0032874721096176071 0.00094210935328681918 0 -0.0032315889594882676 0.00093418983006976334 0 -0.0032874721096176071 0.00094210935328681918 0 -0.0032315889594882676 0.00093418983006976334 0 -0.0032844857764788623 0.00091507806445426413 0 -0.0032874721096176071 0.00094210935328681918 0 -0.0033377837937161579 0.0009678191141746299 0 -0.0033544783752924635 0.00092866390102696011 0 -0.0032451536432584228 0.00095902141110525293 0 -0.0032874721096176071 0.00094210935328681918 0 -0.0033377837937161579 0.0009678191141746299 0 -0.0032088495125138735 0.00091266732890433555 0 -0.0032315889594882676 0.00093418983006976334 0 -0.003181686088881541 0.00093267525671066336 0 -0.0032088495125138735 0.00091266732890433555 0 -0.003181686088881541 0.00093267525671066336 0 -0.003184833527528871 0.00091536135367961365 0 -0.0032088495125138735 0.00091266732890433555 0 -0.0032315889594882676 0.00093418983006976334 0 -0.003246573295766273 0.00089661605939809683 0 -0.0031861081314591873 0.00095119417454256599 0 -0.003181686088881541 0.00093267525671066336 0 -0.0031408490825688253 0.00093804101425201355 0 -0.0032315889594882676 0.00093418983006976334 0 -0.0031861081314591873 0.00095119417454256599 0 -0.003181686088881541 0.00093267525671066336 0 -0.003181686088881541 0.00093267525671066336 0 -0.0031408490825688253 0.00093804101425201355 0 -0.0031598844589416763 0.00092540092479780902 0 -0.0031408490825688253 0.00093804101425201355 0 -0.0031118893547003091 0.00090028366512182468 0 -0.0031598844589416763 0.00092540092479780902 0 -0.0031395674361596776 0.00095429831438594687 0 -0.0031408490825688253 0.00093804101425201355 0 -0.0030833094532967636 0.00092132740101691238 0 -0.0031395674361596776 0.00095429831438594687 0 -0.0031861081314591873 0.00095119417454256599 0 -0.0031408490825688253 0.00093804101425201355 0 -0.0029903199490206446 0.0008783475312515842 0 -0.0030612690420665101 0.0009237287880000276 0 -0.0030833094532967636 0.00092132740101691238 0 -0.0030612690420665101 0.0009237287880000276 0 -0.0031395674361596776 0.00095429831438594687 0 -0.0030833094532967636 0.00092132740101691238 0 -0.0030597992900235314 0.00088463775656675723 0 -0.0030833094532967636 0.00092132740101691238 0 -0.0031118893547003091 0.00090028366512182468 0 -0.0031408490825688253 0.00093804101425201355 0 -0.0030833094532967636 0.00092132740101691238 0 -0.0031118893547003091 0.00090028366512182468 0 -0.0031118893547003091 0.00090028366512182468 0 -0.0031751154534311789 0.00086972331063475531 0 -0.0031643419315582327 0.00091226813435885904 0 -0.0031643419315582327 0.00091226813435885904 0 -0.0031947960924556752 0.00090110437356161329 0 -0.0031846398722529578 0.00091144990681089433 0 -0.0031751154534311789 0.00086972331063475531 0 -0.0031643419315582327 0.00091226813435885904 0 -0.0031947960924556752 0.00090110437356161329 0 -0.0031118893547003091 0.00090028366512182468 0 -0.0031643419315582327 0.00091226813435885904 0 -0.0031598844589416763 0.00092540092479780902 0 -0.0031751154534311789 0.00086972331063475531 0 -0.0032358098691188122 0.0008387090368061344 0 -0.0031947960924556752 0.00090110437356161329 0 -0.0032358098691188122 0.0008387090368061344 0 -0.0031947960924556752 0.00090110437356161329 0 -0.0032172671486268892 0.00091706313069582263 0 -0.0031947960924556752 0.00090110437356161329 0 -0.0032172671486268892 0.00091706313069582263 0 -0.0031933533561270457 0.00090678321181457931 0 -0.0032172671486268892 0.00091706313069582263 0 -0.0031933533561270457 0.00090678321181457931 0 -0.0031521806467527868 0.00089774683425032642 0 -0.0031947960924556752 0.00090110437356161329 0 -0.0031933533561270457 0.00090678321181457931 0 -0.0031846398722529578 0.00091144990681089433 0 -0.0031933533561270457 0.00090678321181457931 0 -0.0031846398722529578 0.00091144990681089433 0 -0.0031957020095715123 0.00088268207249830237 0 -0.0031933533561270457 0.00090678321181457931 0 -0.0031957020095715123 0.00088268207249830237 0 -0.003177468703285803 0.0008668142107389026 0 -0.0031933533561270457 0.00090678321181457931 0 -0.003177468703285803 0.0008668142107389026 0 -0.0031521806467527868 0.00089774683425032642 0 -0.0031643419315582327 0.00091226813435885904 0 -0.0031598844589416763 0.00092540092479780902 0 -0.003184833527528871 0.00091536135367961365 0 -0.003181686088881541 0.00093267525671066336 0 -0.0031598844589416763 0.00092540092479780902 0 -0.003184833527528871 0.00091536135367961365 0 -0.0031643419315582327 0.00091226813435885904 0 -0.0031846398722529578 0.00091144990681089433 0 -0.003184833527528871 0.00091536135367961365 0 -0.0031846398722529578 0.00091144990681089433 0 -0.003184833527528871 0.00091536135367961365 0 -0.0031957020095715123 0.00088268207249830237 0 -0.0032088495125138735 0.00091266732890433555 0 -0.003184833527528871 0.00091536135367961365 0 -0.0032122348208960738 0.00088540641760543259 0 -0.003184833527528871 0.00091536135367961365 0 -0.0032122348208960738 0.00088540641760543259 0 -0.0031957020095715123 0.00088268207249830237 0 -0.0032122348208960738 0.00088540641760543259 0 -0.0031957020095715123 0.00088268207249830237 0 -0.0032197891764175952 0.00083561626516820712 0 -0.0031957020095715123 0.00088268207249830237 0 -0.0032197891764175952 0.00083561626516820712 0 -0.0031979141486412495 0.00082278544331556463 0 -0.0032197891764175952 0.00083561626516820712 0 -0.0032523672994121768 0.00078445681501781723 0 -0.003252529461661156 0.00084725953125280851 0 -0.0032122348208960738 0.00088540641760543259 0 -0.0032197891764175952 0.00083561626516820712 0 -0.003252529461661156 0.00084725953125280851 0 -0.0031957020095715123 0.00088268207249830237 0 -0.003177468703285803 0.0008668142107389026 0 -0.0031979141486412495 0.00082278544331556463 0 -0.003177468703285803 0.0008668142107389026 0 -0.0031979141486412495 0.00082278544331556463 0 -0.0031385552767165172 0.00080980109236578773 0 -0.0032030293825451271 0.00075060810560353638 0 -0.0031385552767165172 0.00080980109236578773 0 -0.0032241399580086585 0.00065487892177118511 0 -0.0032539015145569973 0.00050971086165060354 0 -0.0032179900606062327 0.00066516347481391071 0 -0.0031979141486412495 0.00082278544331556463 0 -0.0032030293825451271 0.00075060810560353638 0 -0.0031385552767165172 0.00080980109236578773 0 -0.0031979141486412495 0.00082278544331556463 0 -0.0032030293825451271 0.00075060810560353638 0 -0.0032225877670424845 0.00077162022765766322 0 -0.0032030293825451271 0.00075060810560353638 0 -0.0032183197470368298 0.00071207705211432466 0 -0.0032241399580086585 0.00065487892177118511 0 -0.0032197891764175952 0.00083561626516820712 0 -0.0032225877670424845 0.00077162022765766322 0 -0.0032523672994121768 0.00078445681501781723 0 -0.0032197891764175952 0.00083561626516820712 0 -0.0031979141486412495 0.00082278544331556463 0 -0.0032225877670424845 0.00077162022765766322 0 -0.0032225877670424845 0.00077162022765766322 0 -0.0032183197470368298 0.00071207705211432466 0 -0.0032436153444565445 0.0007208202142777307 0 -0.0032030293825451271 0.00075060810560353638 0 -0.0032225877670424845 0.00077162022765766322 0 -0.0032183197470368298 0.00071207705211432466 0 -0.0032225877670424845 0.00077162022765766322 0 -0.0032436153444565445 0.0007208202142777307 0 -0.0032523672994121768 0.00078445681501781723 0 -0.0032523672994121768 0.00078445681501781723 0 -0.0032943505703097679 0.00080276802864393156 0 -0.0032992800385535999 0.00071811764608513103 0 -0.0032436153444565445 0.0007208202142777307 0 -0.0032523672994121768 0.00078445681501781723 0 -0.0032992800385535999 0.00071811764608513103 0 -0.0032523672994121768 0.00078445681501781723 0 -0.0032943505703097679 0.00080276802864393156 0 -0.003252529461661156 0.00084725953125280851 0 -0.0032943505703097679 0.00080276802864393156 0 -0.0033615941638391674 0.00079098481276765624 0 -0.0033117907541363994 0.00086458550979108019 0 -0.0032943505703097679 0.00080276802864393156 0 -0.0032992800385535999 0.00071811764608513103 0 -0.0033615941638391674 0.00079098481276765624 0 -0.0032992800385535999 0.00071811764608513103 0 -0.0034397437295182222 0.00070300875202149019 0 -0.0033615941638391674 0.00079098481276765624 0 -0.0034397437295182222 0.00070300875202149019 0 -0.003429214129785643 0.00084326188462536579 0 -0.0035435403900382022 0.00078854050269752413 0 -0.0034397437295182222 0.00070300875202149019 0 -0.003429214129785643 0.00084326188462536579 0 -0.0033615941638391674 0.00079098481276765624 0 -0.003429214129785643 0.00084326188462536579 0 -0.0033615941638391674 0.00079098481276765624 0 -0.0033117907541363994 0.00086458550979108019 0 -0.003429214129785643 0.00084326188462536579 0 -0.0033117907541363994 0.00086458550979108019 0 -0.0033544783752924635 0.00092866390102696011 0 -0.003429214129785643 0.00084326188462536579 0 -0.0033544783752924635 0.00092866390102696011 0 -0.0034509944297373444 0.00093066028180927409 0 -0.0033377837937161579 0.0009678191141746299 0 -0.0033544783752924635 0.00092866390102696011 0 -0.003410367713116575 0.00095443604677002635 0 -0.0033544783752924635 0.00092866390102696011 0 -0.003410367713116575 0.00095443604677002635 0 -0.0034509944297373444 0.00093066028180927409 0 -0.0032874721096176071 0.00094210935328681918 0 -0.0033544783752924635 0.00092866390102696011 0 -0.0032844857764788623 0.00091507806445426413 0 -0.0033117907541363994 0.00086458550979108019 0 -0.0033544783752924635 0.00092866390102696011 0 -0.0032844857764788623 0.00091507806445426413 0 -0.0032315889594882676 0.00093418983006976334 0 -0.0032844857764788623 0.00091507806445426413 0 -0.003246573295766273 0.00089661605939809683 0 -0.0033117907541363994 0.00086458550979108019 0 -0.0032844857764788623 0.00091507806445426413 0 -0.003246573295766273 0.00089661605939809683 0 -0.0032122348208960738 0.00088540641760543259 0 -0.003246573295766273 0.00089661605939809683 0 -0.003252529461661156 0.00084725953125280851 0 -0.0032088495125138735 0.00091266732890433555 0 -0.0032122348208960738 0.00088540641760543259 0 -0.003246573295766273 0.00089661605939809683 0 -0.0032943505703097679 0.00080276802864393156 0 -0.0033117907541363994 0.00086458550979108019 0 -0.003252529461661156 0.00084725953125280851 0 -0.0033117907541363994 0.00086458550979108019 0 -0.003246573295766273 0.00089661605939809683 0 -0.003252529461661156 0.00084725953125280851 0 -0.0049429435874172971 -0.00022120464165706246 0 -0.0049366155864536011 -0.00021557907287977289 0 -0.0049399166724262717 -0.00022148040927557244 0 -0.004937792405125551 -0.00021623269259973184 0 -0.0049429435874172971 -0.00022120464165706246 0 -0.0049366155864536011 -0.00021557907287977289 0 -0.004937792405125551 -0.00021623269259973184 0 -0.0049316533209479638 -0.00020896448878205559 0 -0.0049366155864536011 -0.00021557907287977289 0 -0.0038725440129118945 7.3521945212262358e-05 0 -0.0042314242037171414 0.000260843103568052 0 -0.0034786512408046416 0.00071088952579367198 0 -0.0035113078329133815 0.00070281331473175015 0 -0.0034773566601101744 0.00073495730516411626 0 -0.0034773566601101744 0.00073495730516411626 0 -0.003429769001460387 0.00073993497059243534 0 -0.0034396590548018886 0.00072605969383949631 0 -0.0034535826672230296 0.0007083560911141279 0 -0.0034786512408046416 0.00071088952579367198 0 -0.0034396590548018886 0.00072605969383949631 0 -0.0034786512408046416 0.00071088952579367198 0 -0.0034773566601101744 0.00073495730516411626 0 -0.0034396590548018886 0.00072605969383949631 0 -0.0034773566601101744 0.00073495730516411626 0 -0.0034478867885762128 0.00075114642542077864 0 -0.003429769001460387 0.00073993497059243534 0 -0.0049366155864536011 -0.00021557907287977289 0 -0.0049325448987554031 -0.00022054334407587656 0 -0.0049399166724262717 -0.00022148040927557244 0 -0.0042314242037171414 0.000260843103568052 0 -0.0042209117076497668 0.00025657540486085148 0 -0.0034297995060373712 0.00074992691179396709 0 -0.003429769001460387 0.00073993497059243534 0 -0.0034157853817760059 0.00074783823424262119 0 -0.0034478867885762128 0.00075114642542077864 0 -0.0034297995060373712 0.00074992691179396709 0 -0.003429769001460387 0.00073993497059243534 0 -0.0033945577531720897 0.00072490183694299984 0 -0.0034167022759561102 0.00072877580712895219 0 -0.0034145582317581858 0.00073404627132244858 0 -0.003429769001460387 0.00073993497059243534 0 -0.0034396590548018886 0.00072605969383949631 0 -0.0034167022759561102 0.00072877580712895219 0 -0.0034250509090378912 0.00070333474881389729 0 -0.0034396590548018886 0.00072605969383949631 0 -0.0034167022759561102 0.00072877580712895219 0 -0.003429769001460387 0.00073993497059243534 0 -0.0034167022759561102 0.00072877580712895219 0 -0.0034145582317581858 0.00073404627132244858 0 -0.0033985554394734625 0.00072123474238365624 0 -0.0033691472499507574 0.00083419516562807487 0 -0.0033164666944030022 0.00076682821727514297 0 -0.0032358098691188122 0.0008387090368061344 0 -0.0033442741997892836 0.00087414127142944472 0 -0.0032358098691188122 0.0008387090368061344 0 -0.0032172671486268892 0.00091706313069582263 0 -0.0033442741997892836 0.00087414127142944472 0 -0.0032669262502761269 0.00092587429890921252 0 -0.0033418551034611913 0.00067227031418449872 0 -0.003429769001460387 0.00073993497059243534 0 -0.0034145582317581858 0.00073404627132244858 0 -0.0034157853817760059 0.00074783823424262119 0 -0.0033691472499507574 0.00083419516562807487 0 -0.0033418551034611913 0.00067227031418449872 0 -0.0032172671486268892 0.00091706313069582263 0 -0.0033442741997892836 0.00087414127142944472 0 -0.0032954275712374559 0.0010111042412759496 0 -0.0033418551034611913 0.00067227031418449872 0 -0.0038322374814064061 0.00017202536874305992 0 -0.0034297995060373712 0.00074992691179396709 0 -0.0034157853817760059 0.00074783823424262119 0 -0.0034317164484113302 0.00075902018040309774 0 -0.003177468703285803 0.0008668142107389026 0 -0.0031521806467527868 0.00089774683425032642 0 -0.0031385552767165172 0.00080980109236578773 0 -0.0034468671259756528 -1.4901696876093258e-05 0 -0.0034850850007411001 0.00018533931610206796 0 -0.0033480470463139369 0.0002904956855612209 0 -0.0034468671259756528 -1.4901696876093258e-05 0 -0.0034850850007411001 0.00018533931610206796 0 -0.0036613352820394495 0.00024176840331593515 0 -0.0033418551034611913 0.00067227031418449872 0 -0.0032539015145569973 0.00050971086165060354 0 -0.0034850850007411001 0.00018533931610206796 0 -0.0033480470463139369 0.0002904956855612209 0 -0.0034500148970542624 0.00048399824803190325 0 -0.0034850850007411001 0.00018533931610206796 0 -0.0034500148970542624 0.00048399824803190325 0 -0.0036613352820394495 0.00024176840331593515 0 -0.0033480470463139369 0.0002904956855612209 0 -0.0034500148970542624 0.00048399824803190325 0 -0.0032241399580086585 0.00065487892177118511 0 -0.0034500148970542624 0.00048399824803190325 0 -0.0037224330900229819 0.00025899764265159629 0 -0.0037182238065030324 0.00051552856552637672 0 -0.0034500148970542624 0.00048399824803190325 0 -0.0037224330900229819 0.00025899764265159629 0 -0.003736444655083208 0.00014007609016682587 0 -0.0034378616654248727 0.0004797238919899218 0 -0.0038322374814064061 0.00017202536874305992 0 -0.0037182238065030324 0.00051552856552637672 0 -0.0039075778914801507 0.00034635880000227965 0 -0.0042012490331809395 0.00068237034888773507 0 -0.0037224330900229819 0.00025899764265159629 0 -0.0037182238065030324 0.00051552856552637672 0 -0.0039075778914801507 0.00034635880000227965 0 -0.0037224330900229819 0.00025899764265159629 0 -0.0039241044079057295 0.0003578803342141623 0 -0.003736444655083208 0.00014007609016682587 0 -0.0044157650301814766 3.8891927886142776e-05 0 -0.0038322374814064061 0.00017202536874305992 0 -0.0038601013138289723 8.2485455168666478e-05 0 -0.0044157650301814766 3.8891927886142776e-05 0 -0.0049271136692333965 -0.00021241110938936174 0 -0.0049186704292955375 -0.00021621300070679168 0 -0.0049326112919231887 -0.0002186200423206511 0 -0.0049325448987554031 -0.00022054334407587656 0 -0.0049186704292955375 -0.00021621300070679168 0 -0.0049326112919231887 -0.0002186200423206511 0 -0.0034478867885762128 0.00075114642542077864 0 -0.0034297995060373712 0.00074992691179396709 0 -0.0034317164484113302 0.00075902018040309774 0 -0.0042209117076497668 0.00025657540486085148 0 -0.0038322374814064061 0.00017202536874305992 0 -0.0049325448987554031 -0.00022054334407587656 0 -0.0049399166724262717 -0.00022148040927557244 0 -0.0049326112919231887 -0.0002186200423206511 0 -0.0049399166724262717 -0.00022148040927557244 0 -0.0049326112919231887 -0.0002186200423206511 0 -0.0049413131246805221 -0.00021955689117421115 0 -0.0049271136692333965 -0.00021241110938936174 0 -0.0049413131246805221 -0.00021955689117421115 0 -0.0049538734967192492 -0.00021493229729224048 0 -0.0049271136692333965 -0.00021241110938936174 0 -0.0049326112919231887 -0.0002186200423206511 0 -0.0049413131246805221 -0.00021955689117421115 0 -0.0044157650301814766 3.8891927886142776e-05 0 -0.005528408378641758 -0.00045967254903661944 0 -0.0044157650301814766 3.8891927886142776e-05 0 -0.0056249361327525864 -0.00052028162953604378 0 -0.0049413131246805221 -0.00021955689117421115 0 -0.0049519879722644379 -0.00022206109110825458 0 -0.0049538734967192492 -0.00021493229729224048 0 -0.0049413131246805221 -0.00021955689117421115 0 -0.0049519879722644379 -0.00022206109110825458 0 -0.0049486738519544217 -0.00022320109928495414 0 -0.0049519879722644379 -0.00022206109110825458 0 -0.0049616816011690606 -0.00022498022832959663 0 -0.0049564156457767841 -0.00022505835265364461 0 -0.0049519879722644379 -0.00022206109110825458 0 -0.0049616816011690606 -0.00022498022832959663 0 -0.0049538734967192492 -0.00021493229729224048 0 -0.0049519879722644379 -0.00022206109110825458 0 -0.0049564156457767841 -0.00022505835265364461 0 -0.0049486738519544217 -0.00022320109928495414 0 -0.0049541536525439306 -0.00022505022981334058 0 -0.0049564156457767841 -0.00022505835265364461 0 -0.0049486738519544217 -0.00022320109928495414 0 -0.0049541536525439306 -0.00022505022981334058 0 -0.0049500822602449633 -0.00022378967766327666 0 -0.0049486738519544217 -0.00022320109928495414 0 -0.0049399166724262717 -0.00022148040927557244 0 -0.0049413131246805221 -0.00021955689117421115 0 -0.0049486738519544217 -0.00022320109928495414 0 -0.0049429435874172971 -0.00022120464165706246 0 -0.0049399166724262717 -0.00022148040927557244 0 -0.0049486738519544217 -0.00022320109928495414 0 -0.0049458353415975089 -0.00022199721064449865 0 -0.0049500822602449633 -0.00022378967766327666 0 -0.0049429435874172971 -0.00022120464165706246 0 -0.0049500822602449633 -0.00022378967766327666 0 -0.0049429435874172971 -0.00022120464165706246 0 -0.0049486738519544217 -0.00022320109928495414 0 -0.0065490207568813961 -0.0013772615736530804 0 -0.0065310059960971877 -0.001430688571150101 0 -0.0064464897318456428 -0.0014570027915356211 0 -0.0065490207568813961 -0.0013772615736530804 0 -0.0065702237583079477 -0.0013088347125081226 0 -0.0065736567654961168 -0.0013562422003116437 0 -0.0065490207568813961 -0.0013772615736530804 0 -0.0065736567654961168 -0.0013562422003116437 0 -0.0065874695119714248 -0.001418657664017175 0 -0.0067725990207556366 -0.0016237878626220745 0 -0.0056249361327525864 -0.00052028162953604378 0 -0.0065641951089370825 -0.001406210805150613 0 -0.0065490207568813961 -0.0013772615736530804 0 -0.0065310059960971877 -0.001430688571150101 0 -0.0065801043734404086 -0.0014446100640643951 0 -0.0065310059960971877 -0.001430688571150101 0 -0.0065106445318089852 -0.0014717817298737961 0 -0.0057606702055382529 -0.0008590172059613039 0 -0.005528408378641758 -0.00045967254903661944 0 -0.0065310059960971877 -0.001430688571150101 0 -0.0065106445318089852 -0.0014717817298737961 0 -0.0064464897318456428 -0.0014570027915356211 0 -0.0049732113188021669 -0.00023251709138023781 0 -0.0049616816011690606 -0.00022498022832959663 0 -0.0049538734967192492 -0.00021493229729224048 0 -0.004813259617750843 -0.0002191930648889188 0 -0.005528408378641758 -0.00045967254903661944 0 -0.005528408378641758 -0.00045967254903661944 0 -0.0056249361327525864 -0.00052028162953604378 0 -0.0048712067789158211 -0.0004492410290858408 0 -0.005441006187553196 -0.00016493570812779713 0 -0.0051521705842100347 -0.0001142530788712044 0 -0.0065702237583079477 -0.0013088347125081226 0 -0.0065986240362996534 -0.0013336967176242076 0 -0.0065736567654961168 -0.0013562422003116437 0 -0.0065736567654961168 -0.0013562422003116437 0 -0.006610297108065287 -0.0013599465906756866 0 -0.0065874695119714248 -0.001418657664017175 0 -0.0065986240362996534 -0.0013336967176242076 0 -0.0065736567654961168 -0.0013562422003116437 0 -0.006610297108065287 -0.0013599465906756866 0 -0.0066323212321526487 -0.0013912659761412111 0 -0.006610297108065287 -0.0013599465906756866 0 -0.0066721769945132471 -0.0013569799036174236 0 -0.006610297108065287 -0.0013599465906756866 0 -0.0066478166426958271 -0.0013048168608253484 0 -0.0066721769945132471 -0.0013569799036174236 0 -0.0065986240362996534 -0.0013336967176242076 0 -0.006610297108065287 -0.0013599465906756866 0 -0.0066478166426958271 -0.0013048168608253484 0 -0.0066323212321526487 -0.0013912659761412111 0 -0.0066721769945132471 -0.0013569799036174236 0 -0.0066797683311408925 -0.0013922988188742578 0 -0.0065702237583079477 -0.0013088347125081226 0 -0.0065986240362996534 -0.0013336967176242076 0 -0.0066478166426958271 -0.0013048168608253484 0 -0.0037182238065030324 0.00051552856552637672 0 -0.0042012490331809395 0.00068237034888773507 0 -0.0036480885013158307 0.00076596812999113971 0 -0.0056249361327525864 -0.00052028162953604378 0 -0.0050970850430129859 -0.00024820597163005093 0 -0.0036480885013158307 0.00076596812999113971 0 -0.0032241399580086585 0.00065487892177118511 0 -0.0032142877531821947 0.00073782306782689078 0 -0.0050970850430129859 -0.00024820597163005093 0 -0.0050149039350389502 -0.00029537895089891864 0 -0.0034500148970542624 0.00048399824803190325 0 -0.0036480885013158307 0.00076596812999113971 0 -0.0032241399580086585 0.00065487892177118511 0 -0.0034500148970542624 0.00048399824803190325 0 -0.0037182238065030324 0.00051552856552637672 0 -0.0036480885013158307 0.00076596812999113971 0 -0.0066721769945132471 -0.0013569799036174236 0 -0.0067274738261440311 -0.0013724796135228124 0 -0.0067637347593851411 -0.0013102446348231683 0 -0.0066478166426958271 -0.0013048168608253484 0 -0.0066721769945132471 -0.0013569799036174236 0 -0.0067637347593851411 -0.0013102446348231683 0 -0.0066721769945132471 -0.0013569799036174236 0 -0.0066797683311408925 -0.0013922988188742578 0 -0.0067274738261440311 -0.0013724796135228124 0 -0.0067100995292907915 -0.0014295615556472461 0 -0.0066783873378496476 -0.0014782089830953579 0 -0.0067555415184799277 -0.0014656530017390758 0 -0.0067274738261440311 -0.0013724796135228124 0 -0.0067100995292907915 -0.0014295615556472461 0 -0.0067673158162943857 -0.0014155995176150819 0 -0.0066797683311408925 -0.0013922988188742578 0 -0.0067274738261440311 -0.0013724796135228124 0 -0.0067100995292907915 -0.0014295615556472461 0 -0.0066797683311408925 -0.0013922988188742578 0 -0.0067100995292907915 -0.0014295615556472461 0 -0.0066545839507119878 -0.0014232085776829067 0 -0.0067100995292907915 -0.0014295615556472461 0 -0.0066783873378496476 -0.0014782089830953579 0 -0.0066545839507119878 -0.0014232085776829067 0 -0.0080334987485685787 -0.0018534248390665651 0 -0.0082883297589891377 -0.0021078819285511941 0 -0.0075375988124808139 -0.0019029940137181779 0 -0.0074799088637428198 -0.0017924659641429216 0 -0.0071811805047170508 -0.0017136752207577656 0 -0.0081914724572211082 -0.0017000233145114813 0 -0.0080334987485685787 -0.0018534248390665651 0 -0.0083589668215406105 -0.0019208288172206393 0 -0.0080334987485685787 -0.0018534248390665651 0 -0.0083589668215406105 -0.0019208288172206393 0 -0.0082883297589891377 -0.0021078819285511941 0 -0.0081914724572211082 -0.0017000233145114813 0 -0.008459448885040766 -0.0016327698158074249 0 -0.0083589668215406105 -0.0019208288172206393 0 -0.0083589668215406105 -0.0019208288172206393 0 -0.0082883297589891377 -0.0021078819285511941 0 -0.0086397577196574756 -0.0018870650903986988 0 -0.0087523572725680329 -0.0016069936951773188 0 -0.0083589668215406105 -0.0019208288172206393 0 -0.0086397577196574756 -0.0018870650903986988 0 -0.0082883297589891377 -0.0021078819285511941 0 -0.0086397577196574756 -0.0018870650903986988 0 -0.0088133971103757387 -0.0022129100639380092 0 -0.0066323212321526487 -0.0013912659761412111 0 -0.006610297108065287 -0.0013599465906756866 0 -0.0065874695119714248 -0.001418657664017175 0 -0.0074799088637428198 -0.0017924659641429216 0 -0.0076989662874157845 -0.0018097442956266853 0 -0.0066323212321526487 -0.0013912659761412111 0 -0.0066545839507119878 -0.0014232085776829067 0 -0.0065874695119714248 -0.001418657664017175 0 -0.0066783873378496476 -0.0014782089830953579 0 -0.0066545839507119878 -0.0014232085776829067 0 -0.0065874695119714248 -0.001418657664017175 0 -0.0066323212321526487 -0.0013912659761412111 0 -0.0066797683311408925 -0.0013922988188742578 0 -0.0066545839507119878 -0.0014232085776829067 0 -0.0088133971103757387 -0.0022129100639380092 0 -0.0089073839742690904 -0.001894980114793831 0 -0.0091176481291455544 -0.0021274081326027507 0 -0.0086397577196574756 -0.0018870650903986988 0 -0.0088133971103757387 -0.0022129100639380092 0 -0.0089073839742690904 -0.001894980114793831 0 -0.0088017090311851079 -0.0017800538931560782 0 -0.0086397577196574756 -0.0018870650903986988 0 -0.0089073839742690904 -0.001894980114793831 0 -0.0089062763250703676 -0.0017290305577427095 0 -0.0090645413756612839 -0.0017751009442822387 0 -0.0089073839742690904 -0.001894980114793831 0 -0.0088017090311851079 -0.0017800538931560782 0 -0.0089062763250703676 -0.0017290305577427095 0 -0.0089073839742690904 -0.001894980114793831 0 -0.0089073839742690904 -0.001894980114793831 0 -0.0091209804154246694 -0.0019174434488261245 0 -0.0091176481291455544 -0.0021274081326027507 0 -0.0090645413756612839 -0.0017751009442822387 0 -0.0091209804154246694 -0.0019174434488261245 0 -0.0092641060049857542 -0.0018141223179157047 0 -0.0090645413756612839 -0.0017751009442822387 0 -0.0089073839742690904 -0.001894980114793831 0 -0.0091209804154246694 -0.0019174434488261245 0 -0.0093613997979003893 -0.001914204488572407 0 -0.0092641060049857542 -0.0018141223179157047 0 -0.0092515599675167051 -0.0019738296407126729 0 -0.0091209804154246694 -0.0019174434488261245 0 -0.0092641060049857542 -0.0018141223179157047 0 -0.0092515599675167051 -0.0019738296407126729 0 -0.009409329556611298 -0.0020676928284772138 0 -0.0092515599675167051 -0.0019738296407126729 0 -0.0091176481291455544 -0.0021274081326027507 0 -0.0091209804154246694 -0.0019174434488261245 0 -0.0092515599675167051 -0.0019738296407126729 0 -0.0091176481291455544 -0.0021274081326027507 0 -0.0093233312513086967 -0.0023449686998029185 0 -0.0088133971103757387 -0.0022129100639380092 0 -0.0091176481291455544 -0.0021274081326027507 0 -0.009409329556611298 -0.0020676928284772138 0 -0.0093233312513086967 -0.0023449686998029185 0 -0.0091176481291455544 -0.0021274081326027507 0 -0.0065535945130205595 -0.0013740884333962016 0 -0.0065490207568813961 -0.0013772615736530804 0 -0.0065874695119714248 -0.001418657664017175 0 -0.007942123500779703 -0.001918251279572685 0 -0.0076989662874157845 -0.0018097442956266853 0 -0.0050859190391182715 -0.00037651863317236957 0 -0.005234150336062786 -0.00045904987330074124 0 -0.006901563278505528 -0.0013451223913463221 0 -0.0068937799095533294 -0.0014434897113962881 0 -0.0069666892270575523 -0.0014383530051331641 0 -0.006901563278505528 -0.0013451223913463221 0 -0.0069972058269808504 -0.0013957205503690147 0 -0.0069666892270575523 -0.0014383530051331641 0 -0.0032992800385535999 0.00071811764608513103 0 -0.0034397437295182222 0.00070300875202149019 0 -0.0034696635050321103 0.00047715424051004063 0 -0.0034397437295182222 0.00070300875202149019 0 -0.0034696635050321103 0.00047715424051004063 0 -0.0035985179745499241 0.00062338350728130564 0 -0.0032436153444565445 0.0007208202142777307 0 -0.0032992800385535999 0.00071811764608513103 0 -0.0032657182006923247 0.00058774215998764221 0 -0.0032992800385535999 0.00071811764608513103 0 -0.0032657182006923247 0.00058774215998764221 0 -0.0034696635050321103 0.00047715424051004063 0 -0.0032436153444565445 0.0007208202142777307 0 -0.0032657182006923247 0.00058774215998764221 0 -0.0032190656292643001 0.00068905528715622008 0 -0.0032657182006923247 0.00058774215998764221 0 -0.0032190656292643001 0.00068905528715622008 0 -0.0032142877531821947 0.00073782306782689078 0 -0.0032183197470368298 0.00071207705211432466 0 -0.0032436153444565445 0.0007208202142777307 0 -0.0032190656292643001 0.00068905528715622008 0 -0.0032183197470368298 0.00071207705211432466 0 -0.0032190656292643001 0.00068905528715622008 0 -0.0032241399580086585 0.00065487892177118511 0 -0.0032190656292643001 0.00068905528715622008 0 -0.0032241399580086585 0.00065487892177118511 0 -0.0032142877531821947 0.00073782306782689078 0 -0.0067274738261440311 -0.0013724796135228124 0 -0.0067637347593851411 -0.0013102446348231683 0 -0.0067723288133662999 -0.0013658585885137212 0 -0.0067637347593851411 -0.0013102446348231683 0 -0.0067723288133662999 -0.0013658585885137212 0 -0.0068258560365292726 -0.0013796901696555737 0 -0.0067723288133662999 -0.0013658585885137212 0 -0.0068258560365292726 -0.0013796901696555737 0 -0.0067673158162943857 -0.0014155995176150819 0 -0.0067274738261440311 -0.0013724796135228124 0 -0.0067723288133662999 -0.0013658585885137212 0 -0.0067673158162943857 -0.0014155995176150819 0 -0.006901563278505528 -0.0013451223913463221 0 -0.0067637347593851411 -0.0013102446348231683 0 -0.0068258560365292726 -0.0013796901696555737 0 -0.006901563278505528 -0.0013451223913463221 0 -0.0068258560365292726 -0.0013796901696555737 0 -0.0068937799095533294 -0.0014434897113962881 0 -0.0050859190391182715 -0.00037651863317236957 0 -0.0050149039350389502 -0.00029537895089891864 0 -0.0068258560365292726 -0.0013796901696555737 0 -0.0068937799095533294 -0.0014434897113962881 0 -0.0068229622498323121 -0.0014613117628254656 0 -0.0068937799095533294 -0.0014434897113962881 0 -0.0068229622498323121 -0.0014613117628254656 0 -0.0069030935234981883 -0.0015032496979783901 0 -0.0068937799095533294 -0.0014434897113962881 0 -0.0069030935234981883 -0.0015032496979783901 0 -0.0069749022961179607 -0.0015017169506654838 0 -0.0068258560365292726 -0.0013796901696555737 0 -0.0067673158162943857 -0.0014155995176150819 0 -0.0068229622498323121 -0.0014613117628254656 0 -0.0067100995292907915 -0.0014295615556472461 0 -0.0067673158162943857 -0.0014155995176150819 0 -0.0067555415184799277 -0.0014656530017390758 0 -0.0067673158162943857 -0.0014155995176150819 0 -0.0068229622498323121 -0.0014613117628254656 0 -0.0067555415184799277 -0.0014656530017390758 0 -0.0078390522233037583 -0.0016880005050319863 0 -0.0080334987485685787 -0.0018534248390665651 0 -0.0075375988124808139 -0.0019029940137181779 0 -0.0066783873378496476 -0.0014782089830953579 0 -0.0067555415184799277 -0.0014656530017390758 0 -0.0068081115700538535 -0.0015437642906417348 0 -0.0068229622498323121 -0.0014613117628254656 0 -0.0067555415184799277 -0.0014656530017390758 0 -0.0068081115700538535 -0.0015437642906417348 0 -0.0070262748231353419 -0.0016081113791894548 0 -0.0071811805047170508 -0.0017136752207577656 0 -0.0070157101706889323 -0.0015862887379836945 0 -0.0068081115700538535 -0.0015437642906417348 0 -0.0069030935234981883 -0.0015032496979783901 0 -0.0068229622498323121 -0.0014613117628254656 0 -0.0068081115700538535 -0.0015437642906417348 0 -0.0069030935234981883 -0.0015032496979783901 0 -0.0070157101706889323 -0.0015862887379836945 0 -0.0069749022961179607 -0.0015017169506654838 0 -0.007014884405580765 -0.0015392987222089701 0 -0.0070157101706889323 -0.0015862887379836945 0 -0.0069030935234981883 -0.0015032496979783901 0 -0.0069749022961179607 -0.0015017169506654838 0 -0.0069749022961179607 -0.0015017169506654838 0 -0.0069666892270575523 -0.0014383530051331641 0 -0.0070136044200818995 -0.001486975433691729 0 -0.0068937799095533294 -0.0014434897113962881 0 -0.0069749022961179607 -0.0015017169506654838 0 -0.0069666892270575523 -0.0014383530051331641 0 -0.0069972058269808504 -0.0013957205503690147 0 -0.0069666892270575523 -0.0014383530051331641 0 -0.0070136044200818995 -0.001486975433691729 0 -0.0070259334412267485 -0.001524634239151806 0 -0.0070136044200818995 -0.001486975433691729 0 -0.007014884405580765 -0.0015392987222089701 0 -0.0069749022961179607 -0.0015017169506654838 0 -0.0070136044200818995 -0.001486975433691729 0 -0.007014884405580765 -0.0015392987222089701 0 -0.0070259334412267485 -0.001524634239151806 0 -0.0070575409111607807 -0.0015146748660369892 0 -0.0070400856562490028 -0.0014681672508966496 0 -0.0070259334412267485 -0.001524634239151806 0 -0.0070136044200818995 -0.001486975433691729 0 -0.0070400856562490028 -0.0014681672508966496 0 -0.0070575409111607807 -0.0015146748660369892 0 -0.0070724471632436416 -0.0014781073997620715 0 -0.0070400856562490028 -0.0014681672508966496 0 -0.0070651664094012693 -0.0012906746787899554 0 -0.00539505230781863 -0.0004760984611619431 0 -0.0066585235027921182 -0.00081248235240522295 0 -0.0064522607138339794 -0.00042631355979844213 0 -0.0069368554386449273 -0.00051149557636166168 0 -0.0070724471632436416 -0.0014781073997620715 0 -0.0070400856562490028 -0.0014681672508966496 0 -0.0070452743802145697 -0.0014173711751673554 0 -0.0069972058269808504 -0.0013957205503690147 0 -0.0070136044200818995 -0.001486975433691729 0 -0.0070400856562490028 -0.0014681672508966496 0 -0.0069972058269808504 -0.0013957205503690147 0 -0.0070400856562490028 -0.0014681672508966496 0 -0.0070452743802145697 -0.0014173711751673554 0 -0.00539505230781863 -0.0004760984611619431 0 -0.0031900978051811091 0.00088662101041528396 0 -0.0034696635050321103 0.00047715424051004063 0 -0.0037280796899993572 0.00040884065827949542 0 -0.0035985179745499241 0.00062338350728130564 0 -0.005234150336062786 -0.00045904987330074124 0 -0.00539505230781863 -0.0004760984611619431 0 -0.0039550031036227149 -0.00038191105604541193 0 -0.0046540622471063229 7.2349964541424617e-05 0 -0.0040954907101717801 0.00046207630560514363 0 -0.0046540622471063229 7.2349964541424617e-05 0 -0.0040954907101717801 0.00046207630560514363 0 -0.0043745017669663622 0.00065416909254060356 0 -0.0040954907101717801 0.00046207630560514363 0 -0.0043745017669663622 0.00065416909254060356 0 -0.0042361888746131624 0.00076410753959474951 0 -0.0043745017669663622 0.00065416909254060356 0 -0.0042361888746131624 0.00076410753959474951 0 -0.0043662197093524294 0.00082742496963580253 0 -0.0040954907101717801 0.00046207630560514363 0 -0.0042361888746131624 0.00076410753959474951 0 -0.0039096269421896521 0.0006898928534121078 0 -0.0039550031036227149 -0.00038191105604541193 0 -0.0040954907101717801 0.00046207630560514363 0 -0.0035985179745499241 0.00062338350728130564 0 -0.0040954907101717801 0.00046207630560514363 0 -0.0039096269421896521 0.0006898928534121078 0 -0.0035985179745499241 0.00062338350728130564 0 -0.0058917969381173281 0.0010909884862425226 0 -0.0053482904072893666 0.00022054425026152931 0 -0.0065031264754908643 0.00013907979800116205 0 -0.0058917969381173281 0.0010909884862425226 0 -0.0065031264754908643 0.00013907979800116205 0 -0.0070545567653615051 0.00063233805357904179 0 -0.0044627030346045572 0.00068091451949415843 0 -0.0052422155894986406 0.00094020643131868646 0 -0.0043745017669663622 0.00065416909254060356 0 -0.0058917969381173281 0.0010909884862425226 0 -0.0053482904072893666 0.00022054425026152931 0 -0.0043745017669663622 0.00065416909254060356 0 -0.0047295242643855262 0.00075195026228254826 0 -0.0045122532616182426 0.00087096014195380477 0 -0.0046540622471063229 7.2349964541424617e-05 0 -0.0043745017669663622 0.00065416909254060356 0 -0.0053482904072893666 0.00022054425026152931 0 -0.0046540622471063229 7.2349964541424617e-05 0 -0.0053482904072893666 0.00022054425026152931 0 -0.0055800899352784874 -0.00066549954876816855 0 -0.00539505230781863 -0.0004760984611619431 0 -0.0062179833093164195 -0.00055568560986908307 0 -0.0039550031036227149 -0.00038191105604541193 0 -0.0046540622471063229 7.2349964541424617e-05 0 -0.0055800899352784874 -0.00066549954876816855 0 -0.0065031264754908643 0.00013907979800116205 0 -0.0055800899352784874 -0.00066549954876816855 0 -0.007312045081096433 -0.00057032192831516393 0 -0.0053482904072893666 0.00022054425026152931 0 -0.0065031264754908643 0.00013907979800116205 0 -0.0055800899352784874 -0.00066549954876816855 0 -0.0069368554386449273 -0.00051149557636166168 0 -0.0071269497515720421 -0.00089429926405661553 0 -0.007312045081096433 -0.00057032192831516393 0 -0.0062179833093164195 -0.00055568560986908307 0 -0.0072573870181822818 -0.00059842952742580815 0 -0.0066585235027921182 -0.00081248235240522295 0 -0.0069368554386449273 -0.00051149557636166168 0 -0.0071269497515720421 -0.00089429926405661553 0 -0.0069536365901004876 -0.0013324911639858307 0 -0.0070651664094012693 -0.0012906746787899554 0 -0.0068659438165655194 -0.0012141071279372713 0 -0.0066585235027921182 -0.00081248235240522295 0 -0.0071269497515720421 -0.00089429926405661553 0 -0.0071269497515720421 -0.00089429926405661553 0 -0.0075667622589332328 -0.00088237897965482955 0 -0.007312045081096433 -0.00057032192831516393 0 -0.0074646983251750567 -0.0011915643798843696 0 -0.0071269497515720421 -0.00089429926405661553 0 -0.0075667622589332328 -0.00088237897965482955 0 -0.007312045081096433 -0.00057032192831516393 0 -0.0079841571804808425 -0.00065831647870594006 0 -0.0078776561689780471 -0.00016625595653354928 0 -0.0075667622589332328 -0.00088237897965482955 0 -0.007312045081096433 -0.00057032192831516393 0 -0.0079841571804808425 -0.00065831647870594006 0 -0.008763369540335221 -0.0008163498649134685 0 -0.0085578684899437329 -0.00092932007756729989 0 -0.0085054046693492473 -0.00066638501655883484 0 -0.0081796186123599506 -0.0010026867704649664 0 -0.0085578684899437329 -0.00092932007756729989 0 -0.0085054046693492473 -0.00066638501655883484 0 -0.0081796186123599506 -0.0010026867704649664 0 -0.0075667622589332328 -0.00088237897965482955 0 -0.0079841571804808425 -0.00065831647870594006 0 -0.0081796186123599506 -0.0010026867704649664 0 -0.0085054046693492473 -0.00066638501655883484 0 -0.0079841571804808425 -0.00065831647870594006 0 -0.0085054046693492473 -0.00066638501655883484 0 -0.0083077207837789456 -0.00029102050994518576 0 -0.0079841571804808425 -0.00065831647870594006 0 -0.0083077207837789456 -0.00029102050994518576 0 -0.0079841571804808425 -0.00065831647870594006 0 -0.0078776561689780471 -0.00016625595653354928 0 -0.0087741718447288293 -0.00031309259950772656 0 -0.0085054046693492473 -0.00066638501655883484 0 -0.0083077207837789456 -0.00029102050994518576 0 -0.0090574658611855124 -0.00011849091240413076 0 -0.008298228525504988 -0.00031348934014814524 0 -0.009015583587192455 -0.00033935422153561818 0 -0.0083077207837789456 -0.00029102050994518576 0 -0.0083875109657329059 0.00020068174911317476 0 -0.009015583587192455 -0.00033935422153561818 0 -0.0083875109657329059 0.00020068174911317476 0 -0.0088515447405345081 0.00045876155897227235 0 -0.0083077207837789456 -0.00029102050994518576 0 -0.0083875109657329059 0.00020068174911317476 0 -0.0078776561689780471 -0.00016625595653354928 0 -0.0083875109657329059 0.00020068174911317476 0 -0.0079351087475250711 0.00047040558040269083 0 -0.0078776561689780471 -0.00016625595653354928 0 -0.0083875109657329059 0.00020068174911317476 0 -0.0079351087475250711 0.00047040558040269083 0 -0.0084033196951893707 0.00078708759198145388 0 -0.0079351087475250711 0.00047040558040269083 0 -0.0084033196951893707 0.00078708759198145388 0 -0.0079543505138285186 0.0011367758638178866 0 -0.0083875109657329059 0.00020068174911317476 0 -0.0084033196951893707 0.00078708759198145388 0 -0.0088515447405345081 0.00045876155897227235 0 -0.0065031264754908643 0.00013907979800116205 0 -0.007312045081096433 -0.00057032192831516393 0 -0.0074123144330222575 0.00018283322619986283 0 -0.007312045081096433 -0.00057032192831516393 0 -0.0078776561689780471 -0.00016625595653354928 0 -0.0074123144330222575 0.00018283322619986283 0 -0.0079351087475250711 0.00047040558040269083 0 -0.0078776561689780471 -0.00016625595653354928 0 -0.0074123144330222575 0.00018283322619986283 0 -0.0079351087475250711 0.00047040558040269083 0 -0.0075570774060051433 0.00069747878132214833 0 -0.0079543505138285186 0.0011367758638178866 0 -0.0074123144330222575 0.00018283322619986283 0 -0.0075570774060051433 0.00069747878132214833 0 -0.0070545567653615051 0.00063233805357904179 0 -0.0079351087475250711 0.00047040558040269083 0 -0.0074123144330222575 0.00018283322619986283 0 -0.0075570774060051433 0.00069747878132214833 0 -0.0058917969381173281 0.0010909884862425226 0 -0.0070545567653615051 0.00063233805357904179 0 -0.0072199443579100157 0.0013303883088232832 0 -0.0075570774060051433 0.00069747878132214833 0 -0.0070545567653615051 0.00063233805357904179 0 -0.0071911363300888181 0.0010255341599153174 0 -0.0069940255856070343 0.00089502849332047678 0 -0.0064973718875692308 0.00068540266409546839 0 -0.0065031264754908643 0.00013907979800116205 0 -0.0074123144330222575 0.00018283322619986283 0 -0.0070545567653615051 0.00063233805357904179 0 -0.0052422155894986406 0.00094020643131868646 0 -0.0064973718875692308 0.00068540266409546839 0 -0.0051638334730314643 0.00083208829779729977 0 -0.0050167001048334907 0.0010962125086713852 0 -0.0048422045906566227 0.00097808045370860615 0 -0.0075570774060051433 0.00069747878132214833 0 -0.0071911363300888181 0.0010255341599153174 0 -0.0079543505138285186 0.0011367758638178866 0 -0.0064973718875692308 0.00068540266409546839 0 -0.007336565282122883 0.00066670498982519279 0 -0.0064782852211979335 9.0452381983282672e-05 0 -0.0066653119822163839 0.00034515724290262934 0 -0.0068070514503045148 0.00015188496284226016 0 -0.0066653119822163839 0.00034515724290262934 0 -0.0065606458518731462 0.00044836865043627866 0 -0.0068051316153722131 0.00054223847591203798 0 -0.0064782852211979335 9.0452381983282672e-05 0 -0.0066653119822163839 0.00034515724290262934 0 -0.0065625288435091902 0.00045104152722800209 0 -0.006560973629188181 0.00024147916284921497 0 -0.0058245319610479252 0.0007298848740884393 0 -0.0052651777914990792 0.0012631952857304792 0 -0.0049560092853726048 0.0012959319797563055 0 -0.0050167001048334907 0.0010962125086713852 0 -0.0064973718875692308 0.00068540266409546839 0 -0.0058245319610479252 0.0007298848740884393 0 -0.0051638334730314643 0.00083208829779729977 0 -0.0052651777914990792 0.0012631952857304792 0 -0.0050167001048334907 0.0010962125086713852 0 -0.0094368831841678685 -0.00012032237143805032 0 -0.0094369614757338696 -0.00010980681927715379 0 -0.0094365224233972592 -0.00012423525185374621 0 -0.0092122710645993443 0.00020157639611614604 0 -0.0085148114276650966 0.00024620490679337978 0 -0.0084033196951893707 0.00078708759198145388 0 -0.0088515447405345081 0.00045876155897227235 0 -0.0086787041455391976 0.0012651594813870024 0 -0.0094368831841678685 -0.00012032237143805032 0 -0.0094324095245422301 -0.0001289141121481297 0 -0.0094365224233972592 -0.00012423525185374621 0 -0.0091652428612198477 0.00020685926054209231 0 -0.0085148114276650966 0.00024620490679337978 0 -0.0084033196951893707 0.00078708759198145388 0 -0.0086787041455391976 0.0012651594813870024 0 -0.0079543505138285186 0.0011367758638178866 0 -0.0085148114276650966 0.00024620490679337978 0 -0.007336565282122883 0.00066670498982519279 0 -0.0071467223394946072 0.00021607434625909235 0 -0.0068070514503045148 0.00015188496284226016 0 -0.0068975420295087917 0.00035914563106629802 0 -0.0068975420295087917 0.00035914563106629802 0 -0.0070721057336895661 0.00050615170080620445 0 -0.0068051316153722131 0.00054223847591203798 0 -0.0066653119822163839 0.00034515724290262934 0 -0.0068070514503045148 0.00015188496284226016 0 -0.0068975420295087917 0.00035914563106629802 0 -0.0066653119822163839 0.00034515724290262934 0 -0.0068975420295087917 0.00035914563106629802 0 -0.0068051316153722131 0.00054223847591203798 0 -0.0094324095245422301 -0.0001289141121481297 0 -0.0094273075587437451 -0.00012938178310893217 0 -0.0094111035406246168 -0.00013888417057152712 0 -0.0094303797590539057 -0.00014007457578581669 0 -0.0094324095245422301 -0.0001289141121481297 0 -0.0094111035406246168 -0.00013888417057152712 0 -0.0071467223394946072 0.00021607434625909235 0 -0.0068975420295087917 0.00035914563106629802 0 -0.0070721057336895661 0.00050615170080620445 0 -0.0085148114276650966 0.00024620490679337978 0 -0.0082996873146399426 0.00013254597439238213 0 -0.0082996873146399426 0.00013254597439238213 0 -0.0066801775808958859 0.00020552966288119758 0 -0.0094230698301003574 -0.00015366839734993915 0 -0.0094111035406246168 -0.00013888417057152712 0 -0.009384026496468547 -0.00012818001972604172 0 -0.0070721057336895661 0.00050615170080620445 0 -0.0068051316153722131 0.00054223847591203798 0 -0.0069984650700462879 0.00079406434609431361 0 -0.0068051316153722131 0.00054223847591203798 0 -0.0069984650700462879 0.00079406434609431361 0 -0.0066400053061714415 0.00080173306491804523 0 -0.0047689568702780462 -2.2986626601964054e-05 0 -0.0049298530641617658 -0.00015736019528187338 0 -0.0046239675564560909 -0.00014899274369652426 0 -0.0066801775808958859 0.00020552966288119758 0 -0.0052040033288472927 0.0003942792703927879 0 -0.0074884813024773747 -5.778445815060767e-05 0 -0.0066801775808958859 0.00020552966288119758 0 -0.0051971906524861606 0.00010278406384754418 0 -0.0055230369759301963 -0.0001371190657358719 0 -0.0056060488793374854 7.0776465952855768e-05 0 -0.0052651777914990792 0.0012631952857304792 0 -0.0049560092853726048 0.0012959319797563055 0 -0.0050509118303421023 0.0014816549633817429 0 -0.0049329245338780815 0.001148300326449138 0 -0.0044217851903442899 0.00070530238553815662 0 -0.0058245319610479252 0.0007298848740884393 0 -0.0049329245338780815 0.001148300326449138 0 -0.0051592053986081786 0.000473806908982917 0 -0.0049702373712454681 0.00066504428720270297 0 -0.0052469708222029066 0.00084541517322239983 0 -0.0058245319610479252 0.0007298848740884393 0 -0.0052040033288472927 0.0003942792703927879 0 -0.0065606458518731462 0.00044836865043627866 0 -0.0068051316153722131 0.00054223847591203798 0 -0.0066400053061714415 0.00080173306491804523 0 -0.0046726190780347473 0.00012220561351534084 0 -0.0047689568702780462 -2.2986626601964054e-05 0 -0.0046239675564560909 -0.00014899274369652426 0 -0.0045473732836381064 -0.00014069440155480654 0 -0.0052040033288472927 0.0003942792703927879 0 -0.0052040033288472927 0.0003942792703927879 0 -0.0044217851903442899 0.00070530238553815662 0 -0.0044529519275394351 3.391467182138543e-05 0 -0.0046001725449063783 -0.00017456387921619261 0 -0.0041806606559473365 -0.0001647610958695778 0 -0.0049702373712454681 0.00066504428720270297 0 -0.0052469708222029066 0.00084541517322239983 0 -0.004781708412618625 0.000856974718837705 0 -0.0044217851903442899 0.00070530238553815662 0 -0.0036323527642685084 0.0012683664738645955 0 -0.0048357424382504052 0.0016999143098708567 0 -0.004725152416016498 0.0014417466789127227 0 -0.0044855723856640356 0.0017103875573849956 0 -0.0036668706427605475 0.00097429112506194611 0 -0.0038497588224557164 0.00078678971988771712 0 -0.003473218685693663 0.00079826299623310891 0 -0.0028726582390321961 0.00041021874557435606 0 -0.0044217851903442899 0.00070530238553815662 0 -0.0049560092853726048 0.0012959319797563055 0 -0.0050509118303421023 0.0014816549633817429 0 -0.004725152416016498 0.0014417466789127227 0 -0.0050509118303421023 0.0014816549633817429 0 -0.0048357424382504052 0.0016999143098708567 0 -0.004725152416016498 0.0014417466789127227 0 -0.0049560092853726048 0.0012959319797563055 0 -0.004725152416016498 0.0014417466789127227 0 -0.0047511575666072661 0.0012434277130791136 0 -0.004725152416016498 0.0014417466789127227 0 -0.0044576383195326121 0.0014110534885813692 0 -0.0044855723856640356 0.0017103875573849956 0 -0.0044576383195326121 0.0014110534885813692 0 -0.0044855723856640356 0.0017103875573849956 0 -0.0043260783467784954 0.0013809364467639717 0 -0.0044576383195326121 0.0014110534885813692 0 -0.0043260783467784954 0.0013809364467639717 0 -0.0043698880808742228 0.0012581967007246747 0 -0.004725152416016498 0.0014417466789127227 0 -0.0044576383195326121 0.0014110534885813692 0 -0.0045543956088890331 0.0012524331744734744 0 -0.0020487854135418392 0.00091293295862982079 0 -0.0019377366832812601 0.00092798593120219574 0 -0.0019985649405104091 0.00098575911196753171 0 -0.0028726582390321961 0.00041021874557435606 0 -0.0036323527642685084 0.0012683664738645955 0 -0.004245299087868604 0.0015193503278855328 0 -0.0040940716715651155 0.0015247455107197916 0 -0.0041009698783569361 0.0014444845309725986 0 -0.0020487854135418392 0.00091293295862982079 0 -0.0019985649405104091 0.00098575911196753171 0 -0.0021127025195898184 0.00099268464933271365 0 -0.0036323527642685084 0.0012683664738645955 0 -0.0029969097134427054 0.0012631125415453305 0 -0.0040940716715651155 0.0015247455107197916 0 -0.0040026542965869777 0.0014452294961344097 0 -0.0041009698783569361 0.0014444845309725986 0 -0.0029969097134427054 0.0012631125415453305 0 -0.0031567435294527183 0.0012195017313263083 0 -0.0040940716715651155 0.0015247455107197916 0 -0.0039003400396598223 0.0015454670365062334 0 -0.0040026542965869777 0.0014452294961344097 0 -0.0021620898233054623 0.00087918410659728165 0 -0.0021127025195898184 0.00099268464933271365 0 -0.0022450937754546693 0.001004142929774155 0 -0.0032431724484180938 0.0010040653685913668 0 -0.0033688357147976418 0.00098605832144149901 0 -0.0035650176070946282 0.0010020799343355032 0 -0.0031567435294527183 0.0012195017313263083 0 -0.0038920285644294559 0.0011012861952314906 0 -0.0039003400396598223 0.0015454670365062334 0 -0.0040026542965869777 0.0014452294961344097 0 -0.0040388179859376363 0.0012522554108894701 0 -0.0040026542965869777 0.0014452294961344097 0 -0.0040601418929624182 0.0013811485612258085 0 -0.0040388179859376363 0.0012522554108894701 0 -0.0032656711604804839 0.00097933816028430488 0 -0.0032431724484180938 0.0010040653685913668 0 -0.0033688357147976418 0.00098605832144149901 0 -0.0040026542965869777 0.0014452294961344097 0 -0.0040601418929624182 0.0013811485612258085 0 -0.0041009698783569361 0.0014444845309725986 0 -0.0040601418929624182 0.0013811485612258085 0 -0.004087774326704598 0.0013375784422223896 0 -0.0040388179859376363 0.0012522554108894701 0 -0.0034331476374294648 0.00097844480699285099 0 -0.0033688357147976418 0.00098605832144149901 0 -0.0035650176070946282 0.0010020799343355032 0 -0.0033377837937161579 0.0009678191141746299 0 -0.0034331476374294648 0.00097844480699285099 0 -0.003410367713116575 0.00095443604677002635 0 -0.0033377837937161579 0.0009678191141746299 0 -0.0034331476374294648 0.00097844480699285099 0 -0.0033688357147976418 0.00098605832144149901 0 -0.0036323527642685084 0.0012683664738645955 0 -0.0043916143027320697 0.0015294890022217113 0 -0.004245299087868604 0.0015193503278855328 0 -0.0041009698783569361 0.0014444845309725986 0 -0.004087774326704598 0.0013375784422223896 0 -0.0044855723856640356 0.0017103875573849956 0 -0.004087774326704598 0.0013375784422223896 0 -0.0043260783467784954 0.0013809364467639717 0 -0.0040601418929624182 0.0013811485612258085 0 -0.0041009698783569361 0.0014444845309725986 0 -0.004087774326704598 0.0013375784422223896 0 -0.0043260783467784954 0.0013809364467639717 0 -0.004241994944497042 0.0012093620429637214 0 -0.0043698880808742228 0.0012581967007246747 0 -0.004241994944497042 0.0012093620429637214 0 -0.0043698880808742228 0.0012581967007246747 0 -0.0044153344047791381 0.0011048452863498229 0 -0.004087774326704598 0.0013375784422223896 0 -0.0043260783467784954 0.0013809364467639717 0 -0.004241994944497042 0.0012093620429637214 0 -0.004087774326704598 0.0013375784422223896 0 -0.004241994944497042 0.0012093620429637214 0 -0.0040388179859376363 0.0012522554108894701 0 -0.004241994944497042 0.0012093620429637214 0 -0.0040388179859376363 0.0012522554108894701 0 -0.0043021876444851708 0.0010088691440138656 0 -0.004241994944497042 0.0012093620429637214 0 -0.0043021876444851708 0.0010088691440138656 0 -0.0044153344047791381 0.0011048452863498229 0 -0.0035650176070946282 0.0010020799343355032 0 -0.0035504745537105775 0.00091503320440598172 0 -0.0037473856098621697 0.00084642561608682504 0 -0.003410367713116575 0.00095443604677002635 0 -0.003479700449356526 0.00096109876340243889 0 -0.0034509944297373444 0.00093066028180927409 0 -0.0034331476374294648 0.00097844480699285099 0 -0.003410367713116575 0.00095443604677002635 0 -0.003479700449356526 0.00096109876340243889 0 -0.0034331476374294648 0.00097844480699285099 0 -0.003479700449356526 0.00096109876340243889 0 -0.0035650176070946282 0.0010020799343355032 0 -0.003479700449356526 0.00096109876340243889 0 -0.0035650176070946282 0.0010020799343355032 0 -0.0035504745537105775 0.00091503320440598172 0 -0.003429214129785643 0.00084326188462536579 0 -0.0035504745537105775 0.00091503320440598172 0 -0.0034509944297373444 0.00093066028180927409 0 -0.003479700449356526 0.00096109876340243889 0 -0.0035504745537105775 0.00091503320440598172 0 -0.0034509944297373444 0.00093066028180927409 0 -0.003429214129785643 0.00084326188462536579 0 -0.0035504745537105775 0.00091503320440598172 0 -0.0035435403900382022 0.00078854050269752413 0 -0.0035504745537105775 0.00091503320440598172 0 -0.0037473856098621697 0.00084642561608682504 0 -0.0035435403900382022 0.00078854050269752413 0 -0.0039096269421896521 0.0006898928534121078 0 -0.0035985179745499241 0.00062338350728130564 0 -0.0037473856098621697 0.00084642561608682504 0 -0.0035985179745499241 0.00062338350728130564 0 -0.0037473856098621697 0.00084642561608682504 0 -0.0035435403900382022 0.00078854050269752413 0 -0.0034397437295182222 0.00070300875202149019 0 -0.0035985179745499241 0.00062338350728130564 0 -0.0035435403900382022 0.00078854050269752413 0 -0.0042361888746131624 0.00076410753959474951 0 -0.0040388179859376363 0.0012522554108894701 0 -0.0043021876444851708 0.0010088691440138656 0 -0.0041796352122929481 0.00075490087025503847 0 -0.0038920285644294559 0.0011012861952314906 0 -0.0042361888746131624 0.00076410753959474951 0 -0.0035650176070946282 0.0010020799343355032 0 -0.0037473856098621697 0.00084642561608682504 0 -0.0042361888746131624 0.00076410753959474951 0 -0.0039096269421896521 0.0006898928534121078 0 -0.0037473856098621697 0.00084642561608682504 0 -0.0042361888746131624 0.00076410753959474951 0 -0.0043021876444851708 0.0010088691440138656 0 -0.0043662197093524294 0.00082742496963580253 0 -0.0043021876444851708 0.0010088691440138656 0 -0.0043662197093524294 0.00082742496963580253 0 -0.0045122532616182426 0.00087096014195380477 0 -0.0043745017669663622 0.00065416909254060356 0 -0.0043662197093524294 0.00082742496963580253 0 -0.0045122532616182426 0.00087096014195380477 0 -0.0047295242643855262 0.00075195026228254826 0 -0.0045122532616182426 0.00087096014195380477 0 -0.0046202441076433291 0.0010620536168675883 0 -0.0043021876444851708 0.0010088691440138656 0 -0.0045122532616182426 0.00087096014195380477 0 -0.0044153344047791381 0.0011048452863498229 0 -0.0045122532616182426 0.00087096014195380477 0 -0.0044153344047791381 0.0011048452863498229 0 -0.0046202441076433291 0.0010620536168675883 0 -0.0047295242643855262 0.00075195026228254826 0 -0.0051638334730314643 0.00083208829779729977 0 -0.0048422045906566227 0.00097808045370860615 0 -0.0047295242643855262 0.00075195026228254826 0 -0.0048422045906566227 0.00097808045370860615 0 -0.0046202441076433291 0.0010620536168675883 0 -0.0048422045906566227 0.00097808045370860615 0 -0.0047511575666072661 0.0012434277130791136 0 -0.0046202441076433291 0.0010620536168675883 0 -0.0050167001048334907 0.0010962125086713852 0 -0.0048422045906566227 0.00097808045370860615 0 -0.0047511575666072661 0.0012434277130791136 0 -0.0049560092853726048 0.0012959319797563055 0 -0.0050167001048334907 0.0010962125086713852 0 -0.0047511575666072661 0.0012434277130791136 0 -0.004725152416016498 0.0014417466789127227 0 -0.0047511575666072661 0.0012434277130791136 0 -0.0045543956088890331 0.0012524331744734744 0 -0.0047511575666072661 0.0012434277130791136 0 -0.0045543956088890331 0.0012524331744734744 0 -0.0046202441076433291 0.0010620536168675883 0 -0.0045543956088890331 0.0012524331744734744 0 -0.0043698880808742228 0.0012581967007246747 0 -0.0044153344047791381 0.0011048452863498229 0 -0.0044576383195326121 0.0014110534885813692 0 -0.0045543956088890331 0.0012524331744734744 0 -0.0043698880808742228 0.0012581967007246747 0 -0.0045543956088890331 0.0012524331744734744 0 -0.0044153344047791381 0.0011048452863498229 0 -0.0046202441076433291 0.0010620536168675883 0 
</DataArray>
</PointData>
<CellData Scalars="region_id,cross_section_updated," Vectors="" Tensors="stress,">
<DataArray type="Float64" Name="region_id" format="ascii">
5 5 5 5 5 5 6 5 5 5 6 5 5 5 6 5 5 5 5 5 5 6 6 5 5 5 5 6 6 5 6 6 5 6 5 5 5 6 5 5 6 5 5 5 5 5 5 5 6 5 5 5 5 5 5 5 5 6 5 5 6 5 6 5 6 5 6 5 5 5 5 5 5 5 5 5 5 5 5 5 5 5 5 6 5 5 5 5 5 5 5 5 6 5 5 6 6 5 5 5 5 5 5 5 5 5 5 5 5 6 5 5 5 5 5 6 5 5 6 5 5 5 5 5 5 5 5 5 5 5 5 5 5 5 5 5 5 5 6 5 5 5 5 5 6 5 5 5 5 5 5 5 5 5 5 5 5 5 5 5 5 5 5 5 5 5 5 5 5 6 5 6 5 5 5 6 5 5 5 6 5 5 5 6 6 5 5 6 5 5 5 5 6 5 5 5 5 5 6 5 5 5 5 6 5 6 5 5 6 5 5 5 6 5 5 6 5 5 5 5 5 5 5 5 5 5 6 5 5 6 5 5 5 5 5 5 5 6 5 5 5 5 5 5 5 5 5 5 5 5 5 5 5 5 5 5 5 5 5 6 5 6 5 5 5 5 5 6 5 5 5 5 5 5 5 5 6 5 5 5 6 5 5 6 5 5 5 5 6 5 5 6 5 5 5 5 5 6 5 6 5 5 5 5 5 5 5 5 5 5 5 5 5 5 5 5 5 5 6 5 5 5 5 5 6 6 5 5 5 5 5 5 5 5 5 5 6 5 5 5 5 5 5 5 5 5 6 5 5 6 6 5 5 5 6 5 5 6 5 5 5 5 5 5 5 5 5 5 5 5 5 5 5 6 5 5 5 5 5 5 5 5 6 5 5 6 5 5 5 5 6 5 5 5 5 5 5 5 5 5 5 5 5 5 5 6 6 5 5 6 6 5 6 5 6 5 6 5 5 6 5 5 5 5 5 5 5 5 5 6 6 5 5 6 5 5 5 5 5 6 5 5 6 5 5 5 5 6 5 5 5 6 5 5 5 6 5 6 5 5 6 5 5 5 5 5 5 5 5 5 5 5 6 5 5 5 5 5 5 6 5 5 5 6 5 5 5 5 5 5 5 6 5 5 5 5 5 6 5 6 5 5 5 5 5 6 6 5 5 5 6 6 5 6 5 5 5 5 5 5 5 6 5 5 5 5 5 5 5 5 5 5 5 5 5 5 6 5 5 6 5 6 5 5 5 5 5 5 5 5 5 5 5 5 5 5 6 5 5 5 5 5 5 5 5 5 5 5 5 5 5 5 5 6 5 5 5 5 5 5 5 5 5 5 5 6 6 5 5 5 5 5 5 5 5 5 5 5 5 5 5 5 5 6 5 5 5 5 5 5 5 6 5 5 5 5 5 5 5 5 6 5 5 5 6 5 5 5 5 5 5 5 5 5 5 5 5 5 5 5 5 5 5 5 5 5 5 5 5 5 5 5 5 6 5 6 5 5 5 5 5 5 5 5 5 5 5 5 5 6 5 5 5 6 5 5 5 5 5 5 5 5 5 5 5 5 5 6 6 5 5 5 5 5 5 5 6 5 5 5 5 5 5 5 5 5 5 5 6 5 5 5 5 5 5 5 6 5 5 5 5 5 5 5 5 5 5 5 5 5 5 5 5 5 6 5 5 5 5 5 5 5 5 5 5 6 5 5 5 5 5 6 5 5 5 6 5 5 5 5 6 5 5 5 5 5 5 5 6 5 6 5 5 6 5 6 5 5 5 5 5 5 5 5 5 5 5 5 5 5 5 5 5 5 5 5 5 5 5 5 5 5 5 5 5 5 5 5 5 5 5 6 5 6 6 5 5 5 5 5 5 5 5 5 5 5 6 5 5 5 5 5 5 5 6 5 6 5 6 5 5 5 5 5 5 6 5 6 6 5 5 5 5 5 5 5 5 5 5 5 5 5 5 5 5 5 6 5 5 5 5 5 5 5 5 5 5 5 5 5 5 6 5 5 5 5 5 5 5 5 5 5 5 5 5 6 5 5 5 5 5 5 5 5 5 6 5 5 5 5 5 6 6 5 5 5 5 6 6 5 5 5 5 5 5 5 5 5 5 5 6 5 5 5 5 6 5 5 5 5 5 5 6 5 5 6 5 6 5 5 5 6 5 5 5 5 5 5 5 6 5 5 5 5 6 6 5 5 6 5 5 5 6 6 6 6 5 5 6 5 5 5 5 5 5 5 5 6 6 5 5 5 5 5 5 6 5 6 5 5 5 6 5 5 5 5 5 5 5 5 5 5 5 5 5 5 5 5 5 5 5 5 5 5 5 5 5 5 5 5 6 5 5 5 5 5 5 5 5 5 5 5 5 5 5 5 5 5 5 5 5 5 6 5 5 5 5 5 5 5 5 5 6 5 5 5 5 5 5 6 5 5 5 5 5 6 5 5 5 5 5 6 5 5 5 5 5 5 5 5 5 5 6 5 5 5 5 6 6 5 5 6 5 5 5 5 6 5 5 6 5 5 5 5 5 6 6 5 5 5 5 5 5 6 5 5 5 5 5 5 5 6 6 5 5 5 6 5 5 5 6 5 5 6 5 6 5 5 5 6 5 5 6 6 5 5 5 5 5 5 6 5 6 5 6 5 5 5 6 6 5 6 5 5 5 5 5 5 5 5 5 5 5 5 5 5 5 5 6 5 5 5 5 5 5 5 6 5 5 5 5 5 6 5 5 5 6 5 5 5 5 6 5 6 5 6 5 5 5 5 6 5 5 6 5 5 5 5 5 5 5 5 5 5 5 6 5 5 5 5 6 5 5 5 5 6 5 5 5 5 5 5 6 5 5 5 6 5 6 6 5 5 5 5 5 5 5 5 5 5 5 5 5 5 5 5 5 5 5 5 5 5 5 5 5 5 5 5 6 5 5 6 6 5 6 5 5 5 5 6 5 5 6 5 5 5 5 5 5 5 5 5 5 5 5 5 5 5 5 5 5 5 5 5 5 5 5 5 5 5 5 6 5 5 5 5 5 5 5 5 6 5 5 5 5 5 5 5 6 5 6 5 5 5 6 5 5 5 5 5 5 5 6 5 6 5 5 5 5 5 6 5 5 5 5 5 5 5 5 5 5 5 5 5 5 5 5 5 5 5 5 5 5 5 5 5 5 5 5 5 5 5 5 5 5 5 5 5 5 5 6 6 5 5 6 5 5 5 6 5 5 5 6 6 5 5 6 5 5 5 5 5 5 5 5 5 5 5 5 5 5 5 5 5 5 5 5 5 6 5 6 5 5 5 5 5 5 5 5 5 5 5 5 5 5 5 5 5 5 5 5 5 5 5 5 5 5 5 5 5 5 5 5 5 5 5 5 5 5 5 5 5 5 5 5 5 6 5 6 5 6 5 5 6 5 5 5 5 5 5 5 5 5 5 5 5 5 5 5 5 5 5 5 5 5 5 5 5 5 5 5 6 5 5 5 5 5 5 5 5 5 5 5 5 5 5 5 5 5 5 5 5 5 5 5 5 5 5 5 5 5 5 5 5 5 5 5 5 5 5 5 5 5 5 5 5 5 5 5 5 5 6 5 5 5 5 6 5 5 5 5 5 5 5 5 6 5 5 5 5 5 6 6 6 5 5 5 5 6 6 5 5 6 5 5 5 5 5 5 5 5 5 5 5 5 5 5 6 6 5 6 5 5 5 5 5 5 5 5 5 5 5 5 5 5 5 5 5 5 6 5 5 5 5 5 5 6 5 5 5 5 5 5 5 5 5 5 5 5 5 5 5 5 5 5 6 5 5 5 5 5 5 5 5 5 6 5 5 6 5 5 5 5 5 5 5 5 5 5 5 5 5 5 5 5 6 5 6 5 5 5 5 6 5 6 5 5 6 6 5 5 6 5 5 5 6 5 5 5 5 5 5 6 5 5 5 6 5 5 5 5 6 5 5 5 5 5 5 5 6 5 5 5 5 5 6 5 5 6 5 5 5 5 5 5 5 6 5 5 5 6 6 5 5 5 6 5 5 5 5 5 6 6 6 5 5 5 5 5 5 5 5 5 6 6 5 6 5 5 5 5 5 6 5 5 6 5 6 5 5 5 6 5 5 6 5 5 5 5 5 5 5 6 5 5 6 6 5 5 6 5 6 5 5 6 5 5 6 5 6 5 5 5 6 5 5 6 5 6 5 5 6 5 6 5 5 5 5 6 6 5 5 5 5 5 5 5 5 5 6 5 5 5 5 5 5 5 5 5 5 5 5 5 5 5 5 5 5 6 6 5 5 5 6 5 5 5 5 6 5 5 6 5 5 5 6 5 5 6 5 5 5 5 6 5 5 5 5 5 6 5 5 5 6 6 5 5 6 5 5 5 5 5 6 6 5 5 5 5 6 5 5 5 5 6 5 5 5 5 5 5 5 5 5 5 5 5 5 5 5 5 5 5 5 5 5 5 5 5 5 5 5 5 6 5 5 5 5 5 5 5 5 5 5 5 6 5 5 5 5 6 5 5 5 6 5 5 6 5 5 5 5 5 6 5 5 5 5 5 5 5 5 5 5 5 5 5 5 5 5 5 5 5 5 6 5 5 5 5 5 6 5 5 5 5 5 5 5 6 5 5 5 5 5 5 5 5 5 5 5 5 5 6 5 5 5 5 5 6 6 5 5 5 5 6 5 6 5 5 5 6 6 5 5 6 5 5 5 6 5 5 5 5 6 5 5 6 6 5 5 5 5 5 5 6 5 5 6 5 5 5 5 6 5 5 5 5 5 5 5 5 5 5 5 5 5 5 5 5 5 5 5 6 5 6 5 5 5 6 5 6 5 6 5 5 6 5 5 6 6 6 5 5 5 6 5 5 5 5 5 5 6 5 5 5 5 5 5 5 6 5 6 5 5 5 5 5 5 5 6 5 5 5 5 5 5 5 5 5 5 5 6 5 5 6 5 5 5 5 5 5 5 5 5 5 5 5 5 5 5 5 6 5 5 5 5 5 5 5 5 5 5 5 5 5 5 5 5 5 5 5 5 5 6 5 5 5 6 5 5 5 5 5 5 5 5 5 5 6 5 5 5 5 5 5 5 5 5 5 6 5 5 5 5 5 5 6 5 5 5 6 5 5 5 5 5 5 5 5 5 5 5 5 5 5 5 5 5 5 5 5 5 6 5 5 5 5 5 6 5 5 6 5 5 5 5 5 5 6 5 5 5 5 6 5 5 5 5 5 5 5 5 5 5 5 5 5 5 5 5 5 5 6 5 5 5 5 5 6 5 5 5 6 5 6 5 5 5 5 5 5 5 6 5 5 5 6 6 5 5 5 5 5 6 5 5 5 6 5 5 5 5 5 5 5 5 5 5 5 5 5 5 5 6 5 5 5 5 5 5 6 5 5 5 5 5 5 5 5 5 5 5 6 5 5 5 5 5 5 5 5 5 6 5 5 5 5 6 6 5 5 5 5 5 5 5 5 6 6 5 6 5 5 5 5 5 6 5 5 5 5 5 5 6 5 6 5 5 5 5 5 5 5 5 5 5 6 5 5 5 5 5 5 6 5 5 5 5 5 5 5 5 6 5 5 5 5 5 6 5 5 6 5 5 5 5 5 5 6 5 5 5 5 5 5 5 5 6 5 5 5 5 6 5 5 5 5 5 5 5 5 5 5 6 5 5 5 5 5 5 5 5 5 6 5 5 5 5 6 5 5 5 5 5 5 5 5 6 5 6 5 5 5 6 5 5 5 5 5 5 5 5 6 5 5 5 6 5 5 5 6 5 5 6 5 5 5 5 5 5 5 5 5 5 5 5 5 5 5 5 5 5 5 5 5 5 5 5 5 5 5 5 5 5 5 5 5 5 5 5 5 5 5 5 5 5 5 5 5 5 5 5 5 5 5 5 5 6 5 5 5 6 5 5 5 5 5 5 6 5 6 5 5 5 5 6 6 5 5 5 5 5 5 5 5 5 5 5 5 5 5 5 5 5 5 5 5 5 5 6 5 5 6 5 5 5 6 5 5 5 5 5 5 5 5 5 5 5 5 5 5 6 5 6 5 6 5 5 5 5 5 5 5 5 5 5 5 5 5 5 5 5 5 6 5 5 5 5 5 5 5 5 5 5 5 5 5 5 5 5 5 5 5 5 5 5 5 5 5 5 5 5 5 5 5 5 5 6 5 5 5 5 5 5 6 5 5 6 5 6 5 5 6 5 5 5 6 5 5 5 5 5 5 5 5 5 5 5 5 5 5 5 5 5 5 5 5 5 5 5 5 5 6 5 5 5 5 6 5 5 6 5 5 5 5 5 5 5 5 5 5 5 5 5 5 5 5 5 5 5 5 5 5 5 5 5 5 5 5 5 5 6 5 5 5 6 5 5 5 5 6 5 5 5 5 5 6 5 5 5 5 6 5 5 5 5 5 5 5 5 5 5 5 5 5 5 6 6 5 6 5 6 5 5 5 5 5 5 5 5 5 5 5 5 5 5 5 5 5 5 5 5 5 5 5 5 5 6 6 5 5 6 5 5 6 5 5 5 5 5 5 5 5 5 5 5 6 5 5 6 5 5 5 5 5 5 5 5 5 5 5 5 5 5 6 6 5 6 6 5 5 5 5 6 5 5 5 6 6 5 5 5 5 5 5 5 6 5 5 5 5 5 5 5 5 5 5 5 5 5 5 5 5 6 5 5 5 5 6 5 5 5 5 5 5 5 6 5 5 5 5 5 5 5 6 5 5 6 5 5 5 5 5 5 5 5 5 5 5 5 5 5 5 6 5 5 5 5 5 5 5 5 6 5 5 5 5 5 5 5 6 5 5 5 5 5 6 5 5 5 5 6 5 5 5 5 5 5 5 5 5 5 5 5 6 5 5 5 5 5 5 5 5 5 5 5 5 5 5 6 5 5 5 5 5 5 5 5 5 5 5 5 5 6 6 5 5 6 5 5 5 5 6 5 5 5 6 5 5 6 5 5 5 5 6 5 5 5 5 5 5 5 5 5 5 5 5 5 5 5 5 5 5 5 5 5 5 5 5 5 5 5 5 5 5 5 5 5 5 6 5 5 5 6 5 6 5 5 5 5 5 5 5 5 5 5 5 5 5 5 6 5 5 5 5 5 5 5 5 6 5 5 5 6 5 5 5 5 5 5 5 6 5 6 5 5 5 5 5 5 5 5 5 5 5 5 5 5 6 5 5 6 5 5 5 5 5 5 5 6 5 5 5 5 5 5 5 5 5 5 5 5 5 5 5 5 5 5 5 5 5 5 5 5 5 5 5 6 5 5 6 5 5 5 6 5 5 6 5 5 5 5 5 5 5 5 5 5 5 5 5 5 5 5 5 5 5 6 5 5 5 5 5 5 5 5 5 5 5 5 5 6 5 5 5 5 5 5 5 5 5 5 5 5 5 5 5 5 5 5 5 6 5 5 5 5 5 5 5 5 5 5 5 5 5 5 5 5 6 5 5 6 5 5 5 6 5 5 6 5 5 5 5 5 5 5 5 5 5 5 5 5 5 6 5 5 6 5 5 5 5 5 5 5 5 5 5 5 5 5 5 5 5 5 5 5 5 5 5 5 5 5 5 5 5 5 5 5 5 5 5 5 5 6 5 5 5 5 6 5 5 5 5 5 5 5 5 5 5 5 5 5 5 5 6 5 6 6 5 5 6 5 6 5 5 5 5 5 5 5 5 6 5 5 6 5 5 5 5 6 6 5 6 5 5 5 5 5 5 5 5 5 5 5 5 5 5 5 5 5 5 5 5 5 6 5 5 5 5 5 5 5 5 5 5 5 5 5 5 5 5 5 5 5 5 5 5 5 5 5 6 5 5 5 5 5 6 5 5 5 5 5 5 5 5 5 6 5 5 5 5 5 5 5 5 5 5 5 5 5 5 5 5 5 6 6 5 5 6 5 5 5 6 5 5 5 5 5 5 5 5 5 5 6 5 5 6 5 6 5 5 5 5 6 5 5 5 6 5 5 5 5 5 5 6 5 5 5 5 5 5 6 5 5 5 5 5 5 5 5 5 5 5 5 5 5 6 5 5 6 5 5 5 6 6 5 5 5 5 5 5 5 5 5 5 6 5 5 5 6 5 5 5 5 6 5 5 5 5 5 5 5 5 6 5 5 5 5 5 6 6 5 5 5 6 5 6 6 5 5 5 5 5 6 5 5 5 5 5 5 6 5 5 5 5 5 5 5 6 5 5 6 5 5 6 5 5 5 5 5 5 5 5 5 5 5 5 5 5 6 5 5 5 6 5 5 6 5 5 5 5 6 5 5 5 5 5 5 5 5 6 5 5 5 5 6 5 5 5 5 5 5 5 5 6 5 5 5 5 5 5 5 5 5 6 5 5 5 6 5 5 6 5 5 6 5 5 5 5 5 5 5 5 5 6 5 5 5 5 5 5 5 5 5 5 5 5 5 5 5 5 6 5 5 5 5 5 5 5 5 5 5 5 5 5 5 5 5 5 5 5 5 5 5 5 5 5 5 6 5 6 5 5 5 5 5 5 5 5 5 5 6 5 5 6 5 5 5 5 5 5 5 5 5 5 5 5 5 5 5 5 5 5 5 5 5 6 5 5 5 5 5 5 5 5 5 6 5 6 5 5 5 5 5 5 5 6 5 6 5 5 5 5 5 5 5 5 5 5 5 6 5 5 5 5 6 5 6 5 5 5 5 5 5 6 5 5 6 5 5 6 5 5 5 6 6 6 5 5 5 5 5 5 5 5 5 5 5 5 5 6 5 5 5 5 5 5 5 6 5 6 5 6 5 5 6 6 5 5 5 5 5 5 6 5 5 5 5 6 5 6 5 6 5 6 5 5 5 5 6 5 5 5 5 5 6 5 5 5 5 5 5 5 5 5 5 5 5 5 5 6 5 5 5 5 5 6 5 5 5 6 5 5 5 5 5 5 5 5 5 5 5 5 5 5 5 5 5 6 5 5 5 5 6 5 5 5 5 5 5 6 5 5 5 5 5 5 5 5 5 5 6 5 5 6 5 6 5 5 5 5 5 5 5 5 5 5 5 6 5 5 5 5 5 5 6 5 6 6 5 6 5 5 5 5 5 5 5 6 5 5 5 5 5 5 5 5 5 5 5 5 5 5 5 5 6 5 5 5 5 5 5 5 5 5 5 6 5 5 5 5 5 5 5 5 5 5 6 5 5 5 5 6 5 5 5 5 5 6 5 5 5 5 6 5 5 5 5 5 5 5 5 5 5 5 5 5 5 5 5 5 5 6 5 5 5 5 5 5 5 5 6 5 6 6 5 5 5 5 5 6 5 5 5 5 5 5 5 5 5 5 5 5 5 5 6 5 5 6 5 6 6 5 5 5 5 5 5 6 5 5 5 5 6 5 6 5 5 6 5 5 5 5 5 5 6 6 5 5 5 5 5 5 5 5 5 5 5 5 5 5 5 6 5 5 5 5 5 5 5 6 5 6 5 5 5 6 5 6 5 5 5 5 5 5 5 5 6 5 5 5 5 5 6 5 6 5 5 5 5 6 5 5 5 5 5 6 5 5 5 5 5 5 5 5 5 5 5 5 5 5 5 5 5 5 5 5 5 5 5 5 6 5 5 5 6 5 6 5 5 5 6 5 5 5 5 5 5 5 5 5 5 5 5 5 5 5 5 5 6 6 6 6 5 5 5 5 5 5 6 5 5 5 6 5 5 5 5 5 5 5 5 5 5 6 6 6 5 5 6 6 5 5 5 5 5 5 5 5 5 6 5 5 5 5 5 5 5 5 6 6 5 5 5 6 5 5 5 5 5 5 5 5 5 5 5 6 5 6 5 5 5 5 5 6 6 5 5 6 6 5 5 5 5 5 5 5 5 5 5 5 5 5 5 5 5 5 5 5 5 5 5 5 5 5 5 5 5 5 5 5 5 5 5 5 5 5 5 5 5 5 5 6 6 5 5 5 5 5 5 5 5 5 5 5 5 5 5 5 5 5 5 5 5 6 5 5 5 5 5 5 5 5 5 5 5 5 5 5 5 5 6 5 6 5 5 5 5 5 5 5 5 6 5 5 5 5 5 5 5 5 5 5 5 6 5 5 6 5 5 6 5 5 5 5 6 5 5 5 5 6 5 5 6 5 6 5 5 5 5 5 6 5 5 5 5 5 5 5 6 5 5 5 5 5 5 5 5 5 5 5 5 5 5 5 5 5 5 5 5 5 5 5 5 6 5 5 5 6 5 5 6 5 5 5 6 5 5 5 5 6 5 6 5 5 5 5 5 5 5 5 6 5 5 5 5 5 5 5 5 5 5 6 5 5 6 5 5 6 5 5 6 6 5 5 5 5 5 5 5 6 6 5 5 5 6 5 5 6 6 5 5 5 6 6 5 6 5 5 6 5 5 5 5 6 5 6 6 5 5 5 6 5 6 6 5 6 6 6 6 5 6 5 6 5 6 5 5 5 6 5 5 6 5 6 6 5 5 5 5 6 5 6 6 5 5 5 6 6 5 5 6 6 5 5 5 5 6 5 5 5 5 6 5 5 5 5 6 5 6 5 6 5 6 5 6 5 6 5 5 5 5 5 6 5 5 6 6 6 5 5 6 6 5 6 5 5 6 5 5 5 5 5 5 6 5 5 6 5 6 5 5 5 5 6 5 6 5 6 5 5 5 6 5 5 6 5 6 5 6 5 5 5 5 5 6 5 5 5 5 5 5 5 5 5 5 6 5 5 5 5 6 5 5 6 5 5 5 5 5 6 5 5 6 5 5 5 6 5 6 5 5 5 6 5 5 5 5 6 5 5 5 5 6 6 5 5 5 5 5 5 6 5 5 6 5 5 5 5 5 5 5 5 5 5 5 5 5 5 5 5 5 5 5 5 5 5 5 5 5 5 5 5 5 5 5 5 5 5 5 5 5 5 5 5 5 5 5 5 5 5 5 5 5 5 5 5 5 5 5 5 5 5 6 5 5 5 5 5 5 5 5 5 5 5 5 6 5 5 6 5 5 5 6 5 5 5 5 5 5 5 5 5 5 5 5 5 5 5 6 5 5 5 5 5 5 5 5 5 5 5 5 5 5 5 5 6 5 5 5 5 5 5 5 5 5 5 5 5 5 6 5 5 6 5 5 6 5 6 5 5 5 5 5 5 5 6 5 5 5 5 5 5 5 5 5 5 5 5 6 5 5 5 6 5 5 5 5 5 5 5 5 5 6 5 5 5 5 5 5 6 5 5 5 5 5 5 6 5 5 5 6 5 5 5 5 5 5 5 6 5 5 5 5 5 5 5 5 5 5 6 5 5 5 5 5 5 5 5 5 5 5 5 5 5 5 5 6 5 6 5 5 5 5 5 5 5 5 5 5 6 5 6 5 5 5 5 5 5 5 5 5 5 5 6 5 5 5 5 5 5 5 5 5 5 5 6 5 5 5 5 5 5 5 6 5 5 5 5 5 5 5 6 5 5 5 5 5 5 5 5 5 5 5 6 5 5 5 5 5 5 5 5 6 5 6 5 5 5 5 5 5 5 5 5 5 6 5 5 5 6 5 5 5 5 5 5 5 5 5 6 5 5 5 5 5 5 5 5 5 5 5 5 5 5 5 5 6 5 5 5 5 5 5 5 5 5 5 5 5 5 5 5 5 5 5 6 5 5 6 5 5 6 5 5 5 5 5 6 5 5 5 5 5 5 5 5 5 5 5 5 5 5 5 5 5 5 5 5 5 5 5 5 5 5 5 5 5 5 5 5 5 5 5 5 5 5 5 5 5 5 5 5 5 5 5 5 5 5 5 5 5 5 5 5 5 5 5 6 5 5 6 5 5 5 5 5 5 5 5 5 5 5 5 5 5 5 5 5 5 5 5 5 5 5 5 6 6 5 5 5 5 5 5 5 5 5 5 5 5 5 5 5 5 6 6 5 5 5 5 5 5 5 6 5 6 5 5 6 6 5 5 5 5 5 5 5 5 5 5 5 6 5 6 5 5 5 6 5 5 5 6 5 6 5 5 5 5 5 6 6 5 5 5 5 5 5 5 5 5 5 5 5 5 5 5 5 5 5 5 5 5 5 5 5 5 5 5 5 5 5 5 5 5 5 5 5 5 5 5 5 5 5 5 5 5 5 5 5 5 5 5 5 5 5 5 5 5 5 5 5 5 5 5 5 5 5 5 5 5 5 5 5 5 5 5 5 5 5 5 5 5 5 5 5 5 5 5 5 5 5 5 5 5 5 5 5 5 5 5 5 5 5 5 5 6 6 5 6 5 6 5 5 6 5 5 5 5 6 5 5 5 5 5 5 5 6 6 6 5 5 5 5 5 6 6 5 5 5 5 5 5 5 5 5 5 5 5 5 5 5 5 5 5 5 5 5 5 5 5 5 5 5 5 5 5 5 5 5 5 6 5 5 6 5 5 5 5 5 5 5 5 5 5 5 6 5 5 5 5 5 5 5 6 5 5 5 5 5 5 5 5 5 5 5 5 5 5 5 5 6 5 5 6 5 5 5 5 5 5 5 5 5 5 5 5 5 5 5 5 5 5 5 5 5 5 5 6 5 5 6 5 5 6 5 5 5 5 5 5 5 6 5 5 5 5 5 5 6 5 5 6 5 5 5 5 6 5 6 5 5 6 5 5 5 5 6 5 6 5 5 6 5 5 5 5 5 5 5 5 5 5 5 5 6 5 5 5 6 5 5 6 5 5 5 5 6 5 5 5 5 5 5 5 5 5 5 6 5 5 5 5 5 5 5 5 5 5 6 5 5 5 5 5 5 5 5 5 5 5 5 6 5 5 6 5 5 5 5 5 5 5 5 5 5 6 5 5 5 5 5 6 5 6 6 5 5 6 5 5 5 5 5 5 5 5 5 6 6 5 5 5 5 5 5 6 5 5 5 5 5 5 5 5 5 5 5 5 5 5 5 5 5 5 5 5 5 5 5 5 5 6 5 5 5 5 5 5 5 5 5 5 5 5 5 5 5 5 5 5 5 5 5 5 5 5 5 5 5 5 5 5 5 5 5 5 5 5 5 5 5 5 6 5 5 5 5 5 5 5 5 5 5 6 5 5 5 6 5 6 5 5 5 6 5 5 5 6 5 6 5 6 5 6 6 5 5 6 5 5 5 6 5 5 5 5 5 6 5 5 5 5 6 5 5 5 6 5 5 5 5 6 5 6 5 5 5 5 5 5 5 5 5 5 5 5 5 5 6 5 5 5 5 6 5 5 6 5 5 6 6 5 5 6 5 6 5 5 5 6 6 6 6 5 5 6 5 5 5 5 6 5 6 5 5 6 6 6 5 6 5 5 6 6 6 5 5 5 5 5 5 5 5 5 6 6 5 5 5 5 6 6 5 5 5 6 5 6 5 5 5 5 5 5 5 5 5 5 5 6 5 5 5 5 5 5 5 5 5 5 5 5 5 5 5 5 5 5 5 5 5 5 5 6 5 5 5 5 5 5 5 5 5 5 5 5 5 5 5 5 6 5 5 6 5 5 5 5 5 5 5 5 5 6 5 5 5 6 6 5 5 6 5 5 5 5 5 6 5 6 5 5 5 6 5 5 5 5 5 5 5 6 5 5 6 5 5 5 5 6 5 5 5 6 6 5 5 6 5 5 5 6 5 5 5 5 5 5 5 6 5 5 6 5 6 6 6 5 6 5 6 6 5 5 5 5 5 5 6 5 5 6 5 5 5 5 5 5 5 5 5 5 5 5 5 5 5 5 5 5 5 5 5 5 5 5 5 5 5 5 5 5 5 5 5 5 5 6 6 5 5 5 5 5 5 5 5 6 6 6 6 5 5 6 5 5 5 5 5 5 5 5 6 5 5 6 5 5 5 6 5 5 5 5 6 5 5 5 5 5 5 5 5 5 5 5 5 5 5 6 5 5 5 5 5 6 5 5 5 5 5 5 5 5 6 5 5 5 6 6 5 5 6 6 5 5 5 5 5 6 5 5 5 5 5 5 6 5 6 5 5 5 5 5 5 5 5 6 6 5 6 6 6 5 6 5 5 5 5 5 5 6 5 5 5 5 5 5 5 6 5 5 5 5 5 5 5 5 5 5 5 5 5 5 5 5 5 5 5 5 5 5 5 5 5 5 5 5 5 5 5 5 5 5 5 5 5 5 5 5 5 5 5 5 5 5 5 5 5 5 5 5 5 5 5 5 5 6 5 5 5 5 5 5 5 6 5 5 6 5 5 5 6 5 6 5 5 6 5 5 5 5 5 5 5 6 5 5 5 6 5 5 5 5 5 5 5 6 5 6 5 5 5 5 5 5 5 5 5 5 5 5 5 5 5 5 5 5 5 5 5 5 5 5 5 6 6 5 6 5 5 5 5 5 5 5 6 5 6 5 6 6 6 5 5 6 5 5 6 5 5 5 6 5 5 5 5 5 5 5 6 6 5 5 6 5 5 5 6 5 5 5 5 6 5 6 5 5 5 5 5 5 6 5 6 5 5 5 5 5 6 5 5 6 5 5 5 5 5 5 5 5 5 5 5 5 5 5 5 5 6 5 5 6 6 5 6 5 5 5 5 5 5 5 5 6 5 5 5 5 5 5 5 5 5 5 5 5 5 5 5 5 6 5 5 5 6 5 5 6 5 5 5 5 5 5 6 5 5 5 5 5 5 5 5 5 5 5 5 5 5 5 5 5 5 5 6 6 5 5 5 5 5 5 5 6 5 5 5 6 5 5 6 5 6 5 5 6 5 6 6 5 6 5 6 5 6 5 5 5 5 5 5 5 5 5 5 5 5 5 5 5 6 6 5 5 5 5 5 5 5 6 5 5 5 5 5 5 5 5 5 5 5 5 5 5 5 6 5 6 5 5 5 5 5 5 6 5 5 5 6 5 5 5 6 5 5 5 5 5 5 5 5 5 5 5 5 5 5 5 5 5 5 5 5 5 6 5 5 5 5 6 5 5 5 5 5 6 5 5 5 6 5 5 5 5 5 5 5 5 5 5 5 5 6 5 5 5 5 6 5 5 5 5 5 5 5 5 6 5 5 5 5 5 5 5 6 5 5 5 5 6 5 5 5 5 5 5 5 5 6 5 5 5 5 5 5 5 5 5 6 5 5 5 5 5 5 5 5 5 5 5 5 5 5 5 5 5 5 5 5 5 5 5 5 5 5 5 5 6 5 5 5 5 5 5 5 6 5 5 5 5 5 5 5 5 5 5 5 5 5 5 5 5 5 5 5 5 5 5 5 5 5 5 5 5 5 6 5 5 5 5 5 5 5 5 5 5 5 5 5 5 5 5 5 5 5 5 5 5 5 5 5 5 5 5 5 5 5 5 6 5 5 6 5 5 5 5 6 5 5 6 5 5 5 5 6 5 5 5 6 5 5 5 6 5 5 5 5 5 5 5 5 5 5 6 5 5 6 5 5 5 5 5 5 6 5 5 5 5 5 6 5 5 5 5 6 5 5 5 5 5 5 5 5 5 5 6 5 5 5 5 5 5 5 5 5 6 5 5 5 5 5 5 5 5 5 5 5 5 5 6 5 5 5 5 5 5 5 6 5 5 5 5 5 6 5 5 5 5 5 5 5 5 5 5 5 5 5 5 6 5 5 5 5 5 5 5 5 6 5 5 5 5 5 5 5 5 5 5 5 5 5 5 5 5 5 5 5 5 5 5 5 5 5 5 5 5 5 5 5 5 5 6 5 5 5 5 6 6 5 5 6 5 5 6 5 5 6 5 5 5 5 5 5 5 5 5 5 5 5 5 5 5 5 5 5 5 6 5 5 5 5 6 5 5 5 5 5 5 5 5 5 5 5 5 5 5 5 5 5 5 5 5 5 5 5 5 5 5 5 5 5 5 5 5 5 5 5 5 5 5 5 5 5 5 5 5 5 5 5 5 5 5 5 5 5 5 5 5 5 5 5 5 5 5 5 5 5 5 5 5 5 5 5 6 5 5 5 5 6 5 6 5 5 6 5 5 5 5 6 5 5 6 5 5 5 5 5 5 5 5 5 5 5 5 5 5 5 5 5 5 5 5 5 5 5 5 5 5 5 5 5 5 5 5 5 5 5 5 5 5 5 5 5 5 5 5 5 5 5 5 5 5 5 5 5 5 5 5 5 5 5 5 6 5 5 5 5 5 5 5 5 5 6 5 5 5 5 5 5 5 6 5 5 5 5 5 5 5 5 5 5 5 5 5 5 5 5 5 5 5 6 6 5 5 6 5 6 5 5 5 5 5 5 5 5 5 5 5 5 5 5 5 5 5 5 5 5 5 5 5 5 5 5 5 5 5 5 5 5 5 5 5 5 5 5 5 5 5 5 5 5 5 5 5 5 5 5 5 5 5 5 5 6 6 5 5 5 5 5 5 5 5 5 5 5 5 5 5 5 5 5 5 5 5 6 5 5 5 5 5 5 5 5 5 5 6 5 5 5 6 5 5 5 5 5 5 6 5 5 5 5 5 5 5 5 5 5 5 5 5 6 5 5 5 5 5 5 6 6 5 6 5 5 6 5 5 5 6 5 5 5 6 5 5 5 5 5 6 5 6 5 5 5 5 6 5 5 5 5 6 5 6 5 5 6 6 5 5 5 5 5 6 5 5 5 5 5 6 6 6 5 6 5 6 5 5 5 5 5 6 5 5 5 5 5 5 5 5 6 6 5 5 6 5 5 5 5 6 5 5 6 5 5 6 5 5 5 5 5 5 5 5 5 6 5 5 5 5 5 5 5 5 6 5 5 5 5 5 5 5 5 5 6 6 5 5 5 5 5 5 5 5 5 5 5 5 5 5 5 5 5 5 5 5 5 5 5 5 5 5 5 5 5 5 5 5 5 5 5 6 5 5 5 5 6 5 5 5 5 5 5 5 5 5 5 5 5 5 5 5 5 6 6 5 5 5 5 5 5 5 5 5 6 5 5 5 5 6 5 5 6 5 5 5 5 5 5 5 5 5 5 5 5 5 6 5 5 5 5 5 5 5 5 5 5 5 5 5 5 5 5 5 5 5 5 5 5 5 5 5 6 5 5 5 5 5 6 5 5 5 6 5 5 5 6 6 5 5 5 5 5 5 5 5 5 5 5 5 5 5 6 5 5 5 6 5 5 5 5 6 6 5 5 5 5 5 5 5 5 5 5 5 5 5 5 5 5 5 5 5 5 5 5 5 6 5 5 5 5 5 5 5 5 5 6 5 5 5 5 6 5 6 5 5 5 5 6 5 5 5 5 5 5 5 5 5 5 5 5 5 5 5 6 5 5 6 5 5 5 5 5 5 5 5 5 5 6 6 5 5 5 5 6 5 5 5 6 5 5 5 5 6 6 5 6 5 6 5 6 5 5 6 5 5 6 5 5 6 5 5 5 6 5 5 6 5 6 5 6 5 5 6 5 5 5 5 5 5 5 5 5 5 5 5 5 6 5 5 5 5 5 5 5 5 5 5 5 5 5 5 5 5 6 6 5 5 5 5 5 6 5 5 5 5 6 5 5 6 5 5 5 5 6 5 5 5 5 5 5 5 5 5 5 5 5 5 5 5 5 5 5 5 5 5 5 5 5 5 5 5 5 5 5 5 5 5 5 5 5 5 5 6 5 5 5 5 5 5 5 5 5 5 5 5 5 6 5 6 5 5 5 5 6 5 5 5 5 5 5 5 5 5 5 5 5 5 5 5 5 5 5 6 5 6 5 5 6 5 5 5 6 5 5 5 5 5 5 5 5 5 5 5 5 5 5 5 5 5 5 5 5 5 5 5 5 5 5 5 6 5 5 6 5 5 5 5 5 5 5 5 5 5 5 5 5 5 5 5 5 5 5 5 5 5 5 5 5 5 5 5 5 5 5 5 5 5 5 6 5 6 5 5 5 5 5 5 5 5 5 5 5 5 5 5 5 5 5 6 6 5 5 5 5 5 6 5 5 5 5 6 5 5 5 5 6 5 5 5 5 5 5 5 5 5 5 5 5 5 5 5 5 5 5 6 5 5 5 5 5 5 6 5 5 6 5 5 5 5 5 5 5 5 5 5 5 5 6 5 5 6 5 5 5 5 5 5 5 5 6 5 5 5 5 5 5 6 5 5 6 5 5 5 5 5 5 5 5 5 5 5 5 5 5 5 5 5 5 5 5 5 5 5 5 5 5 5 5 5 5 5 5 5 5 5 5 6 5 5 5 6 5 5 6 5 5 5 5 5 5 6 5 5 5 5 5 6 5 5 5 5 5 5 6 5 5 5 5 6 5 6 5 5 6 5 5 5 6 5 5 5 5 5 5 5 5 5 5 5 5 5 6 5 5 5 5 5 5 5 5 5 5 5 5 5 5 5 5 5 5 5 5 5 5 5 5 6 5 6 5 6 5 6 5 5 5 5 6 5 5 5 5 6 5 5 5 5 5 5 5 5 5 5 5 5 5 5 6 5 5 5 6 5 5 5 6 5 5 6 5 5 5 6 5 5 5 5 6 5 5 5 5 6 5 5 5 5 5 5 5 5 5 5 6 5 5 5 5 5 6 5 6 5 5 5 5 5 6 6 5 5 6 5 6 5 5 6 5 5 5 5 5 5 5 5 5 5 5 5 5 6 5 5 5 5 5 6 5 5 5 5 5 5 5 5 5 5 6 5 6 5 5 6 5 5 6 5 6 5 6 5 5 5 5 5 6 6 5 5 5 5 5 5 5 5 5 5 5 6 5 5 5 5 5 6 5 5 5 6 5 6 5 5 5 5 5 5 5 5 5 5 5 5 5 5 5 6 5 5 5 5 6 5 5 5 5 5 5 5 5 5 5 5 5 5 5 5 5 5 5 5 5 5 5 5 6 5 5 6 5 5 5 5 5 5 5 6 5 5 6 5 6 5 5 5 5 5 5 5 5 5 6 5 5 6 5 5 5 6 5 5 5 5 5 5 5 6 5 5 5 5 6 6 5 5 5 5 5 5 5 5 5 6 5 5 5 5 5 5 5 5 5 5 5 5 5 5 5 5 6 5 6 5 5 5 6 5 5 5 5 5 5 5 5 5 5 5 5 5 6 5 5 5 5 5 6 5 5 5 6 6 5 5 5 6 5 5 6 5 5 5 5 6 6 5 5 5 6 5 5 6 5 5 5 5 6 5 6 5 5 5 6 5 5 5 5 5 5 5 5 5 5 5 5 5 5 5 5 5 5 5 5 5 6 5 5 5 5 5 5 5 5 5 6 5 5 5 6 5 6 5 5 5 5 5 5 5 5 5 5 5 6 5 5 5 5 5 6 5 5 5 5 5 6 5 5 5 5 5 5 5 5 5 5 5 5 5 5 5 5 6 5 5 5 5 5 5 5 5 5 6 5 5 5 5 5 5 5 5 5 5 5 5 5 5 5 6 5 5 5 5 5 5 5 5 5 5 5 5 5 5 5 5 5 5 5 5 5 5 5 5 5 5 5 5 5 6 5 5 5 5 6 5 6 6 5 5 5 5 5 5 6 5 6 5 5 5 6 5 5 6 5 5 5 5 5 5 6 5 5 5 5 5 5 5 6 5 5 5 5 6 5 5 5 5 5 5 6 5 5 5 5 5 5 5 5 5 5 5 5 6 5 6 5 5 5 5 5 5 5 6 6 5 5 5 5 5 5 5 5 6 5 5 5 6 5 5 6 5 5 5 5 5 5 5 5 5 5 5 5 5 5 5 5 5 5 5 5 5 5 5 5 5 6 5 5 6 5 5 5 5 5 6 5 5 6 5 6 5 5 5 6 5 5 5 5 6 5 5 6 6 5 5 5 5 5 6 5 5 6 5 5 5 5 5 6 5 5 5 5 5 5 5 5 5 6 5 5 5 5 6 5 5 5 5 5 5 6 5 6 5 5 5 6 5 6 5 5 6 5 6 5 5 5 6 5 5 5 5 5 5 5 5 5 5 5 5 5 6 5 5 5 5 6 5 5 5 5 5 5 6 5 5 5 5 5 5 5 6 5 5 5 5 5 5 6 5 5 5 5 5 5 5 6 5 5 6 5 5 5 5 5 5 5 5 5 6 6 5 5 5 5 5 5 5 5 5 5 5 5 6 5 5 5 5 5 5 5 6 5 5 5 6 5 6 5 5 6 5 5 5 5 5 6 5 5 5 6 5 5 5 5 6 5 5 5 6 5 5 5 5 5 5 5 6 5 5 6 5 5 5 6 5 5 5 6 5 5 5 5 6 5 5 5 6 5 5 5 5 5 5 5 5 5 6 5 5 5 5 5 5 5 5 5 6 5 5 5 5 6 5 5 6 5 5 5 5 5 5 5 5 5 5 5 5 5 5 5 5 5 5 5 5 5 5 5 5 5 5 6 5 5 5 5 5 5 5 5 5 5 5 6 5 5 5 6 5 5 5 5 5 5 6 5 5 5 5 5 5 5 5 5 5 5 5 5 5 5 5 5 5 5 5 5 5 5 5 5 5 6 5 6 5 5 6 6 5 5 5 5 5 5 5 5 5 5 5 5 5 5 5 5 5 6 5 5 5 5 5 5 5 5 5 5 5 5 5 5 5 5 5 5 5 5 5 5 5 5 5 5 5 5 5 5 5 5 5 5 5 5 5 5 5 5 5 5 5 5 5 5 5 5 5 5 5 5 5 5 5 5 5 5 5 5 5 6 5 5 6 5 5 5 5 6 5 5 5 5 5 5 5 5 5 5 6 5 6 5 5 5 6 5 5 5 6 5 6 5 5 5 6 5 6 5 6 5 5 5 6 5 5 5 5 6 5 6 5 5 5 5 5 6 5 6 6 5 5 5 5 5 5 6 5 5 5 6 5 5 5 5 5 5 5 5 5 5 5 5 5 5 5 5 5 5 5 6 5 5 5 6 6 5 5 5 5 5 6 5 5 5 5 5 5 5 5 5 5 5 5 5 5 6 5 5 6 5 6 5 5 5 6 5 6 5 5 6 5 5 5 5 5 5 5 5 5 5 5 6 5 5 5 5 5 5 5 5 5 5 6 6 5 5 5 5 5 5 5 6 5 5 5 5 5 5 5 5 5 5 5 5 5 5 6 5 5 5 5 5 5 5 5 5 5 6 5 5 5 6 5 6 6 5 5 5 5 5 5 5 5 6 5 5 5 5 5 5 5 5 5 6 5 6 5 6 5 5 5 5 5 5 5 5 6 5 6 5 5 5 5 5 5 6 5 5 6 5 6 5 5 5 5 5 5 5 5 5 5 5 5 5 5 6 5 5 5 5 5 5 5 5 5 5 6 5 5 5 5 5 5 6 5 5 5 5 5 5 5 5 5 5 5 5 5 5 5 5 5 5 5 5 5 5 5 5 5 6 5 5 5 5 5 6 5 5 5 5 5 5 5 5 5 5 5 6 5 5 5 5 6 5 5 5 5 5 6 5 5 5 5 5 6 5 5 6 5 5 5 5 5 5 5 5 5 5 5 5 5 5 5 5 5 5 5 5 5 5 5 5 5 5 6 5 5 6 5 5 5 5 5 5 5 5 5 5 5 5 5 5 5 6 5 5 5 5 5 5 5 5 5 6 5 5 5 5 5 5 5 6 5 5 5 5 5 6 5 5 5 5 5 5 6 5 5 5 5 6 5 5 5 5 5 5 5 6 5 5 6 5 5 6 5 5 5 5 6 5 5 5 5 5 5 5 5 6 5 5 6 5 5 5 5 5 5 5 5 5 6 5 5 5 5 5 6 5 5 5 5 6 5 5 5 6 5 5 5 5 5 5 5 5 5 5 5 6 6 5 5 5 5 5 5 5 5 5 5 5 6 5 5 5 5 5 6 5 6 6 5 6 6 5 5 6 5 5 5 5 5 5 6 5 6 6 5 5 5 5 5 6 5 5 5 5 5 5 5 5 6 5 5 5 5 6 5 5 5 5 5 6 5 5 6 5 5 5 5 5 5 5 6 5 6 5 5 5 5 5 5 5 6 6 5 5 5 5 5 5 5 6 5 5 5 5 5 5 6 5 5 5 5 5 5 5 5 5 5 5 5 5 5 6 5 5 6 5 5 5 5 6 5 5 5 5 6 5 5 5 5 5 5 6 5 5 5 5 5 5 5 6 5 5 5 6 5 5 5 5 6 5 5 6 5 5 5 5 5 5 5 6 5 5 5 5 6 5 6 5 5 5 5 5 5 5 5 5 5 5 5 5 5 6 5 5 5 5 5 5 5 6 5 5 6 5 5 6 5 5 5 5 5 5 5 5 5 6 5 5 5 6 5 5 5 5 5 5 5 5 5 6 5 5 5 5 5 5 5 5 5 5 5 6 5 5 5 6 5 5 5 5 5 5 5 5 5 5 5 6 5 5 5 5 5 5 5 5 5 5 6 5 5 5 5 5 6 5 5 5 5 5 5 5 5 6 5 5 6 5 5 6 5 5 5 5 6 6 5 5 5 5 6 5 5 5 5 6 5 5 6 5 5 5 5 6 5 5 6 5 5 5 5 5 6 5 5 5 5 5 5 5 5 6 5 6 5 5 5 5 5 5 5 5 5 6 6 5 5 5 5 5 5 6 5 5 6 5 5 6 5 6 5 5 5 6 5 5 6 5 5 5 5 5 5 5 5 6 6 5 5 6 6 5 5 5 5 6 5 5 5 6 5 6 5 6 6 6 5 6 5 5 5 6 5 5 5 5 5 5 5 5 5 6 5 5 6 5 5 5 5 5 5 6 5 5 5 5 5 5 6 6 6 5 5 5 5 5 5 5 5 5 5 5 6 5 5 5 5 6 5 5 5 5 5 5 5 5 6 5 5 6 5 5 5 6 5 5 5 5 5 5 5 5 5 6 5 5 5 5 5 5 5 5 6 5 5 5 6 5 5 6 5 5 5 6 5 6 5 5 6 5 6 5 5 6 5 5 5 5 5 5 6 5 5 6 5 5 5 5 5 5 5 5 5 5 5 5 5 5 5 5 5 5 5 5 5 5 5 5 5 5 5 5 5 5 5 5 5 5 5 5 5 5 5 5 5 5 5 5 5 5 5 5 5 5 5 5 5 5 5 5 5 5 5 5 5 5 5 5 5 5 5 5 5 5 5 5 5 5 5 5 5 5 5 5 5 5 5 5 5 5 5 5 5 5 5 5 5 5 5 5 6 5 5 5 5 6 5 5 5 5 5 5 5 5 5 5 5 5 6 6 5 5 5 5 5 5 5 5 5 5 5 5 5 5 5 6 5 5 5 6 5 5 5 5 5 5 5 5 5 5 6 5 6 5 5 5 5 5 5 5 5 5 5 5 5 5 5 5 5 5 5 5 5 5 5 5 5 6 5 5 5 5 6 5 5 5 5 5 5 5 5 6 5 5 5 5 5 5 5 5 5 5 5 5 5 5 5 5 5 5 5 5 5 5 5 5 5 5 5 5 5 5 5 5 5 5 5 5 5 5 5 5 5 5 5 5 5 5 5 5 5 6 5 5 5 5 5 5 5 5 5 5 5 5 5 5 5 5 5 5 5 5 5 5 5 5 5 5 5 5 5 5 5 5 6 5 5 5 5 5 5 6 5 5 5 5 5 5 6 5 5 6 5 6 5 6 5 5 5 5 6 5 5 5 5 5 6 5 5 5 6 6 5 5 5 6 5 5 5 5 6 6 5 5 5 5 5 5 5 5 5 5 5 5 5 5 6 5 5 6 5 5 6 6 5 5 5 5 5 5 5 5 5 5 6 5 6 5 5 5 5 5 5 5 5 5 5 5 6 5 5 5 5 5 5 5 6 5 5 5 5 5 5 5 5 5 5 5 5 5 5 5 5 5 5 6 6 5 5 5 5 5 5 5 5 5 5 5 5 5 5 5 5 5 6 5 5 5 5 5 5 5 5 5 6 5 5 5 5 5 5 5 5 5 5 5 5 6 5 5 5 5 6 5 6 5 5 5 5 5 5 5 5 5 6 5 5 5 5 6 5 5 5 5 6 5 6 5 5 5 5 5 5 5 5 5 5 5 5 6 5 5 5 5 5 5 5 5 5 5 5 5 5 5 5 6 5 6 5 5 6 5 5 5 6 5 6 5 5 6 5 5 6 5 6 5 5 5 5 5 5 5 6 6 5 5 5 5 6 6 5 5 6 6 5 6 5 5 6 6 5 5 6 5 5 6 5 5 5 5 5 5 5 5 6 5 5 6 5 6 5 5 5 6 5 5 5 5 5 5 5 5 6 5 5 5 5 5 5 5 5 5 5 5 5 5 5 5 5 5 5 5 5 5 5 6 5 5 5 5 5 5 5 5 5 5 5 5 5 5 5 5 5 5 
</DataArray>
<DataArray type="Float64" Name="stress" NumberOfComponents="9" format="ascii">
-849.46649069136583 69.71654561566163 0 69.71654561566163 -0.46471409796416857 0 0 0 0 -1496.9276157062868 429.8900699798142 0 429.8900699798142 185.23457914357633 0 0 0 0 -990.32877183800611 832.72329994326935 0 832.72329994326935 -157.11489345512385 0 0 0 0 -777.53259357237403 244.92710253598503 0 244.92710253598503 4.4752302059610116 0 0 0 0 150.16033568579223 8.3709919345714194 0 8.3709919345714194 -171.37274492191654 0 0 0 0 -525.06147345323734 757.85772611070013 0 757.85772611070013 -575.703658716674 0 0 0 0 -8.279364139872726 0.72833621386176972 0 0.72833621386176972 0.14310630857463474 0 0 0 0 -52.39329164022638 81.167607088232131 0 81.167607088232131 -43.997913085861313 0 0 0 0 -363.30163847110816 -101.17666817756064 0 -101.17666817756064 479.77222433089486 0 0 0 0 -87.903276655837544 117.39405444380877 0 117.39405444380877 155.58074329763082 0 0 0 0 -14.001641929246404 -0.058903885893348829 0 -0.058903885893348829 1.1772620667955538 0 0 0 0 -658.14790294353224 -39.357431022680075 0 -39.357431022680075 51.558026068230888 0 0 0 0 236.38901909156993 117.79289158223074 0 117.79289158223074 75.785515790253143 0 0 0 0 89.432254255196312 -157.26325692120588 0 -157.26325692120588 -248.8431743123098 0 0 0 0 -2.7601257544770306 -0.87033359066779425 0 -0.87033359066779425 -0.33769464941996163 0 0 0 0 -447.09006787186445 107.62321973797049 0 107.62321973797049 -182.96870775005809 0 0 0 0 -224.64716145323473 188.36290261241837 0 188.36290261241837 -179.73570649990552 0 0 0 0 -443.92984855944292 150.11446034509254 0 150.11446034509254 20.963698457942527 0 0 0 0 -96.478832264627272 -34.220392666265489 0 -34.220392666265489 7.7149394118257817 0 0 0 0 -38.476162816863507 -8.6880687212919749 0 -8.6880687212919749 0.003157073813842459 0 0 0 0 -64.472737818152382 10.985170865165685 0 10.985170865165685 -2.5549355889260781 0 0 0 0 -1.4917195105944074 -0.71472493417490313 0 -0.71472493417490313 0.25274881315557207 0 0 0 0 -7.6906600681107591 -1.3580954270278252 0 -1.3580954270278252 0.2606977378008366 0 0 0 0 -193.75830932185272 -74.572125874944561 0 -74.572125874944561 161.67473404072638 0 0 0 0 -4.7075479273153178 0.50400459318916635 0 0.50400459318916635 1.2694837193223207 0 0 0 0 4.2586202888815023 4.7950078556492066 0 4.7950078556492066 2.9640795826881323 0 0 0 0 -2.9220888676500181 0.54164315567521193 0 0.54164315567521193 0.5172155280393782 0 0 0 0 0.0015620405337415377 0.22714163829754597 0 0.22714163829754597 -0.20907581463903868 0 0 0 0 -0.27795805247167493 0.19492820797607635 0 0.19492820797607635 -0.069381210192330192 0 0 0 0 -4.7209057259606197 1.2097589643129685 0 1.2097589643129685 0.89393304185494293 0 0 0 0 -3.5804118881855231 0.704338511378511 0 0.704338511378511 0.29733614294198363 0 0 0 0 -5.5238363693070056 1.8360150447179748 0 1.8360150447179748 0.77634771748541798 0 0 0 0 -1.6278948794642929 4.4251182316517443 0 4.4251182316517443 -2.8300125494395587 0 0 0 0 -1.4627866145676833 2.104296965557964 0 2.104296965557964 -0.14701641346245675 0 0 0 0 -0.98254252886181348 4.1229305513244014 0 4.1229305513244014 -5.1203386430915998 0 0 0 0 -11.414180622468848 -12.487555820762839 0 -12.487555820762839 -12.759764269689413 0 0 0 0 -0.88518030156410532 8.8623565967206375 0 8.8623565967206375 1.3121138047285115 0 0 0 0 -5.3846577827960118 3.9482687779384307 0 3.9482687779384307 -0.82947697465363457 0 0 0 0 -37.466630188966519 191.93642826305958 0 191.93642826305958 33.604316414421589 0 0 0 0 166.28870587176061 -137.68257459669195 0 -137.68257459669195 -261.20351072485829 0 0 0 0 -1.3387876126677014 0.81077519536616194 0 0.81077519536616194 0.42581145523483999 0 0 0 0 -21.507678998859774 38.885001822530114 0 38.885001822530114 -21.09460405118773 0 0 0 0 161.50263511706726 44.123323127264115 0 44.123323127264115 -77.976190787039741 0 0 0 0 -20.900203728611814 -3.4793079558360063 0 -3.4793079558360063 11.658915546139667 0 0 0 0 -14.109606789126701 -5.1822895876782695 0 -5.1822895876782695 -9.8131113889409676 0 0 0 0 -29.201835062973259 2.8000848808065655 0 2.8000848808065655 45.892566116474818 0 0 0 0 13.555610970986891 -40.367100510435279 0 -40.367100510435279 33.178752357845497 0 0 0 0 -42.872610925034678 -150.91292652052149 0 -150.91292652052149 64.752183078755365 0 0 0 0 -5.9225965176000273 -0.30938148658382048 0 -0.30938148658382048 0.24311320222788957 0 0 0 0 -152.76585009386326 -345.15387410355066 0 -345.15387410355066 208.56940070513818 0 0 0 0 -434.51708176049942 58.306281553352221 0 58.306281553352221 86.976187837041579 0 0 0 0 -149.09440937556792 263.13734017048375 0 263.13734017048375 -255.10622205011623 0 0 0 0 -30.381027927236573 71.328825196020347 0 71.328825196020347 -113.59613068052886 0 0 0 0 -91.958195121391327 28.617726689949734 0 28.617726689949734 95.237305968324847 0 0 0 0 -192.36688854673775 137.0141599218187 0 137.0141599218187 11.099531463631251 0 0 0 0 -39.514686284863274 -81.705698797897412 0 -81.705698797897412 70.510999087933953 0 0 0 0 -44.759788396189833 10.421271012092461 0 10.421271012092461 11.64208456465235 0 0 0 0 -38.356260471842802 1.0375810168178692 0 1.0375810168178692 3.0078842299631736 0 0 0 0 -47.615780177422948 -0.1802237532085087 0 -0.1802237532085087 31.755073863005691 0 0 0 0 -20.489127961694976 7.110300252781105 0 7.110300252781105 5.7482777007292043 0 0 0 0 -13.881226994145038 6.4551873699812674 0 6.4551873699812674 0.94301304279923426 0 0 0 0 0.36967777406971436 -63.752340177489558 0 -63.752340177489558 88.301784360110602 0 0 0 0 -40.33213509304764 0.95586280918200472 0 0.95586280918200472 3.8388102715618775 0 0 0 0 -74.431239198973344 -104.06770421759586 0 -104.06770421759586 75.964691466415218 0 0 0 0 -10.51939064181532 -0.82200358395056128 0 -0.82200358395056128 5.0483572599307456 0 0 0 0 -42.610868529351137 11.512589136494171 0 11.512589136494171 8.9949712621948947 0 0 0 0 -19.03524237851321 10.57390057717155 0 10.57390057717155 -1.5942885783223275 0 0 0 0 -42.419126548356871 11.06274680540929 0 11.06274680540929 5.6845184042772416 0 0 0 0 -31.199215405038558 11.667120942289898 0 11.667120942289898 5.4233856203272808 0 0 0 0 -44.080291682930692 20.308855037538251 0 20.308855037538251 2.304702549753074 0 0 0 0 -44.895236772415728 14.599895150008912 0 14.599895150008912 15.676141593463853 0 0 0 0 -41.821793316126787 35.670233200394364 0 35.670233200394364 14.346828339029798 0 0 0 0 -26.229598415475266 38.542593348209266 0 38.542593348209266 -38.644203437934721 0 0 0 0 -38.40296431427123 30.775522040857879 0 30.775522040857879 0.33532972055540711 0 0 0 0 -40.859945979929762 5.7527571633415846 0 5.7527571633415846 20.430729731617021 0 0 0 0 -65.551840893510416 0.64847991578727715 0 0.64847991578727715 19.487826648493183 0 0 0 0 -59.404749853918474 24.082459408995192 0 24.082459408995192 10.829400119695265 0 0 0 0 -55.358919848722508 16.892129705699858 0 16.892129705699858 23.045037197322927 0 0 0 0 -80.900040468884981 18.234140409106658 0 18.234140409106658 23.270308705148437 0 0 0 0 -54.614250968294073 -7.4540890749108257 0 -7.4540890749108257 25.1132867284648 0 0 0 0 -55.555471070787462 -21.063954428705188 0 -21.063954428705188 -1.0567758691391873 0 0 0 0 -46.709137759793521 -7.5421754727650523 0 -7.5421754727650523 12.430249102591574 0 0 0 0 -37.622378685482545 -15.381489230255283 0 -15.381489230255283 18.181340324795883 0 0 0 0 -4.0150841704291231 -5.5123439191788179 0 -5.5123439191788179 10.822029778482397 0 0 0 0 -140.45366812195425 -121.61945946080118 0 -121.61945946080118 -145.59273249614239 0 0 0 0 -52.427245670111006 -13.387704381002663 0 -13.387704381002663 23.04371486911441 0 0 0 0 -296.58693606011366 -210.84005129611739 0 -210.84005129611739 67.444826215862818 0 0 0 0 -900.05886972510416 -760.79652850004675 0 -760.79652850004675 50.95761164671633 0 0 0 0 -259.18139196373522 -375.77569427516983 0 -375.77569427516983 -396.4062962856392 0 0 0 0 -1497.5954208196781 -1050.4936098376375 0 -1050.4936098376375 -144.942777036997 0 0 0 0 -915.83200663691605 -637.83557548534634 0 -637.83557548534634 104.84939746823011 0 0 0 0 -316.7412578971489 -867.31985770649771 0 -867.31985770649771 -1492.7565652219469 0 0 0 0 -7.5714149123343475 -2.7946764483523214 0 -2.7946764483523214 -2.334650991971873 0 0 0 0 -199.11146281906258 -198.24213975659643 0 -198.24213975659643 -150.75029656811853 0 0 0 0 -144.88233921430765 -184.43795098061693 0 -184.43795098061693 -255.60890656593187 0 0 0 0 -18.673831609927234 -7.0761882211368405 0 -7.0761882211368405 -0.23939151143827664 0 0 0 0 -7.7636684636221531 -0.075922439984047685 0 -0.075922439984047685 -1.6906889351061405 0 0 0 0 -148.01929366950571 68.634638604756361 0 68.634638604756361 -140.58539801263603 0 0 0 0 -401.43175698488358 -3.3054103300290372 0 -3.3054103300290372 18.208804169363404 0 0 0 0 -450.31131154341438 183.18558893737872 0 183.18558893737872 50.527842892526976 0 0 0 0 -1497.9486270758352 736.86046595246933 0 736.86046595246933 -145.59558499459044 0 0 0 0 -1496.0005362167649 274.55105166224871 0 274.55105166224871 63.469741128355075 0 0 0 0 -755.6033238359596 -97.250462832197471 0 -97.250462832197471 -87.669427240468423 0 0 0 0 -240.073535141717 -368.90836504318594 0 -368.90836504318594 36.945892463899526 0 0 0 0 24.147794621014327 41.582454049796027 0 41.582454049796027 -286.02689124127443 0 0 0 0 -21.447716371799288 336.94407157084186 0 336.94407157084186 -135.8737139341915 0 0 0 0 -24.830099573366169 101.35932340455423 0 101.35932340455423 -42.254027693430437 0 0 0 0 30.556049304464977 90.672039642868469 0 90.672039642868469 -108.65060492502062 0 0 0 0 -45.792737423616927 -12.747207704302241 0 -12.747207704302241 -41.625994958594504 0 0 0 0 -35.069237900721376 1.341778533315912 0 1.341778533315912 4.1903741608942955 0 0 0 0 -46.849935063719386 -19.156503586340591 0 -19.156503586340591 27.759979358023656 0 0 0 0 -49.299067374442529 -65.293605411174894 0 -65.293605411174894 -183.59951249516052 0 0 0 0 -18.195198374736719 2.2376002976856313 0 2.2376002976856313 -3.550122174650852 0 0 0 0 -23.707276595854637 11.958589614358019 0 11.958589614358019 -1.4086082913188989 0 0 0 0 -2.2844875109449276 -17.429018790214428 0 -17.429018790214428 -4.3357212299698347 0 0 0 0 -1.034785439799208 -0.7406916605132281 0 -0.7406916605132281 -0.26537779247931126 0 0 0 0 -26.654497239505872 2.7067882233779605 0 2.7067882233779605 -10.66825263191377 0 0 0 0 -17.680338216319797 15.743986995345299 0 15.743986995345299 2.5824265296695375 0 0 0 0 -0.62552778740426618 -0.40664555612959674 0 -0.40664555612959674 -0.083217234485757519 0 0 0 0 3.1302416456346691 -9.4767123711881762 0 -9.4767123711881762 -2.3872450258730469 0 0 0 0 -4.0504458715950022 7.0745603597483857 0 7.0745603597483857 -3.4744530964281761 0 0 0 0 -10.389329374424051 0.94612394052900506 0 0.94612394052900506 -0.024656189941082304 0 0 0 0 -5.8312235061239335 5.392316909999435 0 5.392316909999435 -2.0361526884951253 0 0 0 0 -26.25422174421692 3.9207908229231765 0 3.9207908229231765 2.7081200325095836 0 0 0 0 -34.009423315454114 16.916480693569834 0 16.916480693569834 -8.3597616603061677 0 0 0 0 -62.123301545994764 12.040309235307607 0 12.040309235307607 1.0378750843715023 0 0 0 0 -62.773532717580565 7.4191184707598783 0 7.4191184707598783 -10.278306187777659 0 0 0 0 -65.201379804013413 4.8124336913545678 0 4.8124336913545678 0.0043876555198942065 0 0 0 0 -92.464823867449013 17.689731740894796 0 17.689731740894796 0.15451246910552108 0 0 0 0 -96.704695210798491 4.6972634150569919 0 4.6972634150569919 0.017593909661557237 0 0 0 0 -110.67351789384702 12.149755510581379 0 12.149755510581379 6.8616630629539266 0 0 0 0 -107.9879380876871 -16.860768595977866 0 -16.860768595977866 -22.546824844942936 0 0 0 0 -65.916165888345859 25.269464420712815 0 25.269464420712815 -3.5075034294667446 0 0 0 0 -88.380860769146238 4.2998287890966935 0 4.2998287890966935 0.55007286753543916 0 0 0 0 -20.082795758943575 34.064111636934499 0 34.064111636934499 -11.137978501441893 0 0 0 0 -120.24780347556589 35.483434554713952 0 35.483434554713952 26.038238009139548 0 0 0 0 -123.98662113156388 -35.787740756320716 0 -35.787740756320716 12.829220146732382 0 0 0 0 -157.67587366421503 -14.377599339743036 0 -14.377599339743036 4.1766080870504965 0 0 0 0 -0.15057366602550459 -0.55982967385544669 0 -0.55982967385544669 -1.3522855777740028 0 0 0 0 -25.756077060243115 0.70229932771724179 0 0.70229932771724179 -1.4775788037638264 0 0 0 0 -25.535360658152513 8.063653779041811 0 8.063653779041811 2.0993596699111094 0 0 0 0 -24.882080798262905 2.9666625339527997 0 2.9666625339527997 1.2831413052173275 0 0 0 0 -186.41535663100876 -1.1264479290245148 0 -1.1264479290245148 16.090005238913609 0 0 0 0 -30.342519056855963 3.5423142396252985 0 3.5423142396252985 -3.2320316980053239 0 0 0 0 -0.17800059687598768 -0.20015393055173547 0 -0.20015393055173547 -0.41471916013075483 0 0 0 0 -109.25340011247681 12.888854606020413 0 12.888854606020413 -5.0335786879930167 0 0 0 0 -94.054084907736978 -23.745955630447142 0 -23.745955630447142 -3.5698501409143759 0 0 0 0 -48.236999641965667 8.9309259478670313 0 8.9309259478670313 -0.0094613507230002815 0 0 0 0 -34.81679914279448 5.7295536486160614 0 5.7295536486160614 -0.7449294642806592 0 0 0 0 -30.611948203557404 -3.6959871376528977 0 -3.6959871376528977 -17.415007646719172 0 0 0 0 -20.606051917508012 13.782996214256684 0 13.782996214256684 -9.0741730665004869 0 0 0 0 -16.723011130037776 6.5870318057010167 0 6.5870318057010167 -2.6190057837906693 0 0 0 0 -23.601022637847564 4.5197459114927332 0 4.5197459114927332 6.8090354421850421 0 0 0 0 -26.071432070100855 -5.1627736941169822 0 -5.1627736941169822 -11.055689755470683 0 0 0 0 -2.0202500607483671 9.7724140036798968 0 9.7724140036798968 -0.0093641179624495956 0 0 0 0 -1.5451095569151221 4.4652228380326662 0 4.4652228380326662 -3.1930819665491725 0 0 0 0 -2.8932312085016747 12.426143647301554 0 12.426143647301554 -9.0559694110990208 0 0 0 0 -8.1123765909505892 5.6979632975219374 0 5.6979632975219374 4.2375334624847483 0 0 0 0 -0.641071018938419 7.6526626808048244 0 7.6526626808048244 -5.4307962539763253 0 0 0 0 -10.455781057746208 11.113138369484474 0 11.113138369484474 -3.9993567839671584 0 0 0 0 -19.470542458795535 7.9047982996738426 0 7.9047982996738426 -3.3315141036882068 0 0 0 0 -19.744310127209246 8.0005251738634904 0 8.0005251738634904 2.4961745712592176 0 0 0 0 -14.579096229281276 11.578059001917126 0 11.578059001917126 1.9521622075482128 0 0 0 0 -19.748837799663306 10.599270199398262 0 10.599270199398262 3.410486946267099 0 0 0 0 -15.271071089300676 8.8940282387009688 0 8.8940282387009688 -0.045158593685403758 0 0 0 0 -17.113078979833517 11.172838534391019 0 11.172838534391019 1.2798333352459395 0 0 0 0 -19.628783258056501 6.7998782810311127 0 6.7998782810311127 0.03941099877704346 0 0 0 0 -15.785871274812962 11.52930396712344 0 11.52930396712344 1.3283321603746003 0 0 0 0 -16.679329030655936 9.2650009021787412 0 9.2650009021787412 13.228897167844707 0 0 0 0 -2.0425858029113897 3.9758497924477396 0 3.9758497924477396 -0.28580697416342016 0 0 0 0 -9.7309239074093057 8.6864621638258086 0 8.6864621638258086 3.1919953498007487 0 0 0 0 -7.3694872440267574 3.08550383288744 0 3.08550383288744 0.82503680301160864 0 0 0 0 -8.9869110378131154 12.59889554056457 0 12.59889554056457 4.9875196675866107 0 0 0 0 -17.760448535238538 10.198906799873669 0 10.198906799873669 1.7341136891941176 0 0 0 0 -10.931363399758993 14.169999000280029 0 14.169999000280029 -1.8184501469638974 0 0 0 0 -11.924858068900676 8.7502192199955715 0 8.7502192199955715 -5.1174570401210859 0 0 0 0 -9.3564707705882029 12.428799551723245 0 12.428799551723245 -1.1126635764527464 0 0 0 0 -11.104456939254305 7.6162132859823259 0 7.6162132859823259 -4.535507352692548 0 0 0 0 -15.485290633005206 14.103760116396586 0 14.103760116396586 1.9050665134776636 0 0 0 0 -14.99936933154801 13.608312079659079 0 13.608312079659079 -4.8633645403777308 0 0 0 0 -18.864971148977929 8.3521118369129113 0 8.3521118369129113 -3.9956962578444291 0 0 0 0 -15.637065735461874 25.357285476232789 0 25.357285476232789 -6.1688704427128869 0 0 0 0 -22.174967460105108 27.082214979709875 0 27.082214979709875 -6.6233741480345998 0 0 0 0 -4.9131399702876308 5.273461137247228 0 5.273461137247228 -0.14149887100582026 0 0 0 0 -21.245707878689004 18.840650906475581 0 18.840650906475581 -4.5316959524348039 0 0 0 0 4.5355664022281417 25.516607832633554 0 25.516607832633554 -10.742934186656612 0 0 0 0 12.892144144992926 51.840650769105196 0 51.840650769105196 -23.229129680309583 0 0 0 0 1.9676810584436311 9.470705918177174 0 9.470705918177174 -0.0039199531965637968 0 0 0 0 -3.8980077549786074 14.075665330849688 0 14.075665330849688 -8.1802858929461877 0 0 0 0 -17.502902933216774 18.646743602264316 0 18.646743602264316 -8.2274944313065816 0 0 0 0 -4.5532081434212159 15.914154225779896 0 15.914154225779896 -2.7088739026348776 0 0 0 0 0.0085194120576659316 -17.121469999859624 0 -17.121469999859624 -17.789184325503697 0 0 0 0 6.1143196469281378 3.2805792234448461 0 3.2805792234448461 -1.0031655543544558 0 0 0 0 -13.045356242022535 50.291462988688124 0 50.291462988688124 -45.281737304957687 0 0 0 0 -116.48460335619166 97.715985049343573 0 97.715985049343573 -24.462488820906856 0 0 0 0 -177.30570021809399 -49.630508168960745 0 -49.630508168960745 -13.910284737177648 0 0 0 0 -0.87497227591302362 64.233461657926625 0 64.233461657926625 -117.05581170154937 0 0 0 0 -274.61862210173246 79.179608164276758 0 79.179608164276758 -5.3501315010105372 0 0 0 0 -0.13752704614411471 0.95374795778632659 0 0.95374795778632659 -0.75943702709170602 0 0 0 0 -127.58961287501734 -72.469745307555002 0 -72.469745307555002 -22.046155263367154 0 0 0 0 -274.25339308982075 15.700836380199021 0 15.700836380199021 23.154994609838809 0 0 0 0 -0.023900097059282643 7.5280626423260388 0 7.5280626423260388 -104.37883464819276 0 0 0 0 -11.351696078723762 -29.39991318805275 0 -29.39991318805275 -73.863044957003353 0 0 0 0 -0.079051805967775834 -0.27837347975030013 0 -0.27837347975030013 0.12843780502283636 0 0 0 0 -36.749083304343003 6.381436078958922 0 6.381436078958922 1.7763876139416084 0 0 0 0 -3.7094927550005394 1.2713584276116521 0 1.2713584276116521 -1.3088866448289269 0 0 0 0 -255.46299277218895 37.356554557090774 0 37.356554557090774 29.597236615490587 0 0 0 0 -240.89692184654996 75.346848893306671 0 75.346848893306671 -21.512182359346234 0 0 0 0 -0.54794288153412829 -0.50659910973558908 0 -0.50659910973558908 -1.5318461081816079 0 0 0 0 -128.85518096415035 58.910092509815065 0 58.910092509815065 -65.775902004936484 0 0 0 0 -70.545318754921027 -27.157667428740282 0 -27.157667428740282 -12.678755616875364 0 0 0 0 -14.400167845808028 3.9223028246103127 0 3.9223028246103127 -1.3409603396793841 0 0 0 0 0.071836797748119352 -0.0041152028559210407 0 -0.0041152028559210407 -0.58755895033832761 0 0 0 0 -8.386485906841699 -0.4890050997469757 0 -0.4890050997469757 -3.1917796512726397 0 0 0 0 -11.018493790543289 6.0741101377973905 0 6.0741101377973905 -1.8083886485678136 0 0 0 0 -7.9011338440369343 5.9988099893324645 0 5.9988099893324645 -3.5607061648310498 0 0 0 0 -13.961827299921424 5.3660743842797558 0 5.3660743842797558 -1.3924600252749002 0 0 0 0 -13.052628726854891 4.5340242271505531 0 4.5340242271505531 -2.4085255315863492 0 0 0 0 -10.36914247203822 6.4548853800287844 0 6.4548853800287844 -2.6176220867786242 0 0 0 0 -18.587283071989077 7.5236652649127223 0 7.5236652649127223 0.79963312669303832 0 0 0 0 -18.410692419013571 1.4685859002940402 0 1.4685859002940402 -2.5520771348913058 0 0 0 0 -226.6640243031361 -75.028694687636801 0 -75.028694687636801 27.338485529223362 0 0 0 0 -252.53689275715442 144.14665488499105 0 144.14665488499105 -113.52662229503265 0 0 0 0 -65.289073095071217 84.484089421719972 0 84.484089421719972 -62.338878689875855 0 0 0 0 -241.4353317564819 38.070056960028779 0 38.070056960028779 26.129927838730541 0 0 0 0 -17.901249596630805 -16.730790720041455 0 -16.730790720041455 -9.0482234698706225 0 0 0 0 -0.93960216316662581 -1.0054699138158014 0 -1.0054699138158014 -0.32143452262856331 0 0 0 0 16.081193662859732 31.343617823289378 0 31.343617823289378 10.107562900038488 0 0 0 0 -8.5400031133322045 7.7537529307360842 0 7.7537529307360842 47.932866130156867 0 0 0 0 -1.2708791415837055 0.37145273141894108 0 0.37145273141894108 0.30979243528666112 0 0 0 0 -6.2610838754844735 1.6254250148476537 0 1.6254250148476537 8.7630318304268826 0 0 0 0 5.2067897234519478 3.8552019795050896 0 3.8552019795050896 -22.630314792746248 0 0 0 0 11.306556528143119 21.406057222670114 0 21.406057222670114 -10.559471953599356 0 0 0 0 0.69195574691548245 -2.3765548906264371 0 -2.3765548906264371 -21.670455208615607 0 0 0 0 33.529688350141441 -29.127656643510242 0 -29.127656643510242 -42.443372854026336 0 0 0 0 -1.7588188479712699 2.6975874726189772 0 2.6975874726189772 -30.729243811742833 0 0 0 0 -44.560862538273796 -50.472779805183237 0 -50.472779805183237 -32.743370552028956 0 0 0 0 -1.7132803600813986 0.78019999299939968 0 0.78019999299939968 -0.48869959812220715 0 0 0 0 -141.9614222227392 -83.44346426914511 0 -83.44346426914511 -51.182184481426802 0 0 0 0 -20.046211114095058 -37.738400517487776 0 -37.738400517487776 -103.62776068910418 0 0 0 0 -96.114826877925225 -17.620511539200827 0 -17.620511539200827 -16.7913012434189 0 0 0 0 -122.21724545256438 -53.792524966403519 0 -53.792524966403519 0.88383145495080839 0 0 0 0 -247.44271880185988 -61.804136080664868 0 -61.804136080664868 0.43799348348727563 0 0 0 0 -285.71958373511916 -26.302719209638411 0 -26.302719209638411 39.766446142219877 0 0 0 0 -264.29870976052916 34.02480376211016 0 34.02480376211016 33.926202339338701 0 0 0 0 -235.45411556110776 -20.677090131618016 0 -20.677090131618016 24.799503666676401 0 0 0 0 -215.66637607822486 -1.6051882782010694 0 -1.6051882782010694 4.3479835125463921 0 0 0 0 -195.09704987274017 34.958191774115733 0 34.958191774115733 17.917221261942188 0 0 0 0 -194.72687947306258 35.377138254521043 0 35.377138254521043 -19.006517845246719 0 0 0 0 -115.58649044019694 -7.4994108508494435 0 -7.4994108508494435 -3.3019761171786826 0 0 0 0 -111.00323425655006 -31.043029615022323 0 -31.043029615022323 -8.6355360498038465 0 0 0 0 -59.355703935572819 -12.867910987172792 0 -12.867910987172792 -52.613070709236453 0 0 0 0 -128.60131548905338 62.00679486873338 0 62.00679486873338 -104.29213690116973 0 0 0 0 -2.8051079375472909 -13.481389236009733 0 -13.481389236009733 -12.053048973200703 0 0 0 0 -69.76730885246252 -37.959523913382171 0 -37.959523913382171 -8.5429890190590072 0 0 0 0 -39.694522838981356 1.9335078495368805 0 1.9335078495368805 -30.005403163947072 0 0 0 0 -6.0102555011071672 -25.189075763186494 0 -25.189075763186494 -39.555397771729275 0 0 0 0 -5.1050317949648161 -17.836801432772852 0 -17.836801432772852 -11.79429679701002 0 0 0 0 29.319782871232746 -18.363626345620599 0 -18.363626345620599 -13.262728318417913 0 0 0 0 -25.207029028505403 -17.446570585308308 0 -17.446570585308308 5.6598001883801192 0 0 0 0 13.868651719516492 -6.8643320586910193 0 -6.8643320586910193 -9.083963416618019 0 0 0 0 -21.297488110465409 -18.930153956650443 0 -18.930153956650443 3.9318558405129407 0 0 0 0 26.13716877821571 -60.132734390800181 0 -60.132734390800181 -0.11144402550331023 0 0 0 0 -30.67408757496014 -27.37860117185528 0 -27.37860117185528 -0.51567298856389243 0 0 0 0 -34.603268346618279 -29.177366194840374 0 -29.177366194840374 5.5052589769202314 0 0 0 0 -32.453241272036394 -31.302796128624664 0 -31.302796128624664 -6.0810964818965658 0 0 0 0 -28.308911912987242 -31.059368563172029 0 -31.059368563172029 -6.1166612324687435 0 0 0 0 8.8559989898874107 -6.4434046861649179 0 -6.4434046861649179 -5.8335206588348543 0 0 0 0 -54.914545621206344 -42.048551269113887 0 -42.048551269113887 15.369659093420978 0 0 0 0 -47.552209836689144 -41.705450771266896 0 -41.705450771266896 -6.1178514648358941 0 0 0 0 -56.259365185991555 -35.570472050409307 0 -35.570472050409307 14.170263506468018 0 0 0 0 -67.012644935879507 -35.184510592455354 0 -35.184510592455354 34.016209208197154 0 0 0 0 -65.682133454210998 -8.0865547023173576 0 -8.0865547023173576 16.496314716688019 0 0 0 0 -62.753137812672321 -15.844275413032562 0 -15.844275413032562 35.256205966246398 0 0 0 0 -52.026449022851011 -26.634779405771496 0 -26.634779405771496 14.2556974744125 0 0 0 0 -164.80443283336353 21.604855580196727 0 21.604855580196727 127.27404223177359 0 0 0 0 -51.156080784485184 3.0792262396460615 0 3.0792262396460615 3.2217598658773219 0 0 0 0 2.4474704830245173 0.052484924626199358 0 0.052484924626199358 1.0937623637984046 0 0 0 0 13.842011052533053 -10.528344968085456 0 -10.528344968085456 1.0339030095821613 0 0 0 0 -17.257810184004484 -0.52337071178880024 0 -0.52337071178880024 -0.0057294340736575577 0 0 0 0 -4.6998933387195905 -1.2904210897239352 0 -1.2904210897239352 0.50111876940373279 0 0 0 0 -16.644142835752064 5.3819511053633136 0 5.3819511053633136 0.69792104668317734 0 0 0 0 -13.295302328486287 -1.3418287826414144 0 -1.3418287826414144 -1.1152048282639271 0 0 0 0 -5.3787876556651355 3.412697650117849 0 3.412697650117849 4.7054810610961768 0 0 0 0 -24.73934029211523 4.4244963755266014 0 4.4244963755266014 1.8593623556286047 0 0 0 0 153.81497017253423 -1.958409642969059 0 -1.958409642969059 -391.36198651870632 0 0 0 0 -7.777026925177779 -1.4754647688059208 0 -1.4754647688059208 -0.17280198962671989 0 0 0 0 -6.3122389022319112 -1.7061622792643902 0 -1.7061622792643902 -0.37496346476768849 0 0 0 0 -3.9698042546968608 0.29929566292658905 0 0.29929566292658905 -0.36527050861669941 0 0 0 0 -3.9009517806734948 -0.19202600340861409 0 -0.19202600340861409 -0.983261829092271 0 0 0 0 -7.0963747818004776 -0.054958572094932379 0 -0.054958572094932379 -0.9692488183666228 0 0 0 0 -3.6859550978305009 -0.82767626713692621 0 -0.82767626713692621 -1.0553652057613645 0 0 0 0 -16.193023916894163 4.9227496433719864 0 4.9227496433719864 -7.3224567654340404 0 0 0 0 -11.22170440969785 -0.95363352105329113 0 -0.95363352105329113 -0.84022872745714494 0 0 0 0 -12.13555131992689 -1.6428423673123831 0 -1.6428423673123831 0.42786290057188126 0 0 0 0 -1.0918558974954067 3.5454668893719372 0 3.5454668893719372 -2.332009244314122 0 0 0 0 -9.6103550051338971 -4.7372706853901718 0 -4.7372706853901718 3.3121488190586206 0 0 0 0 -2.2721495087784973 -0.89491305431923251 0 -0.89491305431923251 0.13862425376644971 0 0 0 0 -9.6584840857467498 -6.5567050686997845 0 -6.5567050686997845 -2.7629762931183643 0 0 0 0 -5.7996499044851788 -0.57724570889826232 0 -0.57724570889826232 0.012363718510830513 0 0 0 0 -11.959064426675468 2.8745431021768582 0 2.8745431021768582 16.394402447560196 0 0 0 0 -10.676199485016696 -13.138828985830344 0 -13.138828985830344 -26.276674584045395 0 0 0 0 3.7942517623669119 15.557696484200619 0 15.557696484200619 -11.193151175493313 0 0 0 0 -7.0484972135309363 -6.5603683487640865 0 -6.5603683487640865 -35.502578101913969 0 0 0 0 -6.1870135270437459 -16.84033015116654 0 -16.84033015116654 -23.252793986380311 0 0 0 0 -18.910337902696483 -37.810289217600598 0 -37.810289217600598 -53.395174201004465 0 0 0 0 -41.017018014412315 -47.904253193425802 0 -47.904253193425802 -32.255075563491118 0 0 0 0 -26.759014166731504 -39.926778859167598 0 -39.926778859167598 -28.738406465858588 0 0 0 0 -28.359040265171643 -40.068192677096476 0 -40.068192677096476 -24.40630358531007 0 0 0 0 -33.635560088339844 -41.155087549937207 0 -41.155087549937207 -6.6776620069067576 0 0 0 0 -47.818065043567913 -56.632056100072646 0 -56.632056100072646 -22.727483214123595 0 0 0 0 -28.971618751740607 -24.841882535513832 0 -24.841882535513832 -8.1991965409952172 0 0 0 0 -48.172820662031882 -18.267325491199244 0 -18.267325491199244 -10.130533707249015 0 0 0 0 -24.143174883938627 -32.686476268034767 0 -32.686476268034767 -8.6758899849519366 0 0 0 0 -31.621341313311859 -41.129776349042231 0 -41.129776349042231 -12.450062663683639 0 0 0 0 -16.866670218900254 -28.790286940914029 0 -28.790286940914029 -14.68593907920723 0 0 0 0 -25.407399901007011 -24.318088511237875 0 -24.318088511237875 3.102657551545235 0 0 0 0 -17.921131245551805 -29.71727162572779 0 -29.71727162572779 -7.8791497076178985 0 0 0 0 0.097646277185440056 -0.1708299096112782 0 -0.1708299096112782 -0.006116005436886951 0 0 0 0 -0.20247938053944381 -4.1428596797162527 0 -4.1428596797162527 -6.6930119330975231 0 0 0 0 -5.1233333110722015 -4.176612435970128 0 -4.176612435970128 -2.7505563270157651 0 0 0 0 -12.3760814823072 -17.007194798285923 0 -17.007194798285923 -15.83080062666636 0 0 0 0 -3.3730361792913754 5.4050596210148569 0 5.4050596210148569 -3.6170720888062533 0 0 0 0 -5.7250562355366128 -6.1245237944950759 0 -6.1245237944950759 -7.4210560544731834 0 0 0 0 -27.531669449563793 -7.0743139422791792 0 -7.0743139422791792 4.6695178292193287 0 0 0 0 -10.407744005609921 -6.7986871198705501 0 -6.7986871198705501 -2.4669015702604336 0 0 0 0 -17.603751742266468 -3.8265766059719226 0 -3.8265766059719226 8.5722330355220038 0 0 0 0 -61.386411568204494 -81.995809280755992 0 -81.995809280755992 58.2438568834541 0 0 0 0 -20.958631938066901 -0.31485424004893048 0 -0.31485424004893048 -9.7441839471866842 0 0 0 0 -34.698767913199845 18.728595981676936 0 18.728595981676936 15.742855678547642 0 0 0 0 -37.523711206796179 3.1895911273049506 0 3.1895911273049506 -0.7955953178134223 0 0 0 0 -37.330640437816328 2.1481876657378507 0 2.1481876657378507 0.78420288108009117 0 0 0 0 -36.440920737841225 0.070901201152082649 0 0.070901201152082649 1.05400697218505 0 0 0 0 -35.628426909581322 0.8294535339474578 0 0.8294535339474578 -2.8016977552256321 0 0 0 0 -31.653722517698043 -1.0097242850243759 0 -1.0097242850243759 -2.3392998819724511 0 0 0 0 -33.5218880466673 3.962036654039764 0 3.962036654039764 -0.92390899135266125 0 0 0 0 -6.1627803155785159 -5.7539783499828587 0 -5.7539783499828587 2.5431423642942819 0 0 0 0 -36.153162494763819 0.19856634277584817 0 0.19856634277584817 -3.2304039028808802 0 0 0 0 -10.835161541725029 -6.7183267699921885 0 -6.7183267699921885 4.4575948532892653 0 0 0 0 -11.302996297228674 -5.6511431343487857 0 -5.6511431343487857 4.0126521201021887 0 0 0 0 -10.101314783889393 -9.6122103719831102 0 -9.6122103719831102 -2.4381882785742164 0 0 0 0 -9.651409738122311 -7.173996935578316 0 -7.173996935578316 2.8847304612502285 0 0 0 0 -11.807409269502386 -4.7814587701955134 0 -4.7814587701955134 5.34403136513356 0 0 0 0 -11.044577292399481 -7.9668383503712903 0 -7.9668383503712903 3.6279754802594653 0 0 0 0 -8.0902039534194046 -4.0285730650389269 0 -4.0285730650389269 7.0930954348914383 0 0 0 0 -11.063114308042714 -8.2406823627364929 0 -8.2406823627364929 6.2103411483458331 0 0 0 0 -4.2287365812085156 -1.8848851384999534 0 -1.8848851384999534 0.47286677855317594 0 0 0 0 -13.588597283545823 -5.0764218818614353 0 -5.0764218818614353 0.89618704129217264 0 0 0 0 -13.523676509375946 -0.85478826194304247 0 -0.85478826194304247 -0.019345799263362551 0 0 0 0 -10.515041809955477 -1.5874052012235644 0 -1.5874052012235644 0.38366604639292845 0 0 0 0 -1.1709042180935541 -0.70285888134560537 0 -0.70285888134560537 -0.24647342271898598 0 0 0 0 -12.19598790910095 -0.60813959080132918 0 -0.60813959080132918 17.949352412488224 0 0 0 0 -35.680376438980602 -6.8691105874702316 0 -6.8691105874702316 3.5695060762922424 0 0 0 0 -38.614704126441211 -1.5543562151450949 0 -1.5543562151450949 0.12062521422782524 0 0 0 0 1.0621487271168775 -3.5078723905013129 0 -3.5078723905013129 -0.16642985838372931 0 0 0 0 -50.689716541193775 8.9140616740699983 0 8.9140616740699983 6.1108121915706874 0 0 0 0 -3.2437705739048397 -9.1684187144391558 0 -9.1684187144391558 2.1925009163551294 0 0 0 0 -7.3787798674953535 -6.494315328631731 0 -6.494315328631731 0.040425401304286512 0 0 0 0 -31.796702410847502 -1.49585277712481 0 -1.49585277712481 0.28017017359638885 0 0 0 0 -33.363692600752984 7.840271560696749 0 7.840271560696749 0.62586468376218818 0 0 0 0 -28.439868548906816 6.9898281847204089 0 6.9898281847204089 -3.1393045048625368 0 0 0 0 -38.615335216818494 2.137353256545623 0 2.137353256545623 -1.0980771192191128 0 0 0 0 -34.45582663686946 -2.3042355639712468 0 -2.3042355639712468 0.25133757558489833 0 0 0 0 -35.971503611130174 0.041326727847661004 0 0.041326727847661004 -0.24016620460838567 0 0 0 0 -30.875122881421703 2.1204712786476421 0 2.1204712786476421 -1.5733897379506061 0 0 0 0 -31.713083352369722 3.9910176272341573 0 3.9910176272341573 -5.5483126924882527 0 0 0 0 -23.631510543513286 -0.68967390613045154 0 -0.68967390613045154 -3.7535635701773913 0 0 0 0 -24.7924767506629 3.1565770899359222 0 3.1565770899359222 -14.776475254004708 0 0 0 0 -19.501842174802732 8.9985372011461777 0 8.9985372011461777 -8.6276454231114599 0 0 0 0 -23.951951650888077 20.091936913230256 0 20.091936913230256 -35.716746497500026 0 0 0 0 -29.707782782716095 11.724631246366812 0 11.724631246366812 -9.3546266133547533 0 0 0 0 -29.254440355775273 1.1144918185737565 0 1.1144918185737565 11.904299084599245 0 0 0 0 -38.048871540413529 16.507664390276943 0 16.507664390276943 8.4066072364567503 0 0 0 0 -8.3420254561088996 2.054623535625506 0 2.054623535625506 0.47146612421359757 0 0 0 0 -27.898030922722683 21.305324684953916 0 21.305324684953916 -5.269186473591617 0 0 0 0 -45.790682831091544 -0.0072077316712011452 0 -0.0072077316712011452 -2.8494376723551795 0 0 0 0 -49.927586612146115 6.3231318509855328 0 6.3231318509855328 1.634481524927196 0 0 0 0 -44.713325693883235 7.1999719517789913 0 7.1999719517789913 1.5148870579401432 0 0 0 0 -36.932570977216528 2.2944088612916858 0 2.2944088612916858 -2.4765507461031575 0 0 0 0 -38.37205423413252 0.25151954389457387 0 0.25151954389457387 -0.087596348521458367 0 0 0 0 -39.163389828347135 1.8718224153362826 0 1.8718224153362826 -1.9298645938413301 0 0 0 0 -38.846003151491459 2.1188040107899724 0 2.1188040107899724 -6.3500957310525337 0 0 0 0 -37.993156766224004 -5.233888125315648 0 -5.233888125315648 3.9725589592841506 0 0 0 0 -42.03538340756495 0.11817330967323869 0 0.11817330967323869 1.4620577106184101 0 0 0 0 -57.724553139079944 3.1663994438156351 0 3.1663994438156351 0.93797845931703705 0 0 0 0 -8.9544304574116396 -0.89193543024092747 0 -0.89193543024092747 3.1668889385124754 0 0 0 0 -82.052877553705912 -8.0491020337280048 0 -8.0491020337280048 68.371906603160653 0 0 0 0 -39.764702283078805 36.71258092839588 0 36.71258092839588 24.005389340288787 0 0 0 0 -45.013020168495132 41.969669820959069 0 41.969669820959069 26.637279137110575 0 0 0 0 -20.209677031445608 29.152503807743187 0 29.152503807743187 -14.035368891202438 0 0 0 0 -26.63381253079767 15.8955700806195 0 15.8955700806195 -3.0245411688137915 0 0 0 0 -16.012606012998731 24.06544223672887 0 24.06544223672887 -11.975087964478007 0 0 0 0 -19.749609060078001 18.671917489674257 0 18.671917489674257 -2.5346257714791136 0 0 0 0 -25.128502052873955 24.671219947196619 0 24.671219947196619 -6.854852415379014 0 0 0 0 -24.159267116308911 21.281921812318956 0 21.281921812318956 0.72486077448706965 0 0 0 0 -24.142344940912153 22.743761997476156 0 22.743761997476156 15.472173690526006 0 0 0 0 -13.254570260805849 20.524675600337048 0 20.524675600337048 -1.5847156083866594 0 0 0 0 -23.52094152679274 25.356334352069041 0 25.356334352069041 1.5338546630712244 0 0 0 0 -19.935029948208467 19.047060391869536 0 19.047060391869536 -27.157056345384035 0 0 0 0 -8.1597098535203259 29.834241346343447 0 29.834241346343447 -44.982559265973691 0 0 0 0 -12.932872686811606 23.553192216160284 0 23.553192216160284 -44.456926659189904 0 0 0 0 -38.936472865825635 24.587558494314237 0 24.587558494314237 -4.4294706157417068 0 0 0 0 -10.285746619150814 -21.07950214703024 0 -21.07950214703024 -10.037781006379987 0 0 0 0 -1.8245856432859 0.54692611645050704 0 0.54692611645050704 -2.400207202833343 0 0 0 0 -10.502090024272547 -17.502285006007654 0 -17.502285006007654 5.9821355458617518 0 0 0 0 -7.3954829821114032 -3.0072890465051181 0 -3.0072890465051181 0.20333749222834252 0 0 0 0 1.1078752450150375 -5.0400395899326398 0 -5.0400395899326398 -3.7500127340458711 0 0 0 0 -12.706723360082833 16.95840828763221 0 16.95840828763221 -19.301515894555905 0 0 0 0 -1.8805461284864577 -3.3045704848616708 0 -3.3045704848616708 -21.401422395690133 0 0 0 0 -23.062274503549204 -5.2782170987280495 0 -5.2782170987280495 -1.735283829460176 0 0 0 0 -20.383594990102893 -4.9947556823536345 0 -4.9947556823536345 0.21424897858169056 0 0 0 0 -51.136013265808288 19.063311368720406 0 19.063311368720406 15.453929151083457 0 0 0 0 -1.8540768276481856 0.9045376085783019 0 0.9045376085783019 0.28443584419194456 0 0 0 0 -19.720192940540073 1.7796118114960677 0 1.7796118114960677 5.9974118658367388 0 0 0 0 -19.299283796407622 2.2999247117362183 0 2.2999247117362183 1.1679761553182368 0 0 0 0 -20.456071416836494 -2.7356559986669708 0 -2.7356559986669708 11.402614563296538 0 0 0 0 -12.660109269453059 4.0631498322580022 0 4.0631498322580022 10.20646659048338 0 0 0 0 -51.22663160211232 63.081604485894331 0 63.081604485894331 26.434005997563872 0 0 0 0 -29.08007504881607 -33.531656001907777 0 -33.531656001907777 37.647012076553438 0 0 0 0 -22.797813912756943 -7.5276202771747229 0 -7.5276202771747229 -0.19647856442585721 0 0 0 0 -10.719089477823218 -2.525493643351524 0 -2.525493643351524 6.9813878605182254 0 0 0 0 -8.3252839114866219 -29.914754994128998 0 -29.914754994128998 -1.5261710743234289 0 0 0 0 -19.68254832708044 -8.7653184053592668 0 -8.7653184053592668 -23.633900323348826 0 0 0 0 -107.13780819071872 -3.8029037045408813 0 -3.8029037045408813 -8.9692394186586171 0 0 0 0 -128.62096022981314 -50.622609915423709 0 -50.622609915423709 -9.6475608213504529 0 0 0 0 -50.166676391158035 -12.78541375407076 0 -12.78541375407076 -22.994405709542207 0 0 0 0 -94.512715285552986 -21.816334965975784 0 -21.816334965975784 -9.0695809641865708 0 0 0 0 -80.997483787423334 -37.741752755923017 0 -37.741752755923017 -27.456860191711712 0 0 0 0 -56.55947405193001 -19.041889061696111 0 -19.041889061696111 -15.490840985203931 0 0 0 0 0.80695148561844832 2.3195117802345173 0 2.3195117802345173 0.62734477173696312 0 0 0 0 -9.3910738089945305 9.8093765435605995 0 9.8093765435605995 5.1592915893618212 0 0 0 0 48.825568221855974 38.67393705061852 0 38.67393705061852 6.9913427480423707 0 0 0 0 -86.558727934439958 -27.600666383888893 0 -27.600666383888893 -15.377634989515627 0 0 0 0 -1.360473651461497 0.73945296412469474 0 0.73945296412469474 0.69716719269370309 0 0 0 0 56.728839338553371 4.1031503622907621 0 4.1031503622907621 22.38506056776896 0 0 0 0 -29.067182070568379 6.1377034206385019 0 6.1377034206385019 3.5002759069570857 0 0 0 0 -23.00070707121813 -0.57547674380009539 0 -0.57547674380009539 4.3793975470262012 0 0 0 0 30.117048539715029 -39.44515325362331 0 -39.44515325362331 -21.679816554958961 0 0 0 0 30.165223291151051 -34.313989899021749 0 -34.313989899021749 -1.9643984974195519 0 0 0 0 -7.6327541254209343 -3.7752778540605654 0 -3.7752778540605654 4.5111220803832488 0 0 0 0 -27.867498662380967 5.7669861364311146 0 5.7669861364311146 0.71834838107088217 0 0 0 0 -24.834510391352524 -1.1390606726444048 0 -1.1390606726444048 6.024249425484868 0 0 0 0 -4.2456568511266255 -4.3222886416693456 0 -4.3222886416693456 3.9976742892280424 0 0 0 0 -41.653412606661732 -0.12299577597215716 0 -0.12299577597215716 18.466038772224351 0 0 0 0 -11.36745331203565 -34.575160259341317 0 -34.575160259341317 16.742021991731775 0 0 0 0 -28.916102896195298 -7.0816115898123542 0 -7.0816115898123542 15.934001012561339 0 0 0 0 -23.973779517024013 -0.23036890183522019 0 -0.23036890183522019 11.329203307952412 0 0 0 0 -10.020672791418161 -3.5957049907524841 0 -3.5957049907524841 4.4781716891941077 0 0 0 0 -20.49794613411359 2.3025313959544746 0 2.3025313959544746 3.2308996301658937 0 0 0 0 -10.562926716007496 -13.658721345778815 0 -13.658721345778815 -34.188657025734983 0 0 0 0 -16.801294244573 -18.253021277903599 0 -18.253021277903599 -3.7205206098944927 0 0 0 0 -22.737309404458713 -1.7476616738769082 0 -1.7476616738769082 1.3873384423135049 0 0 0 0 -31.040082797248033 -11.028889345246398 0 -11.028889345246398 16.825215313835088 0 0 0 0 -31.760255915014568 -1.7113737304597407 0 -1.7113737304597407 1.5157198997264913 0 0 0 0 -14.753044825570214 -5.3278060978638813 0 -5.3278060978638813 3.7975734018994558 0 0 0 0 -17.303405261155675 -2.3590153025005369 0 -2.3590153025005369 1.1077014379099561 0 0 0 0 -23.840075980340771 -1.9837140258641739 0 -1.9837140258641739 2.2445844727744628 0 0 0 0 -13.036243779386282 -7.401938492029231 0 -7.401938492029231 4.1583798206475535 0 0 0 0 -23.051916500207881 0.11912892282082055 0 0.11912892282082055 5.1471429544764078 0 0 0 0 -22.344761625037791 1.4508523386431591 0 1.4508523386431591 3.4647410630659579 0 0 0 0 -5.2107218294018587 1.7046146906554682 0 1.7046146906554682 -0.065766095564047111 0 0 0 0 -23.493412289841217 2.7779714956204771 0 2.7779714956204771 2.5387010927060487 0 0 0 0 -25.229585371806024 1.8240735177608371 0 1.8240735177608371 4.433526539617219 0 0 0 0 -27.166399767671464 1.6826338861814918 0 1.6826338861814918 16.443734696443016 0 0 0 0 -29.618321128542448 -4.2158082129053582 0 -4.2158082129053582 6.4317518630050472 0 0 0 0 -34.468581550121598 -1.9273435418083409 0 -1.9273435418083409 18.56129616810955 0 0 0 0 -38.199446408641961 2.6930738741777986 0 2.6930738741777986 16.642683024678945 0 0 0 0 -120.23450785627574 21.935640180921609 0 21.935640180921609 9.8614723174877099 0 0 0 0 -35.917616388116585 0.42637662635263496 0 0.42637662635263496 13.789797157110343 0 0 0 0 8.0731275678681413 7.6576583172254686 0 7.6576583172254686 -10.306803787943181 0 0 0 0 43.640983064169632 39.104173153298518 0 39.104173153298518 -31.794767947403443 0 0 0 0 -45.428972371017153 12.990078969726881 0 12.990078969726881 20.296603945130528 0 0 0 0 -0.96023554232536235 -0.28618865811388616 0 -0.28618865811388616 0.022161382097582116 0 0 0 0 -24.943630894556918 15.916662813395448 0 15.916662813395448 19.018654028285937 0 0 0 0 -3.4148281045927433 12.836371009746813 0 12.836371009746813 7.5629954132368198 0 0 0 0 -19.137771317762599 3.358917875496104 0 3.358917875496104 -1.74852782478888 0 0 0 0 -19.643854428337363 3.0605391469695178 0 3.0605391469695178 -0.93233038866765128 0 0 0 0 -28.865952949145139 2.4515862910708393 0 2.4515862910708393 -0.65395355245516384 0 0 0 0 -18.719930260733236 2.854407045670996 0 2.854407045670996 -1.3804821094241788 0 0 0 0 0.21323205499864528 -0.34385306944048466 0 -0.34385306944048466 -0.20458016062176121 0 0 0 0 -60.031370349635836 9.0233742581763181 0 9.0233742581763181 0.25825168690096234 0 0 0 0 -33.209669405056047 24.923300371921187 0 24.923300371921187 -14.759486907501923 0 0 0 0 -7.9144104566366877 6.0661771744285033 0 6.0661771744285033 -10.95569829739668 0 0 0 0 -4.0485032211599048 1.193509094114404 0 1.193509094114404 -0.41600996615930086 0 0 0 0 -0.9971219839535479 5.1571703651377447 0 5.1571703651377447 -18.812443814393305 0 0 0 0 -13.496045981992211 11.082315071584844 0 11.082315071584844 -12.807787968493585 0 0 0 0 -14.406558412221784 9.7535892211965347 0 9.7535892211965347 -12.536807479982599 0 0 0 0 -14.443000165014382 7.8948400742413014 0 7.8948400742413014 -3.9277520165096576 0 0 0 0 -16.680679497672827 7.4919501003369646 0 7.4919501003369646 -3.8613379177078286 0 0 0 0 -22.901174785820331 13.7644158318368 0 13.7644158318368 -8.4294064735263419 0 0 0 0 -17.348981262726738 2.8821800380083573 0 2.8821800380083573 -2.9954445095033293 0 0 0 0 -5.5746351027241161 7.204161071289704 0 7.204161071289704 -4.969492329768654 0 0 0 0 -20.001543508114992 4.9834729703846961 0 4.9834729703846961 -2.6637566275279596 0 0 0 0 -18.169746635838237 3.026907733161778 0 3.026907733161778 -2.8309862421360918 0 0 0 0 -16.403103422329878 3.205973934052686 0 3.205973934052686 -3.494200226675872 0 0 0 0 -19.405255078941991 2.6655474843984734 0 2.6655474843984734 -0.47011585378464815 0 0 0 0 -16.964651993788721 0.34057674429728024 0 0.34057674429728024 -0.705439488308091 0 0 0 0 -6.7217004032881107 -1.1350089571117365 0 -1.1350089571117365 0.61121835907154332 0 0 0 0 -11.72703085635294 -0.6487861526382801 0 -0.6487861526382801 -1.1877295940852832 0 0 0 0 -7.9869694903002966 -0.14842528972276048 0 -0.14842528972276048 -0.43790231040409333 0 0 0 0 -6.2704922033844923 0.36856334298162885 0 0.36856334298162885 -0.61204575692826779 0 0 0 0 -11.439754330942378 -0.99103345123947406 0 -0.99103345123947406 -0.79313892862057855 0 0 0 0 -5.1024729792188737 1.6423529028167252 0 1.6423529028167252 1.0848388057507918 0 0 0 0 -7.5515882958025031 9.9768992330399442 0 9.9768992330399442 -11.1709978538629 0 0 0 0 -7.2390317577883252 8.4465233502080537 0 8.4465233502080537 -5.6316596480232874 0 0 0 0 -6.9160975638476003 0.68141479924198478 0 0.68141479924198478 -0.22735012856776388 0 0 0 0 -6.9172376344174893 0.74545770611656792 0 0.74545770611656792 -2.4161189655140549 0 0 0 0 -7.2815037074324209 5.2647561649238241 0 5.2647561649238241 -3.8968704756334773 0 0 0 0 -9.7465640676527983 7.7903673728894773 0 7.7903673728894773 -6.3750600954521133 0 0 0 0 -15.551676595532626 4.8186648028980699 0 4.8186648028980699 -3.5834040430725054 0 0 0 0 -0.55105939067738063 3.0868726162392535 0 3.0868726162392535 -0.503805993163983 0 0 0 0 -6.1876404565325345 6.5660849947906144 0 6.5660849947906144 -3.9858931291798703 0 0 0 0 -19.50559020662331 9.2410065190975956 0 9.2410065190975956 -2.3321398958439659 0 0 0 0 -10.505811422814617 1.4395396626960277 0 1.4395396626960277 0.1880140652046931 0 0 0 0 -17.371451411683665 4.0131877394934463 0 4.0131877394934463 -3.4352621040404188 0 0 0 0 -589.12666352957604 -48.777109700312735 0 -48.777109700312735 -127.22215449640774 0 0 0 0 -298.53107752053074 -20.978117259567938 0 -20.978117259567938 -75.414656331565538 0 0 0 0 -280.07654357706633 -40.319370235904557 0 -40.319370235904557 -142.68002777195034 0 0 0 0 -530.65776400728646 -155.26219014645426 0 -155.26219014645426 -86.95680601224899 0 0 0 0 -539.92695478403766 -54.500970250636669 0 -54.500970250636669 -65.415093809239522 0 0 0 0 -404.19244370413799 -73.678546303457921 0 -73.678546303457921 -95.696767983097317 0 0 0 0 -1.4491967851943848 -1.321432285618009 0 -1.321432285618009 1.4335436964704562 0 0 0 0 -777.83391500017024 -111.59436629476866 0 -111.59436629476866 6.0725365169500947 0 0 0 0 -1337.1902260614024 -290.17457210440267 0 -290.17457210440267 -253.97163688153842 0 0 0 0 -561.09679189517919 -161.05036830630468 0 -161.05036830630468 -125.57922992902591 0 0 0 0 -1298.539113132083 -161.80501949736725 0 -161.80501949736725 87.111870218088484 0 0 0 0 -1180.1770773074386 -201.16463986027208 0 -201.16463986027208 92.962034314498922 0 0 0 0 -1162.9121663367332 -82.258537998521547 0 -82.258537998521547 214.42622379489643 0 0 0 0 -1499.5260970083546 -186.83600492996661 0 -186.83600492996661 188.87570033962996 0 0 0 0 -1230.7063970048912 -324.94934152516032 0 -324.94934152516032 149.61578040944028 0 0 0 0 -1175.0069680488923 -172.56560425005779 0 -172.56560425005779 83.367785162725369 0 0 0 0 -1067.6211073104478 -237.10551924101486 0 -237.10551924101486 95.805620806095277 0 0 0 0 -1103.2728629192316 -284.8963232856334 0 -284.8963232856334 38.579865153227075 0 0 0 0 -1064.2383504466015 -387.73955138572353 0 -387.73955138572353 158.47739812614458 0 0 0 0 -1500.1941207144957 -605.12336561191694 0 -605.12336561191694 249.2891799394215 0 0 0 0 -307.85690845374393 -424.16049216466422 0 -424.16049216466422 -88.776852822755558 0 0 0 0 -1.1258735540222702 -0.72547754798929986 0 -0.72547754798929986 1.8907772685829674 0 0 0 0 -1020.0200483887747 -420.92397299486208 0 -420.92397299486208 69.447113750605382 0 0 0 0 -603.81575990661258 20.577092853504865 0 20.577092853504865 -69.134769615666073 0 0 0 0 1.163839948434827 -1.5340290530297196 0 -1.5340290530297196 2.8923061255274591 0 0 0 0 -602.51895174589663 -370.43954469653556 0 -370.43954469653556 -5.1220784215422555 0 0 0 0 -1.702317381153053 -2.1739379162262793 0 -2.1739379162262793 3.2816657588663172 0 0 0 0 -972.98462407000807 -200.25405384217561 0 -200.25405384217561 104.99565085905147 0 0 0 0 -228.3853618323019 33.922065291588581 0 33.922065291588581 52.915762813811853 0 0 0 0 -166.32568483603245 -87.340187976344396 0 -87.340187976344396 -127.22642490414086 0 0 0 0 -94.376859451222117 -71.865485294841733 0 -71.865485294841733 77.598149152232054 0 0 0 0 -38.510802003362187 -36.067061103164122 0 -36.067061103164122 10.504239112218556 0 0 0 0 -97.125090032237495 -9.5013052640647402 0 -9.5013052640647402 33.361848684773463 0 0 0 0 -130.37044667830924 5.3562586956425093 0 5.3562586956425093 27.483601124878874 0 0 0 0 -86.311342392411461 23.305711405486306 0 23.305711405486306 19.159339733514571 0 0 0 0 -115.12166844823514 19.632554736435395 0 19.632554736435395 18.692324785053614 0 0 0 0 -81.778119725227953 41.75525920367312 0 41.75525920367312 -16.387631191602622 0 0 0 0 -88.173816030794114 24.811867769049627 0 24.811867769049627 -17.114486907473715 0 0 0 0 -165.27928268009418 39.788121095515407 0 39.788121095515407 5.4214540410941083 0 0 0 0 -147.02930122787075 26.173508237867168 0 26.173508237867168 -95.712507671305502 0 0 0 0 -107.06097033226615 12.793058625770072 0 12.793058625770072 12.212176519882405 0 0 0 0 0.61230728743078089 -0.14704177346667535 0 -0.14704177346667535 -0.077013811525348252 0 0 0 0 -30.023893048590253 14.519073913339298 0 14.519073913339298 77.27036878991737 0 0 0 0 -72.052325094598928 22.328473108367916 0 22.328473108367916 20.22630609164862 0 0 0 0 -66.199341169914078 43.366267161780911 0 43.366267161780911 19.370457529999157 0 0 0 0 -44.126503057639638 24.981559738729061 0 24.981559738729061 -19.807422718982991 0 0 0 0 -13.3855426372902 33.570323253643949 0 33.570323253643949 -18.951030077543692 0 0 0 0 -14.175281434334465 38.369383089670464 0 38.369383089670464 -24.064034522496627 0 0 0 0 -11.101880102942687 24.947037963882174 0 24.947037963882174 -48.298058365352517 0 0 0 0 -16.038664139574394 16.077744428109213 0 16.077744428109213 -64.509977238090414 0 0 0 0 -38.987767451617401 25.976501843318431 0 25.976501843318431 -45.142076059842111 0 0 0 0 -35.003140986874314 19.656459602592676 0 19.656459602592676 -68.937526835769631 0 0 0 0 -65.468221767067007 26.227029204590707 0 26.227029204590707 -68.458996872958181 0 0 0 0 -57.186893997877633 46.393457869241217 0 46.393457869241217 -53.724437501075499 0 0 0 0 -33.903120398141709 0.74532784395170637 0 0.74532784395170637 -95.268813359343653 0 0 0 0 -36.117376700523891 3.8822796219662621 0 3.8822796219662621 -47.548486400930557 0 0 0 0 -8.1596283929393394 -24.967118527427679 0 -24.967118527427679 -43.144431988089195 0 0 0 0 -31.866993617142725 11.645487161614199 0 11.645487161614199 -34.086262170690816 0 0 0 0 0.65129664764869233 -0.44227830656494405 0 -0.44227830656494405 -0.83122671461406539 0 0 0 0 -12.602520021267992 21.671619158212906 0 21.671619158212906 -55.758998989777865 0 0 0 0 -165.0530704832745 50.562895970368913 0 50.562895970368913 -111.01767423029548 0 0 0 0 -98.852318740773626 52.280665092483787 0 52.280665092483787 -77.323814893605118 0 0 0 0 -134.04118302168354 13.952633926205181 0 13.952633926205181 -71.762885803666634 0 0 0 0 -65.231144203517033 24.904965516808932 0 24.904965516808932 -101.71509079679072 0 0 0 0 -137.29706906001229 20.620615669030542 0 20.620615669030542 -81.658667949139044 0 0 0 0 -338.62039631806692 34.924216810299924 0 34.924216810299924 -65.207129930512821 0 0 0 0 -145.13101260860276 -4.1316700610432804 0 -4.1316700610432804 -122.2149898732871 0 0 0 0 -155.19250896257108 71.954135504793754 0 71.954135504793754 -15.067766965300024 0 0 0 0 -247.49138437745569 -27.890869647035984 0 -27.890869647035984 -85.617821614174005 0 0 0 0 39.709853494998242 26.752164192729865 0 26.752164192729865 -118.43233860692983 0 0 0 0 0.21501535795979976 -0.37685013463402584 0 -0.37685013463402584 -0.16164569543165436 0 0 0 0 -3.6350422614847258 -2.5129670473615278 0 -2.5129670473615278 0.58519561249020891 0 0 0 0 -42.002563334302977 -16.246568831960587 0 -16.246568831960587 13.502263783024205 0 0 0 0 48.716309362767788 -15.67554673194104 0 -15.67554673194104 -61.219956716097613 0 0 0 0 -122.14353560197196 -64.698190031527247 0 -64.698190031527247 -8.4198037288934451 0 0 0 0 -312.43852602264087 -29.049702577797916 0 -29.049702577797916 7.1578664617687764 0 0 0 0 -253.3474286043238 50.432020355970451 0 50.432020355970451 -35.228217852319176 0 0 0 0 -5.3880790587754746 -14.688883389667915 0 -14.688883389667915 -13.772324749971887 0 0 0 0 -19.833218805390061 -31.887613763504532 0 -31.887613763504532 4.2233702556184767 0 0 0 0 -16.163823035996757 -30.463895746703542 0 -30.463895746703542 4.6360571521008751 0 0 0 0 -45.623475830365351 -22.460044957281951 0 -22.460044957281951 -9.8937006990952625 0 0 0 0 -24.247956393199274 -22.986555636213026 0 -22.986555636213026 8.3558277733226305 0 0 0 0 -21.913468639104394 -28.49911915685675 0 -28.49911915685675 -14.579707788449554 0 0 0 0 -46.034371926660242 -36.517224848522773 0 -36.517224848522773 -70.670495206510424 0 0 0 0 -99.956613890939252 -27.264586795059827 0 -27.264586795059827 -8.8442554231781401 0 0 0 0 -35.635959762164021 -43.457971147279054 0 -43.457971147279054 12.577302422403704 0 0 0 0 -33.911968524942495 -9.8682017216892746 0 -9.8682017216892746 -4.2779022945385066 0 0 0 0 -30.657297448262398 -36.170466931330338 0 -36.170466931330338 9.9323065638615162 0 0 0 0 -31.644451788697928 -17.357856357990659 0 -17.357856357990659 -7.9343608368133332 0 0 0 0 -37.584062216505117 -39.594290416471551 0 -39.594290416471551 26.920349569630503 0 0 0 0 -38.200054670189274 -34.969255758011968 0 -34.969255758011968 9.8752870052906019 0 0 0 0 -45.119799855798192 -22.26757042480267 0 -22.26757042480267 9.7594131116012477 0 0 0 0 -25.395070459264389 -22.336316443223041 0 -22.336316443223041 9.5025490544394415 0 0 0 0 -14.745470836031018 -20.415093976118783 0 -20.415093976118783 8.9754631417580981 0 0 0 0 -20.578838943627488 -23.637211797560212 0 -23.637211797560212 -12.228130506765865 0 0 0 0 -36.553274825848348 -22.486408074024439 0 -22.486408074024439 -8.7166313959446597 0 0 0 0 -24.788554564570489 -16.207013488496447 0 -16.207013488496447 -8.4417835496227678 0 0 0 0 -20.426134485535897 -29.919019490889831 0 -29.919019490889831 -4.1110415524999553 0 0 0 0 -22.930232579328731 -23.76152672557339 0 -23.76152672557339 -4.1378238692591367 0 0 0 0 -25.60252869784199 -17.454059141112111 0 -17.454059141112111 -15.375709086346433 0 0 0 0 -29.898446752791642 -22.920953088205351 0 -22.920953088205351 -18.938516517910102 0 0 0 0 -56.775914280562574 -19.652503978466939 0 -19.652503978466939 -7.5391161494490007 0 0 0 0 -41.763270265832034 -28.658945947137681 0 -28.658945947137681 -13.324710963373036 0 0 0 0 -319.23668547009584 42.277985984743736 0 42.277985984743736 49.950610425945342 0 0 0 0 -96.626357381560183 6.0910029798280974 0 6.0910029798280974 -30.213023274989609 0 0 0 0 -4.3882770585575059 -15.822527254233016 0 -15.822527254233016 -7.1906320206689696 0 0 0 0 -92.473144612431952 -50.437189770548763 0 -50.437189770548763 47.260309639167417 0 0 0 0 23.030616886993812 -9.5452442883247386 0 -9.5452442883247386 -21.984714431083376 0 0 0 0 -15.569252083239917 -25.298942419143032 0 -25.298942419143032 -10.709494337786964 0 0 0 0 2.8658714599570914 -1.3941618190390059 0 -1.3941618190390059 -2.3703506699625438 0 0 0 0 -167.65912911117448 -39.095616658761969 0 -39.095616658761969 27.194234837302247 0 0 0 0 -104.97833173888648 -9.732299821554534 0 -9.732299821554534 8.2469069841276905 0 0 0 0 -62.137165635871497 37.733889986734539 0 37.733889986734539 -16.212920185959774 0 0 0 0 -107.90000218898058 26.790822577216204 0 26.790822577216204 -24.412468230103059 0 0 0 0 -371.91836973770114 78.138600608842353 0 78.138600608842353 45.459702171355914 0 0 0 0 -402.07458949793363 93.485941504627135 0 93.485941504627135 45.889718512450081 0 0 0 0 -588.2603751250499 8.9480286036836674 0 8.9480286036836674 81.493270322072476 0 0 0 0 -381.48295310969843 29.694155070001216 0 29.694155070001216 29.988115491212966 0 0 0 0 -727.62928242611815 71.602717416276846 0 71.602717416276846 134.79238308505069 0 0 0 0 -611.74090733485991 63.185838478990661 0 63.185838478990661 123.24817213150754 0 0 0 0 -744.26570637626355 13.170752480848932 0 13.170752480848932 110.40208378410125 0 0 0 0 -586.0534453276814 -4.9461519461023045 0 -4.9461519461023045 7.4964047159218126 0 0 0 0 -536.8421285546101 61.457755102251895 0 61.457755102251895 69.879115739900016 0 0 0 0 -403.00745198594814 -50.828546616114238 0 -50.828546616114238 16.079159204318557 0 0 0 0 -343.96708786410818 -32.08218797244443 0 -32.08218797244443 -71.613599408730806 0 0 0 0 -353.72847720454592 39.439768416692345 0 39.439768416692345 -28.249373358201865 0 0 0 0 -526.61724010408579 -1.2226178080763077 0 -1.2226178080763077 5.9851586136364006 0 0 0 0 -766.66218059487619 28.015473514888249 0 28.015473514888249 -128.94518511205018 0 0 0 0 -785.27479871676769 39.506910554086744 0 39.506910554086744 36.142948721622105 0 0 0 0 -526.16846271595205 4.4002799698943562 0 4.4002799698943562 -107.47550139472128 0 0 0 0 -858.44729156088215 31.671026160574762 0 31.671026160574762 -3.9827345565219048 0 0 0 0 -629.17953042902809 5.5525405491094943 0 5.5525405491094943 -28.678777894183781 0 0 0 0 -923.69077947369487 283.76764263498114 0 283.76764263498114 -236.72275242184588 0 0 0 0 -473.08259476997046 58.647206413829679 0 58.647206413829679 -47.020793177665155 0 0 0 0 -534.38507515438687 -35.890584416087847 0 -35.890584416087847 -53.696749839318002 0 0 0 0 -1085.8071984289345 160.97661679202997 0 160.97661679202997 112.31286248077852 0 0 0 0 -1499.8572327787406 2.5402309120965945 0 2.5402309120965945 252.35085282429293 0 0 0 0 -1767.1845870015222 232.79455565866846 0 232.79455565866846 272.43846524916603 0 0 0 0 -2.962704916115996 -1.5486026373694983 0 -1.5486026373694983 -0.35810220754175259 0 0 0 0 -752.79025948738126 -151.65702487523754 0 -151.65702487523754 21.55712175131147 0 0 0 0 -4.3339401195687159 -4.0626730006277896 0 -4.0626730006277896 -3.7075213089171837 0 0 0 0 -1253.3425407851391 222.78656391291437 0 222.78656391291437 12.309236605691162 0 0 0 0 -1379.2557111547285 224.26703027792658 0 224.26703027792658 107.94837961739232 0 0 0 0 -1499.6851582459876 291.57802329668931 0 291.57802329668931 93.826588879591441 0 0 0 0 -1322.5403413129352 354.08579160821654 0 354.08579160821654 -48.57278042598702 0 0 0 0 -930.28952491959899 124.26471069316176 0 124.26471069316176 46.322613031351011 0 0 0 0 -706.08967502577434 136.68980463894786 0 136.68980463894786 -2.1284023436760435 0 0 0 0 -467.61913773847846 1.8525871190286125 0 1.8525871190286125 74.013007285901949 0 0 0 0 -765.24365087438491 -33.186476918229346 0 -33.186476918229346 125.95883207178031 0 0 0 0 -709.39837626796361 41.205994623806873 0 41.205994623806873 184.98405211203954 0 0 0 0 -1449.4502543410781 391.22222155081562 0 391.22222155081562 -50.864168719963025 0 0 0 0 -1500.0208801750487 474.97217490752081 0 474.97217490752081 -148.32656635295152 0 0 0 0 -1255.0098978650203 475.74399952122417 0 475.74399952122417 -219.90609551475794 0 0 0 0 -422.5624502466826 -153.5646447415653 0 -153.5646447415653 58.443695722068696 0 0 0 0 -4.9419878523422618 -4.0249102686377896 0 -4.0249102686377896 -10.651396369194671 0 0 0 0 -1414.4274985171578 488.25319969038298 0 488.25319969038298 -419.70017389901659 0 0 0 0 -1388.6667272946352 859.34774311487377 0 859.34774311487377 -317.77041971683911 0 0 0 0 -1943.6874133492383 451.59061162261349 0 451.59061162261349 -96.237351390508707 0 0 0 0 -0.82508360198594488 -2.8751262338726313 0 -2.8751262338726313 -3.0161680654756946 0 0 0 0 -499.23936337404302 -76.990649323366597 0 -76.990649323366597 169.69635674814253 0 0 0 0 -533.58604586123693 -175.39485159966398 0 -175.39485159966398 142.46087525352777 0 0 0 0 -531.70147914476547 -82.458681084502132 0 -82.458681084502132 131.27436357986198 0 0 0 0 -736.54229938598291 -176.72119292866046 0 -176.72119292866046 185.26819329170252 0 0 0 0 -914.41155924821942 52.06842249091369 0 52.06842249091369 185.57668534084672 0 0 0 0 -790.34559861756134 -151.66540278296361 0 -151.66540278296361 185.75302841181929 0 0 0 0 -1064.0694429430951 -358.54413559643581 0 -358.54413559643581 209.99365734844469 0 0 0 0 -689.37744610902882 -427.43179650077127 0 -427.43179650077127 16.0944839722506 0 0 0 0 -408.26910073868203 -190.63935778932773 0 -190.63935778932773 9.66357282160061 0 0 0 0 -75.495592717572436 -878.16763653370981 0 -878.16763653370981 -926.39427256890485 0 0 0 0 286.95864966388035 114.65554520036812 0 114.65554520036812 -390.60281952953028 0 0 0 0 -1556.92768071912 -527.42777482308975 0 -527.42777482308975 7.8646404948773352 0 0 0 0 -1499.9339562443438 328.43793894615789 0 328.43793894615789 -92.080786919513898 0 0 0 0 -3.6038058005480309 -2.1123418652922297 0 -2.1123418652922297 -6.3237888231427863 0 0 0 0 -7.5920588591081355 7.5020089127376544 0 7.5020089127376544 -10.305117828702011 0 0 0 0 -29.679947071941569 36.894930742862933 0 36.894930742862933 -201.16402218790839 0 0 0 0 -281.85103488430468 194.53465799019705 0 194.53465799019705 -162.22534603860959 0 0 0 0 -631.95912798045538 221.82405712679338 0 221.82405712679338 16.656902140211514 0 0 0 0 -316.55335942917918 132.03772210527723 0 132.03772210527723 -63.259149456102023 0 0 0 0 -675.25350021258419 91.517789687670756 0 91.517789687670756 142.28398989725883 0 0 0 0 -730.32492573702984 130.19924482973079 0 130.19924482973079 185.22574130921339 0 0 0 0 -1164.6093507035212 217.42239177935593 0 217.42239177935593 198.3861502065065 0 0 0 0 -17.442350336247074 3.8636611793768871 0 3.8636611793768871 -1.5367087991776671 0 0 0 0 -566.51994973738874 467.71566880797332 0 467.71566880797332 -222.89203481846516 0 0 0 0 -1715.9326225757313 193.47779900410484 0 193.47779900410484 203.35008072570417 0 0 0 0 54.727973647422914 18.986799545735721 0 18.986799545735721 -107.02690898169021 0 0 0 0 -293.13014373907572 -386.20527058132808 0 -386.20527058132808 -56.012023786896236 0 0 0 0 -1092.6306650935767 -426.10082897638722 0 -426.10082897638722 43.175085399834643 0 0 0 0 -972.2251423431826 -54.349298756528469 0 -54.349298756528469 -19.008616227760285 0 0 0 0 -1805.5633898865344 -249.74383374991805 0 -249.74383374991805 126.74793249949334 0 0 0 0 -1497.4631641138494 -643.21860589518803 0 -643.21860589518803 152.31139795953646 0 0 0 0 -621.97448578303738 -784.14249614078676 0 -784.14249614078676 -516.69740714480372 0 0 0 0 -1963.9203656758473 250.83355044087284 0 250.83355044087284 260.2965849912664 0 0 0 0 -191.00162446017566 -140.8560257254918 0 -140.8560257254918 -162.47810265149423 0 0 0 0 -8.2707911397979608 10.197896803309327 0 10.197896803309327 -9.8433752133102832 0 0 0 0 -987.66733049422328 35.816185021368483 0 35.816185021368483 237.14287231265507 0 0 0 0 -925.69636188210825 -357.90218065981571 0 -357.90218065981571 88.432485211197132 0 0 0 0 -944.23573026245685 -329.87978439545356 0 -329.87978439545356 200.48498736317762 0 0 0 0 -1500.2676688684942 -200.97524634446762 0 -200.97524634446762 227.70177827129811 0 0 0 0 -1018.2012278639622 7.7789108238642655 0 7.7789108238642655 199.12843186225984 0 0 0 0 -1070.3688322417547 150.41161746367121 0 150.41161746367121 -68.813064388942649 0 0 0 0 -326.61112895092538 16.368463543713474 0 16.368463543713474 -52.637311722129667 0 0 0 0 -4.4245546894728456 3.6170151603682648 0 3.6170151603682648 -3.0590842665143612 0 0 0 0 -378.71382759591324 42.991206962645961 0 42.991206962645961 -367.4397974681815 0 0 0 0 -946.93897787353126 -257.08963344256887 0 -257.08963344256887 3.6183961574693058 0 0 0 0 -1279.0494085770379 103.06510974809117 0 103.06510974809117 134.11536111841158 0 0 0 0 -821.7527203236441 46.59199065512383 0 46.59199065512383 114.22644336632109 0 0 0 0 -846.89455338042353 -0.62224800116155166 0 -0.62224800116155166 27.924503273803339 0 0 0 0 -255.44679502238978 -214.70266264494416 0 -214.70266264494416 -57.042069408367468 0 0 0 0 -536.12935745937284 -33.864645348088828 0 -33.864645348088828 24.428532817118423 0 0 0 0 -290.27033325996308 46.156471560351335 0 46.156471560351335 -68.196736397327953 0 0 0 0 -834.40772355263107 107.60590023424379 0 107.60590023424379 55.819880726105509 0 0 0 0 -812.34684101295238 207.47156710172374 0 207.47156710172374 48.294652667054919 0 0 0 0 -1500.7449155437271 357.40027495454029 0 357.40027495454029 200.26745628674371 0 0 0 0 -1499.2357453701934 125.16531174899406 0 125.16531174899406 185.88007789429818 0 0 0 0 -1107.9657120320671 263.098826373527 0 263.098826373527 194.29146613809036 0 0 0 0 -1131.6474259161314 164.1821653979224 0 164.1821653979224 133.47827960723583 0 0 0 0 -15.576041323674872 24.572546562254374 0 24.572546562254374 -15.46960279496122 0 0 0 0 -15.058142252626567 10.531616812297671 0 10.531616812297671 -92.591804056014666 0 0 0 0 9.8235656202195969 34.065545306647664 0 34.065545306647664 -58.850323686012615 0 0 0 0 -0.20562435860634309 -0.23763569509439719 0 -0.23763569509439719 -0.27690732790297384 0 0 0 0 -22.171440344165603 -51.131715860552539 0 -51.131715860552539 -17.732685912362669 0 0 0 0 -95.167545101558062 -14.011318103595386 0 -14.011318103595386 -51.941970306407669 0 0 0 0 -14.008347506038263 -29.427767989641509 0 -29.427767989641509 -96.84173677320203 0 0 0 0 -291.1216163699246 14.935730880086027 0 14.935730880086027 -64.755190922987751 0 0 0 0 -106.79039385211036 -51.571804664077575 0 -51.571804664077575 -120.6319495686825 0 0 0 0 -248.62092187064866 -21.958494560153067 0 -21.958494560153067 -45.548851207867983 0 0 0 0 -87.950973116545356 16.761174270005938 0 16.761174270005938 -117.82329954646063 0 0 0 0 -76.990282468722398 -4.387976322719922 0 -4.387976322719922 -77.887136314879655 0 0 0 0 21.495119997183792 36.021038300703076 0 36.021038300703076 -84.855080786491044 0 0 0 0 -85.846833485134994 -54.896561392247747 0 -54.896561392247747 -51.617213568858972 0 0 0 0 1.8692537479471838 0.33092370552965455 0 0.33092370552965455 -0.17791051751899606 0 0 0 0 -296.17265225689516 -190.04447510269841 0 -190.04447510269841 50.037272357857091 0 0 0 0 -64.798310060734366 -59.658799822247261 0 -59.658799822247261 -243.67878267793429 0 0 0 0 171.66010318040534 336.50195044944957 0 336.50195044944957 -127.65973226361893 0 0 0 0 182.13783150301242 -281.11444271043069 0 -281.11444271043069 -59.042457748689912 0 0 0 0 -65.389845862984657 -45.563269187060996 0 -45.563269187060996 190.10872651081235 0 0 0 0 3.1530494792281729 1.713263687743277 0 1.713263687743277 0.43988308654087377 0 0 0 0 -13.776118258685528 30.841573780712991 0 30.841573780712991 -30.217223956974948 0 0 0 0 -8.9916198746204827 33.147455844312447 0 33.147455844312447 -56.214336783460766 0 0 0 0 -5.6430919718659425 37.967258353446866 0 37.967258353446866 -65.684275885902423 0 0 0 0 2.181454593367107 1.7600192741465506 0 1.7600192741465506 0.80823593440533359 0 0 0 0 -46.796958063188413 69.813237201817344 0 69.813237201817344 69.754248844269 0 0 0 0 -91.315482155028803 -8.1717308570897629 0 -8.1717308570897629 143.11922277094453 0 0 0 0 -20.542185855378193 0.95049909264446342 0 0.95049909264446342 13.337294160227827 0 0 0 0 -18.234895065372257 -38.098888737832738 0 -38.098888737832738 88.653662161879382 0 0 0 0 -21.875577927012216 1.9278103267839626 0 1.9278103267839626 2.588651048140675 0 0 0 0 -35.366453239936163 -19.509916225956374 0 -19.509916225956374 -7.6432918569248613 0 0 0 0 -14.020857188754235 -4.4089556205883582 0 -4.4089556205883582 -8.3150170140222599 0 0 0 0 -7.3315317151173076 155.04201823558537 0 155.04201823558537 404.13599212307804 0 0 0 0 -30.516124688596392 -47.938940963201844 0 -47.938940963201844 -296.4508345460863 0 0 0 0 -274.93777888004865 310.57512324340627 0 310.57512324340627 146.32304320246158 0 0 0 0 8.5170089218408975 -65.937774910774252 0 -65.937774910774252 116.04390305346755 0 0 0 0 349.56907845514252 190.38020321268618 0 190.38020321268618 -39.302805109528435 0 0 0 0 -9.5029565670948735 2.1427092664371159 0 2.1427092664371159 5.7891882665748167 0 0 0 0 -56.283428295789236 130.71151647437523 0 130.71151647437523 247.46995632534527 0 0 0 0 -45.94593534303317 9.2914889037119224 0 9.2914889037119224 2.044102349690414 0 0 0 0 -109.03793251440584 -51.720741812505821 0 -51.720741812505821 147.88312835778402 0 0 0 0 -12.477775736260583 -2.2350841989476464 0 -2.2350841989476464 2.5327428565490209 0 0 0 0 -11.416080380347751 -13.056542295863487 0 -13.056542295863487 16.25550968523169 0 0 0 0 -30.676883584135794 -34.044676090900339 0 -34.044676090900339 22.331318551908225 0 0 0 0 -0.18481043367324812 -15.386750320856791 0 -15.386750320856791 4.1941232372869877 0 0 0 0 -5.46178628961502 -18.191968640382342 0 -18.191968640382342 -3.3881452949626691 0 0 0 0 21.624018553888845 -32.835524914069865 0 -32.835524914069865 -39.013593806868357 0 0 0 0 -68.577369660531986 -34.849835548890496 0 -34.849835548890496 22.315370491416331 0 0 0 0 -32.032727827459894 18.391181932180643 0 18.391181932180643 -97.274169715231437 0 0 0 0 -43.597015737690526 -12.201274153279428 0 -12.201274153279428 -0.45920400395118577 0 0 0 0 -25.225966405970212 -8.7726103480251822 0 -8.7726103480251822 2.9985521334556324 0 0 0 0 -11.015082957863342 -12.166503553848088 0 -12.166503553848088 -9.5313517438713689 0 0 0 0 -19.889123957553238 -15.300742061294841 0 -15.300742061294841 10.220376330865065 0 0 0 0 -43.735055480159645 -11.39609897248647 0 -11.39609897248647 -10.276231910170281 0 0 0 0 -28.222837592910764 -19.501310981293102 0 -19.501310981293102 -10.05343512819627 0 0 0 0 -80.887674441120907 -25.265351725374785 0 -25.265351725374785 -9.1664373326752866 0 0 0 0 -63.765347602464317 -21.676992296309891 0 -21.676992296309891 -11.09209668881067 0 0 0 0 -62.223942085121962 -23.390780494806449 0 -23.390780494806449 -10.700534781519309 0 0 0 0 -76.047856364501058 -26.156131723635553 0 -26.156131723635553 -8.4277954187091382 0 0 0 0 -63.25725715660883 -21.234195108287622 0 -21.234195108287622 -5.7841022207435344 0 0 0 0 -57.512256392623385 -26.407243041596757 0 -26.407243041596757 -9.4510843265361473 0 0 0 0 -40.365845132117101 -20.953168674488552 0 -20.953168674488552 -10.29833851911701 0 0 0 0 -66.265212078262266 -23.340673778131759 0 -23.340673778131759 -5.4370094206378781 0 0 0 0 -62.728366693499993 -27.389569195394586 0 -27.389569195394586 -7.045063019592817 0 0 0 0 -77.792863821978244 -29.869002293904941 0 -29.869002293904941 5.0111628882674495 0 0 0 0 -71.930656713542703 -28.555942889996459 0 -28.555942889996459 -6.3146218581698577 0 0 0 0 -84.95515503322531 -21.817389031748689 0 -21.817389031748689 -10.248701284276649 0 0 0 0 -85.412807856533618 -22.757781324242387 0 -22.757781324242387 -1.5727507496121689 0 0 0 0 -87.873026598977731 -35.683989801145032 0 -35.683989801145032 -11.99859186374033 0 0 0 0 -78.823984235721582 -31.772333746248478 0 -31.772333746248478 -12.014624187227128 0 0 0 0 51.432089316345809 32.247057254200627 0 32.247057254200627 20.03984026975013 0 0 0 0 -112.39046864076226 -35.023861416924774 0 -35.023861416924774 -15.580126469439165 0 0 0 0 -78.62845211387139 -30.047272190503008 0 -30.047272190503008 -23.025184177771735 0 0 0 0 -74.143219624551421 -25.296461159819728 0 -25.296461159819728 -11.084950190618656 0 0 0 0 -74.252914849639637 -32.44863012540236 0 -32.44863012540236 -15.14748726606922 0 0 0 0 -85.128186605674273 -31.953347636429498 0 -31.953347636429498 -11.002462638925863 0 0 0 0 -75.45987005236384 -32.678738546451314 0 -32.678738546451314 -14.041042596829357 0 0 0 0 -83.267921410229064 -34.458814290456644 0 -34.458814290456644 -15.675804673206585 0 0 0 0 74.149787387999822 8.2098293740264126 0 8.2098293740264126 15.129748998505647 0 0 0 0 27.885170686426136 -4.0802557699247473 0 -4.0802557699247473 26.989827358516322 0 0 0 0 -2.9371182391037607 -0.34440176045597326 0 -0.34440176045597326 0.87688249585683486 0 0 0 0 3.4782094754264108 20.207176115160792 0 20.207176115160792 25.00311753639653 0 0 0 0 -16.811633495238617 10.675799933303136 0 10.675799933303136 6.3450134993366465 0 0 0 0 -0.24408432721694595 0.89325396634326282 0 0.89325396634326282 0.99624202975322795 0 0 0 0 -63.134428889170522 -56.198913208435101 0 -56.198913208435101 -41.367270652051047 0 0 0 0 21.022940970651689 17.831890105444018 0 17.831890105444018 -42.569308078648646 0 0 0 0 -27.27679013735542 17.082819925108652 0 17.082819925108652 -2.6996023636738755 0 0 0 0 -28.368535924431171 0.25965951307829727 0 0.25965951307829727 -26.814042418966437 0 0 0 0 -96.683477542348555 68.336036110155646 0 68.336036110155646 -90.156953202316231 0 0 0 0 -137.53784197918139 23.911678777929865 0 23.911678777929865 -10.374084658522293 0 0 0 0 48.313073261775571 8.1352427074374418 0 8.1352427074374418 -38.126881728915805 0 0 0 0 -26.833409299259074 15.898753690433182 0 15.898753690433182 28.770306242056904 0 0 0 0 -21.879899770352495 35.243332732566273 0 35.243332732566273 -78.337255835263022 0 0 0 0 -84.531118043222705 -18.303779991125907 0 -18.303779991125907 18.848457783268486 0 0 0 0 60.817705023357121 46.145835886017267 0 46.145835886017267 -18.593332344040732 0 0 0 0 -8.1991718821924131 7.8568182095632579 0 7.8568182095632579 2.267541590232848 0 0 0 0 64.994421176237665 34.61980185029006 0 34.61980185029006 13.029855615138388 0 0 0 0 -54.539790363050997 -24.339332079812095 0 -24.339332079812095 -20.203416148088763 0 0 0 0 -95.268886638408731 -42.439112106314724 0 -42.439112106314724 28.280326836554053 0 0 0 0 -58.671002989104508 -36.673549223096899 0 -36.673549223096899 -25.908945419046404 0 0 0 0 -75.474652933080506 -39.481831106962431 0 -39.481831106962431 33.014293750769866 0 0 0 0 -9.265719012961199 70.126513509773417 0 70.126513509773417 9.0078841102844081 0 0 0 0 -60.264670941215186 133.25803305600289 0 133.25803305600289 91.258835421832828 0 0 0 0 -9.9901856917541494 9.8401662785814814 0 9.8401662785814814 -2.2272783044556124 0 0 0 0 9.5758120583195705 23.963324370238979 0 23.963324370238979 -22.338069751469448 0 0 0 0 0.0044905055026678298 -0.0046906553862058331 0 -0.0046906553862058331 0.59471286398170875 0 0 0 0 -28.435530463757459 37.389445910212316 0 37.389445910212316 4.3052645949123871 0 0 0 0 -7.7947493860412287 11.299241752942951 0 11.299241752942951 -4.4404197698618022 0 0 0 0 152.85564843779684 65.844092588773279 0 65.844092588773279 -218.09856186613808 0 0 0 0 -331.5782636188851 28.616915215829334 0 28.616915215829334 153.13345668154659 0 0 0 0 -305.58434200519696 -112.74631328430661 0 -112.74631328430661 97.89309956888421 0 0 0 0 -153.596888728247 -157.23791365039463 0 -157.23791365039463 -112.80842582222567 0 0 0 0 -130.68950394438434 120.80678697425979 0 120.80678697425979 81.272632950130088 0 0 0 0 80.855543666657468 77.80668542134957 0 77.80668542134957 82.281525090107763 0 0 0 0 -4.5363371597410875 -0.020245865381140149 0 -0.020245865381140149 0.24513467431195923 0 0 0 0 -77.456508947016118 -138.52287872123645 0 -138.52287872123645 -170.9520304009265 0 0 0 0 0.6516188553747071 0.7271486421924287 0 0.7271486421924287 0.45244236713373132 0 0 0 0 -12.865381525595637 1.7241734573534107 0 1.7241734573534107 -0.25140328408328522 0 0 0 0 -23.444824885635171 11.55452846371935 0 11.55452846371935 182.63204098166699 0 0 0 0 -70.399153523825589 16.707801104465062 0 16.707801104465062 243.15405845741856 0 0 0 0 -37.250897301717487 -4.0195896544558991 0 -4.0195896544558991 2.7817837813140613 0 0 0 0 -13.350684585704585 -10.535301583618946 0 -10.535301583618946 -33.913547156604409 0 0 0 0 -37.387525391626696 -18.098446965170865 0 -18.098446965170865 -7.863894035024245 0 0 0 0 -62.042526056064162 -43.110634488923893 0 -43.110634488923893 -28.23624478501165 0 0 0 0 -77.861552246842621 -38.973761405543655 0 -38.973761405543655 2.6227553109760606 0 0 0 0 -88.052180165720529 -50.300741649196539 0 -50.300741649196539 -8.5518987006710177 0 0 0 0 -114.61279104195637 -82.011176488094861 0 -82.011176488094861 6.3456053363538558 0 0 0 0 -36.611180200605304 -58.939272973442485 0 -58.939272973442485 -128.13615000472385 0 0 0 0 -5.0822754872651785 -0.75034704071686065 0 -0.75034704071686065 -0.79082996001125139 0 0 0 0 -5.6078299292785232 -1.9246851856939884 0 -1.9246851856939884 -1.3950381550132533 0 0 0 0 -5.5959734749958443 -0.96222388110663815 0 -0.96222388110663815 -0.26465229943573831 0 0 0 0 -5.1255966412717839 -0.27057582052140638 0 -0.27057582052140638 0.26785141796790413 0 0 0 0 -15.016584988461545 -6.2220941926844944 0 -6.2220941926844944 2.7058993587957048 0 0 0 0 -5.1238082791310831 -0.36868456339674438 0 -0.36868456339674438 -0.78015374427423012 0 0 0 0 -3.5218397777280188 2.0777083261075404 0 2.0777083261075404 2.0588098133907806 0 0 0 0 -4.1058882227325313 0.35603270458554648 0 0.35603270458554648 -0.020590548534759029 0 0 0 0 -13.700470626128663 9.2107324410451383 0 9.2107324410451383 -12.479700408675171 0 0 0 0 -9.9181493328105717 20.035641014932651 0 20.035641014932651 -20.50077350709671 0 0 0 0 4.0646113092116138 4.6118779786349933 0 4.6118779786349933 -4.1759214943007237 0 0 0 0 -2.2651641367141337 -2.966277543547001 0 -2.966277543547001 -8.2837046857334826 0 0 0 0 -2.163407706131693 -0.72121791580980243 0 -0.72121791580980243 -0.98178673851316489 0 0 0 0 -3.1218594798956474 -7.3543590039450919 0 -7.3543590039450919 -2.9017535695670631 0 0 0 0 -3.1106161108364176 -8.9778822101095557 0 -8.9778822101095557 -7.8859998999473646 0 0 0 0 -11.837149537419464 -14.598743468809971 0 -14.598743468809971 4.2491419985651646 0 0 0 0 -8.6804366532960557 -8.1975185333226364 0 -8.1975185333226364 -0.66453784366831314 0 0 0 0 -8.8794691088623949 -15.396030928421169 0 -15.396030928421169 -20.056384509798136 0 0 0 0 -40.557434060625383 -16.54990760466535 0 -16.54990760466535 -2.4467556800973398 0 0 0 0 -8.3771232188319118 -12.540365147931283 0 -12.540365147931283 -10.116598429155147 0 0 0 0 -3.5345252493971202 31.058597146430998 0 31.058597146430998 -91.859799078911692 0 0 0 0 -19.733153971401407 -20.455059033344583 0 -20.455059033344583 -33.743283237168953 0 0 0 0 -1.4258968303365691 0.297657591930097 0 0.297657591930097 -0.055220530221772979 0 0 0 0 6.7363576073985314 -0.98983177557329327 0 -0.98983177557329327 -25.868598967393382 0 0 0 0 -5.8450499746759306 10.859348876278546 0 10.859348876278546 -17.593246068239409 0 0 0 0 -56.757968597303261 55.666586533246459 0 55.666586533246459 -45.834083110031997 0 0 0 0 -64.199219583555532 -28.842773541769475 0 -28.842773541769475 -22.516762837855367 0 0 0 0 -152.23640398747375 26.14741521462156 0 26.14741521462156 14.104595292725207 0 0 0 0 -88.086186531836574 19.995037997442978 0 19.995037997442978 14.481166515188988 0 0 0 0 -119.28049786145857 -13.288870287845839 0 -13.288870287845839 -1.579092850233792 0 0 0 0 -39.828236393383122 -7.0336016216856478 0 -7.0336016216856478 -1.1620239413042555 0 0 0 0 -91.271767883874418 13.15969642523487 0 13.15969642523487 12.197449209243132 0 0 0 0 -13.846292543355958 15.355813775329807 0 15.355813775329807 11.566304939129907 0 0 0 0 -29.316613148876058 1.6790491182506457 0 1.6790491182506457 17.924546092529908 0 0 0 0 -76.349380784849927 53.611303261402099 0 53.611303261402099 44.126224477252663 0 0 0 0 -139.04346667653135 34.188222144505204 0 34.188222144505204 38.995042941312931 0 0 0 0 -0.69412977738178938 0.4924339184173796 0 0.4924339184173796 -0.27718587244062931 0 0 0 0 -88.174330952992023 58.412574615068934 0 58.412574615068934 56.432707104117071 0 0 0 0 -190.15797782062145 -89.487775688378292 0 -89.487775688378292 33.532293589949404 0 0 0 0 -259.6796495730232 39.477950852475715 0 39.477950852475715 121.23153372867273 0 0 0 0 20.303913882059533 4.1171323440294998 0 4.1171323440294998 11.071753501517833 0 0 0 0 6.8099482689940487 59.301333526014105 0 59.301333526014105 27.631661171985115 0 0 0 0 -50.420880710633355 -15.12040364118252 0 -15.12040364118252 -11.78552887708156 0 0 0 0 -44.253602684719226 -34.546808340708822 0 -34.546808340708822 -7.113539472080447 0 0 0 0 -95.497170770671801 -71.052409738822462 0 -71.052409738822462 -35.951788799782662 0 0 0 0 -40.563137239296339 -31.482468722299927 0 -31.482468722299927 -43.642177424695205 0 0 0 0 -3.1657546508755452 0.68570510852420341 0 0.68570510852420341 2.0290958696091508 0 0 0 0 -55.002523866616684 0.58082069140232306 0 0.58082069140232306 28.895663876931735 0 0 0 0 -38.44907081259953 10.230361853907368 0 10.230361853907368 1.7972499145844267 0 0 0 0 -47.813929611918866 1.8589286956707838 0 1.8589286956707838 6.5850905133227116 0 0 0 0 -62.445086153165903 2.6909858305791658 0 2.6909858305791658 8.6961748539858945 0 0 0 0 -53.433252561855625 -0.59629855008410004 0 -0.59629855008410004 -23.379424966075931 0 0 0 0 -2.036858225149409 1.3452559682748095 0 1.3452559682748095 -1.0229558382898212 0 0 0 0 0.023966137438634405 0.033962811159376827 0 0.033962811159376827 -0.52053298703467998 0 0 0 0 -46.624999795056283 9.8457956040862769 0 9.8457956040862769 -6.0544058576988391 0 0 0 0 -3.5967198531725444 8.2588960992093234 0 8.2588960992093234 15.821653016550954 0 0 0 0 -20.422813928398682 -13.04674979075719 0 -13.04674979075719 -3.9531293157242544 0 0 0 0 -52.267934240502655 -18.11353709998798 0 -18.11353709998798 -2.6280368894358617 0 0 0 0 -5.55258043243375 1.7246410769725067 0 1.7246410769725067 0.23110546600971604 0 0 0 0 -2.9061679020177422 -0.85488185561442265 0 -0.85488185561442265 1.0537743099050396 0 0 0 0 -3.3568749598859995 6.1895549587088112 0 6.1895549587088112 5.9175112949051254 0 0 0 0 -8.8177797393655055 -1.8729244046132862 0 -1.8729244046132862 11.087020910426418 0 0 0 0 -5.7763558856386226 -2.5652295413060529 0 -2.5652295413060529 8.1414787344970136 0 0 0 0 -6.2234874555288116 -4.1688728441531566 0 -4.1688728441531566 23.709483996479435 0 0 0 0 -8.1451438747435532 -3.8730219824015251 0 -3.8730219824015251 10.681505582532282 0 0 0 0 -7.7545813053402526 -0.67086046699546387 0 -0.67086046699546387 0.76134118655818384 0 0 0 0 -5.9994378031224187 -4.4734976112436016 0 -4.4734976112436016 0.13374203228863735 0 0 0 0 -8.634322642207735 -6.0157844989548153 0 -6.0157844989548153 3.9360860419355959 0 0 0 0 -5.9582774141046571 -2.5018093086917013 0 -2.5018093086917013 -0.42484582165752727 0 0 0 0 -9.1180481363408035 -0.02878394194158318 0 -0.02878394194158318 5.798328493861959 0 0 0 0 -9.5386324539758789 4.5750072840492066 0 4.5750072840492066 1.842804759493788 0 0 0 0 -3.7752942298190462 -0.11312234573217594 0 -0.11312234573217594 0.89690076783567685 0 0 0 0 -2.1857874831883919 4.4965474575037518 0 4.4965474575037518 -0.16297044969428498 0 0 0 0 -8.1672506790055195 0.95884409068662535 0 0.95884409068662535 0.89528010106846523 0 0 0 0 -1.5763866280544789 -3.7238982682902844 0 -3.7238982682902844 0.81947740365671962 0 0 0 0 -7.1089843297918378 -0.19623083164442789 0 -0.19623083164442789 -0.53135344033898946 0 0 0 0 -3.1069301080701806 -1.6917077736439303 0 -1.6917077736439303 0.5580919578074619 0 0 0 0 0.80288631934490695 -1.9593289481391594 0 -1.9593289481391594 -1.4860019531324724 0 0 0 0 -6.9693386262260901 -1.3748261567166082 0 -1.3748261567166082 1.3880725816300128 0 0 0 0 -13.693343740193086 -4.0004782044582292 0 -4.0004782044582292 9.6116620799586627 0 0 0 0 -1.9687953982565887 9.8013352900036086 0 9.8013352900036086 -6.3228969219884021 0 0 0 0 8.4227707498703239 -2.5960690197533722 0 -2.5960690197533722 -1.9326017908051654 0 0 0 0 3.9612864224818622 2.7659847123072154 0 2.7659847123072154 -1.0449807898285144 0 0 0 0 -4.8087938505575352 2.3425880590081647 0 2.3425880590081647 -0.89941420314632459 0 0 0 0 -6.3590783821564401 5.6100328426067279 0 5.6100328426067279 4.1891760664524327 0 0 0 0 -5.5983681884390535 0.56742777354043028 0 0.56742777354043028 1.5185484379665013 0 0 0 0 -6.6993287146489777 2.8964070305710905 0 2.8964070305710905 0.63133110534159376 0 0 0 0 -12.049701755573551 -2.2147321730196268 0 -2.2147321730196268 -1.8594885780554478 0 0 0 0 -4.7821495089863646 2.1050402120027343 0 2.1050402120027343 1.4024017877498625 0 0 0 0 -9.9837611692637438 -0.91016450950132821 0 -0.91016450950132821 -2.2020337964382577 0 0 0 0 -12.588107014275465 0.25923843655515455 0 0.25923843655515455 -2.7232118255892601 0 0 0 0 -17.78415382109597 7.7241713561234207 0 7.7241713561234207 -0.013318391687107578 0 0 0 0 -6.5712441799311989 -3.9543675377364735 0 -3.9543675377364735 0.11682580568962564 0 0 0 0 -11.175923415390571 -12.182061332356227 0 -12.182061332356227 -1.698370370476141 0 0 0 0 -8.7698493422576576 2.486803911017148 0 2.486803911017148 0.13867479760710921 0 0 0 0 -33.272454880498117 -6.4850335866069031 0 -6.4850335866069031 -0.15453634123929305 0 0 0 0 -36.497639832283312 9.6049255878164672 0 9.6049255878164672 -19.528431464015966 0 0 0 0 -38.882067285365338 7.8320515341611667 0 7.8320515341611667 -3.8722612541641865 0 0 0 0 -47.277820774212159 1.0844320837469184 0 1.0844320837469184 4.0816974900392324 0 0 0 0 -74.488568820488581 -6.5976533214839037 0 -6.5976533214839037 3.5158457327137569 0 0 0 0 3.1777314695988075 -0.025123909184316062 0 -0.025123909184316062 -0.99022471181836647 0 0 0 0 -38.351899135128406 12.038126183017738 0 12.038126183017738 -2.3608522194288639 0 0 0 0 -34.520693108279374 -2.2622243669417657 0 -2.2622243669417657 3.5532159979500726 0 0 0 0 -36.989763480936745 -1.4069250866317446 0 -1.4069250866317446 6.5435654246917636 0 0 0 0 -30.597450918125105 6.6183761947183939 0 6.6183761947183939 -5.1299013307175301 0 0 0 0 -6.5758227027985487 10.075934919772134 0 10.075934919772134 -1.7273693823514749 0 0 0 0 -10.446621607140344 -3.0070564277126302 0 -3.0070564277126302 -0.072759540528804068 0 0 0 0 -36.011536853520738 -6.8906371454969602 0 -6.8906371454969602 -5.4084832191065288 0 0 0 0 -18.490539088876176 -4.3538906899832597 0 -4.3538906899832597 0.36107452905298487 0 0 0 0 1.0870470124041205 2.1073893200484353 0 2.1073893200484353 -0.9944291509382005 0 0 0 0 -23.273938687223563 -8.6271348126297198 0 -8.6271348126297198 -10.459535979912914 0 0 0 0 -11.116703974388656 8.6715990778106473 0 8.6715990778106473 -4.665828911065887 0 0 0 0 -3.2750734335968446 0.96075433303286673 0 0.96075433303286673 1.7311230935774802 0 0 0 0 -5.0342973273967884 0.97509770547250696 0 0.97509770547250696 -0.98986713531141013 0 0 0 0 -13.637690419791497 5.3687157035822999 0 5.3687157035822999 2.2098150997941466 0 0 0 0 -11.53635347697174 -1.0360211080136104 0 -1.0360211080136104 0.49700875041369619 0 0 0 0 -1.4594396935877825 0.47096588978909182 0 0.47096588978909182 0.24556541021141587 0 0 0 0 -13.274421522028206 -3.2400142321606609 0 -3.2400142321606609 -4.7691180930307837 0 0 0 0 -52.084801965384031 -21.365746100348531 0 -21.365746100348531 -6.8892761802190137 0 0 0 0 -2.3789619239180855 -0.72681217758568195 0 -0.72681217758568195 -2.3074346063469648 0 0 0 0 -39.151367407465841 -2.7650893747950676 0 -2.7650893747950676 0.16137770993293543 0 0 0 0 -14.930228293913387 -3.2032309266951984 0 -3.2032309266951984 -4.0162926589533754 0 0 0 0 -45.71632170072553 -6.353852835728361 0 -6.353852835728361 6.9049402626368845 0 0 0 0 -9.4559081561528728 -3.6279330187830396 0 -3.6279330187830396 -1.7697396621165922 0 0 0 0 -14.743557113022689 -4.1123941521241818 0 -4.1123941521241818 0.3990095762746364 0 0 0 0 -11.087039697235014 -4.4279842541479439 0 -4.4279842541479439 -2.3964908463490247 0 0 0 0 -11.385825362205651 0.29713043564871811 0 0.29713043564871811 0.91093574784228792 0 0 0 0 -16.105499464349123 -3.3347873644606807 0 -3.3347873644606807 -0.78583318301298277 0 0 0 0 -10.392303069450783 -0.9102989807159112 0 -0.9102989807159112 0.20888302528392277 0 0 0 0 -10.096361443557797 -0.12473152944146371 0 -0.12473152944146371 0.86606895456791011 0 0 0 0 -10.984737652528565 -1.214703358723769 0 -1.214703358723769 0.9717299044964065 0 0 0 0 -9.6125960479912465 -1.1467643784791122 0 -1.1467643784791122 -2.2238962951189052 0 0 0 0 -10.568493341046633 -4.1274109438682558 0 -4.1274109438682558 1.9914787821383584 0 0 0 0 -11.735183421188594 -0.6724775817012727 0 -0.6724775817012727 5.2021085716218067 0 0 0 0 -11.519001479209692 -3.1194383068175853 0 -3.1194383068175853 1.1703788495126446 0 0 0 0 -14.807430941751591 -2.76215215223732 0 -2.76215215223732 21.859858475581063 0 0 0 0 -9.4203023023654282 1.117285696945312 0 1.117285696945312 0.59095841992881382 0 0 0 0 -8.4988325095660002 0.78493687386306021 0 0.78493687386306021 8.0549120967037879 0 0 0 0 -5.7952912529875107 2.0191789335266108 0 2.0191789335266108 0.022609811852768891 0 0 0 0 -9.6168107165212859 -1.1322857301223579 0 -1.1322857301223579 -1.7368462091542347 0 0 0 0 -13.01911477720023 42.823958324075662 0 42.823958324075662 -55.600662419381273 0 0 0 0 -65.648586056866179 10.558965375960504 0 10.558965375960504 3.0332733817349862 0 0 0 0 -0.19952045826938303 -0.1302432399173501 0 -0.1302432399173501 -0.22757058271372621 0 0 0 0 -16.868952862630977 32.561330176997693 0 32.561330176997693 -55.49866147459575 0 0 0 0 -14.677665952915049 23.557886866457764 0 23.557886866457764 -65.076019432238084 0 0 0 0 2.5073819498320518 44.454604579416426 0 44.454604579416426 -93.810672220277496 0 0 0 0 -82.221792357606319 35.319686391882456 0 35.319686391882456 -53.415378935601254 0 0 0 0 50.949862756004222 121.53037479863011 0 121.53037479863011 1.7985461862329117 0 0 0 0 -117.41149058917108 126.13613187164445 0 126.13613187164445 82.757079529914449 0 0 0 0 -195.01276296708329 25.214488916434505 0 25.214488916434505 18.437732368972227 0 0 0 0 -122.11088080544141 -72.355362033347902 0 -72.355362033347902 9.9191711425928517 0 0 0 0 13.40021821254777 -24.44361281862302 0 -24.44361281862302 -12.208637173795619 0 0 0 0 -70.310454498991021 7.3040567129877019 0 7.3040567129877019 23.069667242998463 0 0 0 0 -58.61028695931418 -7.3125724674867421 0 -7.3125724674867421 -7.095261117022261 0 0 0 0 -66.513889792991904 -5.6771599823091776 0 -5.6771599823091776 25.58417439156521 0 0 0 0 -60.577702144242721 -10.129980278295662 0 -10.129980278295662 8.8020299301072527 0 0 0 0 -58.831137503702848 2.811889821193347 0 2.811889821193347 2.3684827677616376 0 0 0 0 -61.927345441607031 -3.1727025860529423 0 -3.1727025860529423 7.2133088145522777 0 0 0 0 -88.417438774838956 -3.38284682812629 0 -3.38284682812629 6.0162349645579667 0 0 0 0 -64.019107512125629 -34.699518301048045 0 -34.699518301048045 -25.247311265165379 0 0 0 0 -62.792750552223879 -1.582260162400857 0 -1.582260162400857 4.3364505470215917 0 0 0 0 -65.642502503560536 -2.3566394894959117 0 -2.3566394894959117 8.5767381309037205 0 0 0 0 -63.135563113766693 -4.0470028907543707 0 -4.0470028907543707 9.5278141837008974 0 0 0 0 -63.322907820038381 -2.4730917150861664 0 -2.4730917150861664 8.5969178458248905 0 0 0 0 -64.058746766004333 -5.2828044642020302 0 -5.2828044642020302 11.704421106713994 0 0 0 0 -48.814008494673544 2.6569627857151801 0 2.6569627857151801 8.0376426831191168 0 0 0 0 -59.343434655285819 -8.9949988712794209 0 -8.9949988712794209 3.1127871666936802 0 0 0 0 -50.941348470708363 -7.1437755882102429 0 -7.1437755882102429 3.2836090121272292 0 0 0 0 -23.149462659500387 12.59281684143394 0 12.59281684143394 1.6306391461970904 0 0 0 0 -7.0441472394049924 -11.945420387738039 0 -11.945420387738039 -8.2911308151032834 0 0 0 0 2.0081164444864044 9.9511950700005656 0 9.9511950700005656 -35.517185807795769 0 0 0 0 -0.31148119337009206 -0.40727477623968689 0 -0.40727477623968689 -0.53695389886279066 0 0 0 0 -5.7945816697083501 -2.6941300259344843 0 -2.6941300259344843 -11.09911181492679 0 0 0 0 -3.3463184639373935 -16.345213382902624 0 -16.345213382902624 -28.983771254491245 0 0 0 0 -3.3685603308450709 -16.831758121788834 0 -16.831758121788834 -14.422162221031471 0 0 0 0 -25.007089622113199 -18.633322146531441 0 -18.633322146531441 27.275991800337124 0 0 0 0 -27.474913233811094 -13.231700557569951 0 -13.231700557569951 16.634376978559828 0 0 0 0 -23.583814986514881 -14.00063442236781 0 -14.00063442236781 42.198356623604582 0 0 0 0 -17.599446282750705 -14.882363025403315 0 -14.882363025403315 -24.104241249025335 0 0 0 0 -16.098064918975069 -4.795303711189888 0 -4.795303711189888 3.7766573955065752 0 0 0 0 -21.02523951288115 -17.58146966574272 0 -17.58146966574272 -18.019706008634444 0 0 0 0 -21.064815425517736 -11.488622996518473 0 -11.488622996518473 -13.781576469463246 0 0 0 0 -60.440252119851721 -9.7934906507438981 0 -9.7934906507438981 9.2691356914369294 0 0 0 0 -127.16249886689729 -15.15408679523533 0 -15.15408679523533 12.281088450324489 0 0 0 0 -66.252061812818283 -10.452041829067099 0 -10.452041829067099 11.126109701818081 0 0 0 0 -73.904637624717338 8.8950511866998383 0 8.8950511866998383 9.6175394360455755 0 0 0 0 -72.923016280175943 -7.7704718773496921 0 -7.7704718773496921 13.060732215313692 0 0 0 0 -45.75194675471721 7.8006735630374351 0 7.8006735630374351 0.077314274449605591 0 0 0 0 -40.331762789839559 11.981670211586447 0 11.981670211586447 -0.98193729511370975 0 0 0 0 -89.627529864861572 27.726926119405967 0 27.726926119405967 -4.3380487383616355 0 0 0 0 -50.252108880060405 -62.644883774789832 0 -62.644883774789832 -59.495753578168973 0 0 0 0 -35.043921258489718 -11.602188467482989 0 -11.602188467482989 -10.743256515367008 0 0 0 0 -111.27578082881791 -47.379347502724272 0 -47.379347502724272 136.96658448220592 0 0 0 0 -40.754330451960605 -1.1232679574470144 0 -1.1232679574470144 0.34013433448450003 0 0 0 0 -75.497276264366519 -8.147479931154038 0 -8.147479931154038 98.779302723811583 0 0 0 0 -139.5126117858963 78.401139730778681 0 78.401139730778681 4.6477670374538675 0 0 0 0 -22.043048037523477 -85.645236961295424 0 -85.645236961295424 -11.291935045906499 0 0 0 0 -95.994273615477795 -119.69738458783721 0 -119.69738458783721 37.76348851971818 0 0 0 0 -101.73956322653612 166.13544965867362 0 166.13544965867362 -0.34413455685762528 0 0 0 0 -37.992755920057789 -51.639251569581518 0 -51.639251569581518 -71.867968535941372 0 0 0 0 -73.128990248904756 -13.270078140638475 0 -13.270078140638475 41.463908946182343 0 0 0 0 -41.673503223527632 -27.166744755143441 0 -27.166744755143441 40.641618982351702 0 0 0 0 -30.279624880360416 -15.44886817436327 0 -15.44886817436327 -11.058509219195201 0 0 0 0 0.0997403223688198 0.34604768415605758 0 0.34604768415605758 0.69026557523966403 0 0 0 0 103.32019530885691 -62.15890489522053 0 -62.15890489522053 -10.602358454776549 0 0 0 0 -4.1164581844984696 7.3163717392746435 0 7.3163717392746435 6.4766350665947243 0 0 0 0 47.541952894581755 -0.62815652483629947 0 -0.62815652483629947 11.319685061433177 0 0 0 0 -78.349630322181383 -8.4855438659203628 0 -8.4855438659203628 48.866993971519037 0 0 0 0 -2.7703060654316687 -86.355281294092947 0 -86.355281294092947 42.909268319017883 0 0 0 0 -46.413999269869237 3.9313313778537307 0 3.9313313778537307 66.4957453653318 0 0 0 0 -7.3289333120797266 6.8049650677542264 0 6.8049650677542264 5.5325948141112251 0 0 0 0 -17.984949380856662 -3.9456431454837957 0 -3.9456431454837957 38.353626779943284 0 0 0 0 -18.057599883184594 -20.950978027036882 0 -20.950978027036882 49.518584247465412 0 0 0 0 -33.049404407742259 -0.52269476137399806 0 -0.52269476137399806 19.251430998931596 0 0 0 0 -35.109978473803494 -3.2839663543560107 0 -3.2839663543560107 36.503817397714784 0 0 0 0 -36.513412157004495 25.788027424125843 0 25.788027424125843 59.946552084898805 0 0 0 0 -38.51166183494481 -1.6748076969456398 0 -1.6748076969456398 0.57688189534032874 0 0 0 0 110.89210661261313 -24.09577209613235 0 -24.09577209613235 21.110572553290467 0 0 0 0 -20.378320588421047 41.796138666998111 0 41.796138666998111 -10.658490002779541 0 0 0 0 -65.461671154260273 26.92258338797059 0 26.92258338797059 33.753961961667528 0 0 0 0 -60.147311580734822 20.968523100136593 0 20.968523100136593 41.904124579910416 0 0 0 0 -5.4776164302802499 -3.8134560356150189 0 -3.8134560356150189 -19.068343231761332 0 0 0 0 -6.765601245354091 0.014263787153926566 0 0.014263787153926566 -0.040925045663663728 0 0 0 0 -60.998037431891134 48.336021381026796 0 48.336021381026796 14.23227329772908 0 0 0 0 -9.5459148626759998 -0.69478225964638796 0 -0.69478225964638796 -12.157274443475316 0 0 0 0 -7.3806117109061233 -5.2145279666570801 0 -5.2145279666570801 -14.429782819376555 0 0 0 0 -7.579216556459869 -7.7811876580738613 0 -7.7811876580738613 -4.2930572182838205 0 0 0 0 -9.1494056253031886 -4.443503722446053 0 -4.443503722446053 -4.2523165556099798 0 0 0 0 -11.83869196678279 -9.8313418166441693 0 -9.8313418166441693 4.8429673569071099 0 0 0 0 -7.8552678794537769 -7.8456105718209024 0 -7.8456105718209024 -6.8224269799200101 0 0 0 0 -9.7031545827462651 -6.6083155989226015 0 -6.6083155989226015 -2.0316571067213545 0 0 0 0 -10.286442004588025 -4.0413184240121609 0 -4.0413184240121609 -5.3283752024630076 0 0 0 0 4.2207933883837541 -31.220653102528445 0 -31.220653102528445 21.529744389835763 0 0 0 0 -10.913787823400128 -0.31441683743480708 0 -0.31441683743480708 0.52602029763044678 0 0 0 0 -9.4722994528150366 -3.3477810786424995 0 -3.3477810786424995 -5.1668180444460177 0 0 0 0 16.666839886372145 -14.631889112191857 0 -14.631889112191857 -34.349253859386636 0 0 0 0 -13.920216650785733 -3.0224007983147203 0 -3.0224007983147203 -2.3728723268497447 0 0 0 0 -11.431677966818825 -2.5252166186642739 0 -2.5252166186642739 -5.3419008798439833 0 0 0 0 -10.584449992602348 -5.1463596709319877 0 -5.1463596709319877 0.26817389651713974 0 0 0 0 -5.2849364483511323 -0.27807280257009381 0 -0.27807280257009381 0.85879542862773306 0 0 0 0 -14.304774248987087 -3.9510072826589635 0 -3.9510072826589635 -2.3043544052031848 0 0 0 0 -12.485235019237734 -5.1765312124451839 0 -5.1765312124451839 -2.0990421356181059 0 0 0 0 -0.63513671794278448 -1.0236173627276095 0 -1.0236173627276095 -1.3432585342203172 0 0 0 0 -18.011620361823589 9.3647564184565937 0 9.3647564184565937 -6.2849859207625514 0 0 0 0 -16.673257500920954 -4.9093586106845066 0 -4.9093586106845066 -0.58693198967455373 0 0 0 0 -42.891624278032396 12.547337957573404 0 12.547337957573404 4.9486603907755722 0 0 0 0 -41.333116616297048 15.724643134867165 0 15.724643134867165 4.0845979838270523 0 0 0 0 -1.6621893989354533 -1.1280056685829982 0 -1.1280056685829982 -0.7268139369901081 0 0 0 0 -0.064408919373818208 -31.072863276153058 0 -31.072863276153058 -77.602622838916275 0 0 0 0 -35.320729651772126 21.297628841919533 0 21.297628841919533 -31.214019856853099 0 0 0 0 -1.0118530965001833 -2.8555803931319197 0 -2.8555803931319197 -1.5919476254529161 0 0 0 0 -6.6459466196865833 -4.3729276072814969 0 -4.3729276072814969 -0.74778300972116085 0 0 0 0 14.611987611071527 -3.0896785163634206 0 -3.0896785163634206 -20.768910580784677 0 0 0 0 -129.77250757655111 16.136544261073368 0 16.136544261073368 178.80610283480439 0 0 0 0 -52.554683608881533 -32.83476269453385 0 -32.83476269453385 57.931257100707484 0 0 0 0 -21.10911419184049 -10.625667879456245 0 -10.625667879456245 11.006229761478664 0 0 0 0 -40.549911121060582 -0.74466631842100739 0 -0.74466631842100739 1.0832363319265863 0 0 0 0 -1.6859195591024785 -0.7303764027456543 0 -0.7303764027456543 -0.30027585230020981 0 0 0 0 -71.125823912274711 -64.241591682035249 0 -64.241591682035249 64.860539282255019 0 0 0 0 -130.59879573192484 115.59415640428267 0 115.59415640428267 116.77254904426763 0 0 0 0 -14.002939724949783 107.14728671833973 0 107.14728671833973 -159.89513632879755 0 0 0 0 -63.117949128024975 -42.350117363986669 0 -42.350117363986669 32.662872755613989 0 0 0 0 -29.613255264356667 -37.556899868274968 0 -37.556899868274968 -66.426755617077902 0 0 0 0 20.3623485514604 -56.701157689760748 0 -56.701157689760748 35.12706036135836 0 0 0 0 -6.4463313399617093 0.8850530444220821 0 0.8850530444220821 0.74574249994103481 0 0 0 0 74.281441456211724 35.640259630355104 0 35.640259630355104 10.360267255161034 0 0 0 0 -29.738168102379859 -2.1084217367384781 0 -2.1084217367384781 90.92252389340257 0 0 0 0 9.3691756566304321 42.52436146697778 0 42.52436146697778 -32.380017938332458 0 0 0 0 40.997494464235388 58.737318324645003 0 58.737318324645003 4.0471643252342346 0 0 0 0 3.955821662222661 65.280388713217917 0 65.280388713217917 2.8914727015671815 0 0 0 0 -48.701077180310847 30.269840586036565 0 30.269840586036565 15.407900690463066 0 0 0 0 1.4563455154304847 47.809307155465916 0 47.809307155465916 44.751661869729986 0 0 0 0 -8.9997514965121894 0.47277564091869273 0 0.47277564091869273 -0.64747818378547395 0 0 0 0 -6.88607086450995 -5.8391938830683525 0 -5.8391938830683525 -1.0852958416439205 0 0 0 0 -10.304952941634383 41.600266822499293 0 41.600266822499293 43.916404321575556 0 0 0 0 -19.729671827562697 -5.9411710276734127 0 -5.9411710276734127 -3.2577122378354488 0 0 0 0 -19.742165889216267 -5.949014696838276 0 -5.949014696838276 -2.7225233509968731 0 0 0 0 -23.701705866145822 -2.9938872603397639 0 -2.9938872603397639 -1.1919067130531087 0 0 0 0 -0.11273548788813059 13.406892501852553 0 13.406892501852553 -22.128624991419429 0 0 0 0 -88.125524849154317 -49.132815203165819 0 -49.132815203165819 -45.662493640524076 0 0 0 0 31.748389225707797 122.35034301926066 0 122.35034301926066 -255.53401344119038 0 0 0 0 -16.664753825990964 4.6299883661107737 0 4.6299883661107737 -0.51024527017726296 0 0 0 0 -2.1938164261637212 41.936389419242403 0 41.936389419242403 58.305647636252388 0 0 0 0 -32.901419884006827 -13.012438059380884 0 -13.012438059380884 -5.0870362425819167 0 0 0 0 -7.9326715582066463 4.4006689438396753 0 4.4006689438396753 0.54512195672161479 0 0 0 0 7.914109029626843 42.336299169438192 0 42.336299169438192 -57.61460599402858 0 0 0 0 -18.744659186825245 0.30093771184596374 0 0.30093771184596374 0.98513242766086284 0 0 0 0 37.963770870793667 -12.965673520197399 0 -12.965673520197399 -101.35050225328052 0 0 0 0 -5.8910662320029132 -26.230247033357614 0 -26.230247033357614 40.291818697603958 0 0 0 0 -14.95387475520829 2.6329539239356876 0 2.6329539239356876 9.0709491795787471 0 0 0 0 -11.499661706485638 2.1669715761565183 0 2.1669715761565183 0.086499799323228155 0 0 0 0 -13.444582402911692 2.3236451511975815 0 2.3236451511975815 8.2998245394642254 0 0 0 0 -13.019752217750579 4.7886853287109687 0 4.7886853287109687 -0.77757198142525397 0 0 0 0 -13.822527990642389 -0.76728977619021421 0 -0.76728977619021421 0.31208192934835327 0 0 0 0 -2.2300458203442517 -0.15246121017743619 0 -0.15246121017743619 -0.053962896209804545 0 0 0 0 -33.806610679883306 50.082185457173296 0 50.082185457173296 -44.197271956463169 0 0 0 0 37.2444413373305 1.7499937541778081 0 1.7499937541778081 -61.703583926820926 0 0 0 0 -129.46302931375294 -154.20187917143051 0 -154.20187917143051 149.54169840622012 0 0 0 0 -126.97743558549791 34.783123730884455 0 34.783123730884455 12.030878176884926 0 0 0 0 -15.40108370053872 1.7626888546307384 0 1.7626888546307384 -0.37348163762402464 0 0 0 0 -2.9841463322484287 7.6386819039484806 0 7.6386819039484806 -0.93613498317949961 0 0 0 0 -7.4157738597235188 5.5906247574467773 0 5.5906247574467773 -1.1513036529803338 0 0 0 0 4.1383250435043237 -5.752518739057912 0 -5.752518739057912 -0.79256091764004921 0 0 0 0 -4.1727140027009071 5.354347476251565 0 5.354347476251565 -1.3489651484227061 0 0 0 0 -16.624658109796428 1.7957714968710832 0 1.7957714968710832 -0.36929933529669334 0 0 0 0 -0.11819515805124392 0.36734937933141842 0 0.36734937933141842 -0.55339289752769061 0 0 0 0 -0.10414651640326156 18.337479911288327 0 18.337479911288327 12.571332866395068 0 0 0 0 -43.08218792713933 47.390853894538552 0 47.390853894538552 -2.8573512826416092 0 0 0 0 -28.159418236454371 24.83031529988655 0 24.83031529988655 -54.340465691089321 0 0 0 0 -0.54211527687953254 -0.17595428679097991 0 -0.17595428679097991 0.099945722276316026 0 0 0 0 -3.295869815535073 0.14568834847225087 0 0.14568834847225087 0.0081511398303048821 0 0 0 0 -3.2148144393822804 -0.9724749299000095 0 -0.9724749299000095 -1.3786347348478643 0 0 0 0 -1.6674087702616913 -1.2875306065874952 0 -1.2875306065874952 -1.7544888352438708 0 0 0 0 110.93979623497495 -3.3541899872885779 0 -3.3541899872885779 -66.487174745727145 0 0 0 0 44.748135981112227 52.641781572995455 0 52.641781572995455 -51.163582502327188 0 0 0 0 -27.53577390442527 32.513413171547356 0 32.513413171547356 11.114752060730666 0 0 0 0 -26.42353969914393 47.406777197301601 0 47.406777197301601 47.164278584603039 0 0 0 0 2.1452234664893695 85.991186013331401 0 85.991186013331401 41.282380436497697 0 0 0 0 -18.130413187523516 49.378187671297269 0 49.378187671297269 -2.8420558762402379 0 0 0 0 -4.8074906792577963 23.236603384564816 0 23.236603384564816 8.7720831124103711 0 0 0 0 -21.375264103701056 44.69791970323223 0 44.69791970323223 2.4831599271040687 0 0 0 0 -12.527040521742528 39.671439897685168 0 39.671439897685168 13.339650136679296 0 0 0 0 -98.690724784637737 -11.991584412353149 0 -11.991584412353149 26.526447683876313 0 0 0 0 36.777165750464476 -10.751812950526293 0 -10.751812950526293 26.536116989916707 0 0 0 0 -70.515834337201284 -45.029150067786489 0 -45.029150067786489 22.743721873531598 0 0 0 0 -100.63964597638449 -48.629495155215864 0 -48.629495155215864 24.767715037689925 0 0 0 0 -118.2002819815516 -56.139978041034581 0 -56.139978041034581 25.225000669926089 0 0 0 0 -179.20582927615101 78.153700150180441 0 78.153700150180441 3.0000559960375881 0 0 0 0 -345.95564050743809 -45.811649533952128 0 -45.811649533952128 26.483447506596349 0 0 0 0 -4.6991893463007592 -0.61480325725144813 0 -0.61480325725144813 -0.21533545540286114 0 0 0 0 -96.937524983297294 -108.33099998503462 0 -108.33099998503462 -16.260196101083352 0 0 0 0 -249.06822267034556 259.23899878059905 0 259.23899878059905 -223.60510977713022 0 0 0 0 -261.04151361521537 287.61038317809999 0 287.61038317809999 -199.63751077836696 0 0 0 0 -464.19411264321877 -54.065396480066852 0 -54.065396480066852 146.77434759121161 0 0 0 0 -37.396494442626249 -70.108993975352689 0 -70.108993975352689 25.771526223887918 0 0 0 0 -76.85648146530184 68.114654001808105 0 68.114654001808105 -131.85969634649075 0 0 0 0 -266.61300070400989 -9.3287813858391502 0 -9.3287813858391502 35.23062190873857 0 0 0 0 -9.6562509652061017 -8.6416731828832738 0 -8.6416731828832738 -1.255770481913332 0 0 0 0 -23.720512970064988 -1.5378780231409337 0 -1.5378780231409337 -4.1389537770442075 0 0 0 0 50.121615205909201 -57.734711407137439 0 -57.734711407137439 -22.662393764982937 0 0 0 0 36.707862679965217 -166.08409435916394 0 -166.08409435916394 58.083707167850662 0 0 0 0 -25.532872509852041 -2.4962675999912278 0 -2.4962675999912278 1.751542271497101 0 0 0 0 63.853673617558343 73.843764682344556 0 73.843764682344556 -153.78990901080329 0 0 0 0 3.1320243180506018 -2.3287806851820956 0 -2.3287806851820956 -1.6726654722443732 0 0 0 0 144.36389220653928 -2.0709345488396593 0 -2.0709345488396593 -24.387083776038708 0 0 0 0 154.0086261081068 79.276567102126364 0 79.276567102126364 -379.13615480661838 0 0 0 0 236.86446993937147 -221.72945229427631 0 -221.72945229427631 164.27297606822628 0 0 0 0 -8.0320956895457218 -1.1250984150517715 0 -1.1250984150517715 -0.39607721266137663 0 0 0 0 -14.927461663531631 0.26379298662769202 0 0.26379298662769202 -3.8286977301045226 0 0 0 0 -24.02023566667998 2.3175461799380837 0 2.3175461799380837 -2.1400483521249782 0 0 0 0 -13.113550395532002 1.7123995709711437 0 1.7123995709711437 0.54787476383538092 0 0 0 0 -16.686639131592074 0.89647844910536634 0 0.89647844910536634 -2.3566504059723457 0 0 0 0 -9.6264677720589837 -0.2039146839653263 0 -0.2039146839653263 0.79719800744314218 0 0 0 0 -15.967325409882505 1.0862908328632956 0 1.0862908328632956 -4.9357696424364352 0 0 0 0 -4.9577949114910744 -0.16914261862182745 0 -0.16914261862182745 0.63163488315129057 0 0 0 0 -12.928471340006126 2.6226542266138289 0 2.6226542266138289 -2.2624758047317073 0 0 0 0 -10.924715753656828 -0.074399453765878754 0 -0.074399453765878754 -0.13593060362513201 0 0 0 0 -16.822722949975287 5.3295880670083164 0 5.3295880670083164 -3.3687048734161493 0 0 0 0 -10.116519507012868 1.3601133848873115 0 1.3601133848873115 -3.5958123165396501 0 0 0 0 -9.6676870174892429 2.3775402917371196 0 2.3775402917371196 -5.0868752060933105 0 0 0 0 -6.2412232385195239 3.6951373709426889 0 3.6951373709426889 0.72578312038217518 0 0 0 0 -7.0630330524035809 3.3580132422745503 0 3.3580132422745503 -2.6968933344616275 0 0 0 0 -18.45413755464611 8.3115824576702373 0 8.3115824576702373 -10.936626806510873 0 0 0 0 -18.730887470187099 19.879339049704186 0 19.879339049704186 -1.8481574427456167 0 0 0 0 0.67843159035472489 0.48579844324380606 0 0.48579844324380606 2.6625756763374406 0 0 0 0 -39.81687775325463 -15.26105960055196 0 -15.26105960055196 17.08516831833326 0 0 0 0 30.362812448019838 -17.672274243706589 0 -17.672274243706589 -14.972199939061397 0 0 0 0 -39.178620578238224 5.255749492750482 0 5.255749492750482 28.228543667042231 0 0 0 0 -38.949100916566977 4.6997959228465902 0 4.6997959228465902 -0.49359379399508896 0 0 0 0 -44.746290203459921 24.512980891990196 0 24.512980891990196 -64.544979039425215 0 0 0 0 -145.2934875297662 -6.8392159947442508 0 -6.8392159947442508 21.843781218329468 0 0 0 0 -128.84345566270133 -42.495221944829062 0 -42.495221944829062 57.05049214448357 0 0 0 0 -105.06548031971096 -33.96446619838742 0 -33.96446619838742 3.9112636951554123 0 0 0 0 5.0275342032687149 -15.943547807302821 0 -15.943547807302821 -27.268595849313897 0 0 0 0 -42.412638023316504 12.27392454308287 0 12.27392454308287 32.906114719119842 0 0 0 0 -21.146749652450126 -15.247322534518275 0 -15.247322534518275 50.710257341290628 0 0 0 0 -13.397441581332819 -2.1564304428416379 0 -2.1564304428416379 -0.38879678876075674 0 0 0 0 -63.768990983788399 24.096277783462497 0 24.096277783462497 -38.63890060775708 0 0 0 0 -37.731042119797621 28.762904322265477 0 28.762904322265477 -31.79669415243248 0 0 0 0 -42.994279751969316 55.708070763289271 0 55.708070763289271 -81.648628691132103 0 0 0 0 -43.08962608122556 23.561974977464686 0 23.561974977464686 -29.562770874328521 0 0 0 0 -21.314894723416884 -3.9962863722847235 0 -3.9962863722847235 0.25765696124256232 0 0 0 0 -23.439849169677473 11.058661286924007 0 11.058661286924007 15.692433271509117 0 0 0 0 -34.186776015380474 7.2879689070073255 0 7.2879689070073255 25.82472260929319 0 0 0 0 -28.03722626101262 3.4722907053833296 0 3.4722907053833296 7.1334828725258603 0 0 0 0 1.9114262245457212 -18.049239086117325 0 -18.049239086117325 5.3353764950039704 0 0 0 0 -5.8718885557393516 0.89028976303828511 0 0.89028976303828511 5.2715823989849664 0 0 0 0 -34.897616541505386 4.0708799158864508 0 4.0708799158864508 19.580271392016812 0 0 0 0 -11.725077184592465 -23.043669050138931 0 -23.043669050138931 13.916667609048204 0 0 0 0 -6.9523258092913238 -10.355406761330471 0 -10.355406761330471 8.0197260921318048 0 0 0 0 -5.7129764982973938 -15.316891350165008 0 -15.316891350165008 12.811654126329813 0 0 0 0 -23.121357674081537 -7.3868629437789082 0 -7.3868629437789082 20.488722914118398 0 0 0 0 -7.0153615959922462 -12.041807554243952 0 -12.041807554243952 14.128379333391422 0 0 0 0 -8.151249119859763 -0.58781904274508712 0 -0.58781904274508712 0.049353008398425935 0 0 0 0 -7.54054277891737 -13.008140912695126 0 -13.008140912695126 13.657401230383812 0 0 0 0 -52.227621738340531 20.792749659340984 0 20.792749659340984 -20.626697659981858 0 0 0 0 -46.865024526107845 4.2743689289869167 0 4.2743689289869167 6.1972170966319311 0 0 0 0 -25.620932512224847 -4.5982034513028234 0 -4.5982034513028234 4.0600844816002724 0 0 0 0 -7.8387774597581483 -15.693389221946347 0 -15.693389221946347 18.559571271219966 0 0 0 0 -2.4865573564795893 -0.20883931404720446 0 -0.20883931404720446 1.1881986049268909 0 0 0 0 1.0519208848206585 -2.6864004925880982 0 -2.6864004925880982 -0.54376109990201504 0 0 0 0 -30.113861046728289 -1.6099420593812681 0 -1.6099420593812681 15.010808032742602 0 0 0 0 -46.409134257680307 -3.3471976571544246 0 -3.3471976571544246 18.960883630118133 0 0 0 0 -22.960276214851547 -6.4700833736215486 0 -6.4700833736215486 7.0509667337378232 0 0 0 0 -21.827350863501124 -3.8803976185926103 0 -3.8803976185926103 12.598279648795483 0 0 0 0 -2.0114487780028867 -9.5963855249099197 0 -9.5963855249099197 9.5515649427002245 0 0 0 0 2.3783787761685744 -1.2761440363646983 0 -1.2761440363646983 11.16543331028538 0 0 0 0 9.4090344343621837 -9.2756098611703237 0 -9.2756098611703237 13.352825298816697 0 0 0 0 -2.8955591241992806 -19.560584157981566 0 -19.560584157981566 19.201063104916557 0 0 0 0 48.833657169681828 -41.916727999269938 0 -41.916727999269938 28.438461289706083 0 0 0 0 -51.284588769594166 -9.4070515063668836 0 -9.4070515063668836 11.809097043306338 0 0 0 0 -49.551801419483354 -18.802770754965728 0 -18.802770754965728 7.8083968116131928 0 0 0 0 -92.662747664054677 -14.200610031194515 0 -14.200610031194515 12.471407366953599 0 0 0 0 -49.597262799721648 4.7980519612048624 0 4.7980519612048624 9.0568823404164505 0 0 0 0 -44.71738118844678 -15.66786100603224 0 -15.66786100603224 -3.0606704382491898 0 0 0 0 -10.242785113722675 -12.839739349174607 0 -12.839739349174607 9.7544460386945957 0 0 0 0 -23.181806529044479 -6.5322441647944061 0 -6.5322441647944061 10.522856288296822 0 0 0 0 -24.465903833012817 0.84307670035616411 0 0.84307670035616411 7.5147804003409036 0 0 0 0 -37.179708931231517 -7.8473019225329779 0 -7.8473019225329779 4.4880964294104615 0 0 0 0 -36.723315955046019 6.5591652981632933 0 6.5591652981632933 4.887896564859572 0 0 0 0 -29.017149977114059 -1.6580077349579483 0 -1.6580077349579483 13.642355313595317 0 0 0 0 -30.189403359078824 -4.334300753868547 0 -4.334300753868547 7.7130689489404176 0 0 0 0 -47.997809356280413 5.8292623150503005 0 5.8292623150503005 13.130025475447724 0 0 0 0 -39.032998290275827 19.088238296443024 0 19.088238296443024 32.738841848036145 0 0 0 0 -25.898163007874246 -11.963860212526924 0 -11.963860212526924 2.6614642213231718 0 0 0 0 -54.581375057846344 -4.2984294085464967 0 -4.2984294085464967 3.2718082062188216 0 0 0 0 -19.503846037360745 2.7565844337885892 0 2.7565844337885892 29.054614464463384 0 0 0 0 -33.355321230148093 -13.801972608749054 0 -13.801972608749054 21.438057657530067 0 0 0 0 3.3482806869419619 8.5693747906573208 0 8.5693747906573208 10.39703227970503 0 0 0 0 -4.7086993311531806 -2.7631155039222985 0 -2.7631155039222985 0.052331243858750653 0 0 0 0 -62.211238708516476 -46.032665251318548 0 -46.032665251318548 -16.424307733974047 0 0 0 0 -13.621603840055286 38.105832701078214 0 38.105832701078214 39.348491167368792 0 0 0 0 0.0057523423698375709 0.27820306763392511 0 0.27820306763392511 -0.30705673519548426 0 0 0 0 -18.001299703762868 -3.8181635339683875 0 -3.8181635339683875 -0.2800915545780126 0 0 0 0 -26.630127905464633 -14.466035549846538 0 -14.466035549846538 15.275118688605801 0 0 0 0 -18.533965288333626 -5.2547042093739256 0 -5.2547042093739256 -1.1816063271911827 0 0 0 0 -25.928565335623716 -8.3810876329107487 0 -8.3810876329107487 9.9842393445610469 0 0 0 0 -24.892741542323506 -36.667223121325563 0 -36.667223121325563 -41.005111324881398 0 0 0 0 -20.576683082717864 -8.2909296878547423 0 -8.2909296878547423 -14.274881896040768 0 0 0 0 -15.818246769618327 -4.7299879228324926 0 -4.7299879228324926 25.98222878100853 0 0 0 0 -2.7060939729865563 -1.3412923128999141 0 -1.3412923128999141 0.36104291825115808 0 0 0 0 -17.885757827573912 -22.752917047895224 0 -22.752917047895224 -5.101760542701868 0 0 0 0 -13.3388872447631 -23.786623518564966 0 -23.786623518564966 0.20370627227021032 0 0 0 0 -0.081974928060245311 0.18267436174316742 0 0.18267436174316742 0.16442116172195742 0 0 0 0 -2.9813372802434515 2.648055040745092 0 2.648055040745092 6.8559256796504542 0 0 0 0 -66.972836173015139 -61.087766033615935 0 -61.087766033615935 -30.295237970345738 0 0 0 0 -29.833998855006939 26.372097313627762 0 26.372097313627762 56.695623083267606 0 0 0 0 -49.44621513435186 -6.4965137609794965 0 -6.4965137609794965 11.76424409530425 0 0 0 0 -12.836371869123013 -24.673403286633715 0 -24.673403286633715 1.7306042190752464 0 0 0 0 -42.767851685932783 -35.850210166795307 0 -35.850210166795307 1.1257780349064372 0 0 0 0 -32.64449811263421 -22.86885962236407 0 -22.86885962236407 3.3960369102412074 0 0 0 0 -51.85497646716567 -54.920933576958674 0 -54.920933576958674 -1.8987369075428049 0 0 0 0 -27.730215863402009 -57.00945561255088 0 -57.00945561255088 -1.7630221249262306 0 0 0 0 -69.712683124714204 -42.111785139636609 0 -42.111785139636609 58.479537789354879 0 0 0 0 -12.024636531606575 0.37378610918455024 0 0.37378610918455024 -8.4596547867404297 0 0 0 0 5.1969143949640966 -5.7103750881997826 0 -5.7103750881997826 -102.58468184043349 0 0 0 0 -44.827126893809236 -99.398032199340747 0 -99.398032199340747 -95.818996299642777 0 0 0 0 -19.798361689872308 -28.064256496251318 0 -28.064256496251318 5.7866968074528131 0 0 0 0 -13.997462804975385 -34.366624354411329 0 -34.366624354411329 -54.009360247629502 0 0 0 0 -1624.0648280577482 -406.18630423577667 0 -406.18630423577667 -101.86778466153713 0 0 0 0 -65.792850045846535 37.346581837576593 0 37.346581837576593 215.89046648732213 0 0 0 0 -64.671045906714426 -76.796905404952952 0 -76.796905404952952 217.17045057598818 0 0 0 0 170.86697009110048 -81.628088773244485 0 -81.628088773244485 46.312190165231414 0 0 0 0 -175.51993383476929 -118.16858767009751 0 -118.16858767009751 88.688503251095796 0 0 0 0 -76.01028165044363 -32.91331989281565 0 -32.91331989281565 95.542657855760922 0 0 0 0 -86.807563665192902 -65.745329877886945 0 -65.745329877886945 26.497220778810401 0 0 0 0 -124.66603107410447 -49.812069909876016 0 -49.812069909876016 137.1912494757546 0 0 0 0 -113.21675878277256 -106.05250729137975 0 -106.05250729137975 26.090803010301059 0 0 0 0 -449.11652659108586 -119.20019917810657 0 -119.20019917810657 -61.42766046282037 0 0 0 0 -99.906140297786806 -94.066537198384736 0 -94.066537198384736 -81.633697155646132 0 0 0 0 -1501.7973577830016 715.55661180631319 0 715.55661180631319 -813.93438154054013 0 0 0 0 338.37184900188709 375.86161420813033 0 375.86161420813033 -289.42576119172406 0 0 0 0 -2.6167298536739407 2.7455178173671575 0 2.7455178173671575 -1.1003664557647304 0 0 0 0 -109.03950592413344 160.22960055653027 0 160.22960055653027 -77.213983972645565 0 0 0 0 27.103291435108076 139.82736595490093 0 139.82736595490093 -104.34704454874074 0 0 0 0 -764.77691432310303 604.79737698174119 0 604.79737698174119 -367.46666538277054 0 0 0 0 -1883.0930876908405 1082.7603345806542 0 1082.7603345806542 -465.70269708758326 0 0 0 0 -489.79161038824532 670.43405386052279 0 670.43405386052279 -521.96959412593947 0 0 0 0 -255.21367440199833 773.89532337580567 0 773.89532337580567 -445.60376056908348 0 0 0 0 -1499.3378912635746 397.05352383271475 0 397.05352383271475 -30.788047751715514 0 0 0 0 -848.63867559553182 443.99693810723511 0 443.99693810723511 -517.6180357296322 0 0 0 0 -4.6394905296611491 -0.724389944231421 0 -0.724389944231421 -0.33834669956832986 0 0 0 0 -826.76491234320861 515.26671708149013 0 515.26671708149013 -322.12558887639113 0 0 0 0 -76.69429088104971 -122.16319254255717 0 -122.16319254255717 -190.1765930483852 0 0 0 0 -262.56751067427012 408.00600852590776 0 408.00600852590776 -349.23447250531598 0 0 0 0 -711.99325834680894 301.97949514461453 0 301.97949514461453 -270.89240227017825 0 0 0 0 -659.54895949106867 -55.643222575652729 0 -55.643222575652729 199.5106733970388 0 0 0 0 -10.993012083747089 -2.8076197581294196 0 -2.8076197581294196 -12.675641930145531 0 0 0 0 -15.004741536609799 -10.487316922326556 0 -10.487316922326556 7.8412272701691563 0 0 0 0 -10.559249179459924 -2.3806644298484638 0 -2.3806644298484638 -0.4717339237554361 0 0 0 0 -351.99981157672903 26.270875512050907 0 26.270875512050907 -4.0587948568698948 0 0 0 0 -4.5138027781939627 -0.17380964559574075 0 -0.17380964559574075 -0.8006974325175682 0 0 0 0 -266.82350090495856 -426.66227361620503 0 -426.66227361620503 248.62542898093238 0 0 0 0 -185.58332716768018 528.55746024949349 0 528.55746024949349 -17.442889011332937 0 0 0 0 -361.28609808667102 364.05866639083615 0 364.05866639083615 146.57226111922466 0 0 0 0 -8.5535699329144137 3.3022283191655233 0 3.3022283191655233 -0.65657232328408566 0 0 0 0 -910.61791723613078 -123.46770397424939 0 -123.46770397424939 503.26275643737335 0 0 0 0 -358.42133074443609 677.82966481736526 0 677.82966481736526 92.571066831167428 0 0 0 0 -67.966592847034917 -504.57100347821739 0 -504.57100347821739 -383.85159112856672 0 0 0 0 -1202.9384164856656 -170.28434903140857 0 -170.28434903140857 496.53800387028548 0 0 0 0 -1419.0555791683219 427.95398319784516 0 427.95398319784516 390.21612848983489 0 0 0 0 -1205.277612263224 -396.60294289574165 0 -396.60294289574165 -63.040358894731753 0 0 0 0 -377.37682026259245 -335.26101340465601 0 -335.26101340465601 178.56703314824722 0 0 0 0 -6.3941552177745677 0.64808700456244361 0 0.64808700456244361 0.25227373497344485 0 0 0 0 -209.93978488333232 266.037607208905 0 266.037607208905 -380.33467781482454 0 0 0 0 -0.88525958793978532 -2.1065995172957379 0 -2.1065995172957379 1.0442206875642635 0 0 0 0 -871.61594422449434 -589.80135729838389 0 -589.80135729838389 61.687593431313871 0 0 0 0 -1497.3300055614855 -66.774534150336407 0 -66.774534150336407 353.41974990136657 0 0 0 0 465.05499668766515 8.1749880848722682 0 8.1749880848722682 -199.16530128984598 0 0 0 0 343.1505439016546 205.2037851498105 0 205.2037851498105 -470.7093298310611 0 0 0 0 -978.25393834408806 -404.48526642306967 0 -404.48526642306967 347.37066446385279 0 0 0 0 -8.4035072259465906 3.404174422980196 0 3.404174422980196 -1.2408674481067616 0 0 0 0 -329.33655802536123 801.5795728106109 0 801.5795728106109 -394.96156110609712 0 0 0 0 -867.60344801669476 495.59012152090003 0 495.59012152090003 41.3023180331558 0 0 0 0 -1496.2295174203546 844.68472118790737 0 844.68472118790737 -42.276575113856467 0 0 0 0 -874.88992732476072 453.89743994280667 0 453.89743994280667 -157.25634635470328 0 0 0 0 -540.06119064110862 331.56076220909443 0 331.56076220909443 -483.72717505344798 0 0 0 0 -828.77704717926827 169.50272170373833 0 169.50272170373833 62.271845333118542 0 0 0 0 -1017.6988190985903 308.26245569002236 0 308.26245569002236 48.721913540967591 0 0 0 0 -725.63581061571222 290.05889853830479 0 290.05889853830479 15.425451296824072 0 0 0 0 -999.23004691648168 452.51307836809985 0 452.51307836809985 53.894238795351335 0 0 0 0 -485.2218388366382 167.44517673768777 0 167.44517673768777 31.983701993602033 0 0 0 0 22.688471460040091 238.27448657511746 0 238.27448657511746 76.644499467555164 0 0 0 0 -325.7075741911176 66.89535038221247 0 66.89535038221247 37.102043825359999 0 0 0 0 -806.06867603150386 99.835112683566052 0 99.835112683566052 30.133959303517912 0 0 0 0 -365.04503743753185 338.70486447377675 0 338.70486447377675 50.934300972081473 0 0 0 0 -346.25401803835484 52.0998656936125 0 52.0998656936125 -138.2942080057224 0 0 0 0 -571.91508733201408 -118.92649453658424 0 -118.92649453658424 13.210709416961791 0 0 0 0 -726.47456032179161 264.29897732206041 0 264.29897732206041 -160.26385903826545 0 0 0 0 -487.18576636522266 180.4918865480067 0 180.4918865480067 -12.015676702413494 0 0 0 0 -731.60202401967126 226.08856817563668 0 226.08856817563668 -5.746279511193535 0 0 0 0 -596.86760552171654 116.26926669415195 0 116.26926669415195 -5.7002708208481749 0 0 0 0 -510.80017981371566 86.160429434536468 0 86.160429434536468 14.455535511459942 0 0 0 0 -516.14661105421374 70.962704572933959 0 70.962704572933959 -17.02163894396503 0 0 0 0 -220.37458936681833 93.176540872368662 0 93.176540872368662 -66.584474268035649 0 0 0 0 -235.47990598037268 10.840606271627088 0 10.840606271627088 15.895715256103969 0 0 0 0 -72.575519723583056 -7.0279543301969127 0 -7.0279543301969127 -74.986520614057412 0 0 0 0 -6.7528384017787175 55.454986140082298 0 55.454986140082298 24.004963529364659 0 0 0 0 -15.608257946183585 -79.93332931312932 0 -79.93332931312932 51.298080602116414 0 0 0 0 -42.946620114535108 3.2147141407829878 0 3.2147141407829878 -5.8454669769453886 0 0 0 0 -68.786839762952127 -48.644881625605024 0 -48.644881625605024 -66.273001429357805 0 0 0 0 -11.524134720570146 -74.586572452926291 0 -74.586572452926291 -39.033217739342597 0 0 0 0 10.059373006914029 -7.1684295003789629 0 -7.1684295003789629 -23.403928686977792 0 0 0 0 10.528419837584806 1.2748398981910043 0 1.2748398981910043 -84.524710019345761 0 0 0 0 -10.902189773089276 -27.532439615976166 0 -27.532439615976166 23.206356962372041 0 0 0 0 -8.9767334468924673 -40.680737633187924 0 -40.680737633187924 7.5801764609086035 0 0 0 0 -1.5460844575063675 -51.844464369126797 0 -51.844464369126797 39.208258316862413 0 0 0 0 -6.3858000445861762 -10.310807814422475 0 -10.310807814422475 -3.3921557522583043 0 0 0 0 -46.617440131523381 -8.2931492784476717 0 -8.2931492784476717 172.08331508413164 0 0 0 0 -32.704720257561348 -24.504098677589695 0 -24.504098677589695 87.336155299764386 0 0 0 0 -24.070994325067659 4.3429675313903999 0 4.3429675313903999 12.542244122593388 0 0 0 0 -18.24896877964019 -3.0866464025447571 0 -3.0866464025447571 -0.059959755963845063 0 0 0 0 -18.987523645816839 -1.7189188358187959 0 -1.7189188358187959 0.012198226851781291 0 0 0 0 -60.687794969494462 19.036027531432637 0 19.036027531432637 0.5522428404292441 0 0 0 0 -26.20595790379366 -4.3398368099236677 0 -4.3398368099236677 15.966038726545435 0 0 0 0 -17.32855003353216 -5.4086630343731832 0 -5.4086630343731832 -1.3761799345262316 0 0 0 0 -33.064762936960506 -19.413963683630698 0 -19.413963683630698 2.7007247179175238 0 0 0 0 -16.78258254964021 3.6498873605431754 0 3.6498873605431754 -7.5834820054105734 0 0 0 0 200.98991729587851 -30.579495952752595 0 -30.579495952752595 -2.0417826868611968 0 0 0 0 -5.4517295516808311 -1.0308946608707803 0 -1.0308946608707803 -0.78693375133283894 0 0 0 0 -20.439370417404461 -10.352675415172378 0 -10.352675415172378 -5.2919476849750708 0 0 0 0 201.83304952232265 -19.571604761925414 0 -19.571604761925414 -391.35904790119804 0 0 0 0 -157.49359625855004 -6.1658583025699301 0 -6.1658583025699301 222.64641301963621 0 0 0 0 -5.046579668008139 0.97339850323847266 0 0.97339850323847266 -0.38365818277930352 0 0 0 0 -9.0091209106383303 -0.59320272831666365 0 -0.59320272831666365 0.22731762264719141 0 0 0 0 -13.487312828294307 -4.4041569611996465 0 -4.4041569611996465 1.6300427730661795 0 0 0 0 -2.9491960311570438 0.12577754088351867 0 0.12577754088351867 -4.1761644338911879 0 0 0 0 -14.328597653386865 -0.98581276369888804 0 -0.98581276369888804 0.37461574968645317 0 0 0 0 -24.113859704328206 -1.9538787373077184 0 -1.9538787373077184 11.029900772808219 0 0 0 0 -204.15297807456329 101.51148587693365 0 101.51148587693365 -161.85365693725726 0 0 0 0 -420.99712250355856 2.0295821622842141 0 2.0295821622842141 126.69406714470369 0 0 0 0 -625.8897863764297 -190.61988173063833 0 -190.61988173063833 13.783213884800261 0 0 0 0 -596.24520208036085 161.64449733218726 0 161.64449733218726 -15.519355369059667 0 0 0 0 -538.49114277326703 3.8810760000426399 0 3.8810760000426399 54.976594493703033 0 0 0 0 -375.36896032418446 3.7125494862921187 0 3.7125494862921187 39.528854724995426 0 0 0 0 -410.9886263363623 15.666183428656041 0 15.666183428656041 28.528341366652512 0 0 0 0 -503.64472255946578 69.113433389908778 0 69.113433389908778 144.15671137119898 0 0 0 0 -448.14183975119056 103.44931908383205 0 103.44931908383205 162.5598881672322 0 0 0 0 -312.18231803902728 5.124867817865379 0 5.124867817865379 -22.853983407983833 0 0 0 0 -286.9162325411537 82.463686179095021 0 82.463686179095021 70.58415550646987 0 0 0 0 -355.68080292130497 52.124217949204649 0 52.124217949204649 20.94706695116929 0 0 0 0 -391.92287553217022 46.121163923945915 0 46.121163923945915 59.577142451329564 0 0 0 0 13.671827994430714 10.664420404881184 0 10.664420404881184 -62.378403543556487 0 0 0 0 -49.583255336436196 25.99881205974043 0 25.99881205974043 -31.131616902062206 0 0 0 0 -21.486255300050516 -13.436732803908399 0 -13.436732803908399 -35.876535996715575 0 0 0 0 -37.050767165092225 7.8428031540138363 0 7.8428031540138363 -25.285323311770298 0 0 0 0 14.248777392182191 -10.025143622360808 0 -10.025143622360808 -20.567652367679329 0 0 0 0 3.9677284083327322 0.62719251389307829 0 0.62719251389307829 -29.10275449888195 0 0 0 0 1.2966096001791811 -7.3212805670914349 0 -7.3212805670914349 -11.003389512822196 0 0 0 0 3.5487569486564716 -2.2101670746223441 0 -2.2101670746223441 -1.7783594123260933 0 0 0 0 37.457497410613172 42.874594856718446 0 42.874594856718446 22.683718876284729 0 0 0 0 0.91083518431614507 -0.41556123018319457 0 -0.41556123018319457 0.48876725036222979 0 0 0 0 -189.52361987619327 39.762330575783835 0 39.762330575783835 94.605691770012299 0 0 0 0 40.921545159473794 12.930221596656793 0 12.930221596656793 -112.9336969220185 0 0 0 0 -155.32372078172966 -110.99378425462464 0 -110.99378425462464 -75.267804855047643 0 0 0 0 86.535303675699254 -26.309383703209619 0 -26.309383703209619 -57.797463591562519 0 0 0 0 -169.20656131057387 -129.28695740077592 0 -129.28695740077592 -11.861112127999945 0 0 0 0 -3.0170833559262746 34.235953154105346 0 34.235953154105346 18.835330491847799 0 0 0 0 -206.92041758079517 -51.839709755005629 0 -51.839709755005629 -45.53846803408851 0 0 0 0 -291.7469616032933 -200.34870134383266 0 -200.34870134383266 -276.30956046791835 0 0 0 0 -336.13379205115677 200.54464053801257 0 200.54464053801257 -236.09671514684305 0 0 0 0 -529.59011388037788 -19.18295622502319 0 -19.18295622502319 -18.509047384108271 0 0 0 0 -406.51048240914321 231.66457471092826 0 231.66457471092826 -51.821179282259436 0 0 0 0 -104.11960239618907 158.79593875117007 0 158.79593875117007 -82.027228973841829 0 0 0 0 -45.363836489153982 129.79286099342289 0 129.79286099342289 -86.505166807840851 0 0 0 0 -88.468900051048877 180.80048164526738 0 180.80048164526738 -98.562519966461878 0 0 0 0 18.478344663992516 73.563590249058052 0 73.563590249058052 -61.44446702393725 0 0 0 0 8.3233841326677975 139.01908072975721 0 139.01908072975721 -148.92146382357623 0 0 0 0 21.161768091279555 34.751584763293522 0 34.751584763293522 -33.155300000104944 0 0 0 0 -27.489670245295201 46.113091767422929 0 46.113091767422929 133.16931539852976 0 0 0 0 -46.367710852007122 216.97671263194707 0 216.97671263194707 -201.95231447938068 0 0 0 0 -1.9189937074975205 53.278547240874559 0 53.278547240874559 -93.045894608188064 0 0 0 0 -25.733136399744581 58.882196712906989 0 58.882196712906989 -49.843082345200401 0 0 0 0 13.667364493160676 72.154060929541629 0 72.154060929541629 -46.334637916050724 0 0 0 0 -4.4898898012324935 88.986157664394568 0 88.986157664394568 -83.075561256595392 0 0 0 0 -3.943987557942819 123.18591521623148 0 123.18591521623148 -109.33829704130039 0 0 0 0 -16.623682279916011 82.655350122619893 0 82.655350122619893 -51.253682792960717 0 0 0 0 -6.0707434624200687 89.384670118025952 0 89.384670118025952 -7.5063351875505759 0 0 0 0 19.885250728435494 60.70922007268382 0 60.70922007268382 1.9952536843775306 0 0 0 0 -4.4137979693709894 76.027034443901812 0 76.027034443901812 97.57477980476142 0 0 0 0 -3.4937687519168321 62.083008032091811 0 62.083008032091811 13.599199555983432 0 0 0 0 20.630576613261837 77.28171285811959 0 77.28171285811959 -52.901759153973558 0 0 0 0 33.441152558811154 67.18953473979127 0 67.18953473979127 13.905111563684216 0 0 0 0 17.483196409164066 53.505888948786378 0 53.505888948786378 28.97634881216436 0 0 0 0 -2.4292978922458133 72.293622225287436 0 72.293622225287436 19.451247268742463 0 0 0 0 -4.9097161262275222 41.751256581654843 0 41.751256581654843 -11.589489591928213 0 0 0 0 -4.9938327352870147 73.689340373277219 0 73.689340373277219 183.4996112286517 0 0 0 0 19.334558064709199 63.239557444765524 0 63.239557444765524 95.396608557132907 0 0 0 0 1.3935835127192604 65.361307957165536 0 65.361307957165536 95.316371401851939 0 0 0 0 20.51496625587788 35.481184080464573 0 35.481184080464573 181.36144249303652 0 0 0 0 57.873863683209493 75.667886433581316 0 75.667886433581316 95.616584757457986 0 0 0 0 -55.008429026102021 -94.51167386925863 0 -94.51167386925863 115.87070313458935 0 0 0 0 -44.675533875289602 79.003295473013623 0 79.003295473013623 -111.1772844491677 0 0 0 0 65.338273457882678 -180.49933518453327 0 -180.49933518453327 -240.47882364413408 0 0 0 0 -16.123134677971848 99.568361109430498 0 99.568361109430498 230.57952324959206 0 0 0 0 11.50452104445958 119.37600157433917 0 119.37600157433917 176.85914295512907 0 0 0 0 -47.177514038952495 86.517026447819035 0 86.517026447819035 108.91695443515346 0 0 0 0 -1.3153313102320343 0.75163772350347946 0 0.75163772350347946 -0.44698148574375107 0 0 0 0 92.010089119945633 159.60254013202484 0 159.60254013202484 -225.15877415891737 0 0 0 0 -18.064003635814377 7.0725847446765222 0 7.0725847446765222 -2.3446727220630343 0 0 0 0 -298.05923211929837 -120.49531576834215 0 -120.49531576834215 26.400740840216258 0 0 0 0 -6.0738403735560276 2.0951603359368169 0 2.0951603359368169 -0.85544621017466316 0 0 0 0 -114.68698950361795 32.149133134769272 0 32.149133134769272 171.5651306509485 0 0 0 0 -9.462582621592901 114.47452197128609 0 114.47452197128609 162.12370784843279 0 0 0 0 -15.158738777209756 5.6624653593457994 0 5.6624653593457994 -1.7249090210297187 0 0 0 0 -70.711818928955154 -29.211009778658536 0 -29.211009778658536 -79.804288203943088 0 0 0 0 -64.622996561527202 45.710377084251945 0 45.710377084251945 19.971677784883468 0 0 0 0 -49.264711535383412 13.622110747093302 0 13.622110747093302 -81.755165850333015 0 0 0 0 -113.92039661596175 -58.410472050391945 0 -58.410472050391945 -48.537576962115509 0 0 0 0 -200.06552722490048 -33.155397612884713 0 -33.155397612884713 -92.961185643497174 0 0 0 0 -368.32257340232468 -1.2495157201715301 0 -1.2495157201715301 -29.916624960686249 0 0 0 0 -259.31793020793884 -53.272832914652895 0 -53.272832914652895 -78.048834336282198 0 0 0 0 -136.94132236202495 -38.732834056740558 0 -38.732834056740558 -88.338026349011216 0 0 0 0 -195.45882722129659 -20.418517581489368 0 -20.418517581489368 -63.861629734082271 0 0 0 0 -27.716145325331127 25.943702160374869 0 25.943702160374869 -75.790913138492215 0 0 0 0 -88.736017003262987 -12.569772556668795 0 -12.569772556668795 -71.983705364062189 0 0 0 0 -110.30177826456861 -2.872423497051841 0 -2.872423497051841 -58.085835008977028 0 0 0 0 -154.11853512013431 -31.913384619211229 0 -31.913384619211229 -59.320126304626001 0 0 0 0 -97.817083220856887 -36.957085797913862 0 -36.957085797913862 -85.155462098841781 0 0 0 0 -251.19423514098492 -29.358635587071035 0 -29.358635587071035 -62.061683744474067 0 0 0 0 -174.55791232009847 -61.203060427469154 0 -61.203060427469154 -98.184868208794796 0 0 0 0 -209.5436199480946 -9.7951556825935313 0 -9.7951556825935313 -83.147986021663201 0 0 0 0 -68.190468482860524 21.684614793755372 0 21.684614793755372 7.3604219737962921 0 0 0 0 10.007830622274469 -14.657342236492255 0 -14.657342236492255 -7.8981525601193425 0 0 0 0 -41.702309714240982 2.4659647591256544 0 2.4659647591256544 -0.82571675557301205 0 0 0 0 -37.415306085570137 6.7836824260675712 0 6.7836824260675712 -36.175996200788063 0 0 0 0 -94.999985080813531 61.479009345563327 0 61.479009345563327 -23.134127148247899 0 0 0 0 -53.849512570101524 20.737206621813584 0 20.737206621813584 -41.994100743240324 0 0 0 0 -95.358193128076834 -23.697080087269569 0 -23.697080087269569 -18.816424731533516 0 0 0 0 -47.340014798757238 -40.920086926367048 0 -40.920086926367048 -53.570814062158661 0 0 0 0 -43.804705283963358 -16.424458610979627 0 -16.424458610979627 6.225248953720893 0 0 0 0 -26.161613385382225 -34.97592433797945 0 -34.97592433797945 23.868014313864478 0 0 0 0 0.33550135691084293 -0.3406943665963702 0 -0.3406943665963702 -0.16748964198623906 0 0 0 0 -30.786551383256892 -21.519875884389421 0 -21.519875884389421 7.5870051882920961 0 0 0 0 10.437769836708412 -6.0345895616158032 0 -6.0345895616158032 5.9853471219203129 0 0 0 0 -54.905740121298095 -54.34217810869427 0 -54.34217810869427 -22.567547429520005 0 0 0 0 -33.124295723546766 -37.118918359038389 0 -37.118918359038389 -34.416131857663459 0 0 0 0 -18.783602001132181 -33.96717959027626 0 -33.96717959027626 -34.038233788950492 0 0 0 0 -92.711172467518281 -65.320530533755118 0 -65.320530533755118 -30.557335673801617 0 0 0 0 -52.994294205239157 -49.500004221096901 0 -49.500004221096901 -55.151778548765833 0 0 0 0 -83.934433813790974 -65.521660323855713 0 -65.521660323855713 -52.889621829391217 0 0 0 0 -75.870132363133962 -76.1862148909388 0 -76.1862148909388 -40.980915995162718 0 0 0 0 -59.903269882820041 -60.673735370324948 0 -60.673735370324948 -43.737813777188421 0 0 0 0 -68.082619149382481 -60.300702792365655 0 -60.300702792365655 -27.980655208067617 0 0 0 0 -190.65908691143829 -40.136572807987818 0 -40.136572807987818 -53.078456135064243 0 0 0 0 -191.58910650510308 -45.544744420658617 0 -45.544744420658617 -76.633848752971517 0 0 0 0 -102.6860050717446 -44.016440979572621 0 -44.016440979572621 -65.69732123369613 0 0 0 0 -130.36375955761878 -68.10006203666353 0 -68.10006203666353 -72.471925811787401 0 0 0 0 -85.823210092952195 -70.097976436364888 0 -70.097976436364888 -60.102340556687977 0 0 0 0 -126.4557535598808 -51.245881667315416 0 -51.245881667315416 -54.722776203925832 0 0 0 0 -131.62630381879626 -66.655681638914984 0 -66.655681638914984 -45.99436866931228 0 0 0 0 -142.11970635466992 -59.861454146878486 0 -59.861454146878486 -52.239674911750626 0 0 0 0 -161.6380574956188 -12.620306909085343 0 -12.620306909085343 -54.73119500379903 0 0 0 0 -131.64864007558663 -46.130256547812451 0 -46.130256547812451 -66.778212688560188 0 0 0 0 -163.10396241248395 26.573388409310837 0 26.573388409310837 -49.350696131749032 0 0 0 0 -215.94266366809464 16.15355082115326 0 16.15355082115326 -46.212733672119612 0 0 0 0 -250.3308890305384 33.765273817476555 0 33.765273817476555 -46.324470738046102 0 0 0 0 -219.11241188152962 -28.501562219984407 0 -28.501562219984407 -40.438072980275138 0 0 0 0 -211.5005331119562 67.72444913999675 0 67.72444913999675 -45.555350192528977 0 0 0 0 -231.2137688290095 56.738323442718411 0 56.738323442718411 -38.88152466036172 0 0 0 0 -261.035401091935 84.821219306856619 0 84.821219306856619 -50.147763592655679 0 0 0 0 -239.43028813105116 103.92834293717692 0 103.92834293717692 -48.067107286192368 0 0 0 0 -271.79943668450414 101.95488974402792 0 101.95488974402792 -37.59445332084033 0 0 0 0 -275.88526523832229 108.83760241093637 0 108.83760241093637 -48.262335094290393 0 0 0 0 -325.70615821788647 60.922867561032035 0 60.922867561032035 -38.49783188496167 0 0 0 0 -329.00295276059614 105.93060511691147 0 105.93060511691147 -37.204757786221194 0 0 0 0 -315.59314233059922 108.41316409619594 0 108.41316409619594 -39.562439162801638 0 0 0 0 -261.94214924574521 -21.49654969670928 0 -21.49654969670928 -41.311173693122612 0 0 0 0 -265.57337682998923 20.035542807572256 0 20.035542807572256 -45.548697318629536 0 0 0 0 -264.02049479091761 23.444086648383063 0 23.444086648383063 -39.232765246623785 0 0 0 0 -372.65806273165185 6.2264139088033517 0 6.2264139088033517 -40.054699005116845 0 0 0 0 -287.42168711159729 -71.830013500419227 0 -71.830013500419227 -98.67529473545801 0 0 0 0 -337.76667402710575 9.7719393664488052 0 9.7719393664488052 -87.085164887902295 0 0 0 0 -332.76594601056286 26.21475186165776 0 26.21475186165776 -158.60077231636456 0 0 0 0 -324.17865907035593 22.700147340878004 0 22.700147340878004 -58.966929789889946 0 0 0 0 -457.41893798880051 -56.652236160159646 0 -56.652236160159646 -94.233208742962233 0 0 0 0 -432.20719208113394 100.56313462147273 0 100.56313462147273 -75.880407365035353 0 0 0 0 -483.63204550108458 112.09439487027794 0 112.09439487027794 -36.645931463872557 0 0 0 0 -272.67283451817434 173.29822234231096 0 173.29822234231096 -81.361516704509086 0 0 0 0 -637.76994010475744 281.43543162747847 0 281.43543162747847 -128.15063255037057 0 0 0 0 -230.57995065955583 290.01405168999918 0 290.01405168999918 -337.24123898153994 0 0 0 0 -629.71558856248907 240.11532117669958 0 240.11532117669958 -92.66877914018778 0 0 0 0 -0.51780729467211906 -0.82917036200582306 0 -0.82917036200582306 -0.34828681203341982 0 0 0 0 -499.66913359751823 53.511742472154765 0 53.511742472154765 -107.27868931259218 0 0 0 0 -748.78479271673996 160.68725829081586 0 160.68725829081586 -112.70261939790706 0 0 0 0 -518.18599910817738 -76.840335946786695 0 -76.840335946786695 -166.9603296508858 0 0 0 0 -330.9687314173413 -88.495556726008147 0 -88.495556726008147 -46.323394254916366 0 0 0 0 -1.2818621726773654 -0.45507097331239921 0 -0.45507097331239921 -1.0261820111629385 0 0 0 0 -331.69406522993336 -202.8292919383689 0 -202.8292919383689 2.503877785428358 0 0 0 0 -367.35585569427076 37.509279295667511 0 37.509279295667511 15.943416167437363 0 0 0 0 -657.17109160126438 -56.404656894495929 0 -56.404656894495929 30.327724630938974 0 0 0 0 -453.47081720215419 118.58819177239013 0 118.58819177239013 -115.22705982623529 0 0 0 0 -4.9721176439751389 6.9309559725676309 0 6.9309559725676309 -7.6680704309596877 0 0 0 0 0.26142478266092439 7.0143896807701367 0 7.0143896807701367 -24.811393404140631 0 0 0 0 -8.3629151349528001 14.264938939819558 0 14.264938939819558 -10.681583177430184 0 0 0 0 -10.581538874255784 12.63978061156979 0 12.63978061156979 0.46662315375215258 0 0 0 0 -0.30219553710022651 0.68006262586685484 0 0.68006262586685484 -0.87177654067074073 0 0 0 0 -10.590935085368073 -2.4644080687739915 0 -2.4644080687739915 -26.018317226597446 0 0 0 0 -4.1390075716149113 10.674032788528166 0 10.674032788528166 -25.547899360962305 0 0 0 0 -48.651175003572689 87.167732829951547 0 87.167732829951547 -5.8588668264674197 0 0 0 0 0.83580856542272386 3.4422083504972534 0 3.4422083504972534 -4.711045590397589 0 0 0 0 -24.696698453524164 16.920269515825339 0 16.920269515825339 -103.95383118155769 0 0 0 0 -1.8600098088636281 -2.0192303028536651 0 -2.0192303028536651 -1.7931438687064272 0 0 0 0 -1.9997691006668692 -1.7031573589719957 0 -1.7031573589719957 -2.4199057824030321 0 0 0 0 -2.4449767520039369 -0.52338813593053901 0 -0.52338813593053901 -3.7034567472601845 0 0 0 0 -0.29450666941511372 -1.2982396860425069 0 -1.2982396860425069 -0.78707869297829802 0 0 0 0 -270.7825971191786 166.15218572515818 0 166.15218572515818 -64.85309488695566 0 0 0 0 -218.11578731900863 170.0338482713687 0 170.0338482713687 -79.842199845692903 0 0 0 0 -1.1494114747073354 10.496742152072102 0 10.496742152072102 -10.52855708193465 0 0 0 0 -3.1881730910219543 1.7755227926335939 0 1.7755227926335939 -1.006325445989475 0 0 0 0 -1.0814623379493375 -1.1517502998242919 0 -1.1517502998242919 -1.6924894059015285 0 0 0 0 17.981337130505494 -12.546978932866296 0 -12.546978932866296 -20.387602528097204 0 0 0 0 2.2432316560522736 -2.2458443677865034 0 -2.2458443677865034 -9.7826330253651577 0 0 0 0 -3.0695232186085342 -2.0656935024732128 0 -2.0656935024732128 -2.6538668139607529 0 0 0 0 -178.9981797641741 80.564390538766801 0 80.564390538766801 -64.204275117310317 0 0 0 0 -178.77405182216012 144.18151787982811 0 144.18151787982811 -95.62375251987487 0 0 0 0 -242.45087003054118 124.99670952340784 0 124.99670952340784 -55.801779434505988 0 0 0 0 -313.59310079491837 161.68650250382296 0 161.68650250382296 -53.44895030216685 0 0 0 0 -320.12500907657522 59.822264683812136 0 59.822264683812136 61.514309138263343 0 0 0 0 -218.96147021968659 99.914983933768781 0 99.914983933768781 -54.885617159668982 0 0 0 0 -250.18461467230054 126.90822155882233 0 126.90822155882233 -55.579560666092675 0 0 0 0 -262.51763704389964 110.01092491270538 0 110.01092491270538 -57.106583820993137 0 0 0 0 -249.18618375345068 115.82489760210933 0 115.82489760210933 -60.924382174096536 0 0 0 0 -266.01773511765623 104.04427248153888 0 104.04427248153888 -55.001465309548493 0 0 0 0 -310.30565473638489 158.67377405940715 0 158.67377405940715 -101.2661674593428 0 0 0 0 -217.23178944667575 100.32380835609047 0 100.32380835609047 -62.668913088150447 0 0 0 0 -8.2675231094466426 -13.509094898023363 0 -13.509094898023363 7.6082516670396672 0 0 0 0 -21.740820705453416 3.4197194486841909 0 3.4197194486841909 4.9964631727939377 0 0 0 0 -7.3879837462929459 -2.8298707252424391 0 -2.8298707252424391 -1.0875705949371555 0 0 0 0 0.1841559010864513 -0.001595897203241492 0 -0.001595897203241492 -0.75074674345990022 0 0 0 0 -31.903769744056603 -22.503605535104953 0 -22.503605535104953 5.2365610636932161 0 0 0 0 -0.59925802918043747 -0.43486268222016733 0 -0.43486268222016733 -0.239166440940906 0 0 0 0 18.658533415434079 22.705376358601768 0 22.705376358601768 -11.304931970309326 0 0 0 0 -25.621825189621632 17.945641950225081 0 17.945641950225081 12.326034611619207 0 0 0 0 -31.10928242538921 -8.845194563400355 0 -8.845194563400355 14.253025546242128 0 0 0 0 -14.775716592615481 21.239926696604471 0 21.239926696604471 -21.175579340080276 0 0 0 0 -19.054618454724277 10.731166957607456 0 10.731166957607456 -3.0430639489566147 0 0 0 0 -18.662654382426126 24.77533028562425 0 24.77533028562425 0.84789696221400845 0 0 0 0 -53.279457590418247 24.673405787262709 0 24.673405787262709 -40.60804890635859 0 0 0 0 -24.852670046283464 2.4585671050669475 0 2.4585671050669475 -23.329010439872491 0 0 0 0 -19.400294972406414 5.344571537293632 0 5.344571537293632 -32.47110411105632 0 0 0 0 -26.33363291841215 14.777818550231586 0 14.777818550231586 -19.349550789332625 0 0 0 0 -35.955793334610917 -25.250328503238734 0 -25.250328503238734 -22.935574725649758 0 0 0 0 -20.655908528387044 -6.2619550480283124 0 -6.2619550480283124 -15.932747549747319 0 0 0 0 -42.687460779512321 -34.604151011444856 0 -34.604151011444856 16.848410024021632 0 0 0 0 -18.077802767463652 -8.8799671670885232 0 -8.8799671670885232 -92.137826240209051 0 0 0 0 -29.870863604752003 -65.410338332679203 0 -65.410338332679203 -41.037504102089997 0 0 0 0 -31.279925570635896 -20.729895260359001 0 -20.729895260359001 -20.0121715207747 0 0 0 0 -37.037004575865694 -6.0103733373778141 0 -6.0103733373778141 5.8658482111598005 0 0 0 0 -27.271097923632965 -10.665100912412981 0 -10.665100912412981 -32.097970205797537 0 0 0 0 0.31760730249503577 0.28655648629033426 0 0.28655648629033426 0.25879587158145578 0 0 0 0 -8.5620728806212441 20.631868394255093 0 20.631868394255093 -27.528982623011188 0 0 0 0 -30.471351420948622 -18.273952612682706 0 -18.273952612682706 46.572889782376251 0 0 0 0 -5.0687078088621433 11.809266212527973 0 11.809266212527973 -20.247447023435825 0 0 0 0 18.729641105415297 -19.032023628750437 0 -19.032023628750437 -7.5123884088056911 0 0 0 0 -36.752126415995171 -7.1101994822258803 0 -7.1101994822258803 -22.978353493702798 0 0 0 0 -3.7813334660563669 -15.728493380619511 0 -15.728493380619511 34.847240107737321 0 0 0 0 0.48289758712814945 1.9739842071811267 0 1.9739842071811267 -0.10719348162784148 0 0 0 0 -2.5099220309507473 13.012548656922945 0 13.012548656922945 -6.777513898200823 0 0 0 0 7.2206071335085085 11.55396415799396 0 11.55396415799396 9.749378607937615 0 0 0 0 -3.0078655171527089 -8.1822176920952643 0 -8.1822176920952643 -9.6607938804745572 0 0 0 0 25.047911842871805 -2.5202092280102306 0 -2.5202092280102306 -14.56862631177637 0 0 0 0 5.5350811483372127 -4.6903017905140132 0 -4.6903017905140132 -14.315083014438784 0 0 0 0 6.5624647489192398 -7.6652053006374672 0 -7.6652053006374672 -24.234865274504045 0 0 0 0 2.5543767805866651 -14.389005409375386 0 -14.389005409375386 -22.483523204925859 0 0 0 0 -2.2453058655485449 -4.336660555305798 0 -4.336660555305798 -25.463368137362977 0 0 0 0 -17.864909691599678 7.319490386320922 0 7.319490386320922 -20.840154081182618 0 0 0 0 -0.43802787639862117 7.4547895891613507 0 7.4547895891613507 -26.926195716753682 0 0 0 0 -1.8641730946061443 -6.0404089133576235 0 -6.0404089133576235 -69.938483350475281 0 0 0 0 -74.167247510225408 60.344878783408802 0 60.344878783408802 -1.216556063175176 0 0 0 0 -0.33584017275171618 -9.2841927762181058 0 -9.2841927762181058 -9.4102314248792709 0 0 0 0 12.602690219638276 -9.8716439362841584 0 -9.8716439362841584 -30.755352720183964 0 0 0 0 0.110500526757221 1.1710087908090827 0 1.1710087908090827 -43.607317921014328 0 0 0 0 -9.9092653716081713 -23.569874154398804 0 -23.569874154398804 -31.971943367073777 0 0 0 0 1.9794764254020834 -16.618634135605362 0 -16.618634135605362 -27.466634010318444 0 0 0 0 3.37103002216503 -18.584756798981289 0 -18.584756798981289 -33.126496416966802 0 0 0 0 0.067343640065298693 -0.033386418788054817 0 -0.033386418788054817 -0.96555412897802428 0 0 0 0 -24.157769821635043 -36.21063445421396 0 -36.21063445421396 -36.346996725782901 0 0 0 0 -60.95596750659854 -6.5301745353108345 0 -6.5301745353108345 -13.040606644575746 0 0 0 0 -8.7762259157807421 -25.499670439683996 0 -25.499670439683996 -62.884689841470163 0 0 0 0 -34.384008805534222 -18.179869964774753 0 -18.179869964774753 -8.9724340893872068 0 0 0 0 -21.412022112298587 -9.3510639634441759 0 -9.3510639634441759 -6.772287033239536 0 0 0 0 -2.3305260375954049 -2.9299319330534672 0 -2.9299319330534672 1.4056573928479565 0 0 0 0 -22.031016920334391 -23.554590664783348 0 -23.554590664783348 -16.469826515728073 0 0 0 0 30.256278211890347 5.6492755392070535 0 5.6492755392070535 -19.139517306852724 0 0 0 0 -22.145449578358694 -8.1070778262625822 0 -8.1070778262625822 4.183008510342006 0 0 0 0 -4.2405784170410028 -0.20575055035405887 0 -0.20575055035405887 -1.9214004627969778 0 0 0 0 -34.403753294109947 -9.5682822207022582 0 -9.5682822207022582 9.8376771446664861 0 0 0 0 -4.8901301114059379 -12.996618450545725 0 -12.996618450545725 9.9137774645196259 0 0 0 0 -4.484624005458004 0.28400681749864398 0 0.28400681749864398 1.1264886864005161 0 0 0 0 -35.142320066858815 6.8351857251548154 0 6.8351857251548154 -14.738120956739294 0 0 0 0 -13.179911879043459 5.2865917781605276 0 5.2865917781605276 -20.489829585591679 0 0 0 0 -0.46961365183584647 -17.4927779445336 0 -17.4927779445336 -19.869385249993684 0 0 0 0 -30.228723655886029 -9.5529250234078518 0 -9.5529250234078518 -11.766884377649149 0 0 0 0 -7.128703343267091 -10.06115485446162 0 -10.06115485446162 -17.679810034986303 0 0 0 0 -15.541346179985069 -5.4930687076814593 0 -5.4930687076814593 -19.794237594771857 0 0 0 0 -7.7252132393281272 -11.971719459299948 0 -11.971719459299948 -22.652342955230907 0 0 0 0 26.455552090870555 -20.922881867224476 0 -20.922881867224476 -23.062884070770906 0 0 0 0 -9.400207239824212 -10.327748406490969 0 -10.327748406490969 -8.3747883862406525 0 0 0 0 -51.451379735713772 -24.881562930196537 0 -24.881562930196537 0.0074590405830576856 0 0 0 0 -9.4459477180399389 -17.218357088343737 0 -17.218357088343737 -15.428961487432389 0 0 0 0 -66.667544224276867 1.9333518312676006 0 1.9333518312676006 -0.24523212436099584 0 0 0 0 -52.767480998143981 21.194131492590145 0 21.194131492590145 -11.755145505460405 0 0 0 0 -25.958969233460493 0.30950058612626208 0 0.30950058612626208 -11.228562955637699 0 0 0 0 -13.687204522427464 -0.73094018365003421 0 -0.73094018365003421 -3.1288816483445316 0 0 0 0 -15.336070414489768 -2.6172784533219442 0 -2.6172784533219442 -0.67910035443014749 0 0 0 0 -6.3178488817512326 2.603336340030145 0 2.603336340030145 -0.70284263805351221 0 0 0 0 -163.44727167270042 47.922471298995049 0 47.922471298995049 23.681303411633849 0 0 0 0 -12.272788664244977 1.1227095264357105 0 1.1227095264357105 -0.70032499691393413 0 0 0 0 -9.0168621866619958 -32.267890665467803 0 -32.267890665467803 -6.7165767251618718 0 0 0 0 -23.04572563744523 -3.964663471135907 0 -3.964663471135907 -4.1111383035549807 0 0 0 0 -18.978586490264206 -0.046561275299154659 0 -0.046561275299154659 -4.7399988683719982 0 0 0 0 -26.635630080476176 -3.2762000015429749 0 -3.2762000015429749 -0.87677503515374156 0 0 0 0 -15.332795748788829 -0.32718033488958564 0 -0.32718033488958564 -0.66327553680413887 0 0 0 0 -15.532872221480829 -2.4123582880973231 0 -2.4123582880973231 -5.3459474052499445 0 0 0 0 -8.9964488707096066 -0.082289853116750855 0 -0.082289853116750855 -3.2714842533520558 0 0 0 0 -21.116005345789063 0.74209076014562925 0 0.74209076014562925 15.162611303373524 0 0 0 0 -10.273349538050525 -0.96304564659283187 0 -0.96304564659283187 -0.35583147444549468 0 0 0 0 -9.1677657614463541 -0.34547163712670903 0 -0.34547163712670903 -1.1297434691470352 0 0 0 0 -7.038629585109291 -0.038712086361144316 0 -0.038712086361144316 -4.564730594764332 0 0 0 0 -9.9653181398725792 -2.4984161612630942 0 -2.4984161612630942 -13.082952095658584 0 0 0 0 -4.0109579863910767 3.597683176227747 0 3.597683176227747 -13.209620318369616 0 0 0 0 -6.9871379067217578 2.5974080191070978 0 2.5974080191070978 -1.253983174172721 0 0 0 0 0.80548482419681022 4.8542613052943011 0 4.8542613052943011 -20.084441122677163 0 0 0 0 -22.867568715682864 -0.93901976237759754 0 -0.93901976237759754 6.5891807646977156 0 0 0 0 -7.9241336195221947 16.291482793945079 0 16.291482793945079 -22.878464685924655 0 0 0 0 -2.1577641989058125 -0.33279821319009906 0 -0.33279821319009906 0.41125991088089808 0 0 0 0 -5.4155755835596153 6.1782159305945186 0 6.1782159305945186 -15.849233745309903 0 0 0 0 -17.4140199793178 -2.7635633063050591 0 -2.7635633063050591 -8.0498919893304901 0 0 0 0 -43.352097471303523 8.6004607111021869 0 8.6004607111021869 -13.025615317402981 0 0 0 0 -19.874931259094183 -4.2460455243825663 0 -4.2460455243825663 8.9269973111486252 0 0 0 0 -15.152534618421214 6.7692689722337036 0 6.7692689722337036 -0.3227516504207415 0 0 0 0 -18.167922296161805 1.916342260137327 0 1.916342260137327 -3.3571778119209057 0 0 0 0 -2.4866663599049685 -0.45018620036953672 0 -0.45018620036953672 0.39774893736042816 0 0 0 0 -11.08857912878284 2.0226485265059182 0 2.0226485265059182 -4.335696390476528 0 0 0 0 -18.395406957443356 2.7820655589588981 0 2.7820655589588981 -1.9862250223824844 0 0 0 0 -17.939220785273392 1.8661508386850585 0 1.8661508386850585 -1.3906058515933353 0 0 0 0 -11.618049533727545 5.7351983690306065 0 5.7351983690306065 -3.1887532678256347 0 0 0 0 -0.64130533031402592 17.688918374281457 0 17.688918374281457 1.8604178273596972 0 0 0 0 -11.140837555398321 9.9707322834184424 0 9.9707322834184424 7.594593753156488 0 0 0 0 -33.470348516413878 4.373206913462127 0 4.373206913462127 8.1901268145900303 0 0 0 0 -70.025221117535693 -94.705105228321372 0 -94.705105228321372 -84.973379487495549 0 0 0 0 -6.2826293355506957 0.31610303631476566 0 0.31610303631476566 -0.7928718351154298 0 0 0 0 -40.799984255705567 17.182251892713907 0 17.182251892713907 3.1451488784599348 0 0 0 0 -12.168263655102223 1.8930231659973629 0 1.8930231659973629 -1.7762457954446518 0 0 0 0 213.53494016469813 139.1090413667747 0 139.1090413667747 -198.33328707715032 0 0 0 0 -18.949237528174876 -15.770176272088065 0 -15.770176272088065 -12.083127975961702 0 0 0 0 41.858465244705258 47.031902273445667 0 47.031902273445667 11.261729765340917 0 0 0 0 4.0404871093606971 -5.9784934094875553 0 -5.9784934094875553 -58.12627396694711 0 0 0 0 51.691026590842512 15.841961810452403 0 15.841961810452403 -67.857980601373129 0 0 0 0 -0.31274368071212422 0.73852537013936326 0 0.73852537013936326 -1.0736921653570339 0 0 0 0 -27.070191282783014 -16.109874411332868 0 -16.109874411332868 -4.7919035185229859 0 0 0 0 56.2587315740534 13.437989498233947 0 13.437989498233947 -72.980180102716304 0 0 0 0 -14.279360325832613 -5.5958638604846556 0 -5.5958638604846556 -5.852937413052814 0 0 0 0 -7.4627832898546558 1.3154064046643725 0 1.3154064046643725 -0.15855714199790327 0 0 0 0 -12.840510295462536 1.0025745040911715 0 1.0025745040911715 0.13885338769671307 0 0 0 0 -1.913500059605008 1.93346084229212 0 1.93346084229212 -1.3698910995542812 0 0 0 0 -17.444733073963448 51.673982171883608 0 51.673982171883608 45.19070607140975 0 0 0 0 16.831577408109126 5.4100254794225862 0 5.4100254794225862 6.7196837918099845 0 0 0 0 -1.0333446566013376 -0.73679790049438632 0 -0.73679790049438632 -0.78426160828135139 0 0 0 0 -2.9427449052330985 8.8849599349603068 0 8.8849599349603068 -50.600135717309513 0 0 0 0 -41.706293208590978 26.85535440699033 0 26.85535440699033 -20.486110801921427 0 0 0 0 -90.995140650783014 26.812245291376485 0 26.812245291376485 56.997242016239738 0 0 0 0 -33.580541939728164 -25.630488254646707 0 -25.630488254646707 -6.3559212321332552 0 0 0 0 -29.278117445711246 30.104124338559814 0 30.104124338559814 -35.533947877914215 0 0 0 0 -13.988462311842 17.155119315977117 0 17.155119315977117 -25.919626703124095 0 0 0 0 -40.464959446855801 24.973530118737244 0 24.973530118737244 -19.263383883226425 0 0 0 0 -0.66619469551526755 -0.28504486841633314 0 -0.28504486841633314 -0.39771210111128852 0 0 0 0 -27.856683294630216 16.732465478220604 0 16.732465478220604 -16.722261936894483 0 0 0 0 -34.683940881891658 21.990855480945356 0 21.990855480945356 -20.468153604545819 0 0 0 0 -35.114930974505512 21.69987088535629 0 21.69987088535629 -18.033384254407338 0 0 0 0 -5.7711526724398281 -2.3922244148000233 0 -2.3922244148000233 -2.2401721466558615 0 0 0 0 -14.458150872487481 -0.14742421005955963 0 -0.14742421005955963 0.6331778136134627 0 0 0 0 66.013196682325116 -3.1732203238775583 0 -3.1732203238775583 -43.162759836215969 0 0 0 0 -16.158400945387257 1.6531952880461631 0 1.6531952880461631 2.0363879666060711 0 0 0 0 -14.703003031688013 -8.1268080128960491 0 -8.1268080128960491 4.9827380474829397 0 0 0 0 -6.4291747342857226 -3.2104486663091918 0 -3.2104486663091918 -0.38201874340795272 0 0 0 0 -17.415744551289663 -1.2632178204464708 0 -1.2632178204464708 8.0983345252691379 0 0 0 0 -15.193139769728532 -0.4979160861216485 0 -0.4979160861216485 1.4339143440120949 0 0 0 0 -10.716951556651566 2.7717182720120661 0 2.7717182720120661 -3.56275654099748 0 0 0 0 -12.465778465740186 -1.0611768853676153 0 -1.0611768853676153 -3.0351925535024691 0 0 0 0 1.5571380780545034 -2.6247670056551651 0 -2.6247670056551651 -3.9808016954951881 0 0 0 0 -0.2437897433464471 -1.2325312336377403 0 -1.2325312336377403 -0.5349921070588215 0 0 0 0 -8.3937809206867833 -0.55901501600235404 0 -0.55901501600235404 0.78835125441726772 0 0 0 0 -5.2421343009376722 -1.5095747489426774 0 -1.5095747489426774 -0.21416481383708691 0 0 0 0 -7.6175933946756231 1.3213541661601198 0 1.3213541661601198 13.661832292621023 0 0 0 0 -6.3290936690007351 0.76055299467982973 0 0.76055299467982973 -4.9728674427717579 0 0 0 0 -6.5501361281201866 -2.0665309656654216 0 -2.0665309656654216 -4.6527344831863289 0 0 0 0 -10.613219920506936 4.6501056803013299 0 4.6501056803013299 -2.4520878471018062 0 0 0 0 -10.124237413506542 1.3858856347946129 0 1.3858856347946129 -1.5847377444239896 0 0 0 0 -10.020734266519412 -1.2213392147702109 0 -1.2213392147702109 -3.0970329813485478 0 0 0 0 -15.913845611061788 -0.12696491934637777 0 -0.12696491934637777 -1.7742577446051371 0 0 0 0 -14.920040568551485 2.2612247531705236 0 2.2612247531705236 -1.0929496344270717 0 0 0 0 -12.300649903065505 3.1168079456949158 0 3.1168079456949158 -3.8402192634042738 0 0 0 0 -11.532804781949517 -0.49809962297620947 0 -0.49809962297620947 0.47789334808238537 0 0 0 0 -12.150816299076194 0.77739860463015265 0 0.77739860463015265 -0.10641843638521731 0 0 0 0 -27.27955148579349 -25.449046293507621 0 -25.449046293507621 22.509838122826864 0 0 0 0 -12.088335709708627 -0.86866704699535813 0 -0.86866704699535813 0.11206634966280114 0 0 0 0 -11.751982150164167 -1.2070162427518767 0 -1.2070162427518767 -2.9501164315433357 0 0 0 0 -11.590350615515376 -0.13308840298325109 0 -0.13308840298325109 -2.1706016953651783 0 0 0 0 -10.923263688928273 0.032093790875705963 0 0.032093790875705963 8.405837327170687 0 0 0 0 -54.362215764962457 37.006529891971354 0 37.006529891971354 96.307906966076985 0 0 0 0 2.1800598984500539 7.3179970066148599 0 7.3179970066148599 -3.1874413667667341 0 0 0 0 -6.552131194865872 -0.8458398245694434 0 -0.8458398245694434 -0.040290753388477207 0 0 0 0 -10.352021223839984 0.37086652653817964 0 0.37086652653817964 1.3048727786118093 0 0 0 0 -11.115150376491329 -10.097671910124348 0 -10.097671910124348 4.1062454406043116 0 0 0 0 -9.4796775454825202 -2.5690575270725322 0 -2.5690575270725322 -0.56998210500867708 0 0 0 0 -7.9204002915976162 -2.3394528930309662 0 -2.3394528930309662 0.68364058507415848 0 0 0 0 -10.335746055090741 -1.298228777351722 0 -1.298228777351722 -0.22490186595187511 0 0 0 0 -13.075163123557104 0.0027930772747311039 0 0.0027930772747311039 -0.76698918061129007 0 0 0 0 -13.513436407878089 -0.57456988500386075 0 -0.57456988500386075 -1.3264651680143231 0 0 0 0 -10.914882655257486 -0.86868726655936146 0 -0.86868726655936146 2.0916532415732263 0 0 0 0 -10.330004272553408 1.0673396459333042 0 1.0673396459333042 0.02932972426344721 0 0 0 0 -17.934918084398063 -0.86025958406336311 0 -0.86025958406336311 -1.7027245404528912 0 0 0 0 -17.886223350480122 -0.64313217627929475 0 -0.64313217627929475 -0.7842726966673581 0 0 0 0 -3.6304009107880821 1.7357317307252087 0 1.7357317307252087 -1.2252025300639171 0 0 0 0 -18.222125331656571 -0.53824979460705435 0 -0.53824979460705435 -3.6611380957746178 0 0 0 0 -17.050826824559408 -0.43190468224838696 0 -0.43190468224838696 -3.6685991109751228 0 0 0 0 -15.71036095600266 -0.34990338317459191 0 -0.34990338317459191 -2.9611927665523581 0 0 0 0 -17.295754638399785 -1.4997998673151756 0 -1.4997998673151756 -3.770729954226681 0 0 0 0 -18.061209486810185 -1.6313884711182709 0 -1.6313884711182709 -3.7813720369250348 0 0 0 0 -17.183243925985153 -1.8218794067879571 0 -1.8218794067879571 -3.9707517033824615 0 0 0 0 -18.589762443681593 -2.3531813805087722 0 -2.3531813805087722 -3.0704132487562674 0 0 0 0 -6.8022913412387096 -1.6175097701381933 0 -1.6175097701381933 -1.7085075499757316 0 0 0 0 -20.448278374647089 -1.0983494829439451 0 -1.0983494829439451 -2.8971799225314498 0 0 0 0 -9.7822217541433929 -2.3990723361298478 0 -2.3990723361298478 -1.3889726208658431 0 0 0 0 -13.37291754902977 -1.4128791701429879 0 -1.4128791701429879 0.01137921487764304 0 0 0 0 -11.96785050079302 -2.7589634473248354 0 -2.7589634473248354 -0.46130201994832432 0 0 0 0 -10.080165394207143 -1.9730142769615213 0 -1.9730142769615213 -0.35648631717583612 0 0 0 0 -5.2328993765477207 -5.7782813778017044 0 -5.7782813778017044 -13.213973246374735 0 0 0 0 -10.009650722865075 -3.1190279559491234 0 -3.1190279559491234 -1.3766624071951021 0 0 0 0 -13.221802110652789 -5.8098952252389608 0 -5.8098952252389608 -14.818640041346953 0 0 0 0 -11.025446328703751 -2.6386702104510782 0 -2.6386702104510782 -3.9590305899829481 0 0 0 0 -12.974049333031871 -2.8264757993815692 0 -2.8264757993815692 -1.8888062009227724 0 0 0 0 -10.569329407759142 -2.185019644796057 0 -2.185019644796057 -2.9153259248737413 0 0 0 0 -8.6114484044467901 -2.4703032215512728 0 -2.4703032215512728 -2.6759712887428648 0 0 0 0 -12.041623212040577 -2.911615692286432 0 -2.911615692286432 -2.2135468264432347 0 0 0 0 119.80221832609169 -23.330796715549894 0 -23.330796715549894 -16.992180543027871 0 0 0 0 -5.9802680798130519 -2.3181218131689434 0 -2.3181218131689434 -3.3289915954441156 0 0 0 0 -12.231659013930766 -0.76436514048464232 0 -0.76436514048464232 -2.743349094252153 0 0 0 0 -7.2269612664858514 1.00158253123133 0 1.00158253123133 -1.2080566224031069 0 0 0 0 5.4554371525664465 1.8926764231490552 0 1.8926764231490552 3.6325001581567449 0 0 0 0 -18.097967820445774 -2.9720158768620877 0 -2.9720158768620877 71.281260771954521 0 0 0 0 0.41187003775849007 -2.6398186016552359 0 -2.6398186016552359 21.246674187838153 0 0 0 0 -2.81008923861922 1.3929849360521445 0 1.3929849360521445 0.58852416573298061 0 0 0 0 -6.5552454845471857 0.81990870249471559 0 0.81990870249471559 0.30738159918541896 0 0 0 0 -4.3721415241598152 5.0788462410471311 0 5.0788462410471311 6.5348698543391492 0 0 0 0 -10.340408030800464 1.9418220623764668 0 1.9418220623764668 2.8821176209906869 0 0 0 0 8.5432428646745393 2.0394878558900587 0 2.0394878558900587 7.2457463912719504 0 0 0 0 -9.3520140794505124 1.5346254761310973 0 1.5346254761310973 2.8736665407356643 0 0 0 0 -11.984707959571779 -1.0076976608670769 0 -1.0076976608670769 0.32762590024799465 0 0 0 0 -10.150370310162543 -2.5878084410592805 0 -2.5878084410592805 -1.7234837825909608 0 0 0 0 -8.2791555241817392 0.14815654360131347 0 0.14815654360131347 -0.13947747198282978 0 0 0 0 6.3211889298163442 11.214646264091584 0 11.214646264091584 -36.112023404110516 0 0 0 0 -0.22168870226173709 -0.044705099794277281 0 -0.044705099794277281 -0.64450385768874241 0 0 0 0 -15.879198339463983 32.495048142918392 0 32.495048142918392 25.929947070409412 0 0 0 0 -6.2767084271745262 -4.6049349583263677 0 -4.6049349583263677 -7.0983944741650475 0 0 0 0 -0.31371222415600641 2.742700062020532 0 2.742700062020532 -9.5901205994925931 0 0 0 0 1.1736079111797153 9.1405787612991389 0 9.1405787612991389 -0.27527920443595377 0 0 0 0 -8.0869123701075871 3.2931648879569551 0 3.2931648879569551 1.292435056705753 0 0 0 0 -5.5446108000096004 5.4696350733740804 0 5.4696350733740804 1.5558289468461544 0 0 0 0 -79.008534990200133 11.358733550966718 0 11.358733550966718 -1.8151924061153011 0 0 0 0 -61.87447220357717 -82.416634708127958 0 -82.416634708127958 117.83403476349383 0 0 0 0 -4.6459873521298505 -92.338363957526795 0 -92.338363957526795 -79.96710897224159 0 0 0 0 104.75307527135737 -43.988683640116733 0 -43.988683640116733 -45.182203330506695 0 0 0 0 -6.6063437909906497 -75.423639488187519 0 -75.423639488187519 11.694293309234467 0 0 0 0 80.661653865474364 -14.408305676182181 0 -14.408305676182181 39.35409128609183 0 0 0 0 -121.93903541468899 -153.93406381029837 0 -153.93406381029837 41.681462598403186 0 0 0 0 31.035536884954126 71.462869201842636 0 71.462869201842636 -116.31223190179711 0 0 0 0 -174.8410816328178 91.937243045083619 0 91.937243045083619 -64.368338011747085 0 0 0 0 -2.2376407333783277 0.20635970500468503 0 0.20635970500468503 -0.082176196788812148 0 0 0 0 3.971725037725264 -5.1905371817898072 0 -5.1905371817898072 -52.724142244696509 0 0 0 0 -50.645599703739208 137.67040147360265 0 137.67040147360265 -4.8857613559293327 0 0 0 0 9.6437390069804678 -20.135034275341525 0 -20.135034275341525 -41.562756307224163 0 0 0 0 -12.687461300614814 43.113114994874763 0 43.113114994874763 -16.861165521140094 0 0 0 0 -64.394516079843015 -10.757968749834106 0 -10.757968749834106 45.391893949661153 0 0 0 0 -12.539961567654245 -9.9449756095823432 0 -9.9449756095823432 -23.077445437123231 0 0 0 0 -36.91083720169263 -27.157420816157128 0 -27.157420816157128 -5.2152636230604799 0 0 0 0 -13.410532076239178 0.7137135762404796 0 0.7137135762404796 24.038783550086464 0 0 0 0 -9.9662180416071351 -13.261035804316435 0 -13.261035804316435 -19.025299256518565 0 0 0 0 -12.052511527563183 -9.5548241382157926 0 -9.5548241382157926 -4.6406554912844058 0 0 0 0 -8.7486899977193389 -6.5494441038501918 0 -6.5494441038501918 -15.071729513364261 0 0 0 0 -12.168178549425647 -1.2127824608833748 0 -1.2127824608833748 -22.285508048398952 0 0 0 0 13.79001532323673 -10.366877197888627 0 -10.366877197888627 -29.77138619796267 0 0 0 0 3.6479539942993142 20.076578461636529 0 20.076578461636529 -23.646394013382547 0 0 0 0 -23.048289408725395 -9.6424824318014544 0 -9.6424824318014544 -9.9856662795657485 0 0 0 0 -5.0887426426761522 -11.457261078057741 0 -11.457261078057741 -13.733290753978508 0 0 0 0 -14.433751206958732 -9.4745261008589523 0 -9.4745261008589523 -10.526782753632233 0 0 0 0 -22.788425984963396 -14.680756163151273 0 -14.680756163151273 -6.9479072942058338 0 0 0 0 -2.0055561453914779 -1.8195320942897908 0 -1.8195320942897908 -0.44750812404345996 0 0 0 0 10.351384536047432 -15.119801107263815 0 -15.119801107263815 -12.137567200525762 0 0 0 0 1.6215771937963837 -6.9936497095586674 0 -6.9936497095586674 -13.742719778887476 0 0 0 0 -1.6018798149543727 -15.051027370277268 0 -15.051027370277268 -7.479598747889213 0 0 0 0 -6.8068223836908146 -21.087264589640995 0 -21.087264589640995 -10.449993382523814 0 0 0 0 -2.3724627607293876 -9.2490384459344686 0 -9.2490384459344686 -10.624139512962509 0 0 0 0 -2.8706028719016103 -5.4595436221441105 0 -5.4595436221441105 -13.97242850801922 0 0 0 0 5.2383002445972124 -2.9961502802671021 0 -2.9961502802671021 -19.876512504828838 0 0 0 0 -19.526480037626243 -6.8856060506086862 0 -6.8856060506086862 -4.4883623233126855 0 0 0 0 -20.711800174953055 -12.551465698602414 0 -12.551465698602414 -10.666924519163331 0 0 0 0 -7.6374908068123917 -8.0521321151723111 0 -8.0521321151723111 -10.589838822536318 0 0 0 0 -4.2709466052974676 -4.1352767321664032 0 -4.1352767321664032 -13.511978294719256 0 0 0 0 -16.875673938600812 -4.8003621957155929 0 -4.8003621957155929 -5.2261079108151307 0 0 0 0 -9.6275346626375757 3.0937437266475385 0 3.0937437266475385 1.0281354615525578 0 0 0 0 -17.547113760876528 -1.3029362874440267 0 -1.3029362874440267 -5.6716450501605777 0 0 0 0 -15.665658801915569 -2.4223089606708008 0 -2.4223089606708008 -4.3653945266548817 0 0 0 0 -22.245146883071982 -4.3255112328691254 0 -4.3255112328691254 -2.4866668488407413 0 0 0 0 -4.7155807140101471 3.289138790289706 0 3.289138790289706 -1.6637592959203222 0 0 0 0 -17.346331206410014 -2.4917211696653396 0 -2.4917211696653396 -3.9271569984609869 0 0 0 0 -27.791264841887823 -12.882160033381751 0 -12.882160033381751 -13.636446878988863 0 0 0 0 -8.7723266186108013 5.0645348838265836 0 5.0645348838265836 1.0482895521516653 0 0 0 0 -18.002027232745604 -0.18545485153913432 0 -0.18545485153913432 -7.023733592189501 0 0 0 0 -22.183149676716312 -3.0241661633251624 0 -3.0241661633251624 -4.0760174820225075 0 0 0 0 -27.032336150230549 0.11709408279193667 0 0.11709408279193667 -6.0809442900708746 0 0 0 0 -16.103091258677523 -4.0442751206626326 0 -4.0442751206626326 -20.986526295040676 0 0 0 0 0.029489346074115019 -0.035663834645285108 0 -0.035663834645285108 -1.3087170935816346 0 0 0 0 -24.345716694195289 -6.8381470297526903 0 -6.8381470297526903 -8.6949779059254979 0 0 0 0 -29.233131544660864 -8.3883581044162838 0 -8.3883581044162838 -7.3806505619559175 0 0 0 0 -21.73916772379016 73.483276232173921 0 73.483276232173921 -23.615258159307132 0 0 0 0 -110.6986694770103 -78.780831497043835 0 -78.780831497043835 20.008622099406011 0 0 0 0 -24.294897944877448 -3.8727122846612474 0 -3.8727122846612474 -14.066839649130088 0 0 0 0 -21.459325358612219 -2.2967022890865456 0 -2.2967022890865456 3.7995347575996279 0 0 0 0 -31.337101380297099 45.911199180750145 0 45.911199180750145 46.71516028149415 0 0 0 0 -17.245835351073765 2.5805542516282003 0 2.5805542516282003 -8.0819414417287589 0 0 0 0 -22.474444852990928 -14.995063333727558 0 -14.995063333727558 4.9687987330585202 0 0 0 0 -13.219870035295237 -2.4833304194494348 0 -2.4833304194494348 -0.85191701714544998 0 0 0 0 -2.5225089727636281 -0.045430949891086314 0 -0.045430949891086314 1.5134296017352487 0 0 0 0 -32.845353287630132 -11.408772869763197 0 -11.408772869763197 -13.342946931297092 0 0 0 0 -48.737826026699622 -63.861362908944102 0 -63.861362908944102 -28.668017084528884 0 0 0 0 -1.3360023649209722 -0.13791605885650782 0 -0.13791605885650782 0.094876357645642728 0 0 0 0 -1.6824803358595091 14.749709375902398 0 14.749709375902398 -56.147450621406051 0 0 0 0 -8.0063446075510001 8.9577156895384178 0 8.9577156895384178 13.510721864189236 0 0 0 0 -74.155316640364617 12.720528994214277 0 12.720528994214277 -20.223786214676863 0 0 0 0 -20.872791002908343 -59.481461222794678 0 -59.481461222794678 -74.356623369520094 0 0 0 0 46.634066768265257 0.57128162823903494 0 0.57128162823903494 -7.8475649304191393 0 0 0 0 6.6006327967227492 -21.719604997342351 0 -21.719604997342351 -14.142570796917447 0 0 0 0 -26.876560146114681 -4.4705346154190986 0 -4.4705346154190986 2.7658973044683055 0 0 0 0 -3.3959189335751034 -27.460982534660104 0 -27.460982534660104 -17.94658100768288 0 0 0 0 -69.104351472327835 -28.532446696908323 0 -28.532446696908323 62.122156817734719 0 0 0 0 21.518004462286399 5.4738946166155529 0 5.4738946166155529 1.2730233297879749 0 0 0 0 20.761649686729015 -22.498477645567164 0 -22.498477645567164 -7.4421679423751357 0 0 0 0 0.63930382360884774 -2.6120207278124452 0 -2.6120207278124452 -5.044254112710675 0 0 0 0 2.599785020003992 -5.8807956024334089 0 -5.8807956024334089 4.7528008093523795 0 0 0 0 32.913261558360773 6.4331012144793931 0 6.4331012144793931 -1.9773318541190292 0 0 0 0 -28.695653683270052 -94.212241121754232 0 -94.212241121754232 -34.299359777979589 0 0 0 0 12.087249286437327 -34.524747674538958 0 -34.524747674538958 -14.993320913016078 0 0 0 0 5.992127190045089 -22.263221336372851 0 -22.263221336372851 -13.121981319534445 0 0 0 0 89.150953280151498 -14.947028958493547 0 -14.947028958493547 -75.388186962800091 0 0 0 0 -24.607356663096652 -6.4043652459690108 0 -6.4043652459690108 -22.478938812636102 0 0 0 0 -100.42035502433373 -52.01238916826064 0 -52.01238916826064 9.2137028207487219 0 0 0 0 -110.67162121829824 -19.021676693186798 0 -19.021676693186798 1.8654833367498895 0 0 0 0 -49.401767799634399 -34.00760229635285 0 -34.00760229635285 1.3351581167884206 0 0 0 0 -57.409139359842811 -41.613891222170594 0 -41.613891222170594 12.901922704556 0 0 0 0 -6.0262951734930539 -5.1879378141671708 0 -5.1879378141671708 6.8458044036744923 0 0 0 0 -56.169939396600967 -46.016961814649093 0 -46.016961814649093 2.4913585594253638 0 0 0 0 -69.515534324476903 -35.736218982697324 0 -35.736218982697324 -1.5744065134628045 0 0 0 0 -57.197536986871228 -33.677751870186846 0 -33.677751870186846 -1.7747647175227144 0 0 0 0 -67.95223591591639 -40.127067073711004 0 -40.127067073711004 -0.44070225057183166 0 0 0 0 -62.881199700132129 -36.324778615692821 0 -36.324778615692821 -4.1562566373734739 0 0 0 0 -80.729918799373991 -22.721570489867418 0 -22.721570489867418 14.007765640629998 0 0 0 0 -65.819435687948499 -43.750373686339969 0 -43.750373686339969 -4.0706673692563413 0 0 0 0 -27.517235063935004 -37.090931886926512 0 -37.090931886926512 -7.0269966363866985 0 0 0 0 -61.658021123793333 -59.780033483203852 0 -59.780033483203852 -7.9123008262473604 0 0 0 0 -99.847114539252289 -40.11606981357744 0 -40.11606981357744 10.559912421191711 0 0 0 0 -98.936478896819608 -36.646371867181159 0 -36.646371867181159 19.132469005337157 0 0 0 0 -91.610568128503019 -36.625886602130635 0 -36.625886602130635 9.3155608461170232 0 0 0 0 -101.07378123235753 -76.532381752134626 0 -76.532381752134626 -15.030034550508731 0 0 0 0 -10.580256314317012 -5.5887466622814372 0 -5.5887466622814372 -33.443947203124026 0 0 0 0 -50.339524354802961 -36.550841073393258 0 -36.550841073393258 -5.6242050015539462 0 0 0 0 -50.64140677241403 -63.097805351351781 0 -63.097805351351781 -10.150281473770406 0 0 0 0 -74.922861514744454 -50.347291118050407 0 -50.347291118050407 5.2458342892641667 0 0 0 0 -102.15647169634735 -93.258047870319615 0 -93.258047870319615 -43.675712509369987 0 0 0 0 -129.28040332944329 -39.932944541282268 0 -39.932944541282268 -11.61646320279533 0 0 0 0 -104.43057841506334 -91.055785014719731 0 -91.055785014719731 7.5732697835562703 0 0 0 0 -66.320975453533663 -79.594956888821287 0 -79.594956888821287 11.0004496412148 0 0 0 0 7.1090562963104116 -22.668196441678806 0 -22.668196441678806 -10.662093348468588 0 0 0 0 45.954815189908743 -49.873692445607674 0 -49.873692445607674 -37.106478468804198 0 0 0 0 -17.153671960783186 6.5228139861970877 0 6.5228139861970877 2.713662114967434 0 0 0 0 4.1268911010301963 1.3421151758945555 0 1.3421151758945555 0.079279508049324932 0 0 0 0 -13.867964477545684 -11.964599002858499 0 -11.964599002858499 0.73182636557192104 0 0 0 0 -1.4383011358440854 -3.8799194301809621 0 -3.8799194301809621 12.578365529243456 0 0 0 0 -1.4383011358513613 -3.8799194301831221 0 -3.8799194301831221 12.578365529241864 0 0 0 0 -18.281016246295621 -12.290404973060163 0 -12.290404973060163 14.967249178482234 0 0 0 0 -1.4383011358513613 -3.8799194301856801 0 -3.8799194301856801 12.578365529238908 0 0 0 0 -5.8305988492356846 7.8243238600540508 0 7.8243238600540508 21.207284131043934 0 0 0 0 -9.7850906233143178 1.0291952123190669 0 1.0291952123190669 -11.416214715152826 0 0 0 0 -45.45290250112339 14.434395365839521 0 14.434395365839521 59.84651333094007 0 0 0 0 -17.63308832379856 1.1808340369057229 0 1.1808340369057229 0.67390229813039437 0 0 0 0 -17.673206979288807 8.7146987096896531 0 8.7146987096896531 5.6888407384447248 0 0 0 0 -7.5366933617078757 20.757541900378818 0 20.757541900378818 16.742152506457039 0 0 0 0 -13.621888763314928 8.0128151973938984 0 8.0128151973938984 5.5615187382544704 0 0 0 0 94.339873186167097 -20.402289213022982 0 -20.402289213022982 18.606314379024013 0 0 0 0 -1.2737413220253586 0.51871380987054572 0 0.51871380987054572 -0.10024331457352548 0 0 0 0 -14.413045970791131 20.319560502325363 0 20.319560502325363 17.410487185629549 0 0 0 0 -15.52741030247671 5.7799939447282753 0 5.7799939447282753 -1.9221653156947127 0 0 0 0 -18.81811116434983 3.7564808344634457 0 3.7564808344634457 -1.4410971032052373 0 0 0 0 -17.597874322312315 2.3140249234975379 0 2.3140249234975379 1.1277765274736753 0 0 0 0 -26.380466051625262 1.7527287120333739 0 1.7527287120333739 -2.2101240363672616 0 0 0 0 -14.891979176885798 0.47850681838127684 0 0.47850681838127684 -7.5459908212665425 0 0 0 0 -3.3821863482872416 0.44883018775604455 0 0.44883018775604455 1.2023843473408971 0 0 0 0 -24.814430668353452 9.277801453946978 0 9.277801453946978 8.4551723995411976 0 0 0 0 -28.890764489475259 8.3387485547224287 0 8.3387485547224287 10.928497419707803 0 0 0 0 -17.138394396026342 217.72701005350083 0 217.72701005350083 -67.280229965801766 0 0 0 0 -31.300716492971333 5.2170170821020143 0 5.2170170821020143 8.0982483518451716 0 0 0 0 120.90125258950866 73.978312140662354 0 73.978312140662354 -63.375752882473506 0 0 0 0 -2.2065711113586004 0.42804390234669043 0 0.42804390234669043 0.9476242855825413 0 0 0 0 44.494389532421337 -9.7335219472477945 0 -9.7335219472477945 20.953518629636392 0 0 0 0 -37.266186792629014 16.02681301548364 0 16.02681301548364 52.931934881188567 0 0 0 0 -41.805983765945712 -23.1694042221811 0 -23.1694042221811 37.751834012539504 0 0 0 0 4.8656198801909341 51.752642834200557 0 51.752642834200557 16.459812835398225 0 0 0 0 -46.11187198875632 -9.3396682668058801 0 -9.3396682668058801 10.717571323606251 0 0 0 0 -146.8782895804834 38.785539013823922 0 38.785539013823922 15.896190065189003 0 0 0 0 -116.94289678473433 -34.239304882187746 0 -34.239304882187746 2.3304824173459977 0 0 0 0 -87.620323084254778 20.392704665983672 0 20.392704665983672 82.950830863711815 0 0 0 0 -68.311052192480929 -30.74826984861933 0 -30.74826984861933 -31.422976219190815 0 0 0 0 -83.477050111294375 -10.276408123141834 0 -10.276408123141834 -14.942356457950268 0 0 0 0 -74.391866234009285 10.691352888803692 0 10.691352888803692 31.247346101255403 0 0 0 0 -119.34341712882815 -25.674016281952845 0 -25.674016281952845 47.283888683189844 0 0 0 0 -84.781731615934405 -1.0828152917441685 0 -1.0828152917441685 34.040362461045902 0 0 0 0 -178.77974916245694 -9.5932115501276485 0 -9.5932115501276485 34.345799766679988 0 0 0 0 -342.85995640891269 -63.440955053152948 0 -63.440955053152948 -12.647642184461219 0 0 0 0 -110.38377438424686 -57.240374096757137 0 -57.240374096757137 -12.560557251644923 0 0 0 0 -54.427017643924046 18.675044401047444 0 18.675044401047444 -57.173208264468087 0 0 0 0 -40.687587902852101 66.806488536468009 0 66.806488536468009 -62.206469432171609 0 0 0 0 -65.420779369487718 -24.130941596777348 0 -24.130941596777348 61.472761215943194 0 0 0 0 27.556555534527433 73.091363507866049 0 73.091363507866049 28.673394825436276 0 0 0 0 -2.8610280017390508 1.5889139676281427 0 1.5889139676281427 -0.73985685936210654 0 0 0 0 -13.626406848447004 18.919415406207008 0 18.919415406207008 16.812485776649169 0 0 0 0 34.279356393963099 13.673960098643533 0 13.673960098643533 -42.492366704659673 0 0 0 0 40.240707153134281 -4.533833357390904 0 -4.533833357390904 -32.07977142039465 0 0 0 0 11.039995319897571 -0.68670115554778022 0 -0.68670115554778022 -17.943989204763056 0 0 0 0 32.58317117839033 25.489928298819109 0 25.489928298819109 4.7713648322175573 0 0 0 0 -3.6763523983285964 2.2361743056022352 0 2.2361743056022352 -1.2890425861529158 0 0 0 0 -8.9498587449015758 8.80161508615857 0 8.80161508615857 22.965575503273556 0 0 0 0 -0.66071516044212331 -4.0900821823288993 0 -4.0900821823288993 0.33390204208126306 0 0 0 0 -0.026277321980160195 -8.3180985904191402 0 -8.3180985904191402 9.6868619575774346 0 0 0 0 28.953500749599698 -16.417338940177956 0 -16.417338940177956 -4.1441911681808961 0 0 0 0 28.097246355493553 -22.476668771246864 0 -22.476668771246864 -47.020335035221706 0 0 0 0 56.837479515939322 -69.656599105438772 0 -69.656599105438772 20.203787861806632 0 0 0 0 -14.857437795817532 -14.323589875885546 0 -14.323589875885546 44.059357428437579 0 0 0 0 0.14544414439693654 -0.35194483882572314 0 -0.35194483882572314 0.72998960081832909 0 0 0 0 87.387407119456839 -28.241864368703261 0 -28.241864368703261 -12.656693487773964 0 0 0 0 -30.721111806895351 -106.17259368254065 0 -106.17259368254065 22.202003254628686 0 0 0 0 -164.01476040827947 -13.07992662154777 0 -13.07992662154777 37.950408571679418 0 0 0 0 -59.362590798822566 9.0309852108526911 0 9.0309852108526911 17.742197147003026 0 0 0 0 73.153770495348908 -22.847493591066524 0 -22.847493591066524 -97.152468169598023 0 0 0 0 13.038574878339205 45.244842278772296 0 45.244842278772296 -98.835459180794942 0 0 0 0 -366.75025353012825 -28.33992452350634 0 -28.33992452350634 47.077802754748745 0 0 0 0 -116.8803236873373 106.5531481369274 0 106.5531481369274 -180.78619576198889 0 0 0 0 -131.28644044643079 -115.41648771071698 0 -115.41648771071698 -184.52062336081701 0 0 0 0 -156.94185015939729 -2.9249806253137081 0 -2.9249806253137081 50.080493144969751 0 0 0 0 -146.29104006383204 51.12789333774333 0 51.12789333774333 25.177166115687669 0 0 0 0 -8.1485814667630621 18.019968532920757 0 18.019968532920757 22.281628767851089 0 0 0 0 -59.745862211646454 0.10585052926444405 0 0.10585052926444405 57.284278684466742 0 0 0 0 -11.784044976230611 -1.9198104270053942 0 -1.9198104270053942 -0.37286583388426431 0 0 0 0 -0.66367844429260003 -15.522476259181531 0 -15.522476259181531 14.256911345200706 0 0 0 0 -27.98045537260623 -23.941187199933211 0 -23.941187199933211 14.278434770760214 0 0 0 0 -46.500914173848287 -33.057927950000021 0 -33.057927950000021 39.491194760138342 0 0 0 0 -6.9620489337103209 -31.799987910918617 0 -31.799987910918617 -9.6274273383368723 0 0 0 0 -2.2560523300362547 -22.800636887054566 0 -22.800636887054566 7.2775626808365814 0 0 0 0 -1.3849508700274171 -1.3632404878511899 0 -1.3632404878511899 2.1059641073703785 0 0 0 0 -19.207021646352764 -2.636963153401124 0 -2.636963153401124 1.5181805399248351 0 0 0 0 -48.658664681512164 -44.307390313951487 0 -44.307390313951487 -49.193026551274642 0 0 0 0 -11.528247838716197 -26.640094600003408 0 -26.640094600003408 16.656196617100022 0 0 0 0 -26.85401788073068 -6.4046717057121896 0 -6.4046717057121896 30.285544735557323 0 0 0 0 4.2500251741948887 -7.6875926362586142 0 -7.6875926362586142 1.4382182642948464 0 0 0 0 -8.0053304047238356 -6.0145766449729265 0 -6.0145766449729265 2.3593248663754891 0 0 0 0 -24.379061742845806 -10.048290220798663 0 -10.048290220798663 0.69036796059117478 0 0 0 0 1.2098401651177753 -0.32950822237876309 0 -0.32950822237876309 -0.31974739281744036 0 0 0 0 -5.865746340896294 -0.37339008346634728 0 -0.37339008346634728 0.67890398031491372 0 0 0 0 -13.139738953301276 -2.2766424358767381 0 -2.2766424358767381 7.0198291900252912 0 0 0 0 -7.491540023653215 -0.87171163994298695 0 -0.87171163994298695 0.88195257889719869 0 0 0 0 -6.4892116796569468 0.14733130345817536 0 0.14733130345817536 0.32316362088941508 0 0 0 0 -3.5270571707160059 -2.8624341320966522 0 -2.8624341320966522 0.20931093213554064 0 0 0 0 -5.6003203967738955 -1.0583909442113963 0 -1.0583909442113963 0.73439454832515594 0 0 0 0 -5.3316851406052592 -5.5960685718747527 0 -5.5960685718747527 0.12867555470506886 0 0 0 0 -45.495787663694564 -22.635868609279285 0 -22.635868609279285 -5.5215703971833658 0 0 0 0 -66.644782481020229 -20.566054749739976 0 -20.566054749739976 37.876150472128074 0 0 0 0 -45.839702784649077 -48.390282185369657 0 -48.390282185369657 9.5286770492020878 0 0 0 0 -56.28651552575775 -19.086684518419588 0 -19.086684518419588 32.077550643298309 0 0 0 0 -42.412779059430342 -15.445743266233624 0 -15.445743266233624 -5.1287217978724247 0 0 0 0 -50.264768897942588 -18.500615966062128 0 -18.500615966062128 29.122977289301161 0 0 0 0 -96.379944071999034 -32.210277385437166 0 -32.210277385437166 25.452163206864043 0 0 0 0 -54.051173337421687 -50.792383445038467 0 -50.792383445038467 4.9705262188308552 0 0 0 0 -31.995275887362823 -50.597632327203769 0 -50.597632327203769 -5.353324148475167 0 0 0 0 0.080945837205645965 -24.571216222787058 0 -24.571216222787058 -7.2556763718325517 0 0 0 0 -52.523643148898486 -48.079558272082522 0 -48.079558272082522 9.7124469810596565 0 0 0 0 5.2115875435629277 -21.433463073585699 0 -21.433463073585699 -17.547982334763219 0 0 0 0 -3.877948251466897 -6.0494221075515444 0 -6.0494221075515444 -1.2611092038909586 0 0 0 0 -2.9260451280101947 -0.20344730102682451 0 -0.20344730102682451 -0.0061356597828923221 0 0 0 0 -217.83662571258174 135.52206184127124 0 135.52206184127124 -59.238005748977571 0 0 0 0 -44.355063454622723 -111.32703437599878 0 -111.32703437599878 -154.2140724472365 0 0 0 0 -212.05923610478385 14.233888671759757 0 14.233888671759757 82.446571397201296 0 0 0 0 -57.74821792649891 42.579136274244888 0 42.579136274244888 -12.067609919216011 0 0 0 0 -50.108044421075647 -12.677753765789681 0 -12.677753765789681 8.5682662636058922 0 0 0 0 4.6688407622659724 -43.180650310604847 0 -43.180650310604847 24.773380934887427 0 0 0 0 -6.2526248336686177 -3.1755713408070356 0 -3.1755713408070356 7.8800385688161558 0 0 0 0 -143.23229347387132 -47.173435030886708 0 -47.173435030886708 148.55426052079758 0 0 0 0 -212.68774380621835 36.845761754574028 0 36.845761754574028 81.579225651747322 0 0 0 0 -3.9844106182811458 -0.91032873315119378 0 -0.91032873315119378 -0.35628976393259454 0 0 0 0 -140.06047829919771 144.49440858366876 0 144.49440858366876 -95.483677452141364 0 0 0 0 -428.65669150126269 57.792855642631253 0 57.792855642631253 151.18469549090838 0 0 0 0 -13.202861844996733 -14.067969146098733 0 -14.067969146098733 -316.01425963578276 0 0 0 0 124.47281150808703 152.44569567472945 0 152.44569567472945 -470.62746472807464 0 0 0 0 0.87184813395415084 0.88074531564448222 0 0.88074531564448222 1.6974273910270963 0 0 0 0 -24.391861550488102 -115.36459929090506 0 -115.36459929090506 -87.908204215480851 0 0 0 0 -88.542203516614791 -103.29163720563321 0 -103.29163720563321 16.098469509855363 0 0 0 0 -155.70506395524171 -161.39688935909371 0 -161.39688935909371 -12.550762746427154 0 0 0 0 -237.09423050052283 -87.500677048783388 0 -87.500677048783388 91.78308095588477 0 0 0 0 -43.362241808900308 9.373271227638206 0 9.373271227638206 73.3889794991087 0 0 0 0 -149.69496175243694 -21.032431352631875 0 -21.032431352631875 123.27771697877989 0 0 0 0 -35.829504834577165 -50.25425966377145 0 -50.25425966377145 15.653662136173352 0 0 0 0 -57.289147891548055 -67.030431890625835 0 -67.030431890625835 37.220311692124355 0 0 0 0 -39.154735875788901 -45.079433542562668 0 -45.079433542562668 39.723228902789856 0 0 0 0 -18.108338588971947 -71.705084591052525 0 -71.705084591052525 -23.6261526015453 0 0 0 0 18.518822820293281 -58.29539910188214 0 -58.29539910188214 -29.957338665846123 0 0 0 0 5.2442759370696876 -43.154392871244681 0 -43.154392871244681 -31.367192910751328 0 0 0 0 -2.8126707496630843 -22.004306458774295 0 -22.004306458774295 -20.719021289866305 0 0 0 0 7.822945534995597 -34.807740820578921 0 -34.807740820578921 -11.945738442882742 0 0 0 0 -1.7495780803710659 -17.909396041000605 0 -17.909396041000605 -5.6915664480364967 0 0 0 0 -17.422245577992726 -8.4442936709785954 0 -8.4442936709785954 -11.280078466789746 0 0 0 0 -15.713700367187357 -13.203729351471335 0 -13.203729351471335 -4.4293930518664126 0 0 0 0 -14.951294078544379 -11.327162927365244 0 -11.327162927365244 -0.59660014116541049 0 0 0 0 -17.082492184382318 -6.6432988381023961 0 -6.6432988381023961 -0.05596727682495839 0 0 0 0 -19.5210715048959 -6.008087203282054 0 -6.008087203282054 -2.1890382908128361 0 0 0 0 -23.92363576867865 -12.989003690392373 0 -12.989003690392373 4.6348520635889514 0 0 0 0 -8.7263859960039483 -6.6578339107423954 0 -6.6578339107423954 -0.060983346501987112 0 0 0 0 -27.120342121133945 -24.023093328973658 0 -24.023093328973658 40.83819567316452 0 0 0 0 -15.012836426664535 -53.093103256544993 0 -53.093103256544993 3.8666143451246455 0 0 0 0 -76.100477164542099 -62.926840501319703 0 -62.926840501319703 -59.692789234558404 0 0 0 0 -0.94925232775405632 0.78280218616731823 0 0.78280218616731823 -0.35026633651280292 0 0 0 0 -68.658994402132521 -56.964857450950603 0 -56.964857450950603 -58.275006007082311 0 0 0 0 -14.541651196840803 -4.8302125335027437 0 -4.8302125335027437 0.25006097755107515 0 0 0 0 -13.361808247836052 28.429749891513524 0 28.429749891513524 8.1509150237102403 0 0 0 0 -2.8406518219068424 -1.2024802946089697 0 -1.2024802946089697 1.1005394466265503 0 0 0 0 -16.125793747940406 -17.544455616170126 0 -17.544455616170126 -8.5860582756880603 0 0 0 0 -15.046709301423107 -11.105395581343515 0 -11.105395581343515 -7.6916387298543398 0 0 0 0 -11.113656496580351 -3.9113318198785798 0 -3.9113318198785798 -2.8759827922037875 0 0 0 0 -8.6241297392098204 -4.39721062738829 0 -4.39721062738829 1.9135742259074959 0 0 0 0 -20.543002167515169 -8.8104110297733769 0 -8.8104110297733769 -0.22205161047872934 0 0 0 0 -11.217811747353428 -6.9020002847709261 0 -6.9020002847709261 -3.3409751142336512 0 0 0 0 -12.323534669906451 -8.5392374606419441 0 -8.5392374606419441 -4.7740365172987032 0 0 0 0 -4.9476693617093011 -0.8212642538196917 0 -0.8212642538196917 -1.4119922087490462 0 0 0 0 -19.553537848589485 -9.0268888367035061 0 -9.0268888367035061 4.6833416029644468 0 0 0 0 -18.328638002882371 -4.1187300947260326 0 -4.1187300947260326 4.2042304590590902 0 0 0 0 -18.535717316599403 -5.5098645654297798 0 -5.5098645654297798 -4.6778260943988244 0 0 0 0 -13.355014036169123 -5.3674063639086391 0 -5.3674063639086391 -1.7803561661838627 0 0 0 0 -21.452295773329752 -11.14315647461035 0 -11.14315647461035 -5.8487505408616016 0 0 0 0 -20.781163598071316 -9.4566413092511823 0 -9.4566413092511823 4.7398872114818005 0 0 0 0 -19.791149485013875 -7.93768906531011 0 -7.93768906531011 0.62628578770818422 0 0 0 0 -21.783821968182906 -13.616993383220859 0 -13.616993383220859 -1.1497796217036012 0 0 0 0 -19.417970417285574 -10.412070366735861 0 -10.412070366735861 -4.1029215883377219 0 0 0 0 -21.150434175980081 -13.806529089714417 0 -13.806529089714417 -5.873747142686625 0 0 0 0 -1.1388676653652361 -0.57182993837421758 0 -0.57182993837421758 -0.29770098016232449 0 0 0 0 2.3948043665632213 -21.715114345239726 0 -21.715114345239726 39.686493892887938 0 0 0 0 -3.2675350526319562 -2.206478178177349 0 -2.206478178177349 41.87835082796181 0 0 0 0 -21.085026654433022 -44.669354147094509 0 -44.669354147094509 -27.186329665870744 0 0 0 0 -15.07594826983086 -13.398318897459376 0 -13.398318897459376 -21.873006999486279 0 0 0 0 -15.891354828057047 -23.172666200511458 0 -23.172666200511458 -1.5617417333310186 0 0 0 0 -39.786273811094816 1.2113884773302743 0 1.2113884773302743 10.792947914275373 0 0 0 0 -16.021205515319707 -11.532639169498964 0 -11.532639169498964 -3.7467055261098494 0 0 0 0 -19.959594298508904 -3.1603656333586212 0 -3.1603656333586212 1.6450400228383755 0 0 0 0 -1.9252488847167228 -18.769508628048641 0 -18.769508628048641 68.412632148158536 0 0 0 0 -1.6941862451364509 0.33081431746033574 0 0.33081431746033574 1.7616773834309924 0 0 0 0 -3.8732199499650051 37.33350750656291 0 37.33350750656291 17.743103330294616 0 0 0 0 -65.048985263749273 11.811282096919058 0 11.811282096919058 15.153503861131298 0 0 0 0 -66.076823317581557 7.4796014042979095 0 7.4796014042979095 63.033873384077197 0 0 0 0 -242.43421991977448 -48.03082440181015 0 -48.03082440181015 58.119939647872911 0 0 0 0 52.37571901096635 17.981275827717582 0 17.981275827717582 93.059806246550124 0 0 0 0 -95.723913172256289 -105.29323735794628 0 -105.29323735794628 61.910376199615257 0 0 0 0 -185.04071464006495 102.89871959882009 0 102.89871959882009 146.45216175708265 0 0 0 0 -1.5547372887930635 0.1787834486255564 0 0.1787834486255564 0.11751351798071052 0 0 0 0 -137.40574868347176 -83.506716321725435 0 -83.506716321725435 55.464849019534086 0 0 0 0 -103.91862604481821 -100.8619459778738 0 -100.8619459778738 21.026956974802033 0 0 0 0 -90.03410150243144 -116.03257566175671 0 -116.03257566175671 -15.120578124863187 0 0 0 0 -102.87787008822033 -116.11455655817372 0 -116.11455655817372 36.032141204815616 0 0 0 0 -98.451279483070266 1.4144196061529328 0 1.4144196061529328 6.547760673153789 0 0 0 0 -126.55366434920347 -125.17040821393402 0 -125.17040821393402 34.832242566038985 0 0 0 0 -100.27376452053277 -87.926030710475203 0 -87.926030710475203 56.144555499851776 0 0 0 0 11.217967237408061 46.7384352564913 0 46.7384352564913 105.59817714873316 0 0 0 0 0.26597545386903221 12.02353598790387 0 12.02353598790387 98.422915173146066 0 0 0 0 -6.607866842949079 -92.850488576676526 0 -92.850488576676526 40.850830472518282 0 0 0 0 -13.553052424609632 37.139401898033839 0 37.139401898033839 104.97519589382682 0 0 0 0 -3.6545472624055755 0.62173587935720853 0 0.62173587935720853 0.25765722306686201 0 0 0 0 -72.817078180163662 13.688707934200465 0 13.688707934200465 235.97916174777197 0 0 0 0 -1.5579880400734964 12.98439589532677 0 12.98439589532677 139.34410942801787 0 0 0 0 0.25523925269686742 0.14784604421267389 0 0.14784604421267389 -0.10358268001906268 0 0 0 0 23.342837620125934 78.816749237181895 0 78.816749237181895 82.071468031633231 0 0 0 0 -24.626203785695907 30.669367164147843 0 30.669367164147843 54.496104424886198 0 0 0 0 14.461732785478702 -38.62394452187857 0 -38.62394452187857 120.55366677952316 0 0 0 0 -56.032913453582296 90.505415182917659 0 90.505415182917659 11.807600301951425 0 0 0 0 -52.968832656769337 -52.691676850414296 0 -52.691676850414296 60.053644794369347 0 0 0 0 -53.108368231828535 39.488330164843774 0 39.488330164843774 63.400217066319328 0 0 0 0 -56.730714657364388 -11.168967277936645 0 -11.168967277936645 11.434770022760404 0 0 0 0 -127.28734527913514 27.340915175709824 0 27.340915175709824 -9.5132064053013892 0 0 0 0 -95.413221010654183 -64.785316697986161 0 -64.785316697986161 -44.779361987159064 0 0 0 0 -22.341117926835523 75.919653490668452 0 75.919653490668452 -30.522954840314924 0 0 0 0 -161.98724695351211 100.31054585935317 0 100.31054585935317 -34.254806757071492 0 0 0 0 -63.05475701060368 46.178016279168105 0 46.178016279168105 -57.814595787900998 0 0 0 0 -213.89475067917351 32.162885374505549 0 32.162885374505549 -53.801877353283089 0 0 0 0 -185.67650219457732 0.43376399738258442 0 0.43376399738258442 -18.172359940981003 0 0 0 0 -197.30291743965364 -124.68097490357381 0 -124.68097490357381 -133.04607342138252 0 0 0 0 -156.85119744736176 -151.73850030152539 0 -151.73850030152539 -115.52749530629978 0 0 0 0 -0.94649780393572724 -1.028049924357372 0 -1.028049924357372 -1.7457856394819231 0 0 0 0 3.0332399249774653 19.234672279496067 0 19.234672279496067 -114.71840639091761 0 0 0 0 -38.655856462639804 -132.86424337523908 0 -132.86424337523908 -177.62462091516772 0 0 0 0 -247.63964063124536 -135.51837778710842 0 -135.51837778710842 -14.983853935817024 0 0 0 0 -108.6344461976214 -9.0784586894974382 0 -9.0784586894974382 -119.58274878659495 0 0 0 0 -101.56660706296361 104.5600424956308 0 104.5600424956308 -45.630506753101145 0 0 0 0 -142.90759047080019 46.318294849173526 0 46.318294849173526 -86.447733426213858 0 0 0 0 -92.906494722374646 5.383235567984002 0 5.383235567984002 -97.892353758578793 0 0 0 0 -43.868456785678063 68.988785396131789 0 68.988785396131789 -82.561974613290431 0 0 0 0 -69.416443689615107 36.054077539458831 0 36.054077539458831 -91.829001537301338 0 0 0 0 -67.038608333692196 82.391007287848311 0 82.391007287848311 -82.071200639355993 0 0 0 0 -50.233742676602049 130.94925317745503 0 130.94925317745503 -86.55356528766788 0 0 0 0 -60.392995858229824 131.94600727731085 0 131.94600727731085 -67.92358990164621 0 0 0 0 -174.96425436768959 154.77182770175557 0 154.77182770175557 -70.626227167439993 0 0 0 0 -112.86845383405807 126.71205515646307 0 126.71205515646307 -80.092160772726174 0 0 0 0 -44.453210396306531 142.84240719328727 0 142.84240719328727 -71.606157847231316 0 0 0 0 -89.684647331052247 156.77227242899346 0 156.77227242899346 -62.705849415177454 0 0 0 0 -168.24370678428386 163.76185624721813 0 163.76185624721813 -44.563344135413672 0 0 0 0 -24.115494872651908 135.01583531908449 0 135.01583531908449 -122.1999081127633 0 0 0 0 -84.25788062425454 103.45644668358432 0 103.45644668358432 -8.2385190819531999 0 0 0 0 -10.368390871604788 88.929328117876594 0 88.929328117876594 -15.128901239054585 0 0 0 0 -4.2606991391721749 -0.88333952657558257 0 -0.88333952657558257 68.17933248933673 0 0 0 0 -3.7697812313690262 0.9889765135012567 0 0.9889765135012567 0.15254557418894321 0 0 0 0 -26.391786110219982 2.1324272735600971 0 2.1324272735600971 136.901800056208 0 0 0 0 -57.827435815646822 59.6317571998527 0 59.6317571998527 173.50611195900228 0 0 0 0 17.705182743609555 36.909399073085154 0 36.909399073085154 98.136476202486847 0 0 0 0 -1.6445546819173309 0.7182463543526163 0 0.7182463543526163 -0.10851039333486434 0 0 0 0 -86.547965589187697 -42.261009440161843 0 -42.261009440161843 26.019728138776827 0 0 0 0 28.500879510617267 -36.787755264256191 0 -36.787755264256191 -8.7369346802015571 0 0 0 0 -320.32296877606223 23.913494912417036 0 23.913494912417036 73.333530079996308 0 0 0 0 -298.16014807381634 36.140411767092701 0 36.140411767092701 -82.971630245040956 0 0 0 0 -254.58108944355354 58.851283992670915 0 58.851283992670915 -59.283630070989147 0 0 0 0 -162.76312690565123 2.2085076534283417 0 2.2085076534283417 -101.04549861064652 0 0 0 0 -159.6239845393352 5.8664287266710744 0 5.8664287266710744 -97.39830042506668 0 0 0 0 -206.9968642968015 -21.083200503113176 0 -21.083200503113176 -78.471634465558054 0 0 0 0 -80.465516252076668 78.393594430417579 0 78.393594430417579 14.332132048261883 0 0 0 0 -14.400204435760315 76.89995280471112 0 76.89995280471112 13.990590957575989 0 0 0 0 -1.1050433769250194 0.42750098623834276 0 0.42750098623834276 -0.2492916414509736 0 0 0 0 -361.24988538308889 -139.20883155581259 0 -139.20883155581259 -22.302176467497475 0 0 0 0 -332.18257666355112 0.50846938762401805 0 0.50846938762401805 -29.22882800521802 0 0 0 0 -238.57296828324297 -54.060342750360633 0 -54.060342750360633 -7.0575856388738885 0 0 0 0 -28.865306598983807 -29.671517299961579 0 -29.671517299961579 21.082826988836132 0 0 0 0 -0.22229913833871251 -24.57123670428382 0 -24.57123670428382 -5.2708688784114202 0 0 0 0 -10.033321220278594 -16.418894257961711 0 -16.418894257961711 -3.321277978631656 0 0 0 0 -37.647035489373593 -63.225462174932545 0 -63.225462174932545 4.0755192173648993 0 0 0 0 -116.12999940542659 -8.0986438735151296 0 -8.0986438735151296 18.959971828498965 0 0 0 0 8.5526078743878315 -9.1326729932604849 0 -9.1326729932604849 18.575350657617008 0 0 0 0 -17.646786630667066 -26.397529794596721 0 -26.397529794596721 23.592865463602266 0 0 0 0 -2.0246307366897849 1.2514183557950318 0 1.2514183557950318 -0.49266432311244657 0 0 0 0 -13.179862775062702 -9.3037145517055251 0 -9.3037145517055251 2.2719973959951858 0 0 0 0 -8.6145494936176874 7.5291298009576622 0 7.5291298009576622 34.664955018820024 0 0 0 0 3.930835157931142 -7.5535343006390576 0 -7.5535343006390576 -0.84969828448856788 0 0 0 0 3.0788417154436729 0.51695262091337213 0 0.51695262091337213 -36.582455000504524 0 0 0 0 -117.47889947786007 48.346925857494398 0 48.346925857494398 -22.466274156829513 0 0 0 0 -70.164590488569047 -16.462717925786592 0 -16.462717925786592 -11.113150722555474 0 0 0 0 -3.6293742016724906 -2.1571667551105587 0 -2.1571667551105587 -1.3577176385398235 0 0 0 0 -17.566581638534444 6.5062215542336617 0 6.5062215542336617 -30.251682428851836 0 0 0 0 -278.3789555581543 50.756476497321387 0 50.756476497321387 12.632085390198199 0 0 0 0 23.225971746291179 3.8476367728176228 0 3.8476367728176228 -14.833901205437996 0 0 0 0 -12.677233071112177 -5.1727616132148686 0 -5.1727616132148686 -2.1300979174287287 0 0 0 0 0.94863590266686515 -27.685636852561174 0 -27.685636852561174 4.1015407510170689 0 0 0 0 8.3485698904032688 -30.042389906762992 0 -30.042389906762992 -25.473142498816514 0 0 0 0 -159.60566398957963 -191.12250193924183 0 -191.12250193924183 92.808948569781364 0 0 0 0 -296.15493735861901 -74.59421391947518 0 -74.59421391947518 -13.217046749744441 0 0 0 0 -295.07014199928062 -67.742093895485709 0 -67.742093895485709 27.334441122390672 0 0 0 0 -191.81769917278052 -93.530837310620882 0 -93.530837310620882 -15.106424868615704 0 0 0 0 -380.43264903908494 -150.64861878509441 0 -150.64861878509441 -27.599864888250636 0 0 0 0 -182.52357737615102 -73.70979796679319 0 -73.70979796679319 -122.75836231350058 0 0 0 0 -213.88307981644039 -19.440735259223267 0 -19.440735259223267 -31.365640195859669 0 0 0 0 -214.28776044409312 -39.001534574879258 0 -39.001534574879258 -325.88952945694518 0 0 0 0 -507.69219025028951 45.509846809910982 0 45.509846809910982 53.524305993845701 0 0 0 0 -210.69508693077614 -78.343491269717219 0 -78.343491269717219 93.736512164578926 0 0 0 0 -283.86230056766453 -13.337597535908344 0 -13.337597535908344 97.367014399329946 0 0 0 0 -170.49519896196216 45.947086137950691 0 45.947086137950691 -24.081987849286634 0 0 0 0 -211.62283197110628 -52.398487892396815 0 -52.398487892396815 99.741250640059206 0 0 0 0 -160.46413024959838 -52.974058986413866 0 -52.974058986413866 50.054140721023487 0 0 0 0 -201.63702316227159 -49.241960025712331 0 -49.241960025712331 126.76379577283524 0 0 0 0 -202.10336061632279 -44.106273475928219 0 -44.106273475928219 100.68804842242525 0 0 0 0 -341.60514934581624 -195.75039342309151 0 -195.75039342309151 88.799977210159341 0 0 0 0 -342.05154151410534 -84.884356686529827 0 -84.884356686529827 101.9047197939766 0 0 0 0 -230.48553535403062 20.9454066840417 0 20.9454066840417 60.925489685033426 0 0 0 0 -16.894309606723755 -14.462553049120427 0 -14.462553049120427 0.67402761666433397 0 0 0 0 -65.10247882006297 -0.60556234027581013 0 -0.60556234027581013 43.305785658612649 0 0 0 0 -38.05657010293362 32.737893827613334 0 32.737893827613334 -33.795299849429284 0 0 0 0 -97.480329518296458 -16.090590763669752 0 -16.090590763669752 55.856274213374718 0 0 0 0 -112.17489566185259 -19.69735870901593 0 -19.69735870901593 67.866905565169873 0 0 0 0 -183.7068281875363 -137.35008579411715 0 -137.35008579411715 -76.408100874822594 0 0 0 0 -51.137633780425574 -10.233831517272293 0 -10.233831517272293 0.77634523842627967 0 0 0 0 -127.33950802633808 3.7137945961446803 0 3.7137945961446803 72.403368416818012 0 0 0 0 -10.775598727210308 -72.155426871396685 0 -72.155426871396685 25.554722131529161 0 0 0 0 -20.606164518411319 0.1596779502947232 0 0.1596779502947232 11.64022134007892 0 0 0 0 -76.38356694266804 -86.979790168744898 0 -86.979790168744898 88.636621762283539 0 0 0 0 -49.880617800647087 4.0128862850874611 0 4.0128862850874611 3.897817288191618 0 0 0 0 -132.13446866330378 41.181839517793378 0 41.181839517793378 2.5439650869266188 0 0 0 0 -175.08865429543403 48.037989588250866 0 48.037989588250866 -49.37787722859207 0 0 0 0 -208.07601415911813 15.501787296587963 0 15.501787296587963 8.9135091214629938 0 0 0 0 -123.33825670308488 -19.013503958607544 0 -19.013503958607544 95.974265657998103 0 0 0 0 1.5923528685057065 0.045231559449382175 0 0.045231559449382175 3.7045254680215081 0 0 0 0 114.86111727662274 -252.26648567825617 0 -252.26648567825617 73.824921844899563 0 0 0 0 210.73846816390324 16.973961946121335 0 16.973961946121335 -399.43059285327899 0 0 0 0 87.817327792661672 15.564953765524024 0 15.564953765524024 98.506807553778629 0 0 0 0 -186.11929809291678 -293.33564430111437 0 -293.33564430111437 -237.13579829872833 0 0 0 0 -0.12682559400243498 -0.028389412425035232 0 -0.028389412425035232 0.64303581121161368 0 0 0 0 -434.7886388573861 28.084129566133925 0 28.084129566133925 45.858678208050151 0 0 0 0 522.98969043164834 -215.76441610759696 0 -215.76441610759696 -247.87095428994417 0 0 0 0 -237.74222332819772 -155.59250442152643 0 -155.59250442152643 -56.68488840462026 0 0 0 0 -151.57550971678575 -15.669941594907982 0 -15.669941594907982 13.457178670449139 0 0 0 0 -10.162263329064444 -29.666572348439786 0 -29.666572348439786 -40.85043149750345 0 0 0 0 -83.237433760858039 -51.421729272983157 0 -51.421729272983157 -77.175174994517874 0 0 0 0 -79.740378072514432 -11.415411311086245 0 -11.415411311086245 -13.95190412928514 0 0 0 0 -22.322641849998035 -3.9987632228530288 0 -3.9987632228530288 -11.108072949481539 0 0 0 0 -29.388754246219833 -45.378166175423758 0 -45.378166175423758 16.209941024417731 0 0 0 0 -41.866300921910806 -24.241759264340999 0 -24.241759264340999 2.3785836960687448 0 0 0 0 -193.13208894782292 -44.077017482737574 0 -44.077017482737574 -1.7487016127788593 0 0 0 0 -104.33242940807395 -7.0438228526413695 0 -7.0438228526413695 -16.277189125221412 0 0 0 0 -69.963267251112484 -58.99574437554611 0 -58.99574437554611 -30.692331789749005 0 0 0 0 8.481369790590179 -28.740265153809787 0 -28.740265153809787 6.8586900662562584 0 0 0 0 6.3152398322108638 -13.649000246844935 0 -13.649000246844935 70.986502446485247 0 0 0 0 24.483002233838761 -13.285880901833849 0 -13.285880901833849 -18.040260127490001 0 0 0 0 2.5981248635098382 -26.27748407068691 0 -26.27748407068691 22.631623563740959 0 0 0 0 7.5682670732458064 -22.975147534038797 0 -22.975147534038797 -22.327726706114618 0 0 0 0 -1.3486913378798135 -0.38613792513123357 0 -0.38613792513123357 1.3556084167035447 0 0 0 0 -3.4003114383813227 -4.9715603805566388 0 -4.9715603805566388 -20.69476828383722 0 0 0 0 -0.2906583003450578 -16.819631760597986 0 -16.819631760597986 42.819092340813768 0 0 0 0 46.199441056956857 -44.463536226957785 0 -44.463536226957785 14.889677058587154 0 0 0 0 14.297703455476949 -71.424435763893371 0 -71.424435763893371 56.82666477467501 0 0 0 0 -94.527195522390684 169.89440462045241 0 169.89440462045241 -57.488599044389503 0 0 0 0 -5.0743580037704561 -5.4332580274026334 0 -5.4332580274026334 -4.5714213870233298 0 0 0 0 -22.82798141602143 -42.415945336492598 0 -42.415945336492598 -82.663631114432519 0 0 0 0 -100.79771875783899 67.477373946243802 0 67.477373946243802 44.920893701709019 0 0 0 0 -26.288684390932758 -63.40654487664824 0 -63.40654487664824 49.066506266347119 0 0 0 0 -19.625247329812957 -5.3694963536529166 0 -5.3694963536529166 -4.0947661449950221 0 0 0 0 -105.03398130622372 -11.60039152235391 0 -11.60039152235391 10.377953070991573 0 0 0 0 -64.372475621201659 -11.562153743738058 0 -11.562153743738058 -2.119319389059839 0 0 0 0 -80.560494121218653 5.4946756442340643 0 5.4946756442340643 -8.0090354846960281 0 0 0 0 -82.489140700556163 10.393280512338407 0 10.393280512338407 10.581465495503039 0 0 0 0 -107.35810633800793 -49.585574648777765 0 -49.585574648777765 7.274475662958821 0 0 0 0 -70.141210069062481 -23.0057974471965 0 -23.0057974471965 24.417818844571229 0 0 0 0 -66.472752873389709 -65.958988266366475 0 -65.958988266366475 27.91158648734654 0 0 0 0 -22.288361524961147 -45.435648973410025 0 -45.435648973410025 35.649039576686391 0 0 0 0 -95.84218760420481 -26.845043754060477 0 -26.845043754060477 33.479865396037582 0 0 0 0 -49.625287634294345 -11.18440200396649 0 -11.18440200396649 2.0957557982529855 0 0 0 0 -72.2311336687726 -54.113843568344237 0 -54.113843568344237 86.317778940967401 0 0 0 0 -59.208484910843254 -22.411776334284241 0 -22.411776334284241 36.279395845813838 0 0 0 0 -61.124312144253054 -67.717716245601423 0 -67.717716245601423 44.478584209141445 0 0 0 0 -44.936792736478843 -17.108635346248377 0 -17.108635346248377 -4.6422458758593823 0 0 0 0 -44.48106740290158 -19.16561108743722 0 -19.16561108743722 -3.1518081734804992 0 0 0 0 -38.892668860138656 -50.797395953939578 0 -50.797395953939578 -4.0789190321097522 0 0 0 0 -51.876123342262872 9.1463614600104393 0 9.1463614600104393 0.5889920202794201 0 0 0 0 -121.74029003424948 -21.096749289159803 0 -21.096749289159803 32.21704234063057 0 0 0 0 -40.606993042463728 -38.239804719348285 0 -38.239804719348285 -32.080892239182958 0 0 0 0 -134.1245832278255 -139.05901607170131 0 -139.05901607170131 -94.074527094251607 0 0 0 0 1.7073921928457878 0.12282629344010587 0 0.12282629344010587 -0.37301501976776885 0 0 0 0 -84.021861209854251 448.07418437588262 0 448.07418437588262 487.28368488548904 0 0 0 0 8.6050091350844014 -70.686814604086521 0 -70.686814604086521 340.98197281256694 0 0 0 0 -56.147256889888922 73.861348649808804 0 73.861348649808804 168.04882693893114 0 0 0 0 -1.7484647057706582 -7.7759152260543551 0 -7.7759152260543551 0.83014593620925758 0 0 0 0 -64.894405922146689 156.00312466043852 0 156.00312466043852 479.17059870806452 0 0 0 0 -78.306308267412533 11.132779786936112 0 11.132779786936112 10.60615985254435 0 0 0 0 -56.501965990832105 2.1284378268328794 0 2.1284378268328794 49.581865539634578 0 0 0 0 -68.952963278828975 32.605115601401991 0 32.605115601401991 48.81764394316599 0 0 0 0 -121.26718581563182 -1.8853640116752786 0 -1.8853640116752786 45.926623403981523 0 0 0 0 -92.391848714301887 12.9545613904018 0 12.9545613904018 38.252120054604404 0 0 0 0 -111.59923213368165 -9.3969635765299699 0 -9.3969635765299699 45.200357478254546 0 0 0 0 -135.5968348365559 43.290946367925585 0 43.290946367925585 25.483318117951967 0 0 0 0 -176.97876442158304 -85.084805952705693 0 -85.084805952705693 93.127168978219061 0 0 0 0 -149.19375009473151 13.324925320363263 0 13.324925320363263 182.85410392659594 0 0 0 0 -57.837019236343622 -8.5019205514358873 0 -8.5019205514358873 57.362592617978009 0 0 0 0 -93.783669823882519 21.56201428325619 0 21.56201428325619 63.019872513350037 0 0 0 0 -18.491319821114303 11.948702888616594 0 11.948702888616594 15.381565065535142 0 0 0 0 -63.550584646567586 -25.15236314220283 0 -25.15236314220283 101.72417666967453 0 0 0 0 -120.8998732494365 116.62122884688779 0 116.62122884688779 -2.8189414630491001 0 0 0 0 -16.428245633237964 -3.2909201177561798 0 -3.2909201177561798 -0.67596679678518523 0 0 0 0 -171.46443055583222 121.36603994282632 0 121.36603994282632 126.82924712408499 0 0 0 0 0.6626845375431003 -11.916837380729135 0 -11.916837380729135 -18.233301847982148 0 0 0 0 -33.033994304896623 1.349402067725805 0 1.349402067725805 7.8208335087672367 0 0 0 0 -81.794437313197704 0.82752398375646408 0 0.82752398375646408 8.2165259407207714 0 0 0 0 -116.01351483286999 -266.16312519666292 0 -266.16312519666292 -399.0719060934648 0 0 0 0 -496.78138821527682 -183.07951732424067 0 -183.07951732424067 85.789567949466573 0 0 0 0 -5.4884992123539433 -0.83501263097654999 0 -0.83501263097654999 -0.32644174370691736 0 0 0 0 -116.21846700868628 348.4402763576054 0 348.4402763576054 -274.33803400770762 0 0 0 0 10.739327963940013 -85.764317654528213 0 -85.764317654528213 82.254688714491294 0 0 0 0 -112.85650794050161 -187.50513075179367 0 -187.50513075179367 -88.60316796633515 0 0 0 0 -399.26645067721256 -114.65816466202386 0 -114.65816466202386 -16.210957446071234 0 0 0 0 -263.59687441412825 61.104022669077267 0 61.104022669077267 -349.27371093869925 0 0 0 0 -192.68609882077362 -78.726835289047813 0 -78.726835289047813 -85.540131803730446 0 0 0 0 -145.26772099038681 -85.43517265044494 0 -85.43517265044494 -205.64639742106647 0 0 0 0 -137.86150434290175 -246.65376629524394 0 -246.65376629524394 -113.77633727591683 0 0 0 0 -143.30089773457439 -216.03652520777382 0 -216.03652520777382 -201.31201512726582 0 0 0 0 -33.552538082498359 -178.56835434420873 0 -178.56835434420873 -103.43289368712448 0 0 0 0 -100.22450772005686 73.542140476802388 0 73.542140476802388 53.400442401037708 0 0 0 0 -3.2077706781504958 -1.7409389247679385 0 -1.7409389247679385 -0.8535142398076383 0 0 0 0 -538.59236842350219 -216.04289334499481 0 -216.04289334499481 -79.842798960190976 0 0 0 0 -290.4770978835295 -192.43011880807808 0 -192.43011880807808 -92.056433640403725 0 0 0 0 -254.70505618446259 -173.06815021367834 0 -173.06815021367834 -84.902213923086492 0 0 0 0 -164.71739716879529 -230.95131774519643 0 -230.95131774519643 -104.46728696801347 0 0 0 0 -59.504281519297365 -68.978663937906276 0 -68.978663937906276 -65.293186491594497 0 0 0 0 -164.76406667099764 -59.550175415144224 0 -59.550175415144224 -32.867535294231857 0 0 0 0 -6.4052599782517063 47.563179854622376 0 47.563179854622376 4.9581345064093512 0 0 0 0 -14.878593939625716 -9.2664415464510057 0 -9.2664415464510057 -3.0230065423043015 0 0 0 0 42.67282788400189 12.493752805657323 0 12.493752805657323 -1.1468904268558617 0 0 0 0 -18.823310417568734 7.0753311228272295 0 7.0753311228272295 6.7931970038510805 0 0 0 0 -23.787494528194657 -15.800138572927608 0 -15.800138572927608 -19.881334180361137 0 0 0 0 -55.123674092053989 -18.268960487436402 0 -18.268960487436402 -8.7432435101295596 0 0 0 0 -23.9348779824536 -14.880553135731802 0 -14.880553135731802 -9.2039796582787403 0 0 0 0 -24.833543619031843 -53.132013840616537 0 -53.132013840616537 -44.582407326661325 0 0 0 0 -6.7648913753542743 -5.5270896271284329 0 -5.5270896271284329 -7.6174743156618874 0 0 0 0 -4.1573486334839913 -1.0314536952993585 0 -1.0314536952993585 1.9442733335126903 0 0 0 0 -28.15016992494202 -0.32220748176337111 0 -0.32220748176337111 -3.5626072111364238 0 0 0 0 -4.6118304366245866 -90.169933111814998 0 -90.169933111814998 -189.87512917738604 0 0 0 0 -118.67423341760878 -227.07917165396248 0 -227.07917165396248 -175.13218806324369 0 0 0 0 -122.51443892216048 -612.18147100063834 0 -612.18147100063834 -365.48677289025181 0 0 0 0 -14.63625600693922 -13.425142688579058 0 -13.425142688579058 -610.83945258154836 0 0 0 0 -56.496683279161516 -6.2447323349310864 0 -6.2447323349310864 -4.6189649105501758 0 0 0 0 -26.84136695197401 -16.467341743694519 0 -16.467341743694519 -13.294965368560042 0 0 0 0 -126.61491256903946 26.156343752538646 0 26.156343752538646 152.28979553496401 0 0 0 0 -83.506683148245116 -20.45981318732623 0 -20.45981318732623 -4.3974782929719778 0 0 0 0 -20.288794357758107 -5.6873344774491237 0 -5.6873344774491237 -2.183035348396448 0 0 0 0 -101.02009816436748 -87.144651516270415 0 -87.144651516270415 -3.869822855147504 0 0 0 0 -95.632889964646338 -23.079888827731097 0 -23.079888827731097 0.83443888809027911 0 0 0 0 -223.43637785767351 -10.629963627823599 0 -10.629963627823599 93.997906895328015 0 0 0 0 -139.53668161699898 -348.21409668771275 0 -348.21409668771275 251.30589785407938 0 0 0 0 -270.93943050700182 -67.616539109037149 0 -67.616539109037149 265.08307219363724 0 0 0 0 -97.056010452717601 -76.48817132821523 0 -76.48817132821523 -10.603588025987847 0 0 0 0 -190.95096818103048 -54.434493536317405 0 -54.434493536317405 124.6132462362275 0 0 0 0 -37.506462376896366 -5.3233826188973268 0 -5.3233826188973268 10.157066457695702 0 0 0 0 -331.46105831636669 7.9551446546452098 0 7.9551446546452098 177.61149857277815 0 0 0 0 -756.65644436240837 143.24117625156259 0 143.24117625156259 322.98878326752947 0 0 0 0 33.875453169774119 -363.84435221240983 0 -363.84435221240983 450.49546422746243 0 0 0 0 -150.85837788062418 88.145695382849453 0 88.145695382849453 225.09138280754541 0 0 0 0 -159.91779792807938 100.60848412899122 0 100.60848412899122 208.52261837089054 0 0 0 0 -51.740365568268317 -30.213076593700407 0 -30.213076593700407 9.9719882366318302 0 0 0 0 -53.696365568797432 -6.3143641423407999 0 -6.3143641423407999 7.0068308570979836 0 0 0 0 235.48590040992713 188.54038686475178 0 188.54038686475178 211.73251109402963 0 0 0 0 -9.3060966299192671 2.3703420417414094 0 2.3703420417414094 9.0081039196488355 0 0 0 0 31.349369151575956 -239.24504937363236 0 -239.24504937363236 112.59209318344483 0 0 0 0 -222.57303769842474 24.067190213104027 0 24.067190213104027 375.43411475692392 0 0 0 0 -231.34848093289474 103.97284574153514 0 103.97284574153514 -41.881848646410617 0 0 0 0 173.33110738848336 103.25030093053692 0 103.25030093053692 236.38969030017279 0 0 0 0 4.8494875071774004 26.240992373390554 0 26.240992373390554 535.26766719270927 0 0 0 0 -124.418806466354 -210.83014631076969 0 -210.83014631076969 77.954183419050423 0 0 0 0 -163.91536696731418 -319.85755303668975 0 -319.85755303668975 -44.736128519724843 0 0 0 0 -119.39297404337412 -94.77389226132118 0 -94.77389226132118 -22.885104789523211 0 0 0 0 -499.04062548645015 -376.06820435288978 0 -376.06820435288978 -118.61582871094652 0 0 0 0 -306.4481570697244 -143.22329567815268 0 -143.22329567815268 -112.85653196156218 0 0 0 0 0.67490411391838734 -1.4465869814627226 0 -1.4465869814627226 -4.3684777364359988 0 0 0 0 -837.7239751410234 -258.8276586689085 0 -258.8276586689085 -76.131036885928552 0 0 0 0 -363.6116321571244 301.48510019827791 0 301.48510019827791 -446.71747920621692 0 0 0 0 -509.10890585327434 -422.38325774863506 0 -422.38325774863506 -480.47114638557014 0 0 0 0 -375.13279600819806 104.98767822512127 0 104.98767822512127 224.37493088008912 0 0 0 0 -242.91240096037654 -221.84219434552529 0 -221.84219434552529 -43.745203234611836 0 0 0 0 -38.33083668297877 13.616201743824256 0 13.616201743824256 -2.2195700788808495 0 0 0 0 -1.6462157966634194 -2.3930684024601874 0 -2.3930684024601874 -0.48405751594627944 0 0 0 0 -28.320709106108552 13.522273024070429 0 13.522273024070429 -9.2624344729148618 0 0 0 0 -33.796178635879187 3.3325754638271974 0 3.3325754638271974 -3.8167460184113224 0 0 0 0 -20.301587670976005 12.25073801680162 0 12.25073801680162 -6.1612695775111206 0 0 0 0 -16.361496525205439 7.8921972079915577 0 7.8921972079915577 -7.637338380134679 0 0 0 0 -269.10934469512722 23.435504006267422 0 23.435504006267422 42.722428900676817 0 0 0 0 -125.02454209817006 -2.6677497600390012 0 -2.6677497600390012 -30.658477381797468 0 0 0 0 -100.28855567508072 78.894733026549375 0 78.894733026549375 59.195123250580764 0 0 0 0 -116.66418156302916 148.11799762770923 0 148.11799762770923 -11.915485498342377 0 0 0 0 -4.9245980245883594 -1.5582959166390253 0 -1.5582959166390253 -2.2133990740457197 0 0 0 0 -27.07080432879593 9.3427893488224072 0 9.3427893488224072 -2.6141036566318689 0 0 0 0 -363.72924350790709 -486.7808891861996 0 -486.7808891861996 -813.01422325246313 0 0 0 0 -15.500597998317971 2.7200609123491404 0 2.7200609123491404 -9.5856765917746998 0 0 0 0 -1121.6681095887034 -276.24600576193598 0 -276.24600576193598 919.40771426740412 0 0 0 0 87.117741315807507 243.17340377108826 0 243.17340377108826 308.34738893023246 0 0 0 0 -4.8851500691122567 5.8811617288818283 0 5.8811617288818283 -3.8171515817083188 0 0 0 0 -20.877652097671671 12.9568897213573 0 12.9568897213573 -5.1395155950954177 0 0 0 0 -160.29376571159264 -71.502357849966813 0 -71.502357849966813 37.817734347232545 0 0 0 0 -7.8367611570481088 2.5642997198956721 0 2.5642997198956721 2.1019924871197411 0 0 0 0 -3.4988412618204165 1.8179728149058292 0 1.8179728149058292 -0.8511300314798973 0 0 0 0 -6.7760867011675145 -4.1874000921152401 0 -4.1874000921152401 -11.204965426734702 0 0 0 0 -40.022415202027332 -14.172719900082029 0 -14.172719900082029 14.862599344197633 0 0 0 0 -58.0119658040785 -108.71280326787496 0 -108.71280326787496 -38.248082069201701 0 0 0 0 -87.040679961881324 -310.02202654349514 0 -310.02202654349514 -306.45755161263651 0 0 0 0 -24.382462172274245 -103.69101716522619 0 -103.69101716522619 -39.601189357636088 0 0 0 0 -8.1855869943839963 -1.6741905346138171 0 -1.6741905346138171 -0.4862625060240231 0 0 0 0 -50.798340528262997 -91.933033600555973 0 -91.933033600555973 146.04022464613354 0 0 0 0 -9.7577809844951844 -77.10154684601639 0 -77.10154684601639 -44.318053422139656 0 0 0 0 -38.735180063321422 -79.413056038088541 0 -79.413056038088541 -40.610297446090044 0 0 0 0 1.7465207664463378 -66.19155463504751 0 -66.19155463504751 -172.68355466749716 0 0 0 0 -18.971257976640118 -67.65162267343112 0 -67.65162267343112 -34.097312154853398 0 0 0 0 -54.498817144572968 -67.372628786734481 0 -67.372628786734481 -46.141683901825445 0 0 0 0 3.5899784388311673 -117.94530970597191 0 -117.94530970597191 -43.219418671576932 0 0 0 0 -50.271593510758976 -28.662224268241459 0 -28.662224268241459 61.08492120990644 0 0 0 0 -23.501230993251184 -4.3071997526550732 0 -4.3071997526550732 -0.58828001243913874 0 0 0 0 -74.003940611235066 -61.583662140383304 0 -61.583662140383304 16.204943697884573 0 0 0 0 -179.7399898839285 -32.607118921712782 0 -32.607118921712782 24.433191483804009 0 0 0 0 -24.026485934800803 -55.657968185213576 0 -55.657968185213576 -8.331804598648489 0 0 0 0 -47.598368490587745 7.4020518507917643 0 7.4020518507917643 14.798865523913605 0 0 0 0 -36.540037065613717 -5.6371439389000528 0 -5.6371439389000528 -0.56989549678664697 0 0 0 0 1.6226550936589774 -45.009963042392201 0 -45.009963042392201 -30.083873556267463 0 0 0 0 -106.99377197520516 -88.398904366663373 0 -88.398904366663373 295.87300551455132 0 0 0 0 -8.1868522797030892 -18.884577667635199 0 -18.884577667635199 -23.597415457466923 0 0 0 0 -89.65936798502662 18.196753135056611 0 18.196753135056611 161.6403631578462 0 0 0 0 -45.388081079767289 -150.61667492255344 0 -150.61667492255344 -395.13788456731811 0 0 0 0 -304.36819252658279 -51.630202845807048 0 -51.630202845807048 -15.850064005494914 0 0 0 0 -126.18113266038199 45.326012751963844 0 45.326012751963844 72.987855530333263 0 0 0 0 38.638919351273216 -11.732998740455855 0 -11.732998740455855 70.218857439740077 0 0 0 0 -85.762690872100478 158.52012636038785 0 158.52012636038785 -162.3204426645143 0 0 0 0 -81.247932194855821 -13.638993797593002 0 -13.638993797593002 -90.211162633833737 0 0 0 0 -1.7471184879245314 -1.4774103400354583 0 -1.4774103400354583 -1.8906187965971775 0 0 0 0 -207.56285900517014 196.6252355411477 0 196.6252355411477 -144.33775652936765 0 0 0 0 -278.22008042661764 32.680812321949361 0 32.680812321949361 -78.514964282424899 0 0 0 0 43.538465625711979 -1.2472475322633727 0 -1.2472475322633727 -3.8165991638543346 0 0 0 0 34.761533931326994 -56.74001955114727 0 -56.74001955114727 -72.030016179157315 0 0 0 0 30.254850755042298 -34.189334284993919 0 -34.189334284993919 -41.456044878304965 0 0 0 0 -152.98242910054796 18.476667026257928 0 18.476667026257928 8.1610906887085548 0 0 0 0 13.699980509831221 45.156947142845979 0 45.156947142845979 6.9539513758659268 0 0 0 0 -134.52696763271524 18.810180765937048 0 18.810180765937048 187.52027147316471 0 0 0 0 -150.1006580533849 -37.745756157129108 0 -37.745756157129108 271.54685691104805 0 0 0 0 -47.578812331877927 -6.4840155864702842 0 -6.4840155864702842 -0.65272592330369017 0 0 0 0 -72.027236507845373 -16.186707470781215 0 -16.186707470781215 2.565162931817099 0 0 0 0 -12.231421170887188 -4.5021200713782719 0 -4.5021200713782719 -86.221238890374963 0 0 0 0 -53.357734501558298 40.314410158084456 0 40.314410158084456 -11.714274928376199 0 0 0 0 -38.435091589744843 16.641681457925074 0 16.641681457925074 -69.620766990288757 0 0 0 0 -57.721687618357528 -5.8681522769715135 0 -5.8681522769715135 -0.26915392831278506 0 0 0 0 26.612695314070152 -3.0749266536751065 0 -3.0749266536751065 53.883554515179675 0 0 0 0 -31.76967754564248 4.6708207498688807 0 4.6708207498688807 -5.558908880111268 0 0 0 0 -39.131989797744609 23.2570899568762 0 23.2570899568762 55.288654653587571 0 0 0 0 -20.879543871673832 11.303903647174105 0 11.303903647174105 70.730262618742756 0 0 0 0 -8.8733689055443392 -13.133525802985901 0 -13.133525802985901 1.1469953493280372 0 0 0 0 -15.794336477272736 -48.600115943967808 0 -48.600115943967808 93.905023428172285 0 0 0 0 -6.2312051719454757 12.787714944443678 0 12.787714944443678 156.69907157250873 0 0 0 0 -25.270367000110127 44.29425920543278 0 44.29425920543278 -15.063142871925265 0 0 0 0 -1.1283047899296577 4.436601053776787 0 4.436601053776787 1.8155948143556364 0 0 0 0 -41.557487563004543 -26.339480713538734 0 -26.339480713538734 124.72736370213568 0 0 0 0 -28.211419110220149 -4.3578162188805365 0 -4.3578162188805365 0.93667844872538542 0 0 0 0 -46.864004616149032 29.765272110575438 0 29.765272110575438 99.573912614693882 0 0 0 0 -60.708685291157963 -26.983482783509601 0 -26.983482783509601 107.31744555836531 0 0 0 0 -4.3865670352242887 -39.342584278471804 0 -39.342584278471804 51.666421658068998 0 0 0 0 -4.837848557352828 -1.9838265306204121 0 -1.9838265306204121 1.3548078938981152 0 0 0 0 -37.028055841772584 26.681984121085407 0 26.681984121085407 36.443871692768425 0 0 0 0 -42.648466644757718 5.590172425111632 0 5.590172425111632 58.569389530463127 0 0 0 0 -37.565729539332096 25.10588295225466 0 25.10588295225466 6.5054883858142603 0 0 0 0 -55.279736859876721 17.156785947159733 0 17.156785947159733 33.060717612887402 0 0 0 0 -38.814985853903636 20.581431638157937 0 20.581431638157937 24.275257080698339 0 0 0 0 -22.519077401331742 29.052564177709428 0 29.052564177709428 2.9452534216247841 0 0 0 0 -48.740717125678202 22.502751350669996 0 22.502751350669996 6.2783428640102272 0 0 0 0 -37.901379277099295 15.514603253514679 0 15.514603253514679 23.234408994730984 0 0 0 0 -28.010537705371632 9.1511617779023453 0 9.1511617779023453 3.91396688587432 0 0 0 0 -31.387725860309729 4.6086931107472537 0 4.6086931107472537 12.72494384429001 0 0 0 0 -48.58165385884422 27.846153164994519 0 27.846153164994519 28.374078455645872 0 0 0 0 -25.166190998570528 40.10514152388123 0 40.10514152388123 9.3338314194456871 0 0 0 0 -26.060473475007427 16.158385973826149 0 16.158385973826149 1.0923291244663078 0 0 0 0 47.010396368739748 38.959623006396214 0 38.959623006396214 8.0146509200283731 0 0 0 0 128.08778648955558 6.5283631103924904 0 6.5283631103924904 -2.4565270249404705 0 0 0 0 -30.564529478974237 -1.6610745318121971 0 -1.6610745318121971 32.595908175282375 0 0 0 0 -6.7126432576584065 2.463120469519879 0 2.463120469519879 2.4289711177997604 0 0 0 0 -46.469736392507912 20.296003102602469 0 20.296003102602469 49.105307504124539 0 0 0 0 134.37198433023877 72.55004737982344 0 72.55004737982344 -110.71520091241121 0 0 0 0 0.16644199525308068 0.70590805465934103 0 0.70590805465934103 0.50270903370843656 0 0 0 0 17.25533942167749 3.5565916368510102 0 3.5565916368510102 73.490176362923648 0 0 0 0 -26.947206121476484 -46.626097175776493 0 -46.626097175776493 29.74020632205378 0 0 0 0 -20.866673138733859 -46.925209566868112 0 -46.925209566868112 120.10823174294919 0 0 0 0 -8.3121613021030498 -84.200606655366812 0 -84.200606655366812 -28.505897775872938 0 0 0 0 39.07677108311691 -8.0350247982097756 0 -8.0350247982097756 11.147043255323723 0 0 0 0 -129.52173890966515 -63.134384224372241 0 -63.134384224372241 11.490572387567966 0 0 0 0 -129.76231306632144 -75.437680004121447 0 -75.437680004121447 -64.694707733800669 0 0 0 0 -223.38904020151676 -17.427440072821923 0 -17.427440072821923 -44.793142305815195 0 0 0 0 -281.67832762805483 -90.970034834527496 0 -90.970034834527496 -91.386778024046635 0 0 0 0 -232.76627138651384 8.0835715650348448 0 8.0835715650348448 -157.12388067721531 0 0 0 0 -342.70927288281382 -107.04600751228645 0 -107.04600751228645 -94.121221310437136 0 0 0 0 -111.4323247396278 -71.167408469086865 0 -71.167408469086865 -85.83940851112493 0 0 0 0 -140.5718858216278 35.829246522325548 0 35.829246522325548 -49.663974409938362 0 0 0 0 51.062951984504252 -55.069603875026615 0 -55.069603875026615 -20.589485655558519 0 0 0 0 -39.498048512301466 9.9422073064858978 0 9.9422073064858978 -31.190509455631286 0 0 0 0 50.487547288976202 128.97452733158912 0 128.97452733158912 -13.773458235113594 0 0 0 0 -47.902364398563805 55.868259706746585 0 55.868259706746585 65.902753966025898 0 0 0 0 127.08116939068537 66.977741711196046 0 66.977741711196046 -31.271573472614364 0 0 0 0 -49.744628472497425 58.09890956725144 0 58.09890956725144 9.8568869998262016 0 0 0 0 -40.141913362043852 99.909067977232326 0 99.909067977232326 6.6978571752429161 0 0 0 0 7.3604470494246925 66.817203905353324 0 66.817203905353324 15.588518146244041 0 0 0 0 12.092613799351966 80.249873415577667 0 80.249873415577667 6.372227076127956 0 0 0 0 -89.531844006189203 52.617324975252814 0 52.617324975252814 33.663267589633151 0 0 0 0 -99.081692243285943 64.528761335219656 0 64.528761335219656 18.991638568284088 0 0 0 0 -185.25738480491418 51.321699464846915 0 51.321699464846915 20.891496740017374 0 0 0 0 -253.67834821558426 13.787538467534887 0 13.787538467534887 -49.722185372501826 0 0 0 0 -69.346683206396847 89.80485195655865 0 89.80485195655865 -37.577319658173565 0 0 0 0 -151.35166602945537 53.203382336252389 0 53.203382336252389 -12.135890409530361 0 0 0 0 -46.13598618357878 27.967245586349243 0 27.967245586349243 -102.6031535031093 0 0 0 0 -188.6885599565976 -39.369281287784929 0 -39.369281287784929 -133.71859814822892 0 0 0 0 -170.46585842775676 98.178066876159164 0 98.178066876159164 -116.83362422488699 0 0 0 0 -317.37984940283059 -121.75106884594584 0 -121.75106884594584 -331.07947250640336 0 0 0 0 -319.67778592184186 114.05003887865041 0 114.05003887865041 -202.0050714758446 0 0 0 0 -453.12820000138163 -55.066704165802207 0 -55.066704165802207 -25.944840524733081 0 0 0 0 -226.83496941192425 -186.17917716325451 0 -186.17917716325451 -139.14610034160114 0 0 0 0 -189.42798060707719 -55.666292610487517 0 -55.666292610487517 -26.916833403617403 0 0 0 0 -210.12072539245673 -110.86008331204863 0 -110.86008331204863 -34.087172643759459 0 0 0 0 -193.53506717771961 70.47416057423402 0 70.47416057423402 -19.749895307683346 0 0 0 0 -138.85501964806463 -4.5300506921462329 0 -4.5300506921462329 25.726965886142125 0 0 0 0 -255.63868068685952 -27.216612674742464 0 -27.216612674742464 21.334616360015389 0 0 0 0 -165.52941983287383 -28.493388829799073 0 -28.493388829799073 38.314026533068954 0 0 0 0 -122.06036132385634 -71.650093764910935 0 -71.650093764910935 -5.1429027958665756 0 0 0 0 -172.53774836582306 19.261522981743951 0 19.261522981743951 45.592967338106064 0 0 0 0 -61.174786993688031 -52.529654730734137 0 -52.529654730734137 -0.5482749283709154 0 0 0 0 -71.234136380124255 -67.832463645825669 0 -67.832463645825669 -18.858420916792511 0 0 0 0 -108.299981294811 -53.403620256367731 0 -53.403620256367731 17.700892402169288 0 0 0 0 -105.4966164741636 -62.729418321251387 0 -62.729418321251387 -12.893768347032164 0 0 0 0 -106.01722603181406 -79.99882266397185 0 -79.99882266397185 -22.723570660721407 0 0 0 0 -39.154133879325855 -65.140403859575528 0 -65.140403859575528 -68.375664379200771 0 0 0 0 -61.37818480579881 -87.66901634895089 0 -87.66901634895089 -105.06168845907632 0 0 0 0 -66.755282404599711 -65.749074056341442 0 -65.749074056341442 -61.098612466252462 0 0 0 0 -9.2872115370482788 -44.60287825507703 0 -44.60287825507703 -104.41374759234941 0 0 0 0 -3.759016585383506 -0.58845934452131132 0 -0.58845934452131132 0.11501391812890915 0 0 0 0 -3.4950104376495972 -1.1075528130216679 0 -1.1075528130216679 -0.75723812999136164 0 0 0 0 -27.105392497647699 -9.5256746592605168 0 -9.5256746592605168 32.742837882233744 0 0 0 0 -11.626628236284887 31.970352101781714 0 31.970352101781714 -38.309971403980512 0 0 0 0 -402.64432915284851 95.354538381355724 0 95.354538381355724 -26.733517546823123 0 0 0 0 -2.1775136263791808 -1.1241746826463768 0 -1.1241746826463768 -0.46718512813210555 0 0 0 0 -3.5855743222855381 -69.972107959179766 0 -69.972107959179766 -177.46981395568605 0 0 0 0 -73.829621743650932 -29.133822152921141 0 -29.133822152921141 27.108313475231967 0 0 0 0 -545.50637844714856 -185.88052624051113 0 -185.88052624051113 -9.9063698823574668 0 0 0 0 -542.11707389773073 -110.5488953280701 0 -110.5488953280701 -94.570212589332186 0 0 0 0 -402.89762755598349 -28.430861866175064 0 -28.430861866175064 -62.307843238912028 0 0 0 0 -309.83553910649789 -24.945185004261248 0 -24.945185004261248 -62.967436237897346 0 0 0 0 0.27301525669111015 -0.1138325654589103 0 -0.1138325654589103 -0.55034960825256229 0 0 0 0 -316.54432365202047 50.343512684027587 0 50.343512684027587 -16.381792503574047 0 0 0 0 -1.1940209616603674 -1.1218981755643256 0 -1.1218981755643256 0.31955945167344446 0 0 0 0 -461.07852055304829 8.5014497933666888 0 8.5014497933666888 26.36031542584638 0 0 0 0 -38.917803400679986 34.300338511422652 0 34.300338511422652 -23.052868906926015 0 0 0 0 -28.885967579728458 11.256180583071657 0 11.256180583071657 -9.683316634864525 0 0 0 0 -15.372472828370519 9.8371408262738669 0 9.8371408262738669 -10.68918752003561 0 0 0 0 -2.3013138391226988 -1.0271878531483338 0 -1.0271878531483338 -0.24756898939729455 0 0 0 0 -4.1125888789484577 0.81701785104834457 0 0.81701785104834457 -0.039793466956610235 0 0 0 0 -48.314951849893987 131.62691767335789 0 131.62691767335789 -85.474631617958806 0 0 0 0 -349.54466856660292 194.13891701811426 0 194.13891701811426 222.03213646529542 0 0 0 0 -13.798312075421563 68.137772295813932 0 68.137772295813932 18.874381724728437 0 0 0 0 -0.61552136119644274 21.704801531092031 0 21.704801531092031 25.230390649277979 0 0 0 0 -13.859758328970202 23.909658056938952 0 23.909658056938952 75.899199275811952 0 0 0 0 -53.453687679408176 -22.295658500962872 0 -22.295658500962872 39.807678263513708 0 0 0 0 -48.80999460775638 -97.717558450756997 0 -97.717558450756997 -77.17595881405407 0 0 0 0 -55.010854426320293 -15.327917951071413 0 -15.327917951071413 30.105118655916158 0 0 0 0 -49.119909726741753 6.7595491103215011 0 6.7595491103215011 60.763616584229567 0 0 0 0 -63.909223732560349 -32.796730051439795 0 -32.796730051439795 29.349894826350919 0 0 0 0 -80.396055177578091 -26.028117832037765 0 -26.028117832037765 52.968602208604352 0 0 0 0 -81.756642597880273 -47.625594426610405 0 -47.625594426610405 18.031587419196597 0 0 0 0 -62.142597045116418 -52.8055198883294 0 -52.8055198883294 -0.53173838209255564 0 0 0 0 -81.903708461562928 -45.330845025387589 0 -45.330845025387589 27.33570741397898 0 0 0 0 -117.9003777229409 7.4055626734304951 0 7.4055626734304951 60.535618390694708 0 0 0 0 -87.731737154244911 29.112722213011239 0 29.112722213011239 44.862294243442506 0 0 0 0 -108.1440577989415 -29.751238321781784 0 -29.751238321781784 46.701788121448317 0 0 0 0 -95.495842979740701 -20.429846188598049 0 -20.429846188598049 36.31388356402698 0 0 0 0 -66.559800131515658 -13.615401117243437 0 -13.615401117243437 49.811479226417703 0 0 0 0 -58.452827139230067 12.020651615477391 0 12.020651615477391 56.993425131553522 0 0 0 0 -38.49833081846009 -0.9138244423688775 0 -0.9138244423688775 70.897353472882287 0 0 0 0 -67.574100243025896 6.5077882181404902 0 6.5077882181404902 99.896675291499832 0 0 0 0 -43.301405873741075 4.0140067121094765 0 4.0140067121094765 0.25406603474262757 0 0 0 0 -27.532889837180846 40.529787291357422 0 40.529787291357422 73.922373947315009 0 0 0 0 -83.486343518241483 -0.95667478896552893 0 -0.95667478896552893 72.915462778715209 0 0 0 0 -35.168828197572537 3.8506089044365908 0 3.8506089044365908 1.4042056043027724 0 0 0 0 -48.299264975157712 44.77514888894234 0 44.77514888894234 99.024905839968596 0 0 0 0 -44.048422498468426 12.434074640565996 0 12.434074640565996 -41.800565826119055 0 0 0 0 92.630749546427978 49.035451688782359 0 49.035451688782359 -281.91447041460106 0 0 0 0 -7.916962791920966 -1.7540783787374608 0 -1.7540783787374608 3.0609276020473226 0 0 0 0 -16.372382396031753 31.402752231641216 0 31.402752231641216 75.902387202037289 0 0 0 0 -49.728970875814412 42.617810840130005 0 42.617810840130005 57.352836776631648 0 0 0 0 -75.032917307908065 26.644606159617979 0 26.644606159617979 74.428069916616991 0 0 0 0 -11.969084792086505 61.087454559085472 0 61.087454559085472 43.587999028370632 0 0 0 0 -53.959901703063224 46.16500991975397 0 46.16500991975397 70.59284118517462 0 0 0 0 -57.243032261510962 69.188504265894608 0 69.188504265894608 34.512219497335138 0 0 0 0 -46.402544717479032 57.636627421220282 0 57.636627421220282 44.17494551471691 0 0 0 0 -97.034682742654695 36.130090818786812 0 36.130090818786812 58.892079571822705 0 0 0 0 45.966802890212421 64.417526270946837 0 64.417526270946837 10.076133937641998 0 0 0 0 -17.841312294031013 67.774701240346815 0 67.774701240346815 49.739074607558905 0 0 0 0 11.710262504762795 53.743887596101786 0 53.743887596101786 42.202194853374294 0 0 0 0 -22.469589497661218 82.845002767673122 0 82.845002767673122 20.810029314266217 0 0 0 0 18.70268676213891 28.77293182262315 0 28.77293182262315 -7.4344758486627143 0 0 0 0 -6.6462634816125501 -54.623464240712565 0 -54.623464240712565 -103.50561987646847 0 0 0 0 -2.7395319447522013 3.286405451150423 0 3.286405451150423 -0.53035974910156503 0 0 0 0 3.8795226231331981 63.37491441019273 0 63.37491441019273 50.384707248259247 0 0 0 0 -15.966965625453994 5.3822019616060466 0 5.3822019616060466 -1.6836943197814387 0 0 0 0 -75.738151424287935 58.673898995275522 0 58.673898995275522 93.823301067656757 0 0 0 0 -21.755494898660771 7.0863118347260894 0 7.0863118347260894 1.254269460009561 0 0 0 0 -5.7404361765220528 102.72152414467928 0 102.72152414467928 -7.5042337769513097 0 0 0 0 -15.428589225513861 40.395880114230749 0 40.395880114230749 66.359125337918158 0 0 0 0 -20.192139515944291 34.354589354455584 0 34.354589354455584 71.15947427677861 0 0 0 0 -18.357197589226416 34.631585517403096 0 34.631585517403096 77.021083984613199 0 0 0 0 -17.661573715944542 29.078899895011148 0 29.078899895011148 63.539619009365651 0 0 0 0 -18.802072342499741 26.259998332050372 0 26.259998332050372 50.675511365975353 0 0 0 0 -19.154171940157539 21.354633065745702 0 21.354633065745702 67.055257216564598 0 0 0 0 -8.5854595051350771 16.477527446007912 0 16.477527446007912 48.157698801385209 0 0 0 0 -10.394262153917225 27.185840358400355 0 27.185840358400355 60.056359206835509 0 0 0 0 -16.552944779465179 27.129871735625557 0 27.129871735625557 64.236779164743666 0 0 0 0 -2.9148623160217539 15.560760845745392 0 15.560760845745392 75.732012313135783 0 0 0 0 -11.679300085292198 21.897325540564566 0 21.897325540564566 79.812143763510903 0 0 0 0 -18.580267021010513 27.490475650369262 0 27.490475650369262 75.716068392805028 0 0 0 0 -5.8210997251444496 20.521365981601548 0 20.521365981601548 68.144795044318698 0 0 0 0 -54.609966906546106 -20.056949183614734 0 -20.056949183614734 35.912464303060688 0 0 0 0 -12.185996415792033 46.795944673525014 0 46.795944673525014 79.247725055553417 0 0 0 0 -5.1316938944219146 -148.26764177796895 0 -148.26764177796895 -71.856081997358274 0 0 0 0 -11.056881871698465 3.4353541802403846 0 3.4353541802403846 -0.79988429013419959 0 0 0 0 17.998657897653175 38.917851450786088 0 38.917851450786088 54.730208949250709 0 0 0 0 3.8489254260639427 38.791437664498631 0 38.791437664498631 56.235161932053416 0 0 0 0 18.365363958771923 22.294042197960607 0 22.294042197960607 58.962962362796134 0 0 0 0 -16.13639065629468 21.079050751090932 0 21.079050751090932 46.570767325922702 0 0 0 0 -6.9594849076966057 28.159212581716488 0 28.159212581716488 23.885131614953366 0 0 0 0 -18.735751073916617 16.150442012548581 0 16.150442012548581 34.954628664613267 0 0 0 0 -5.4839410947861325 21.394626014249127 0 21.394626014249127 16.408996926443137 0 0 0 0 -16.387892721351818 9.3727038286898505 0 9.3727038286898505 17.296291384773099 0 0 0 0 -19.363151422199735 16.736672015593712 0 16.736672015593712 48.889465144426822 0 0 0 0 -12.954745794228074 25.350859392289664 0 25.350859392289664 38.527675267595782 0 0 0 0 -21.855363678027061 26.594318124868551 0 26.594318124868551 13.349505216413149 0 0 0 0 -20.43350348455715 24.470117217305642 0 24.470117217305642 32.410820309963469 0 0 0 0 -24.093224940486834 19.648484977497674 0 19.648484977497674 44.307438816782678 0 0 0 0 -16.195265262209432 18.023969034553744 0 18.023969034553744 4.1185883580566838 0 0 0 0 -25.994565122462518 13.491036720343175 0 13.491036720343175 19.673590558932659 0 0 0 0 -19.634344407822937 9.3321071325864011 0 9.3321071325864011 -9.3820039384600591 0 0 0 0 -27.8084459718375 31.920002276109358 0 31.920002276109358 13.427648340638484 0 0 0 0 -26.539412633508704 -5.413336381900324 0 -5.413336381900324 77.921783815925323 0 0 0 0 -40.459452393713946 25.472847949004333 0 25.472847949004333 71.799224012198238 0 0 0 0 -26.763183145332732 14.192071307435299 0 14.192071307435299 53.001798207893671 0 0 0 0 -25.948931937644375 17.39446479527669 0 17.39446479527669 58.613719000327592 0 0 0 0 -25.45305385462234 21.094406527629459 0 21.094406527629459 57.397724494736394 0 0 0 0 -29.009225705565768 18.700634293818212 0 18.700634293818212 59.214832524310339 0 0 0 0 -29.308715082210256 25.963903134779912 0 25.963903134779912 51.656402283769012 0 0 0 0 -30.605319227968721 22.453143992501253 0 22.453143992501253 57.967268383767987 0 0 0 0 -21.727371897839475 24.889712198043412 0 24.889712198043412 43.241835087996861 0 0 0 0 -21.754762413849676 21.042911419500285 0 21.042911419500285 57.009182309092921 0 0 0 0 -17.604125368583482 30.207095937908434 0 30.207095937908434 59.387461415617224 0 0 0 0 -22.813160661971779 21.078252326973484 0 21.078252326973484 54.437589571390845 0 0 0 0 -17.671531367028365 30.968049820642591 0 30.968049820642591 58.246280276360721 0 0 0 0 13.591731308333692 3.3034913278131626 0 3.3034913278131626 -72.218017943909672 0 0 0 0 -86.592689586381312 -209.71707365461043 0 -209.71707365461043 132.32170434537443 0 0 0 0 -10.575147768322495 38.82355334412 0 38.82355334412 61.908663023584495 0 0 0 0 -0.99293075828313704 -0.23316912306881399 0 -0.23316912306881399 0.073960313757540419 0 0 0 0 127.4709758538138 122.23584715223376 0 122.23584715223376 -133.03633669083183 0 0 0 0 -8.8100742091046413 29.071660214618191 0 29.071660214618191 52.302751224368052 0 0 0 0 -17.048116012723767 21.222020924946037 0 21.222020924946037 44.831714845431407 0 0 0 0 -12.103588276269875 53.349230620033381 0 53.349230620033381 -18.374655299122423 0 0 0 0 -17.934415787858597 55.526083167593015 0 55.526083167593015 32.651800789697973 0 0 0 0 2.1768378615361144 -14.367916107897258 0 -14.367916107897258 -13.719837152677428 0 0 0 0 -16.235013448926878 9.9711453669534933 0 9.9711453669534933 1.2014316701973051 0 0 0 0 -19.251774301752448 27.135048106461682 0 27.135048106461682 -7.9079922500256998 0 0 0 0 -79.408271359412538 -111.93103221599029 0 -111.93103221599029 63.283743128287824 0 0 0 0 1.0531457083937141 10.385101395771045 0 10.385101395771045 -1.5518515438211926 0 0 0 0 -19.06400064715308 45.428519653892998 0 45.428519653892998 -40.611184084056731 0 0 0 0 1.5980450618902466 1.6133227353130302 0 1.6133227353130302 -1.9616192822636984 0 0 0 0 -11.014088246913161 -0.47984182000561759 0 -0.47984182000561759 36.861349940625928 0 0 0 0 -187.99835887752124 84.039274311941881 0 84.039274311941881 20.815323057544447 0 0 0 0 -15.631520726860543 7.898766291570201 0 7.898766291570201 -1.8047247756185514 0 0 0 0 2.9610474060355045 -18.330044963248042 0 -18.330044963248042 58.641563042876044 0 0 0 0 -12.558698142522189 26.772646141823088 0 26.772646141823088 -12.786519928229609 0 0 0 0 -28.657970421736536 73.021865695951078 0 73.021865695951078 21.82720135195666 0 0 0 0 -0.84492053895617403 1.9219463273769151 0 1.9219463273769151 -0.1248069844514248 0 0 0 0 -65.827029025356751 25.193886979354829 0 25.193886979354829 -2.9108930681341008 0 0 0 0 -29.409919092606287 32.494663394951544 0 32.494663394951544 -32.857533454382974 0 0 0 0 -44.347614873156999 19.576544439693862 0 19.576544439693862 -14.611947413417056 0 0 0 0 -36.14886820501124 27.14455264344042 0 27.14455264344042 -11.191992832728829 0 0 0 0 -50.593771664098313 28.774718482533444 0 28.774718482533444 -3.1404148442925361 0 0 0 0 -41.939696670553531 36.571971582726292 0 36.571971582726292 0.5319573119627421 0 0 0 0 -38.816735397944285 24.970075105711317 0 24.970075105711317 -9.2956898873080718 0 0 0 0 -71.278948619721632 21.102969892601209 0 21.102969892601209 -9.4695752990594428 0 0 0 0 -95.658733869930074 2.9369213515593913 0 2.9369213515593913 -13.266495432538704 0 0 0 0 -34.276965508171997 42.285348121968127 0 42.285348121968127 -12.384422789321889 0 0 0 0 -84.877827830961905 39.516552893347466 0 39.516552893347466 1.859331122379217 0 0 0 0 -141.64799009179751 -38.375141993253337 0 -38.375141993253337 -19.987330800585596 0 0 0 0 -130.55222370986303 6.9795169084609938 0 6.9795169084609938 92.865155956983699 0 0 0 0 -13.645988882246456 30.182332894900654 0 30.182332894900654 -11.295035766191575 0 0 0 0 -63.489965468615992 -74.794932684569659 0 -74.794932684569659 -19.200690890777679 0 0 0 0 -147.20169086155875 -33.472251581232975 0 -33.472251581232975 -11.561170654855147 0 0 0 0 -191.52414427642361 -93.415001946578741 0 -93.415001946578741 -41.184411577601566 0 0 0 0 -113.46061343297333 1.9891820898361701 0 1.9891820898361701 -20.790908335201948 0 0 0 0 -70.816793532270822 -25.901232011901527 0 -25.901232011901527 -29.257492430510801 0 0 0 0 -245.51574659322068 -38.125036795345942 0 -38.125036795345942 -25.031518221592908 0 0 0 0 -107.40097377387792 37.418455762696667 0 37.418455762696667 -43.107081192041761 0 0 0 0 -235.20971472765632 -94.428221149674485 0 -94.428221149674485 -43.020296218679874 0 0 0 0 -269.2652848937978 -55.00595560298963 0 -55.00595560298963 -89.227005838702098 0 0 0 0 -483.57472826102457 -35.536581322383 0 -35.536581322383 -0.26739214963565816 0 0 0 0 -225.74162843322665 -131.16026797538754 0 -131.16026797538754 -22.58136876637283 0 0 0 0 -0.81413166845470641 0.035847926612831316 0 0.035847926612831316 0.00091570196335473419 0 0 0 0 -1.6283484275409137 23.144958714473695 0 23.144958714473695 -53.717876911020689 0 0 0 0 -39.212564038811252 -36.013289754121018 0 -36.013289754121018 -18.499352325608101 0 0 0 0 -26.574673822324257 -9.5253081009130796 0 -9.5253081009130796 -4.6070592739917373 0 0 0 0 -23.696875945231113 -24.626058744748725 0 -24.626058744748725 -40.56427575177392 0 0 0 0 -1.2701054903976399 0.19108942694874997 0 0.19108942694874997 0.032599356286701742 0 0 0 0 -55.651753976268083 20.45694933623632 0 20.45694933623632 -0.060637180056855131 0 0 0 0 -20.445191393322602 -6.3643759026772928 0 -6.3643759026772928 11.734664354041378 0 0 0 0 -0.60309966470686049 -0.0036612991085718249 0 -0.0036612991085718249 0.031472688573289026 0 0 0 0 5.4943061222111282 12.316944196884203 0 12.316944196884203 0.024098269338062646 0 0 0 0 -20.703943194794192 -28.214488276465715 0 -28.214488276465715 -29.812755478458627 0 0 0 0 -23.782416061352706 -24.258037481164706 0 -24.258037481164706 -26.962614434071185 0 0 0 0 -49.9718270056037 -32.936138517514728 0 -32.936138517514728 -25.694132524188419 0 0 0 0 -27.200840269328182 -13.945063441212525 0 -13.945063441212525 -26.697273010126992 0 0 0 0 -36.708159382469603 -18.867352872500163 0 -18.867352872500163 -28.480422170439269 0 0 0 0 -28.896767730602733 -24.266648425990141 0 -24.266648425990141 -50.840602689771856 0 0 0 0 -22.020943387178704 -14.953853457043266 0 -14.953853457043266 -38.891101612364544 0 0 0 0 -27.39106165785779 14.445180394301318 0 14.445180394301318 -52.92883281656205 0 0 0 0 -28.438679649414553 5.8806449993459609 0 5.8806449993459609 -5.3251797894704964 0 0 0 0 -16.441834359906352 4.6582958809651132 0 4.6582958809651132 -31.653981529705618 0 0 0 0 -26.13806430940167 1.5030524657692865 0 1.5030524657692865 -1.4628432104389546 0 0 0 0 -17.904404157023237 14.556462483399415 0 14.556462483399415 -6.4732987587071307 0 0 0 0 -23.999046033695777 12.529048513871075 0 12.529048513871075 14.10816774383909 0 0 0 0 -23.263978101742396 20.789796080310879 0 20.789796080310879 21.702058088038036 0 0 0 0 -13.785368621414818 17.618597617627671 0 17.618597617627671 -6.9827578622206943 0 0 0 0 -29.704508524526318 22.23558470346542 0 22.23558470346542 -8.1580787407578512 0 0 0 0 -35.20068401710887 17.172256227928429 0 17.172256227928429 -12.814704065576848 0 0 0 0 -32.763238003693004 2.1662004712248084 0 2.1662004712248084 -14.596037882884559 0 0 0 0 -31.799298065576295 2.1547444320135583 0 2.1547444320135583 -15.509901534529003 0 0 0 0 -47.700237222936266 9.2634525906573266 0 9.2634525906573266 -8.1805133698891126 0 0 0 0 -63.444313705025706 -3.3117671029037865 0 -3.3117671029037865 -15.654218959176241 0 0 0 0 -136.72548185435335 5.0463683330599292 0 5.0463683330599292 -1.7402149405333063 0 0 0 0 -77.06049710692605 -63.886696132629439 0 -63.886696132629439 -49.513031715022144 0 0 0 0 -68.044871170812257 44.007584216437479 0 44.007584216437479 -0.19949680808571596 0 0 0 0 -60.587659974811686 21.068428851478707 0 21.068428851478707 -13.385797292008931 0 0 0 0 -53.09766720783955 31.964641813974396 0 31.964641813974396 -15.843351324762978 0 0 0 0 -48.857757389585458 33.722595331507719 0 33.722595331507719 -18.747110218115466 0 0 0 0 -56.550844315344875 -14.848512702492103 0 -14.848512702492103 -13.25663910806967 0 0 0 0 -29.15894454868976 31.800264325780628 0 31.800264325780628 -21.285798722312141 0 0 0 0 -0.00057551329791749595 0.16522396265581563 0 0.16522396265581563 0.22350429623472495 0 0 0 0 -32.535410508511632 49.723712628772198 0 49.723712628772198 -12.624200514236264 0 0 0 0 1.7538046887784731 -3.1783643971987954 0 -3.1783643971987954 1.3444030140546979 0 0 0 0 8.5479222731592017 -5.8621407762177498 0 -5.8621407762177498 -2.5688655770404178 0 0 0 0 -0.22555523805998234 -0.098815546406591181 0 -0.098815546406591181 0.0050083431685802038 0 0 0 0 -43.354115016118158 4.8837257424047307 0 4.8837257424047307 0.03757431492503327 0 0 0 0 8.427794796982198 2.6757974428907279 0 2.6757974428907279 -5.3758695024501719 0 0 0 0 -23.352554807643173 -5.990479154145774 0 -5.990479154145774 -16.182581389289979 0 0 0 0 -46.912207247318293 39.290693537236038 0 39.290693537236038 -13.638115310704194 0 0 0 0 -0.10791211233597409 0.32467163579381975 0 0.32467163579381975 1.0805299581722068 0 0 0 0 -27.912087744774908 27.869605787373217 0 27.869605787373217 -8.8104556984180533 0 0 0 0 -61.046601469315647 42.544687254603609 0 42.544687254603609 -8.5488149991853675 0 0 0 0 -37.829778344386796 37.971199351878354 0 37.971199351878354 -13.955720487437361 0 0 0 0 -48.26526405106415 33.541583693113978 0 33.541583693113978 -1.1919776526000021 0 0 0 0 -12.693458419355011 44.141503645800015 0 44.141503645800015 -3.1876046126456572 0 0 0 0 0.89698954106483342 0.63041637777698156 0 0.63041637777698156 1.6643616994576891 0 0 0 0 -75.766025266013457 -22.011556002796837 0 -22.011556002796837 154.45248858482063 0 0 0 0 -91.529679186109206 46.849933965070747 0 46.849933965070747 20.88461102400629 0 0 0 0 -18.975597209548141 2.9810873459313143 0 2.9810873459313143 15.062590919936838 0 0 0 0 -21.697131317734602 -6.7977835914996376 0 -6.7977835914996376 7.247701756104675 0 0 0 0 -6.7253021608831034 2.1895598672345997 0 2.1895598672345997 5.0908386087511142 0 0 0 0 -36.63112384779015 -4.7665050091051739 0 -4.7665050091051739 -4.5805620766739139 0 0 0 0 -12.170970555438544 4.0485975450139904 0 4.0485975450139904 12.509193833448194 0 0 0 0 -12.574753366257937 3.1853918038193569 0 3.1853918038193569 10.672453942988113 0 0 0 0 -14.243823434218939 11.676544077676908 0 11.676544077676908 23.504801540884955 0 0 0 0 -14.566830379437306 10.028197850953575 0 10.028197850953575 38.668859077533284 0 0 0 0 -5.3371489818018745 22.782774549101759 0 22.782774549101759 34.006641231068329 0 0 0 0 -10.877188143334934 1.5602384300250378 0 1.5602384300250378 14.401423384247664 0 0 0 0 -6.2617049749469516 -2.3881663243482905 0 -2.3881663243482905 23.880824462837609 0 0 0 0 -16.374505426982068 -0.17152784876270744 0 -0.17152784876270744 23.564832452780365 0 0 0 0 -10.111618480979814 -5.0334731516333022 0 -5.0334731516333022 -1.4435663720564662 0 0 0 0 -8.4968367776673404 -0.56512434844967174 0 -0.56512434844967174 -6.2956671388797076 0 0 0 0 -24.718990389399551 -8.5570281615897557 0 -8.5570281615897557 -0.30962201067882233 0 0 0 0 -10.880031345452153 3.1003817442957597 0 3.1003817442957597 -11.931355271877692 0 0 0 0 -7.4326780007322668 -15.588661573845684 0 -15.588661573845684 -8.9347239787705348 0 0 0 0 0.25549775150034293 0.0093595621542874596 0 0.0093595621542874596 -0.77992360165515606 0 0 0 0 -6.2831500671760807 -0.32944483472616071 0 -0.32944483472616071 0.23514149184557454 0 0 0 0 -22.681139447136957 -6.1250438835019736 0 -6.1250438835019736 -4.9421188942110348 0 0 0 0 -10.21823209613369 3.2946064179395975 0 3.2946064179395975 0.69833592695321567 0 0 0 0 -160.41027077410763 -44.045360664154941 0 -44.045360664154941 11.317391776055842 0 0 0 0 -7.8239403109345176 3.7491249064023862 0 3.7491249064023862 3.4097542167287109 0 0 0 0 -22.027383407214074 6.5081065289806475 0 6.5081065289806475 -7.3248478769835401 0 0 0 0 -175.7040126297361 -62.815439162562029 0 -62.815439162562029 4.9217517664372963 0 0 0 0 -148.2656210209243 -34.403997941357773 0 -34.403997941357773 -93.720382469087781 0 0 0 0 -271.35977379573887 -107.31348260408498 0 -107.31348260408498 7.8324342679561596 0 0 0 0 -209.14587712301727 -156.54155142366585 0 -156.54155142366585 -24.015292001282958 0 0 0 0 -173.14733300500302 -114.39669364102582 0 -114.39669364102582 2.5749916392051091 0 0 0 0 -230.84490745913354 -132.35580449384781 0 -132.35580449384781 -3.0109172423171344 0 0 0 0 -150.07250451393338 -102.31080456213977 0 -102.31080456213977 3.7352086975013776 0 0 0 0 -208.67946707977899 -129.37669431251086 0 -129.37669431251086 -1.846244643351838 0 0 0 0 -70.521549266450165 21.746571778583075 0 21.746571778583075 -11.745609498434987 0 0 0 0 -105.04446644796553 11.583025450299147 0 11.583025450299147 7.7680493813841167 0 0 0 0 -161.49816260887746 -111.52672156229221 0 -111.52672156229221 -48.076531311426493 0 0 0 0 -84.012575725988427 -44.963301590134222 0 -44.963301590134222 -17.305855821114619 0 0 0 0 -236.72441008718306 -57.447914337348834 0 -57.447914337348834 0.61775926446026119 0 0 0 0 -158.54936633531452 -37.265740610365071 0 -37.265740610365071 -35.262597100905509 0 0 0 0 -170.4251635420369 6.5858873082420928 0 6.5858873082420928 27.715522660416809 0 0 0 0 -245.74095775160094 -76.167167375100519 0 -76.167167375100519 -15.476615085870776 0 0 0 0 -297.91795371948683 -218.906950082961 0 -218.906950082961 -163.19992610721016 0 0 0 0 -290.6408260659955 7.0626894151854458 0 7.0626894151854458 -166.33490635612799 0 0 0 0 -190.34938540618168 -121.58244387344953 0 -121.58244387344953 -98.959715544555095 0 0 0 0 -194.17031818152464 -9.1062286914262245 0 -9.1062286914262245 -29.313774650460687 0 0 0 0 -91.342743589564634 -118.45660120273556 0 -118.45660120273556 -86.619594391916905 0 0 0 0 -389.52238940526149 -176.69399368021124 0 -176.69399368021124 -11.165853853537456 0 0 0 0 -209.33843243870797 -136.69020616074289 0 -136.69020616074289 -8.5572776442109557 0 0 0 0 -80.405048759435886 -149.53498454709657 0 -149.53498454709657 -217.19830486736998 0 0 0 0 -3.0415611521717807 -1.0806748263042465 0 -1.0806748263042465 0.10188211493577543 0 0 0 0 -6.6529948513202015 0.12321357335970617 0 0.12321357335970617 7.7173263150548914 0 0 0 0 -39.071583636530704 -12.10007157153413 0 -12.10007157153413 -24.085069667346204 0 0 0 0 -9.3655427832927671 5.7474502535523655 0 5.7474502535523655 2.7551665439757258 0 0 0 0 -6.2813640294665731 2.282615882057307 0 2.282615882057307 5.2928816889290893 0 0 0 0 -170.19221648070379 62.06269081537878 0 62.06269081537878 -11.862225515929687 0 0 0 0 -346.40661942004954 25.975470878293009 0 25.975470878293009 7.4222666382344471 0 0 0 0 -5.3193375242945535 2.6329334705331817 0 2.6329334705331817 0.39339897335869756 0 0 0 0 -6.1272755156824132 1.8893401074662708 0 1.8893401074662708 1.2841767501096568 0 0 0 0 -9.4200152032353799 5.3870094719648982 0 5.3870094719648982 1.3355024175084012 0 0 0 0 -295.21370314576779 -150.52708842664214 0 -150.52708842664214 -33.415098341688257 0 0 0 0 -241.92372194465133 -124.87650857990147 0 -124.87650857990147 -25.676599743387271 0 0 0 0 -186.30855530801182 -114.29437043744608 0 -114.29437043744608 -22.973496787665937 0 0 0 0 -426.00428591098171 -149.40360692272813 0 -149.40360692272813 -6.3748953169694005 0 0 0 0 -301.38197633994423 -139.57819886771421 0 -139.57819886771421 -30.857153817850431 0 0 0 0 -278.41270772199641 -163.10742396147589 0 -163.10742396147589 -27.712922549373161 0 0 0 0 -248.07841924891909 -76.404082161713603 0 -76.404082161713603 -22.337671716760845 0 0 0 0 -317.38974224316007 -184.04626084163201 0 -184.04626084163201 -126.42641541596652 0 0 0 0 -392.37531725854933 -63.634459811557655 0 -63.634459811557655 -37.896949778381483 0 0 0 0 -3.3127515134099639 1.7110569657534853 0 1.7110569657534853 0.17582609647974101 0 0 0 0 -0.29539138241307228 2.9979345390568026 0 2.9979345390568026 0.0013984241021356677 0 0 0 0 -539.4457174719646 -285.80014908482343 0 -285.80014908482343 -101.45804667847555 0 0 0 0 -1.7509403945859532 0.35754626613638152 0 0.35754626613638152 0.25204906270960664 0 0 0 0 -6.7535457120629871 3.8759069354050291 0 3.8759069354050291 -4.4260299553497067 0 0 0 0 -12.62703087135742 1.8803713158127078 0 1.8803713158127078 0.57309689556290877 0 0 0 0 -2.894927760506107 4.2545986437711818 0 4.2545986437711818 0.56698850218080032 0 0 0 0 -3.0995508566556964 1.1146164856617324 0 1.1146164856617324 0.42793183877521385 0 0 0 0 -6.2543805083005282 3.3105630593238753 0 3.3105630593238753 -0.00028096968737166116 0 0 0 0 -7.7761147104465635 2.5632436423530502 0 2.5632436423530502 0.66280353792665103 0 0 0 0 -8.691834399876825 3.7197919326180378 0 3.7197919326180378 0.0061526517348860117 0 0 0 0 -4.5394343061707332 4.7142235024781396 0 4.7142235024781396 -0.5680005074126635 0 0 0 0 -4.2104700141007925 2.1172684086991675 0 2.1172684086991675 1.8116265693409233 0 0 0 0 -3.1160757738707616 6.4474941379445232 0 6.4474941379445232 -0.91380459803680836 0 0 0 0 -11.801329527406779 7.1597587626959198 0 7.1597587626959198 -0.53491483745869139 0 0 0 0 -9.9709227717248723 7.6989391629862531 0 7.6989391629862531 -0.084588970443647327 0 0 0 0 -3.4582416431294405 4.4368724686975032 0 4.4368724686975032 -6.2455537848217579 0 0 0 0 -12.854912267248437 -2.0561277367255819 0 -2.0561277367255819 4.5119507193890485 0 0 0 0 -5.4059414299235442 2.1007599682464146 0 2.1007599682464146 2.8283258587884355 0 0 0 0 -1.1743211707763379 -0.32103496755489402 0 -0.32103496755489402 1.1611640248540729 0 0 0 0 -3.8057242081267759 5.9376604418659866 0 5.9376604418659866 -4.6867686928729322 0 0 0 0 -5.3972618904639802 5.5214718503797329 0 5.5214718503797329 -3.3202333745854133 0 0 0 0 -0.58430158202200744 0.78170798335526115 0 0.78170798335526115 -0.58451190737223402 0 0 0 0 -4.2094878539646743 7.2896846104830288 0 7.2896846104830288 -4.710060871677535 0 0 0 0 -9.8314041587764223 12.882327304387331 0 12.882327304387331 -4.6190177536163901 0 0 0 0 -8.545347604474955 8.242880002302968 0 8.242880002302968 9.0862678362450424 0 0 0 0 -15.3710219587756 7.3973827460355324 0 7.3973827460355324 9.3536638696859882 0 0 0 0 -0.89473795397162803 2.3430484684118635 0 2.3430484684118635 -1.550083280598709 0 0 0 0 -7.1724283225776162 1.3765694439839535 0 1.3765694439839535 10.768753592683808 0 0 0 0 -9.9371926501298731 5.3236538573115695 0 5.3236538573115695 5.4433670015737334 0 0 0 0 6.5019184808174941 21.170027128688222 0 21.170027128688222 -9.8169628882183133 0 0 0 0 2.5475455778019125 2.2238423844253568 0 2.2238423844253568 -1.1277748831425862 0 0 0 0 -8.0762206563875623 5.3373348947925905 0 5.3373348947925905 -3.0565539606421002 0 0 0 0 -3.735878490646428 7.1833141317536047 0 7.1833141317536047 21.605914155283244 0 0 0 0 -2.6564585550004267 3.9229289524483555 0 3.9229289524483555 -2.7965508781861459 0 0 0 0 -5.8853027788281906 6.0004613192729082 0 6.0004613192729082 -2.5148780488558007 0 0 0 0 2.9704582539998228 4.1039728309590195 0 4.1039728309590195 -4.2842255560192299 0 0 0 0 -1.9348320645804051 4.2678062616795316 0 4.2678062616795316 -2.96365761078453 0 0 0 0 2.0383573092440201 11.513742611845295 0 11.513742611845295 3.3023587601318312 0 0 0 0 0.38739770513711846 6.6601872619984093 0 6.6601872619984093 -10.882085927225958 0 0 0 0 0.11067562585017754 -0.038548232355879009 0 -0.038548232355879009 0.026755437006956082 0 0 0 0 -3.0338823938000132 4.920292587768432 0 4.920292587768432 10.534397473509147 0 0 0 0 5.9095900255488232 9.6211078890319079 0 9.6211078890319079 0.0026710364675209541 0 0 0 0 5.9445729542967456 10.397694255384502 0 10.397694255384502 6.1620831204670203 0 0 0 0 6.0820973022891849 12.84887898594166 0 12.84887898594166 0.003978713950505532 0 0 0 0 6.2044513934779388 20.038626369568036 0 20.038626369568036 16.126989109321887 0 0 0 0 4.5573977596432087 15.689761435316836 0 15.689761435316836 5.113704592542387 0 0 0 0 2.2064086194732226 7.9004184218461653 0 7.9004184218461653 14.824317198692652 0 0 0 0 2.0228606498640147 11.433415464272784 0 11.433415464272784 11.346424182167176 0 0 0 0 1.7512750490423059 10.262729662495016 0 10.262729662495016 6.3464200160827229 0 0 0 0 2.9568187452750863 7.5706372843856826 0 7.5706372843856826 6.3163654107093663 0 0 0 0 0.84453518348163925 29.595637268420237 0 29.595637268420237 27.395223967411482 0 0 0 0 8.9570413741457742 23.447785301038238 0 23.447785301038238 0.02466317920590021 0 0 0 0 6.5083848982030759 10.989909242653631 0 10.989909242653631 25.571763231828132 0 0 0 0 -21.929064165084128 4.9833021698097824 0 4.9833021698097824 99.065189667718869 0 0 0 0 -68.358144429672393 58.838902966230471 0 58.838902966230471 -53.945628402460244 0 0 0 0 -0.14211087371586473 12.450143566367144 0 12.450143566367144 35.613766467506878 0 0 0 0 0.80899110173373856 0.60471647673123741 0 0.60471647673123741 0.19129604606824291 0 0 0 0 -11.964692320427275 -0.011798607066069167 0 -0.011798607066069167 -22.007979101721844 0 0 0 0 -14.153365799313178 -2.4613138441647493 0 -2.4613138441647493 -18.520701339186076 0 0 0 0 -2.4029171538422816 3.1093784195424519 0 3.1093784195424519 -34.64675893030261 0 0 0 0 -35.057779406684858 25.642281839742282 0 25.642281839742282 -36.407474022596233 0 0 0 0 2.0068299130915932 0.72455509692115783 0 0.72455509692115783 0.41444131278844926 0 0 0 0 3.3989351342279406 6.5676203474439054 0 6.5676203474439054 7.3758594192400011 0 0 0 0 9.8506218835027539 -1.1598184872833031 0 -1.1598184872833031 -30.182385029608497 0 0 0 0 10.792616568352969 12.334477977625738 0 12.334477977625738 -26.699015256827309 0 0 0 0 2.3962654219831165 0.46201484837409978 0 0.46201484837409978 -6.0723185959999455 0 0 0 0 21.003119493063423 36.430548750102957 0 36.430548750102957 6.2682657080403601 0 0 0 0 -67.728917150911002 20.934175907205145 0 20.934175907205145 66.326694816554124 0 0 0 0 1.5576876360548795 61.194091024466282 0 61.194091024466282 66.59915981533868 0 0 0 0 -7.474521627755351 4.8658650588724086 0 4.8658650588724086 -2.9494309728571766 0 0 0 0 9.523257377732989 2.276020489197677 0 2.276020489197677 17.974551089461784 0 0 0 0 -1.1296176308969734 28.181078631915966 0 28.181078631915966 -30.751804812612392 0 0 0 0 -84.664498852049292 -0.0076868105280709642 0 -0.0076868105280709642 -30.497587823822755 0 0 0 0 -98.217221904887992 41.255433370141986 0 41.255433370141986 -25.337520737374007 0 0 0 0 -47.733144312529475 -3.7911384679721323 0 -3.7911384679721323 -2.0160003022344881 0 0 0 0 9.2631008085954818 34.503955466379466 0 34.503955466379466 -13.425950359114182 0 0 0 0 -8.6555890512172482 64.300228063130476 0 64.300228063130476 36.588690588887005 0 0 0 0 -5.7645817066971716 3.9102355072008024 0 3.9102355072008024 -2.3291292399437462 0 0 0 0 -214.71880074703586 19.761360889887555 0 19.761360889887555 45.755940554395465 0 0 0 0 -118.47726070099452 -9.9631912033645449 0 -9.9631912033645449 44.15767293158126 0 0 0 0 -2.354311602381884 1.5581521696925336 0 1.5581521696925336 -0.94623543115217501 0 0 0 0 26.475508519240975 120.0614945308738 0 120.0614945308738 -91.670998673846043 0 0 0 0 -54.049995585461147 220.5377928045782 0 220.5377928045782 -83.390683871036572 0 0 0 0 -12.831631941971864 -0.84635310449596091 0 -0.84635310449596091 64.269420060369612 0 0 0 0 58.527083393160865 56.530353582879513 0 56.530353582879513 -22.855260118521983 0 0 0 0 -28.335254499106668 -32.770052883846802 0 -32.770052883846802 13.591346202546674 0 0 0 0 -16.403306699758105 17.005339468500893 0 17.005339468500893 29.440108866209812 0 0 0 0 -69.323466237081448 7.4465166129473346 0 7.4465166129473346 8.0946047706675301 0 0 0 0 -29.478393193305237 -30.648879527890699 0 -30.648879527890699 10.433927775277198 0 0 0 0 -15.793420138819783 -12.566720176920626 0 -12.566720176920626 10.036984493996187 0 0 0 0 -49.7657635065043 -24.397922711921865 0 -24.397922711921865 33.924671306486289 0 0 0 0 31.286574307421688 7.4260729429050798 0 7.4260729429050798 -4.7751357770382583 0 0 0 0 22.218251543439692 77.504836645355454 0 77.504836645355454 88.057158262748089 0 0 0 0 -146.19320180498471 64.034488425789505 0 64.034488425789505 -9.0431576722426144 0 0 0 0 -84.803200223846943 140.55674451625646 0 140.55674451625646 58.068131524864839 0 0 0 0 -124.86846795713063 -19.131122204021267 0 -19.131122204021267 -11.048894107415762 0 0 0 0 -0.83051780974591338 -0.075057482889086202 0 -0.075057482889086202 0.57088500581399781 0 0 0 0 50.344213822161691 18.044823392500689 0 18.044823392500689 68.994613964062864 0 0 0 0 -0.88547816593927564 -2.9296653854621582 0 -2.9296653854621582 8.0263501292067758 0 0 0 0 -26.428593987991917 -25.618308248721064 0 -25.618308248721064 -12.112325626414076 0 0 0 0 -99.24790244903852 4.8269207151632827 0 4.8269207151632827 20.971811630715365 0 0 0 0 -190.12635758225952 62.328174757074066 0 62.328174757074066 3.3504460496654929 0 0 0 0 -112.2500197483605 34.113376782074397 0 34.113376782074397 11.657444848916839 0 0 0 0 -107.07556783563632 51.441004628477913 0 51.441004628477913 -44.995170144906751 0 0 0 0 -81.606679127369716 38.615220008800634 0 38.615220008800634 -23.073592470079348 0 0 0 0 0.075114710308213262 1.2193777290470251 0 1.2193777290470251 -0.88984065225542341 0 0 0 0 -202.23725214143997 88.739244883306583 0 88.739244883306583 -9.1890447341838808 0 0 0 0 -102.978367632968 73.939768785254046 0 73.939768785254046 -292.13853249943531 0 0 0 0 -77.019793038954958 38.476381324682734 0 38.476381324682734 -26.080975664054307 0 0 0 0 -134.27782010242663 57.748909843111278 0 57.748909843111278 -7.3065130036430901 0 0 0 0 -136.42526846266264 44.977714670428213 0 44.977714670428213 -19.756994539709694 0 0 0 0 -105.0503488980612 50.372986281645922 0 50.372986281645922 7.2349317503393422 0 0 0 0 -96.8799445741206 67.411362398313827 0 67.411362398313827 -29.699108511021905 0 0 0 0 0.097156216880279089 1.2682291244850035 0 1.2682291244850035 -0.44875975416924696 0 0 0 0 -233.55240595424766 55.708778812539322 0 55.708778812539322 29.665296678580148 0 0 0 0 -265.49900513370085 43.339567162976834 0 43.339567162976834 7.1809850421522867 0 0 0 0 -119.54284198899404 12.124804551615767 0 12.124804551615767 -28.757100975475964 0 0 0 0 26.927584050314181 62.780200616691133 0 62.780200616691133 -8.935307186308421 0 0 0 0 -79.937214020261308 52.306406345809023 0 52.306406345809023 5.8008772882869835 0 0 0 0 -0.0081722300284781113 0.62684411727467193 0 0.62684411727467193 -0.10026530075466944 0 0 0 0 -77.471809695944557 85.272470107042082 0 85.272470107042082 5.0428462201357434 0 0 0 0 -129.39312708768557 93.294610510187397 0 93.294610510187397 14.130335928928389 0 0 0 0 -99.805993335132371 64.166083529272953 0 64.166083529272953 42.730382360791737 0 0 0 0 -106.91294647151335 122.54665456075659 0 122.54665456075659 -27.594454355829384 0 0 0 0 -0.64462803060519036 -0.2645322636262577 0 -0.2645322636262577 -0.1371869541323536 0 0 0 0 17.317422665524646 -1.371391875001791 0 -1.371391875001791 81.377663275703298 0 0 0 0 -90.789950876274816 92.7439817489512 0 92.7439817489512 -15.942777354545115 0 0 0 0 -106.50340045320627 85.042099452438492 0 85.042099452438492 19.840403812174742 0 0 0 0 -113.14949872722354 99.60889062570385 0 99.60889062570385 -8.6298426022507329 0 0 0 0 -87.974116066368879 74.860275790995416 0 74.860275790995416 15.385711311573999 0 0 0 0 -79.554924133642999 99.289441140220617 0 99.289441140220617 4.495270440017805 0 0 0 0 -95.151199999170785 76.750992967563832 0 76.750992967563832 6.3006126316929851 0 0 0 0 -92.495992365529673 61.555525154843437 0 61.555525154843437 -27.483238396379139 0 0 0 0 -137.42678910599352 80.031046881568997 0 80.031046881568997 -24.139358734141069 0 0 0 0 -81.755123555914906 79.16828051407947 0 79.16828051407947 -4.1568584511988718 0 0 0 0 -88.250407356012147 82.717808200992891 0 82.717808200992891 9.7245323980005907 0 0 0 0 -74.726240483130823 86.891887454395317 0 86.891887454395317 1.6869917730953148 0 0 0 0 0.1405752093287731 0.16264910560516554 0 0.16264910560516554 0.075774304081319993 0 0 0 0 -62.292952718184097 73.408259615688976 0 73.408259615688976 -24.227434094897909 0 0 0 0 -50.101663494107925 48.588568573554134 0 48.588568573554134 45.929804400896444 0 0 0 0 -53.314902147754765 34.375864225952682 0 34.375864225952682 -16.933303258641956 0 0 0 0 -2.3961273016866471 39.031584997429306 0 39.031584997429306 -0.018576608702384298 0 0 0 0 -125.88466944639731 88.308862736511628 0 88.308862736511628 -48.814517410508849 0 0 0 0 -93.020762073614605 54.137678327146915 0 54.137678327146915 0.034076791897211856 0 0 0 0 -123.19540170301116 2.988571029809302 0 2.988571029809302 -68.120905367607619 0 0 0 0 -191.59288598849162 9.1204308453485385 0 9.1204308453485385 -0.19711220368029192 0 0 0 0 -222.08726519469565 76.822816138144617 0 76.822816138144617 -133.9808078815847 0 0 0 0 -263.82205705775414 -114.3403152385753 0 -114.3403152385753 -181.5935290292818 0 0 0 0 -394.31879126043714 -98.927741597649998 0 -98.927741597649998 0.19031075650320936 0 0 0 0 -174.52730390815486 67.496479746375314 0 67.496479746375314 69.25605064701837 0 0 0 0 1.1502365257401834 -49.629310295064855 0 -49.629310295064855 -0.14887521068162726 0 0 0 0 -138.84492995646724 -219.96774263222699 0 -219.96774263222699 -317.51036431169337 0 0 0 0 -3.5154703141307095 -0.7760296688078725 0 -0.7760296688078725 -0.11843399065992874 0 0 0 0 -357.12734026997714 -163.37279895311161 0 -163.37279895311161 -76.23682155256094 0 0 0 0 -35.254725864599095 -72.890568459824834 0 -72.890568459824834 -110.03623602139999 0 0 0 0 -178.31426196723078 -125.09484740354752 0 -125.09484740354752 -87.072500443449286 0 0 0 0 -38.365123679413955 -74.755211646200053 0 -74.755211646200053 -54.165336439083674 0 0 0 0 -147.13846476559047 -180.20359363876577 0 -180.20359363876577 4.2716033019951283 0 0 0 0 -133.01548506423569 55.879630348094992 0 55.879630348094992 49.180126960590769 0 0 0 0 -122.88285588218969 67.471966143476862 0 67.471966143476862 14.265318102694323 0 0 0 0 -83.016701545820979 66.46546782098477 0 66.46546782098477 -45.6852754865821 0 0 0 0 -177.67403273066884 13.878881725338427 0 13.878881725338427 -44.89544385730656 0 0 0 0 -40.63759090847816 10.41180070545651 0 10.41180070545651 0.027140093395970472 0 0 0 0 -52.92525015121646 3.9974849681625386 0 3.9974849681625386 12.73367162124633 0 0 0 0 -27.127037710335571 5.1685230481740714 0 5.1685230481740714 -1.1812979166644162 0 0 0 0 -25.063683228820992 -3.1320516536467706 0 -3.1320516536467706 7.5307846785042294 0 0 0 0 0.15026039251628731 0.92335822749694785 0 0.92335822749694785 0.11798330805617596 0 0 0 0 -0.93566232054546106 -0.37598870382815619 0 -0.37598870382815619 0.15038862636127009 0 0 0 0 -4.164065740253136 7.606439948434307 0 7.606439948434307 -0.010900046523127201 0 0 0 0 21.178211395366816 -27.769229730797047 0 -27.769229730797047 22.392056520053419 0 0 0 0 -8.9638324834216121 -0.32318385253695947 0 -0.32318385253695947 0.59788248808468381 0 0 0 0 -78.177304448498035 -56.524444409072395 0 -56.524444409072395 -52.866039745147049 0 0 0 0 -78.80993214098271 -85.750496900369171 0 -85.750496900369171 -95.002977210576944 0 0 0 0 -94.782495595187356 -78.5979858279307 0 -78.5979858279307 -49.785517931057335 0 0 0 0 -31.829826737408439 -22.601300634769078 0 -22.601300634769078 -61.403443489848982 0 0 0 0 -6.7853461903601371 4.695848334633375 0 4.695848334633375 1.0803840799489548 0 0 0 0 -40.507710829140706 -21.894067002064681 0 -21.894067002064681 12.293312266698351 0 0 0 0 -7.8602210340759484 13.055962294986152 0 13.055962294986152 -5.9286464778919274 0 0 0 0 18.571554065638338 -17.025693380442078 0 -17.025693380442078 -84.519853017014043 0 0 0 0 -6.3578959278874621 6.3993810685049652 0 6.3993810685049652 -0.35373875032807889 0 0 0 0 -86.123107933750362 -70.252780481141457 0 -70.252780481141457 -44.593257892035012 0 0 0 0 -117.51182099345169 28.263617434078554 0 28.263617434078554 1.6882459280633668 0 0 0 0 -0.7101362948340153 -0.44979835328226869 0 -0.44979835328226869 -0.27002906702670842 0 0 0 0 -110.51674167225974 83.200156867826877 0 83.200156867826877 -40.827057781649387 0 0 0 0 -55.494770021370641 33.186994270640568 0 33.186994270640568 -34.322131951026918 0 0 0 0 -69.327692838713119 20.03955696507866 0 20.03955696507866 -0.40238634559385389 0 0 0 0 -173.56481476467161 3.3166980506220085 0 3.3166980506220085 -6.8897069224015013 0 0 0 0 -8.4642550387036053 6.0617229298308857 0 6.0617229298308857 -1.5399657243598344 0 0 0 0 -79.228386132919695 18.557702027727828 0 18.557702027727828 49.629481704693546 0 0 0 0 -128.17098905545936 -95.195385595721859 0 -95.195385595721859 -41.853785457594256 0 0 0 0 -163.38918874664523 -132.17862454790082 0 -132.17862454790082 -74.405336956492647 0 0 0 0 -89.018225428037795 -85.377694629105136 0 -85.377694629105136 -33.307109371005026 0 0 0 0 -90.588626476281206 -107.97994914099166 0 -107.97994914099166 -77.248720606196656 0 0 0 0 -120.13852424905053 -119.40696689347021 0 -119.40696689347021 -69.932079478761239 0 0 0 0 -71.485357776102319 -65.47439660267969 0 -65.47439660267969 -56.958837571833101 0 0 0 0 -98.610008138499325 -34.440525485146452 0 -34.440525485146452 14.817645967957105 0 0 0 0 -45.516821867262479 -1.2586519826390941 0 -1.2586519826390941 14.561549748567359 0 0 0 0 -60.982202702893119 17.230469802617108 0 17.230469802617108 92.414874412673498 0 0 0 0 -23.591077648517967 4.0953152211995985 0 4.0953152211995985 25.834476334571264 0 0 0 0 -68.455079775678314 -33.291250799530587 0 -33.291250799530587 14.582304853896403 0 0 0 0 -55.974914109203382 -20.225339651296736 0 -20.225339651296736 73.328196341431521 0 0 0 0 -92.539786727364117 -22.223000179054452 0 -22.223000179054452 5.1375514461112743 0 0 0 0 -31.566469461547968 -34.443452591670166 0 -34.443452591670166 6.0811544846560537 0 0 0 0 -58.915159097399737 -29.632707077485179 0 -29.632707077485179 -0.12745237311196433 0 0 0 0 -60.722643639303215 -64.558837334149231 0 -64.558837334149231 -66.554987664841519 0 0 0 0 -88.084472909104079 -62.217778590498256 0 -62.217778590498256 -52.995478250033671 0 0 0 0 -102.89219161922665 -103.65424598632114 0 -103.65424598632114 -87.686163839686742 0 0 0 0 -136.47572951600159 -53.376951760656766 0 -53.376951760656766 -159.07210551366279 0 0 0 0 -197.5565116017533 -23.381951548397865 0 -23.381951548397865 -66.565045054477821 0 0 0 0 -88.061012049848159 -74.928553041804946 0 -74.928553041804946 -43.482345362327123 0 0 0 0 -80.688452170601522 -7.9476526633056892 0 -7.9476526633056892 60.850296657859872 0 0 0 0 -69.665424592662021 -59.475849281557657 0 -59.475849281557657 31.517349989190279 0 0 0 0 -133.20766000248841 -25.653861093429441 0 -25.653861093429441 13.665825930701885 0 0 0 0 -145.96309100804683 -89.790969189777059 0 -89.790969189777059 -34.606323870683354 0 0 0 0 -181.86044231569394 -83.131194731067581 0 -83.131194731067581 -32.539213785086758 0 0 0 0 -152.84153835127654 -35.150896342100395 0 -35.150896342100395 34.605335084671651 0 0 0 0 -162.03547267809427 -84.13336064962013 0 -84.13336064962013 -79.964826213794368 0 0 0 0 -171.21411518809145 -126.36391891141693 0 -126.36391891141693 -100.09996352763483 0 0 0 0 -115.49899675084089 -115.1350014086579 0 -115.1350014086579 -121.88045000228954 0 0 0 0 -134.74245654042898 -98.967138003939226 0 -98.967138003939226 -79.489812276175144 0 0 0 0 -328.75941822328605 -101.53921490573634 0 -101.53921490573634 -69.434955965056361 0 0 0 0 -154.50915731291025 -180.70577291943857 0 -180.70577291943857 -231.58732743704581 0 0 0 0 -1.2439133870373098 1.6574380677273819 0 1.6574380677273819 -1.9316506015351722 0 0 0 0 -18.027731629408663 -13.311375331841873 0 -13.311375331841873 42.408708270164084 0 0 0 0 -0.031181374448351562 -18.719520627919309 0 -18.719520627919309 72.40539718718037 0 0 0 0 -47.402143174032972 53.443086509426166 0 53.443086509426166 7.5142738172492898 0 0 0 0 -1.6736372518316784 -0.7096799566018106 0 -0.7096799566018106 -0.16795465034081913 0 0 0 0 -82.778331956381408 -19.624943201726509 0 -19.624943201726509 113.10292288018684 0 0 0 0 -0.78973944720522127 -0.64080644100707573 0 -0.64080644100707573 -0.33435709007828729 0 0 0 0 -130.17964743986886 47.710395641698085 0 47.710395641698085 23.658239314396155 0 0 0 0 -192.82109168383977 -65.48438096142138 0 -65.48438096142138 12.507567144922859 0 0 0 0 -74.724730408852338 -7.6137470896470631 0 -7.6137470896470631 20.542258083683492 0 0 0 0 -15.684293661011907 3.7821159820840649 0 3.7821159820840649 -2.7083423770756099 0 0 0 0 -71.4416642649403 20.985839518401718 0 20.985839518401718 50.731219891375531 0 0 0 0 -76.901278646510036 -8.6513134976743231 0 -8.6513134976743231 27.600482887921316 0 0 0 0 -56.048021445218183 -8.8119588835305649 0 -8.8119588835305649 46.263723521661177 0 0 0 0 -51.09392881938038 18.873531091792827 0 18.873531091792827 48.95594719933797 0 0 0 0 -49.333387350900011 18.769326242209559 0 18.769326242209559 44.122226206266305 0 0 0 0 -60.899283485181513 17.055613476424469 0 17.055613476424469 66.616070675711455 0 0 0 0 -36.708820466157704 -2.8608321159693446 0 -2.8608321159693446 27.265447156484242 0 0 0 0 -14.918078677765152 25.408494182011736 0 25.408494182011736 45.605926873090581 0 0 0 0 0.89650488882762147 -19.428309927726445 0 -19.428309927726445 39.360877014064499 0 0 0 0 36.535563085126341 -3.3824119061371221 0 -3.3824119061371221 52.349049780968244 0 0 0 0 -1.267126239979163 -0.21188244682820567 0 -0.21188244682820567 0.98982581398165692 0 0 0 0 -6.0511585712847591 6.1298276189367016 0 6.1298276189367016 73.547249454845087 0 0 0 0 -2.3135036000785476 -14.286697946545701 0 -14.286697946545701 52.783327207845446 0 0 0 0 -0.83127320890707779 16.597196413919846 0 16.597196413919846 71.343406247119219 0 0 0 0 -23.628084429074079 -36.359582732310855 0 -36.359582732310855 124.4259611752384 0 0 0 0 -122.65649915772519 -148.07463255012885 0 -148.07463255012885 116.5526289250389 0 0 0 0 -35.993984686319891 -10.818189429696304 0 -10.818189429696304 157.19519666205406 0 0 0 0 -37.009707265173347 -9.4094917972183794 0 -9.4094917972183794 166.44729427863058 0 0 0 0 -99.56070082471706 -121.34575016920462 0 -121.34575016920462 96.460818146797124 0 0 0 0 -40.322329774971905 -3.028281605311653 0 -3.028281605311653 -0.013347973819387016 0 0 0 0 -16.939345431190304 10.487550291697971 0 10.487550291697971 186.09603519673738 0 0 0 0 5.2979658307740465 131.70861727831834 0 131.70861727831834 64.949512497227317 0 0 0 0 1.074482366166194 42.907339256939395 0 42.907339256939395 151.70858258141624 0 0 0 0 -0.7597352760915328 -0.24077120862257573 0 -0.24077120862257573 0.8210254939181425 0 0 0 0 -12.779195308201452 51.482902628929992 0 51.482902628929992 209.04443564508756 0 0 0 0 -72.569613510109775 -47.814454118947424 0 -47.814454118947424 20.833565306644999 0 0 0 0 -91.926836646140146 -32.421753861692196 0 -32.421753861692196 112.93501586813909 0 0 0 0 -54.128614575529355 -14.260273085439621 0 -14.260273085439621 65.74559019773551 0 0 0 0 -63.652640983887977 -2.2324707026408532 0 -2.2324707026408532 162.42149984567732 0 0 0 0 -57.869657816911058 5.2957550605906363 0 5.2957550605906363 103.6909951984826 0 0 0 0 -88.493956355086993 -8.2172641862234741 0 -8.2172641862234741 179.16144317875887 0 0 0 0 -37.106778516998091 4.9292711561353588 0 4.9292711561353588 1.5114195514183442 0 0 0 0 -14.733312242129614 14.473973994674225 0 14.473973994674225 49.035406415033322 0 0 0 0 -39.209214719723889 -7.230037005828132 0 -7.230037005828132 0.4513078027355848 0 0 0 0 -79.349527908976597 -15.900595212429607 0 -15.900595212429607 223.45429308223243 0 0 0 0 -4.5790558318121839 92.409004784740347 0 92.409004784740347 112.33686748850846 0 0 0 0 -36.851437996912864 3.1969593182070639 0 3.1969593182070639 204.16423808662952 0 0 0 0 -49.951420837125625 -32.462540022564554 0 -32.462540022564554 172.76633227535217 0 0 0 0 -41.603824692843773 -24.132367855543635 0 -24.132367855543635 151.31743206724514 0 0 0 0 -3.8560972998420766 -13.815768755395311 0 -13.815768755395311 92.232612668422007 0 0 0 0 -6.2431905860248662 -6.2422955033273411 0 -6.2422955033273411 68.204709089991411 0 0 0 0 -15.484355256716299 14.560765267046577 0 14.560765267046577 75.950943889744849 0 0 0 0 -14.335832094606303 9.1155540534978172 0 9.1155540534978172 98.691816420092323 0 0 0 0 -27.430961965921597 28.678114556512355 0 28.678114556512355 76.518233923578009 0 0 0 0 -17.29746733380307 19.515686805582391 0 19.515686805582391 81.181720170011431 0 0 0 0 -31.353343550101272 23.966344773669107 0 23.966344773669107 64.012622670864175 0 0 0 0 -22.633987806031655 10.899350320357371 0 10.899350320357371 77.922848187829914 0 0 0 0 -15.111822746435791 -58.750235474241208 0 -58.750235474241208 67.897689034020345 0 0 0 0 -5.0391543459127561 -0.068967357251011663 0 -0.068967357251011663 0.17876639628636948 0 0 0 0 -19.284354015188001 12.600839448343322 0 12.600839448343322 90.480024646473566 0 0 0 0 -16.19760592482271 15.077839532327516 0 15.077839532327516 75.134775133483345 0 0 0 0 -1.8610898774494302 0.042345923788432493 0 0.042345923788432493 0.014311600048764084 0 0 0 0 -52.322427593793691 83.562732823742863 0 83.562732823742863 -30.471565539528342 0 0 0 0 -175.81418631546671 64.942970093875005 0 64.942970093875005 115.56450473665882 0 0 0 0 -48.691104241755966 17.977509722594277 0 17.977509722594277 -85.789550931160875 0 0 0 0 -153.37114789866246 -117.47735988782766 0 -117.47735988782766 24.488679284911086 0 0 0 0 -70.56917375526973 -26.243191282598218 0 -26.243191282598218 88.324510246593945 0 0 0 0 -94.407896184893616 70.356473312135904 0 70.356473312135904 165.87212895330049 0 0 0 0 28.68349240488169 -94.857897570303408 0 -94.857897570303408 108.18244681369333 0 0 0 0 -39.557604698059166 -1.6872724098067593 0 -1.6872724098067593 0.88463281944851113 0 0 0 0 -114.12022368352336 55.510552884556091 0 55.510552884556091 192.08101051798849 0 0 0 0 -106.12671320862864 8.280073711125624 0 8.280073711125624 208.73620540233992 0 0 0 0 -98.456738981469243 34.627527556049699 0 34.627527556049699 148.3894242554295 0 0 0 0 -95.792548652436381 19.852330288720793 0 19.852330288720793 157.97880743390851 0 0 0 0 -84.056311263047974 55.070048958175903 0 55.070048958175903 110.82675609877128 0 0 0 0 -55.515954833861542 86.092037031186294 0 86.092037031186294 33.677542116281074 0 0 0 0 -18.663890318592166 -38.4899712185927 0 -38.4899712185927 120.74954845004322 0 0 0 0 753.19705554873508 -81.013315214500835 0 -81.013315214500835 -292.27602560671585 0 0 0 0 102.04234987542441 78.603164990149708 0 78.603164990149708 9.6582862315885905 0 0 0 0 -262.17208368098363 280.48162952433313 0 280.48162952433313 -64.348016685075663 0 0 0 0 -140.56762937995154 24.656565725766768 0 24.656565725766768 5.3253750958037926 0 0 0 0 -153.36987176552066 7.1810638920901511 0 7.1810638920901511 15.517779929303288 0 0 0 0 -154.82936355115089 -31.201123322261992 0 -31.201123322261992 138.84762976327693 0 0 0 0 -213.18176001749816 25.05625430074906 0 25.05625430074906 119.96241655576341 0 0 0 0 -301.38829165219795 60.019358882716006 0 60.019358882716006 266.02641958891763 0 0 0 0 -329.53004977102682 96.013679805979336 0 96.013679805979336 224.93624006211758 0 0 0 0 -253.12347944868088 -5.3941533018723931 0 -5.3941533018723931 336.85114535647335 0 0 0 0 -141.33674138891547 -27.441446259162063 0 -27.441446259162063 183.75593491042491 0 0 0 0 -144.60135123963119 -58.611887667437259 0 -58.611887667437259 221.99544434325458 0 0 0 0 -137.9113098589296 -4.531691249960204 0 -4.531691249960204 88.407829428520927 0 0 0 0 -64.281295510983909 -71.679582823504461 0 -71.679582823504461 143.75255733640643 0 0 0 0 -68.527410349637648 -15.656115238850745 0 -15.656115238850745 132.76872992013796 0 0 0 0 -60.209555865963921 -80.760616187332744 0 -80.760616187332744 211.62362008372202 0 0 0 0 -77.458949938467413 -63.58427680107161 0 -63.58427680107161 225.75691312597155 0 0 0 0 -111.00143566023689 -35.354335146666244 0 -35.354335146666244 221.86861935436264 0 0 0 0 -149.10788086794491 -101.74025296910168 0 -101.74025296910168 376.25026402828075 0 0 0 0 29.906339629291324 -136.32635412124137 0 -136.32635412124137 285.36930415496681 0 0 0 0 -5.2356473866834108 -1.7725425166449646 0 -1.7725425166449646 0.023389012321458846 0 0 0 0 -151.52732968854616 -26.037614284120309 0 -26.037614284120309 224.101384863151 0 0 0 0 -168.57425647929631 -2.3707836550893262 0 -2.3707836550893262 209.83791802681981 0 0 0 0 -59.484613551878709 0.82335215083412017 0 0.82335215083412017 0.69458070508418812 0 0 0 0 395.40837926778477 -150.15845398530109 0 -150.15845398530109 -36.809570215702479 0 0 0 0 -632.51132507363945 372.89803810109186 0 372.89803810109186 362.45378399950414 0 0 0 0 -170.60191190161277 -88.129213670896206 0 -88.129213670896206 374.53257819125884 0 0 0 0 -52.868017839080281 -2.3490089244980936 0 -2.3490089244980936 1.1602011518717767 0 0 0 0 -46.545443244700436 9.8135931486172012 0 9.8135931486172012 296.000873919073 0 0 0 0 -315.19704897093106 124.58618099088699 0 124.58618099088699 207.52233158409535 0 0 0 0 -19.912814376204693 4.5362367250362077 0 4.5362367250362077 1.0825382428458308 0 0 0 0 -33.977118193266506 -57.645528247429866 0 -57.645528247429866 88.93951198955466 0 0 0 0 -24.576046463655075 -67.582289685086835 0 -67.582289685086835 73.040723581812927 0 0 0 0 -17.163458825692942 -61.544655521630148 0 -61.544655521630148 64.77617080685377 0 0 0 0 110.15236279273995 10.673860010934504 0 10.673860010934504 190.02699620028761 0 0 0 0 31.476648416690296 -57.870646152075551 0 -57.870646152075551 149.07032498583249 0 0 0 0 -27.763233041452622 13.72191356361202 0 13.72191356361202 189.99139942173042 0 0 0 0 -9.9886910120112589 -38.043872561861463 0 -38.043872561861463 73.619060062906556 0 0 0 0 -40.141785009687737 20.159417173432985 0 20.159417173432985 99.479040908383467 0 0 0 0 -2.8414797905934392 -18.02293668507923 0 -18.02293668507923 124.19483726186445 0 0 0 0 -27.987259122222895 1.7491070997402858 0 1.7491070997402858 96.224137855499066 0 0 0 0 -46.836563813656539 31.715226583905633 0 31.715226583905633 180.34486117771121 0 0 0 0 -36.313291935119196 3.5299462363968814 0 3.5299462363968814 163.43982416765425 0 0 0 0 -35.046427224267973 -34.553004497190386 0 -34.553004497190386 209.74090762272101 0 0 0 0 -69.208031232547 2.2938748234673767 0 2.2938748234673767 83.354077799239803 0 0 0 0 -47.744146042170541 -47.752774198748853 0 -47.752774198748853 82.576440011288469 0 0 0 0 -23.107997629173042 -34.723899247115696 0 -34.723899247115696 74.737572829992416 0 0 0 0 -0.89421596439296991 -13.42322698622138 0 -13.42322698622138 86.865882374362627 0 0 0 0 -30.560929297636903 -19.761434295866593 0 -19.761434295866593 109.53385544561024 0 0 0 0 -330.9493590092643 -105.60775715033378 0 -105.60775715033378 182.08911429155739 0 0 0 0 -6.1098144470717699 0.20726569471133072 0 0.20726569471133072 0.29816297810472969 0 0 0 0 37.36557424667626 167.95386374400573 0 167.95386374400573 -126.9668502978875 0 0 0 0 123.23798918577813 75.548036229086392 0 75.548036229086392 -255.8002891945921 0 0 0 0 -12.284584291486681 -44.728140247171268 0 -44.728140247171268 26.36092519394515 0 0 0 0 -19.50042088470218 -61.248461074164879 0 -61.248461074164879 37.678615934967638 0 0 0 0 -5.4191237938866834 -11.161126555022292 0 -11.161126555022292 77.982160430795375 0 0 0 0 -0.70681585209968034 -25.356138867530717 0 -25.356138867530717 57.45617751593818 0 0 0 0 -18.589508906861738 -51.289899685615183 0 -51.289899685615183 63.907854383660379 0 0 0 0 -24.959055899898885 -55.265724322978258 0 -55.265724322978258 63.916858278826112 0 0 0 0 -239.06806764442808 -45.992041992086797 0 -45.992041992086797 122.35224741612865 0 0 0 0 -183.73102056279458 -22.574606398904507 0 -22.574606398904507 119.41169942842816 0 0 0 0 -56.249951603251247 -88.0547424501151 0 -88.0547424501151 29.764311678283775 0 0 0 0 -54.410470746988722 4.8540310395363804 0 4.8540310395363804 114.00906428946291 0 0 0 0 -111.11862331580414 -114.73478749505512 0 -114.73478749505512 -22.448164912300399 0 0 0 0 -2.9865955311172883 0.6937476752172298 0 0.6937476752172298 0.077602813797294612 0 0 0 0 -144.26462982654994 202.13020482981096 0 202.13020482981096 -97.587864020803693 0 0 0 0 -256.89735849671706 52.492977931284827 0 52.492977931284827 -46.395157120613476 0 0 0 0 -85.737459690843025 -26.80852126535558 0 -26.80852126535558 -165.33070788673331 0 0 0 0 -246.01809748267078 103.2961877810295 0 103.2961877810295 50.261277977770987 0 0 0 0 -60.886751548336179 110.579393357546 0 110.579393357546 -141.25647116918435 0 0 0 0 -79.761784190392063 22.070806106886039 0 22.070806106886039 67.712602330122081 0 0 0 0 -61.451938950955082 63.417440090172875 0 63.417440090172875 -38.942565055111345 0 0 0 0 -95.794347172231937 46.0165447880876 0 46.0165447880876 13.786184754742749 0 0 0 0 -151.59385461234342 92.31139434524323 0 92.31139434524323 -47.5175631695829 0 0 0 0 -104.36206459657114 34.933621673691505 0 34.933621673691505 -45.615931447067112 0 0 0 0 -110.83793250841518 125.98576012996716 0 125.98576012996716 -134.90151996519626 0 0 0 0 -117.12130697735847 56.067291925517281 0 56.067291925517281 -21.629295028279216 0 0 0 0 -91.631676839588181 61.511939491389626 0 61.511939491389626 -26.040992360351368 0 0 0 0 -133.11278737389512 50.641545358272111 0 50.641545358272111 -21.242376772600139 0 0 0 0 -114.36680663396055 64.07696911807578 0 64.07696911807578 -78.062362597760512 0 0 0 0 -118.13902420698287 34.129688260012472 0 34.129688260012472 -23.743593122227907 0 0 0 0 -23.955227486851072 56.068782050153231 0 56.068782050153231 -81.127272206583939 0 0 0 0 -70.268654166422493 -20.290811254539904 0 -20.290811254539904 -204.34620133324051 0 0 0 0 -131.57107942109724 154.66485088090474 0 154.66485088090474 -101.78953815028717 0 0 0 0 -1.4661394495211333 -1.608529849014495 0 -1.608529849014495 -2.2485881015845779 0 0 0 0 114.86906253895359 71.847381973284428 0 71.847381973284428 -156.01194442115298 0 0 0 0 -110.36431909429484 -15.836355529717508 0 -15.836355529717508 -49.844714934347849 0 0 0 0 -103.33122461620223 50.746926029446172 0 50.746926029446172 -10.283903494156668 0 0 0 0 -118.20542531905085 35.483187150737393 0 35.483187150737393 -3.3128198766621608 0 0 0 0 -111.44830746593743 13.473449599732014 0 13.473449599732014 -16.812074049393061 0 0 0 0 -99.030611581226367 38.477754807348418 0 38.477754807348418 -30.00287178466715 0 0 0 0 -115.14560454112143 30.480334942831178 0 30.480334942831178 -61.253700373468291 0 0 0 0 -192.11041309327629 22.007409530905534 0 22.007409530905534 -28.979476627058375 0 0 0 0 -148.79771744330446 94.331733777236707 0 94.331733777236707 -58.002279852663378 0 0 0 0 -119.87064845171335 67.21040745906015 0 67.21040745906015 -33.879671197625385 0 0 0 0 -132.6678824863011 68.049321891753038 0 68.049321891753038 -32.111079178649334 0 0 0 0 -144.44465465902613 56.400753573932576 0 56.400753573932576 -14.613762005246429 0 0 0 0 -116.26656693069344 38.609952109224402 0 38.609952109224402 -17.957481779640645 0 0 0 0 -129.25668839115679 49.189452586352175 0 49.189452586352175 -33.029271614271764 0 0 0 0 -131.23982494809025 49.233290986823903 0 49.233290986823903 -1.9761377370651871 0 0 0 0 -16.928343205014244 77.703245731511117 0 77.703245731511117 -66.207294617815819 0 0 0 0 -0.37650182974788038 -0.24085097377614773 0 -0.24085097377614773 -0.48706738713100339 0 0 0 0 -132.67565206612198 71.21901228111301 0 71.21901228111301 -42.403207232337479 0 0 0 0 -167.92075080194263 57.727310543225428 0 57.727310543225428 -18.605258503341929 0 0 0 0 -4.0549115864578553 -2.2333908517807117 0 -2.2333908517807117 0.087012156740220448 0 0 0 0 -124.64476413474767 41.612426996364377 0 41.612426996364377 -16.364030946974935 0 0 0 0 -6.2592457882198005 4.9703646526348848 0 4.9703646526348848 1.7462364494726899 0 0 0 0 -7.1934621620093822 -8.6604920196666626 0 -8.6604920196666626 20.939262379557476 0 0 0 0 -2.2451433967378165 1.3629205864353509 0 1.3629205864353509 0.77312338518960333 0 0 0 0 -14.614137110329466 4.421017413351592 0 4.421017413351592 1.1162028449444392 0 0 0 0 -18.142401764922397 0.2385790355269819 0 0.2385790355269819 1.5657859994713021 0 0 0 0 -1.611705550956799 0.66869819220865523 0 0.66869819220865523 1.6664137288040459 0 0 0 0 -36.081529963725188 -0.6893355162236503 0 -0.6893355162236503 -6.6062314725844828 0 0 0 0 -84.663826910658827 -0.98226675845398859 0 -0.98226675845398859 -38.710098502908977 0 0 0 0 -93.113309583659429 8.7322248811993859 0 8.7322248811993859 -9.3107510810446001 0 0 0 0 -86.822343600397289 14.288306048795675 0 14.288306048795675 -5.6617973716533925 0 0 0 0 -81.285798913688268 12.159537907159574 0 12.159537907159574 -5.907633612693644 0 0 0 0 -135.39978012758229 42.753490528108102 0 42.753490528108102 -18.076340616242305 0 0 0 0 -125.42469595413604 -60.121853114143732 0 -60.121853114143732 -0.78121667060077016 0 0 0 0 -22.132104297917977 20.079970576208893 0 20.079970576208893 -37.071533422156108 0 0 0 0 -15.990921773009177 -22.839673210508636 0 -22.839673210508636 -32.757057967080755 0 0 0 0 -12.976633252662396 9.6456111243749092 0 9.6456111243749092 -62.811102584721084 0 0 0 0 -62.084823629567836 50.136569101434361 0 50.136569101434361 -72.329690796664693 0 0 0 0 -54.956211983420872 13.992754302098206 0 13.992754302098206 -32.703224215627415 0 0 0 0 -47.284423972246259 25.490072370522057 0 25.490072370522057 -43.949931871930858 0 0 0 0 -31.048765227408694 7.1947227476564137 0 7.1947227476564137 -28.11116603038721 0 0 0 0 -2.935534735781296 -4.5166591185818419 0 -4.5166591185818419 -7.5635561409639944 0 0 0 0 -46.5027302390572 41.03133225509464 0 41.03133225509464 -54.410107066011506 0 0 0 0 -29.771800193849231 15.792677079737018 0 15.792677079737018 -49.319141140282682 0 0 0 0 -4.4629150810935627 -7.3229862368500847 0 -7.3229862368500847 -12.452026743048643 0 0 0 0 -53.283900704704138 34.574275209999087 0 34.574275209999087 -42.899167737046042 0 0 0 0 -58.265064074099428 47.078165054573219 0 47.078165054573219 -23.040509438464937 0 0 0 0 -92.230345266858421 33.643220706981538 0 33.643220706981538 -28.212999462320113 0 0 0 0 -105.06615109173799 18.932801381222134 0 18.932801381222134 -11.072014490415143 0 0 0 0 -90.514606595388614 3.9940946006206559 0 3.9940946006206559 -3.6766290429900437 0 0 0 0 -117.3126901422529 35.278403049601366 0 35.278403049601366 18.742750375987271 0 0 0 0 -145.26310992559047 10.360724144269852 0 10.360724144269852 -3.4542445786451026 0 0 0 0 -98.500841822984512 -25.385418189104939 0 -25.385418189104939 -2.9801638899128875 0 0 0 0 -69.841610702014805 -35.036172355928556 0 -35.036172355928556 -33.440197010350403 0 0 0 0 -80.395139428365837 -24.35684081943532 0 -24.35684081943532 -20.880484581950441 0 0 0 0 -66.620573779391634 -22.969337379273952 0 -22.969337379273952 -29.943383871031529 0 0 0 0 -63.977984879264113 -18.488173991392614 0 -18.488173991392614 -23.178670072448426 0 0 0 0 -90.069808025360544 -0.088743420740797774 0 -0.088743420740797774 -15.324674824919384 0 0 0 0 -66.909704043931924 -1.2463376141450908 0 -1.2463376141450908 -15.651062729676141 0 0 0 0 -54.382231221448819 3.9855932125037725 0 3.9855932125037725 -15.487917800312289 0 0 0 0 -37.557426832652709 -24.593584379241975 0 -24.593584379241975 -16.684809929960466 0 0 0 0 -47.022522911051055 -13.666379837257637 0 -13.666379837257637 -27.497255163832506 0 0 0 0 -45.581138316720171 -6.4552137342905098 0 -6.4552137342905098 15.996319897461262 0 0 0 0 -28.593027465485648 -15.620166048163355 0 -15.620166048163355 -3.9503597467264626 0 0 0 0 -62.758951598911153 23.639525143262972 0 23.639525143262972 -22.610081020932739 0 0 0 0 -62.872930173429268 -17.944853140105124 0 -17.944853140105124 32.691954125204802 0 0 0 0 -56.321745662473404 -34.355927703659518 0 -34.355927703659518 -14.171476010137781 0 0 0 0 -93.260751223784609 -47.998313452602588 0 -47.998313452602588 -4.9417088611417057 0 0 0 0 -21.825003424077295 -34.248201207828515 0 -34.248201207828515 18.892550339964146 0 0 0 0 -48.495231252796657 -14.918791175575734 0 -14.918791175575734 9.0338175818658328 0 0 0 0 -34.514594071891224 -16.932320471071165 0 -16.932320471071165 -16.746231995258313 0 0 0 0 -37.350537870956032 -36.269463773331154 0 -36.269463773331154 -15.4599319025765 0 0 0 0 -49.930744302895619 -23.632104254684691 0 -23.632104254684691 -37.290381153713497 0 0 0 0 -51.267709350584482 -30.057106097284077 0 -30.057106097284077 -11.738454611410248 0 0 0 0 -60.052791647662161 -38.374329272526438 0 -38.374329272526438 -40.736020604420901 0 0 0 0 -63.49685836712888 -36.802612374494629 0 -36.802612374494629 -14.586649718705701 0 0 0 0 -76.247419869465375 -35.411855867967006 0 -35.411855867967006 -63.137908903428979 0 0 0 0 -81.53878437901767 -30.946737487286782 0 -30.946737487286782 -40.490512854745248 0 0 0 0 -74.745947848312426 -33.302500209887967 0 -33.302500209887967 -34.895968874702703 0 0 0 0 -85.232872680478067 -64.632229081018636 0 -64.632229081018636 -63.765834847749829 0 0 0 0 -89.039775328026735 -59.103960367401442 0 -59.103960367401442 -41.902234702339584 0 0 0 0 -28.50951519311743 9.5839826296713628 0 9.5839826296713628 13.89473362009954 0 0 0 0 -57.113163488435021 -28.909398506368007 0 -28.909398506368007 -30.525948773784421 0 0 0 0 -61.453497382521164 -41.112448931357676 0 -41.112448931357676 -40.210740280963819 0 0 0 0 -65.068506393567077 -39.02945937072468 0 -39.02945937072468 -35.933251553272726 0 0 0 0 -65.740780134872693 -41.069771710107716 0 -41.069771710107716 -28.424276994983984 0 0 0 0 -25.975258786151812 10.159120464996487 0 10.159120464996487 15.940891607355749 0 0 0 0 -23.465646557432592 37.395494577822319 0 37.395494577822319 54.033401903872004 0 0 0 0 -4.8731875091471011 11.823162727485851 0 11.823162727485851 -10.115701331029641 0 0 0 0 -20.05039650571598 53.248445000427637 0 53.248445000427637 20.143963739929632 0 0 0 0 -13.268915662920335 35.775278672099375 0 35.775278672099375 58.595689449968177 0 0 0 0 38.224051272991346 75.404419246245652 0 75.404419246245652 52.285533337996121 0 0 0 0 -76.247419869410805 -35.411855867974737 0 -35.411855867974737 -63.137908903427103 0 0 0 0 -170.89882733461127 -33.982583571051691 0 -33.982583571051691 -39.581561078637378 0 0 0 0 -122.99488162020043 21.444579719124704 0 21.444579719124704 -9.2712660844642869 0 0 0 0 -69.754521099602698 18.910666986000479 0 18.910666986000479 49.672509063679627 0 0 0 0 -63.169093924263052 14.401837713906957 0 14.401837713906957 -22.202833826578171 0 0 0 0 -143.83246442313066 -1.1878626038985658 0 -1.1878626038985658 54.478273155789566 0 0 0 0 -153.3064665917762 19.338233040597132 0 19.338233040597132 73.779210996577604 0 0 0 0 -85.863183515994024 32.806619863767992 0 32.806619863767992 46.468536710758087 0 0 0 0 -41.042590874795678 11.907477385017842 0 11.907477385017842 38.562378561323385 0 0 0 0 -43.872818109890204 67.41605332261787 0 67.41605332261787 109.73299732280248 0 0 0 0 -32.547557322161218 5.2354968929758456 0 5.2354968929758456 10.692341304727261 0 0 0 0 -56.118955633199221 -14.597008970683191 0 -14.597008970683191 -15.743597588847905 0 0 0 0 -16.674871404909613 -3.2626430283594914 0 -3.2626430283594914 5.7814694869384926 0 0 0 0 -46.842295806291858 1.2954975763968051 0 1.2954975763968051 4.0257725950200145 0 0 0 0 -80.228849702009938 30.24464992701246 0 30.24464992701246 89.606050011028174 0 0 0 0 -88.822582738464007 -5.8815513429767634 0 -5.8815513429767634 72.291439125238639 0 0 0 0 -11.864990904446017 3.2920746530756411 0 3.2920746530756411 -0.79655617258756362 0 0 0 0 -101.04241068639567 -35.915096122687828 0 -35.915096122687828 -23.676769656231954 0 0 0 0 -23.773903348168446 3.6727908347168672 0 3.6727908347168672 14.27155528934709 0 0 0 0 -96.647129321654575 -83.694144384147194 0 -83.694144384147194 -35.190586197655648 0 0 0 0 -76.247419869483565 -35.411855867995655 0 -35.411855867995655 -63.13790890342716 0 0 0 0 -42.25458409760904 -16.101748622156265 0 -16.101748622156265 -38.117538090372364 0 0 0 0 6.6097517874477489 36.469705586485816 0 36.469705586485816 29.730860332773887 0 0 0 0 11.082777736074604 91.710885009389358 0 91.710885009389358 91.540477237816276 0 0 0 0 -47.571309724695311 -37.403446538230583 0 -37.403446538230583 -4.385439535088608 0 0 0 0 -59.298459969781106 -31.005506601514753 0 -31.005506601514753 -23.52115075912215 0 0 0 0 -68.31198546795622 -9.8819083896977702 0 -9.8819083896977702 60.195392476194684 0 0 0 0 -70.380459325780123 -6.1295917448648662 0 -6.1295917448648662 0.24130730585355975 0 0 0 0 -87.004127207414967 -48.606091708040594 0 -48.606091708040594 29.89175526008512 0 0 0 0 -309.75709403457586 -202.10668561706188 0 -202.10668561706188 185.53170701326036 0 0 0 0 -7.2802776226068602 -1.0103337328327493 0 -1.0103337328327493 -0.23029434267736837 0 0 0 0 23.480369763515228 -27.076391546737838 0 -27.076391546737838 -136.43886100635314 0 0 0 0 -4.3630779358691143 -70.567229893989065 0 -70.567229893989065 30.042325020668613 0 0 0 0 -54.429854898939084 -6.6926487843011557 0 -6.6926487843011557 -6.5891609656802075 0 0 0 0 -55.672933612950146 -5.1766862918278775 0 -5.1766862918278775 -5.1267286654253894 0 0 0 0 -41.44404340956568 -4.4038703422912349 0 -4.4038703422912349 -1.460738157383394 0 0 0 0 -36.041390159848916 10.884384522652638 0 10.884384522652638 -0.15506250464566751 0 0 0 0 -11.233066405209684 444.2764649661828 0 444.2764649661828 8.3197161281846093 0 0 0 0 -20.551913815161583 12.583299558038192 0 12.583299558038192 2.8066551576136773 0 0 0 0 176.3423309179052 89.137701661704568 0 89.137701661704568 -8.5750582982800552 0 0 0 0 -349.77061113169839 -89.255012549821799 0 -89.255012549821799 38.536181948568355 0 0 0 0 53.398462720455427 -214.45104349677501 0 -214.45104349677501 -233.38114699089169 0 0 0 0 -52.495341373876727 -46.197253267898759 0 -46.197253267898759 35.993331454763734 0 0 0 0 -131.23163339017992 1.9747837016829521 0 1.9747837016829521 30.573549297282625 0 0 0 0 9.0493903451715596 -48.200550455193252 0 -48.200550455193252 -45.920607748504779 0 0 0 0 -45.247008476750125 -36.829706489340197 0 -36.829706489340197 8.6989804435811493 0 0 0 0 -50.823763180647802 168.6326884015491 0 168.6326884015491 -7.0204281501276569 0 0 0 0 -1.5989914970996324 104.65986938328558 0 104.65986938328558 56.04312156596302 0 0 0 0 42.871783502101607 -20.921547203122401 0 -20.921547203122401 162.55554893096041 0 0 0 0 15.718049124967365 69.514857340681601 0 69.514857340681601 -35.44269150619175 0 0 0 0 -290.9979873089469 152.12524100464887 0 152.12524100464887 20.100573111844824 0 0 0 0 -96.096721329988213 152.1381391254879 0 152.1381391254879 -95.326116079226381 0 0 0 0 -123.23680035508733 98.469754024094073 0 98.469754024094073 20.590471233237622 0 0 0 0 -62.047649850404923 103.51888345487276 0 103.51888345487276 19.662604645571264 0 0 0 0 -34.002515065207263 108.9026824133357 0 108.9026824133357 -16.732789388440239 0 0 0 0 -28.681716767116995 154.41279366500638 0 154.41279366500638 -2.1492824664696855 0 0 0 0 -6.6999144334549783 98.626846165905022 0 98.626846165905022 48.944218786552938 0 0 0 0 -72.075298335854313 160.63024196385959 0 160.63024196385959 20.104871321279006 0 0 0 0 -299.38184476037713 56.535531148683617 0 56.535531148683617 154.26030943887599 0 0 0 0 -354.96853110590018 204.64028801627182 0 204.64028801627182 158.75751916861054 0 0 0 0 -0.14272386605482268 0.22095115098844076 0 0.22095115098844076 -0.417375068835387 0 0 0 0 -56.018819097258529 45.41263348147821 0 45.41263348147821 135.30221138264096 0 0 0 0 51.218599912805075 49.767942600861716 0 49.767942600861716 52.677100350686032 0 0 0 0 -171.01802008142477 -45.365268499710965 0 -45.365268499710965 -39.991020103559094 0 0 0 0 -138.34363070972177 93.983382459368499 0 93.983382459368499 -80.199976793654514 0 0 0 0 -133.59080634629936 15.559125473802624 0 15.559125473802624 224.92110112710338 0 0 0 0 -203.93876801168699 133.41606623942732 0 133.41606623942732 182.31247648443014 0 0 0 0 -81.478387823000958 145.9768998652421 0 145.9768998652421 161.31472703977238 0 0 0 0 -2.2280762932350626 -110.80155559766627 0 -110.80155559766627 213.7869226516558 0 0 0 0 80.219200371269835 1.3799883734905052 0 1.3799883734905052 119.6750824063284 0 0 0 0 -101.85653351777 31.619742356819643 0 31.619742356819643 121.4511221472149 0 0 0 0 -12.990401626615494 -32.11816196703171 0 -32.11816196703171 78.182524628528881 0 0 0 0 -148.05336032618288 -19.390425193907618 0 -19.390425193907618 75.614094742810266 0 0 0 0 -67.065881662747415 -37.524686016162832 0 -37.524686016162832 177.65418230118848 0 0 0 0 -59.652935271580645 -36.312184886134901 0 -36.312184886134901 36.216077847607266 0 0 0 0 -98.646567252246314 38.00843725821619 0 38.00843725821619 55.178240232549911 0 0 0 0 -113.82106052526797 5.5460157062032067 0 5.5460157062032067 76.884927817594814 0 0 0 0 -54.679523109123693 25.939459597943824 0 25.939459597943824 -13.165027843145936 0 0 0 0 -66.832600442823605 -11.192509691285977 0 -11.192509691285977 61.166694791458212 0 0 0 0 -28.171128463742207 -3.8163405620596222 0 -3.8163405620596222 13.779317230659103 0 0 0 0 -39.920329247404879 -18.884608843125761 0 -18.884608843125761 114.52089610291296 0 0 0 0 -71.849725739957648 -17.028502548160304 0 -17.028502548160304 119.20252925893212 0 0 0 0 -24.910144837638654 -21.691408508020004 0 -21.691408508020004 54.690909724583435 0 0 0 0 -39.196468772373919 -16.021947777143566 0 -16.021947777143566 75.598138552288219 0 0 0 0 -14.806540239380411 -42.065435183990758 0 -42.065435183990758 79.615802558021642 0 0 0 0 -13.169453495298512 -22.062726208565437 0 -22.062726208565437 107.53745857272952 0 0 0 0 -37.988386618606199 -3.9549789172722489 0 -3.9549789172722489 0.022877617654059046 0 0 0 0 -38.008816716341244 -32.864125787039711 0 -32.864125787039711 179.69998419910439 0 0 0 0 -28.142975502349145 -33.600736223423269 0 -33.600736223423269 149.87432432575588 0 0 0 0 18.126863665194833 -13.470974971317901 0 -13.470974971317901 161.45817315739714 0 0 0 0 -7.9345535501342965 -45.982236406654465 0 -45.982236406654465 150.47355658796943 0 0 0 0 -81.049245056536165 -53.589702619686477 0 -53.589702619686477 288.15341010260636 0 0 0 0 -32.103763499971592 -3.3333381160780657 0 -3.3333381160780657 0.14848265450853723 0 0 0 0 -39.439966779071256 -38.455940601894099 0 -38.455940601894099 118.45509535954065 0 0 0 0 -54.880367504512833 -40.725784818220291 0 -40.725784818220291 199.65893325928801 0 0 0 0 -10.014146700443234 -26.989369467348297 0 -26.989369467348297 114.33093250691657 0 0 0 0 -29.918559704106883 -38.088509199066721 0 -38.088509199066721 158.31160315575835 0 0 0 0 -36.041020497636055 13.629959254231835 0 13.629959254231835 233.88912352819079 0 0 0 0 -51.933765366702573 -44.121441010103581 0 -44.121441010103581 128.58851962093195 0 0 0 0 -113.59433290250035 -136.95311290977824 0 -136.95311290977824 124.42431419303034 0 0 0 0 -88.786679923214251 -77.590142635214761 0 -77.590142635214761 212.0959533951891 0 0 0 0 -57.006949499183975 -19.39995803390957 0 -19.39995803390957 179.66914680866103 0 0 0 0 -45.455652624082667 -2.516997885566667 0 -2.516997885566667 0.56198271680626211 0 0 0 0 12.180882835615193 130.93363652023777 0 130.93363652023777 10.037860301481032 0 0 0 0 -7.5241215390851721 -2.2849036136860832 0 -2.2849036136860832 109.44875735093319 0 0 0 0 -42.60293822114545 -12.424905846594129 0 -12.424905846594129 44.171873160128143 0 0 0 0 -7.5826769993800553 -48.517821073435243 0 -48.517821073435243 44.40520066715635 0 0 0 0 -67.48896329239642 -88.423367736900346 0 -88.423367736900346 124.31878924556986 0 0 0 0 -28.975222718367149 -31.027075022557483 0 -31.027075022557483 -3.3137436771145303 0 0 0 0 -8.8253772855350689 -46.749164107946626 0 -46.749164107946626 36.459839643169744 0 0 0 0 -36.121945209175465 -20.709042642413806 0 -20.709042642413806 67.37027049643757 0 0 0 0 -1.6676067564767436 -50.381983206229961 0 -50.381983206229961 84.408735593807705 0 0 0 0 -54.17354764875563 -12.552334993223894 0 -12.552334993223894 112.14837888287093 0 0 0 0 -42.874589629769616 -12.076762636639614 0 -12.076762636639614 46.082507111817449 0 0 0 0 -37.257048359066971 -42.429694803977057 0 -42.429694803977057 72.523364155719719 0 0 0 0 -35.384150586785836 -11.710301256057846 0 -11.710301256057846 71.655676649019711 0 0 0 0 -56.525345247657242 -29.710918506067856 0 -29.710918506067856 66.886894335941179 0 0 0 0 -45.30474932499601 -40.372462946642031 0 -40.372462946642031 49.919922967886578 0 0 0 0 -75.540387468972767 -33.387848019282615 0 -33.387848019282615 89.470072464119085 0 0 0 0 -36.356466714376438 -26.634490611630554 0 -26.634490611630554 55.232931225327093 0 0 0 0 -61.244641953961604 -7.2706796797644273 0 -7.2706796797644273 -0.59730399988499139 0 0 0 0 -21.343498517883944 -2.2698578735813335 0 -2.2698578735813335 0.065495875246678936 0 0 0 0 -63.062413777588517 -89.214476511958082 0 -89.214476511958082 58.359518883243766 0 0 0 0 10.36101875588065 66.537999703125479 0 66.537999703125479 -14.048438286069313 0 0 0 0 -52.44788441021862 -4.8424222182237422 0 -4.8424222182237422 -0.062568191994336608 0 0 0 0 -222.27520972878483 -82.800575343388317 0 -82.800575343388317 -106.43247588166435 0 0 0 0 -197.1416465432485 681.57076039941876 0 681.57076039941876 -344.80889042445671 0 0 0 0 -1496.3937213795871 354.56854917952666 0 354.56854917952666 145.97859475013601 0 0 0 0 -3.8936047641474048 -0.57325509487949233 0 -0.57325509487949233 -0.57947256596313712 0 0 0 0 -506.55846478702006 131.16565375290642 0 131.16565375290642 -236.52056306396824 0 0 0 0 -21.128250398745877 4.5969280023189043 0 4.5969280023189043 -143.59420462836718 0 0 0 0 -40.065587095123192 26.992729908789357 0 26.992729908789357 -21.276524527156226 0 0 0 0 -39.994662393230101 8.6738601175616026 0 8.6738601175616026 -28.211653326295249 0 0 0 0 -17.032713442678869 -45.737996186173234 0 -45.737996186173234 -108.83500783934994 0 0 0 0 -16.320918272267591 -52.108230957808246 0 -52.108230957808246 -167.04026273309071 0 0 0 0 -128.99373114471746 -94.996545582815543 0 -94.996545582815543 -51.757759316795955 0 0 0 0 -27.620329575080177 7.142411044993267 0 7.142411044993267 -69.345727543298779 0 0 0 0 -67.919974508688028 42.033470550283084 0 42.033470550283084 96.081832840331771 0 0 0 0 -160.99001708557626 -219.38967803374999 0 -219.38967803374999 198.31644405243586 0 0 0 0 -31.174363334202496 -2.1590574331178658 0 -2.1590574331178658 0.18463449538328591 0 0 0 0 -14.457224299723748 -74.175914789398121 0 -74.175914789398121 266.90624481796658 0 0 0 0 -72.392972224788537 -6.7316971208858831 0 -6.7316971208858831 160.99425116338875 0 0 0 0 -7.2302810134233653 -1.6464333017973729 0 -1.6464333017973729 3.4302138808609284 0 0 0 0 -125.27231789972575 -279.70817936421395 0 -279.70817936421395 -561.83694122896293 0 0 0 0 -10.947583014092572 3.5986779931887796 0 3.5986779931887796 -2.6961703372181569 0 0 0 0 -38.636917928219191 304.54987753959045 0 304.54987753959045 -264.07810852900025 0 0 0 0 -48.091649733039958 -28.377995431091115 0 -28.377995431091115 29.063328453415441 0 0 0 0 -140.43918477374768 52.9133944912031 0 52.9133944912031 100.53720995050401 0 0 0 0 2.6047821626179939 123.44159373013551 0 123.44159373013551 112.38219733836524 0 0 0 0 -3.9918123702509831 2.6131488946183623 0 2.6131488946183623 -1.5874556529700237 0 0 0 0 -1498.7771488635481 -362.58909585293304 0 -362.58909585293304 151.5142379944343 0 0 0 0 -575.92048800802149 -301.30298120112809 0 -301.30298120112809 153.47000611046667 0 0 0 0 -1497.0054255546925 11.107977310010636 0 11.107977310010636 167.836956517754 0 0 0 0 -8.1102505929665369 -0.90889622947060378 0 -0.90889622947060378 -1.2591764292109109 0 0 0 0 -518.38862726213119 279.62316852024969 0 279.62316852024969 -178.05668747293649 0 0 0 0 -1491.3258279958645 -525.9548074771717 0 -525.9548074771717 23.995254025233358 0 0 0 0 -342.7878615081936 -32.33174074233149 0 -32.33174074233149 -0.34545598141004796 0 0 0 0 129.21266737936821 -208.31770692582342 0 -208.31770692582342 -391.49866625424409 0 0 0 0 30.390859527389694 -369.29981700313397 0 -369.29981700313397 -301.15959195419134 0 0 0 0 -399.34575881468481 93.013605700451947 0 93.013605700451947 352.39221707756946 0 0 0 0 -3.4971522521068152 -1.36732755601249 0 -1.36732755601249 0.35009222244067079 0 0 0 0 -1494.0879611862183 -770.40233075776359 0 -770.40233075776359 18.011751048229399 0 0 0 0 -528.77817364508519 -36.52607520251749 0 -36.52607520251749 34.659230105937418 0 0 0 0 -375.08905284194043 -134.67639037648127 0 -134.67639037648127 89.581112277798027 0 0 0 0 -336.93754072949514 61.02903382972147 0 61.02903382972147 -75.768312433899823 0 0 0 0 -282.84865915439877 -166.98263593848867 0 -166.98263593848867 -245.10695635110608 0 0 0 0 20.320053460411145 -364.70403830243697 0 -364.70403830243697 -280.21765870194923 0 0 0 0 -3.4611365346655418 -1.1429018717339725 0 -1.1429018717339725 -0.052047709497253389 0 0 0 0 33.02160839523458 -94.473602287618803 0 -94.473602287618803 14.611757254102145 0 0 0 0 43.30935574385876 41.315139806116498 0 41.315139806116498 59.820312228964269 0 0 0 0 -291.1074375654789 -360.69054122902287 0 -360.69054122902287 -113.77482694814452 0 0 0 0 -207.34184226144134 -65.645590635923611 0 -65.645590635923611 42.693503085835651 0 0 0 0 -40.200249237343087 62.106031874018228 0 62.106031874018228 -90.20552645511799 0 0 0 0 -140.63181588378939 113.74551712852804 0 113.74551712852804 39.530697011120793 0 0 0 0 13.581790528231068 19.097557814785176 0 19.097557814785176 63.74501988129223 0 0 0 0 -172.53705721497954 36.789298847179985 0 36.789298847179985 66.236680854099887 0 0 0 0 -156.0107946795506 60.795457207041636 0 60.795457207041636 1.3421311235361202 0 0 0 0 -187.47711130577227 -36.859066557645349 0 -36.859066557645349 -122.35883212505841 0 0 0 0 -133.50374217255467 -32.362927414503787 0 -32.362927414503787 -143.12878181755559 0 0 0 0 -140.99932725497638 2.5255169859207385 0 2.5255169859207385 -95.3671404436937 0 0 0 0 -133.42516036312372 -26.368255364841669 0 -26.368255364841669 -95.117070021107793 0 0 0 0 -88.155530595940945 -85.708792898368046 0 -85.708792898368046 -20.301021727667184 0 0 0 0 -0.63084423527197941 -0.034479061561214941 0 -0.034479061561214941 -0.025141448128440394 0 0 0 0 6.3415533144579967 -37.951700841197173 0 -37.951700841197173 -15.46123242344423 0 0 0 0 -35.806380932830507 11.894025646742232 0 11.894025646742232 24.01851426127358 0 0 0 0 -1.7756329870717593 0.23724452117238126 0 0.23724452117238126 -0.023349222588568985 0 0 0 0 30.192611294994094 38.78643323054434 0 38.78643323054434 -20.238463627698728 0 0 0 0 -4.7011092529355665 40.979261669303469 0 40.979261669303469 -9.3485592590528483 0 0 0 0 -19.288816148364276 45.981516195806023 0 45.981516195806023 7.6224643946972321 0 0 0 0 -1.3521358573960356 0.99017624013410566 0 0.99017624013410566 -0.018919415346860657 0 0 0 0 -0.63041380441231354 0.42265394926311251 0 0.42265394926311251 -0.083187469090993921 0 0 0 0 -3.2340538528223988 79.837704044263603 0 79.837704044263603 -165.5115400528056 0 0 0 0 -21.220530712838809 30.286581280622784 0 30.286581280622784 -7.9454496618092207 0 0 0 0 -4.980555532121798 59.035482981302351 0 59.035482981302351 -17.212868607783257 0 0 0 0 -14.673945468974125 45.740763292729341 0 45.740763292729341 7.1141291118720176 0 0 0 0 -16.212262047447439 64.331187331257297 0 64.331187331257297 34.673173359195445 0 0 0 0 -21.574081180780922 27.385247343230482 0 27.385247343230482 56.367251907909974 0 0 0 0 -21.570207503811616 32.726253846581578 0 32.726253846581578 20.309382115542022 0 0 0 0 -18.425918365182042 -15.081289441136715 0 -15.081289441136715 14.470709108262639 0 0 0 0 -27.724867425829871 -46.806742390448761 0 -46.806742390448761 73.14934564628166 0 0 0 0 -53.764604895732191 98.133693087086897 0 98.133693087086897 98.03794832702269 0 0 0 0 -34.150746177856462 -1.5013596593301433 0 -1.5013596593301433 0.35539601210192412 0 0 0 0 -66.485336634679697 33.42620588029046 0 33.42620588029046 181.78353601484017 0 0 0 0 -93.416812977990048 -42.815664166794107 0 -42.815664166794107 123.76947896271753 0 0 0 0 -166.62830636793296 -6.5330799932026906 0 -6.5330799932026906 348.06237462142917 0 0 0 0 -34.932730785121151 -2.3034973843241779 0 -2.3034973843241779 0.41301610409641282 0 0 0 0 -11.815511018563484 -64.753602718835339 0 -64.753602718835339 -53.992339562755433 0 0 0 0 -6.7995624863069679 19.231671906686216 0 19.231671906686216 -97.63279751627411 0 0 0 0 -85.738147103576921 18.188527168564121 0 18.188527168564121 -21.099773100082245 0 0 0 0 -65.283331393959088 -39.054757397636337 0 -39.054757397636337 -103.27833369442848 0 0 0 0 -0.90621378510388695 -0.5711461779695739 0 -0.5711461779695739 -0.5732487010931917 0 0 0 0 -8.8406918246364512 6.6894930245367163 0 6.6894930245367163 -32.265399368512988 0 0 0 0 -8.6025517828365992 3.916251230174197 0 3.916251230174197 -17.254227290618473 0 0 0 0 -17.380970553871975 -10.795935764514496 0 -10.795935764514496 -16.315147295814086 0 0 0 0 4.081700175844162 -9.6678801509366963 0 -9.6678801509366963 -20.887559666094745 0 0 0 0 -22.765340193207521 -4.5317849241146746 0 -4.5317849241146746 -7.6450008241921665 0 0 0 0 -23.648980530662811 -1.2693214302835969 0 -1.2693214302835969 -7.6463146547423761 0 0 0 0 -17.621343359624007 -4.91830572568972 0 -4.91830572568972 -8.4341508479240019 0 0 0 0 -26.12231476785837 3.1147146493854052 0 3.1147146493854052 -13.288524375850102 0 0 0 0 -12.963759561219831 10.892327525709781 0 10.892327525709781 -0.75077554182356909 0 0 0 0 -29.673353639620473 -5.6396116652630326 0 -5.6396116652630326 -6.99793464892673 0 0 0 0 49.021838108783413 272.29348807576957 0 272.29348807576957 202.50584399849777 0 0 0 0 -104.25443027836809 -70.864274721714395 0 -70.864274721714395 46.462592403309372 0 0 0 0 -65.753847914407288 -25.023311382958351 0 -25.023311382958351 85.621647186341136 0 0 0 0 -41.429472798168717 16.044090479693523 0 16.044090479693523 64.518420163365704 0 0 0 0 -18.059050181312948 4.1420460938056891 0 4.1420460938056891 4.8733805843400999 0 0 0 0 -28.739358043388833 0.23698755451902187 0 0.23698755451902187 0.30939772940385102 0 0 0 0 -31.808440230657652 -7.4451934748418154 0 -7.4451934748418154 9.366794835147715 0 0 0 0 -16.91750275031518 5.7835291235850228 0 5.7835291235850228 -28.784412053880395 0 0 0 0 -56.045291961130715 -6.2656033308696237 0 -6.2656033308696237 2.2533039271289681 0 0 0 0 -37.301188017075376 -7.1514317808886636 0 -7.1514317808886636 -0.048008022913607062 0 0 0 0 -48.502069118592772 -6.3624675784188867 0 -6.3624675784188867 19.286512059343067 0 0 0 0 -10.596792668972427 -2.0778737587286926 0 -2.0778737587286926 -1.1306481975844227 0 0 0 0 -0.019962247853470672 -0.03247322804503483 0 -0.03247322804503483 -1.1142037951579096 0 0 0 0 -49.974009167475742 -19.927911611522333 0 -19.927911611522333 -24.236708052675564 0 0 0 0 -4.6947966776497196 -2.3688811443658153 0 -2.3688811443658153 -22.518862315319808 0 0 0 0 -22.392188049379911 12.69334549607791 0 12.69334549607791 7.2996806094246551 0 0 0 0 -13.006658098442131 -2.319519261109896 0 -2.319519261109896 -21.215861287301216 0 0 0 0 -34.349913370915601 20.189445635250806 0 20.189445635250806 18.328389107044373 0 0 0 0 -31.294857793690198 -1.3534455824989573 0 -1.3534455824989573 0.15937804748128326 0 0 0 0 -21.559644605687936 31.093642614873602 0 31.093642614873602 22.465429267937019 0 0 0 0 -15.17854293272103 41.045636671351062 0 41.045636671351062 27.723494201198491 0 0 0 0 -2.4949891500054946 7.7753298594564031 0 7.7753298594564031 0.076416964080862598 0 0 0 0 -9.6537020747655333 27.599312600759085 0 27.599312600759085 11.996837507702892 0 0 0 0 -15.326397394001106 46.64875405263723 0 46.64875405263723 21.925507823629687 0 0 0 0 -6.2499496058444493 40.498031426295441 0 40.498031426295441 27.89692569683158 0 0 0 0 -1.2726802682097116 0.92002680847074625 0 0.92002680847074625 0.057656026537957893 0 0 0 0 -17.751270516342629 28.845063170900545 0 28.845063170900545 93.00104122965962 0 0 0 0 4.1939434853193234 8.5525895018469953 0 8.5525895018469953 42.359020158740734 0 0 0 0 0.16632302901416551 28.307547088269047 0 28.307547088269047 7.0563509512090263 0 0 0 0 -16.155582892759412 2.9591265980614878 0 2.9591265980614878 40.234611012229543 0 0 0 0 -3.9619756765605416 1.6319386486601581 0 1.6319386486601581 6.9310116600339953 0 0 0 0 2.8346558756584272 13.699983421078077 0 13.699983421078077 8.0461019594136474 0 0 0 0 5.9870541436794156 15.014029003377459 0 15.014029003377459 3.6277471376577495 0 0 0 0 -2.950074149506662 0.41580383624107231 0 0.41580383624107231 -0.02501895494211745 0 0 0 0 -4.0094896955888544 4.5817837608638259 0 4.5817837608638259 -4.1434207851206279 0 0 0 0 -5.1929256118637568 3.2346618016897062 0 3.2346618016897062 4.9059218128796598 0 0 0 0 -4.1069456954067505 0.46030644394376541 0 0.46030644394376541 0.0039113517798995759 0 0 0 0 -25.169278234665398 12.841013716302392 0 12.841013716302392 47.883947845920446 0 0 0 0 28.527801826054201 15.804630341920323 0 15.804630341920323 -41.859795233273985 0 0 0 0 -0.55144329420019744 0.34240906279003891 0 0.34240906279003891 0.071250436307101289 0 0 0 0 2.5027508982675499 -23.553046180063419 0 -23.553046180063419 58.875448314792678 0 0 0 0 -95.488285435538273 13.571712219744439 0 13.571712219744439 145.9797485469187 0 0 0 0 24.519034064986045 42.29693444400575 0 42.29693444400575 34.62959421222962 0 0 0 0 1.0823066341636149 6.8960686167984742 0 6.8960686167984742 8.5900814235010046 0 0 0 0 -57.887780066223058 52.639412542958425 0 52.639412542958425 -9.753508588045591 0 0 0 0 -37.723591949787078 -34.983589799694563 0 -34.983589799694563 -44.069889963607864 0 0 0 0 -127.96799427805126 -31.200708508699371 0 -31.200708508699371 50.610852839395861 0 0 0 0 -22.135832775202289 -1.765776018501839 0 -1.765776018501839 -70.282436412913398 0 0 0 0 -20.483692035355489 -21.752869559543711 0 -21.752869559543711 19.951635404684367 0 0 0 0 -18.042645662479117 -41.011509462718962 0 -41.011509462718962 76.743033017519338 0 0 0 0 25.058595787839295 -13.325575997380867 0 -13.325575997380867 12.889320369009283 0 0 0 0 -23.641732835618313 9.2104593089573257 0 9.2104593089573257 55.555919243874364 0 0 0 0 -30.574618568898586 -6.0510097657932125 0 -6.0510097657932125 23.690730551824032 0 0 0 0 -91.792060704057803 25.64180406783484 0 25.64180406783484 90.071500569640889 0 0 0 0 -4.7833379880014775 0.12484286034576808 0 0.12484286034576808 0.12837599116447881 0 0 0 0 -4.8623648583306931 -0.58342296480450528 0 -0.58342296480450528 -2.5325799411797965 0 0 0 0 -40.386134844971821 26.854638320725876 0 26.854638320725876 84.269177817167389 0 0 0 0 -16.044241253657674 4.6143697467144511 0 4.6143697467144511 -0.036669286790762506 0 0 0 0 -0.7519866706610685 0.20965957581066164 0 0.20965957581066164 0.49731713233140973 0 0 0 0 44.913695761941199 -30.180185849214823 0 -30.180185849214823 45.585374727086844 0 0 0 0 -34.840160596118949 -52.338966911075445 0 -52.338966911075445 49.285054899581034 0 0 0 0 -3.4117576024229805 -1.5172837250314117 0 -1.5172837250314117 -0.21362808032165012 0 0 0 0 -29.201938122401771 13.097148481522904 0 13.097148481522904 -7.4675112523981575 0 0 0 0 20.494401430696598 -79.926389762862769 0 -79.926389762862769 62.813294346926924 0 0 0 0 -24.939870972615608 13.901977577784651 0 13.901977577784651 -12.353716067167474 0 0 0 0 -3.4171946444548666 0.13274498893984088 0 0.13274498893984088 -8.405527018650254 0 0 0 0 -0.17787167583310293 -1.1540861991527835 0 -1.1540861991527835 0.017376980429438089 0 0 0 0 -28.823951744023361 11.932214298096961 0 11.932214298096961 -4.2198975135459555 0 0 0 0 -44.996330542722717 11.890217337994461 0 11.890217337994461 3.5237610797974419 0 0 0 0 -33.958032252929115 15.900597400092092 0 15.900597400092092 -7.2852661299934685 0 0 0 0 -35.381014415752361 19.100705819033934 0 19.100705819033934 -8.148872267604915 0 0 0 0 -30.95102140041854 17.221794893211712 0 17.221794893211712 -10.083565106098861 0 0 0 0 -54.064549032030982 21.596984222870883 0 21.596984222870883 -4.7285862361957953 0 0 0 0 -48.936952378782735 20.212036048900792 0 20.212036048900792 -11.182426659016457 0 0 0 0 -48.672532900127408 31.367326717127145 0 31.367326717127145 -20.678471770205832 0 0 0 0 -2.2231299057245337 -1.2203765830602933 0 -1.2203765830602933 -0.30057854664297806 0 0 0 0 30.915952038498517 -68.898930128698538 0 -68.898930128698538 72.183563920748099 0 0 0 0 16.22465125661256 -7.5171083793302387 0 -7.5171083793302387 23.302945452703852 0 0 0 0 44.67251261259662 -82.855544164270327 0 -82.855544164270327 39.447093411651707 0 0 0 0 -47.284864662688051 -30.476660821547732 0 -30.476660821547732 18.74730596903936 0 0 0 0 -18.89635195053603 -5.2333692174077706 0 -5.2333692174077706 -1.8869944049185379 0 0 0 0 3.9880164516325749 -14.076506171166727 0 -14.076506171166727 -36.458062772674339 0 0 0 0 -30.367805776400928 4.0632605517496074 0 4.0632605517496074 -8.6609860167720853 0 0 0 0 11.125151500826178 -23.64225952193874 0 -23.64225952193874 -1.1357425250872666 0 0 0 0 -6.0952574632538017 14.14825628356612 0 14.14825628356612 -22.694591717149365 0 0 0 0 -45.082669903313217 12.521504386679112 0 12.521504386679112 -15.175921142982816 0 0 0 0 -126.94683877514763 -0.60022641359400097 0 -0.60022641359400097 -6.1283009744019523 0 0 0 0 -39.103202505953959 -3.8911946949291973 0 -3.8911946949291973 -7.0294353006754449 0 0 0 0 -15.890775605510498 11.78382904139022 0 11.78382904139022 -27.022233213809955 0 0 0 0 -27.736468382439455 -7.3670225839005452 0 -7.3670225839005452 -1.360760357792389 0 0 0 0 -28.431516305787227 -18.387800632567121 0 -18.387800632567121 6.7618807364645832 0 0 0 0 -17.264908060958987 -15.495303704246282 0 -15.495303704246282 -7.9742992397632406 0 0 0 0 -31.852891775994067 -21.698077306152129 0 -21.698077306152129 33.028010005109252 0 0 0 0 -34.042848155586398 -50.219735302631079 0 -50.219735302631079 23.051980755225713 0 0 0 0 -59.89462637704446 -41.463706136549803 0 -41.463706136549803 20.097590415159516 0 0 0 0 16.575652954838006 -34.281264301265537 0 -34.281264301265537 -11.105856602464115 0 0 0 0 -22.177476674958598 -59.381048479790707 0 -59.381048479790707 -0.11444670365381171 0 0 0 0 -0.78762365628790576 -4.8393642440447593 0 -4.8393642440447593 -60.543300271712724 0 0 0 0 -13.411249187054636 -0.29843804878464653 0 -0.29843804878464653 -9.4424321921059686 0 0 0 0 -1.3077629290747765 1.2106275730865335 0 1.2106275730865335 -0.77092356478748858 0 0 0 0 -257.34591129822365 -240.43571457615167 0 -240.43571457615167 -98.781506366512076 0 0 0 0 -176.64296144393302 -84.135267672978898 0 -84.135267672978898 -70.954253918821905 0 0 0 0 -13.459426986853941 -6.4293125244785756 0 -6.4293125244785756 -8.2793679028336697 0 0 0 0 -4.2733884423960902 1.7552981445665452 0 1.7552981445665452 -4.523157795607478 0 0 0 0 -17.222868344861453 -8.5058507946489268 0 -8.5058507946489268 -8.3085770922490383 0 0 0 0 -38.800789427099517 29.601148286821626 0 29.601148286821626 -19.150304027755851 0 0 0 0 -41.072061039134709 -1.7954862486655987 0 -1.7954862486655987 0.13877748955889724 0 0 0 0 -53.804387735614 -276.23107245132587 0 -276.23107245132587 530.47408477222143 0 0 0 0 -75.086198091939877 47.156481879276271 0 47.156481879276271 113.18021197055174 0 0 0 0 -54.772491988687761 -1.5772462374941583 0 -1.5772462374941583 0.60748647415897206 0 0 0 0 -35.779140085845484 15.166509068881794 0 15.166509068881794 16.132755450873447 0 0 0 0 -72.974126956585678 110.14400163849359 0 110.14400163849359 70.1881743888448 0 0 0 0 -145.5043263083644 -37.187480049683018 0 -37.187480049683018 396.8203298970252 0 0 0 0 -12.561415373624186 10.332699528067224 0 10.332699528067224 -60.500750859433197 0 0 0 0 -53.331512231271518 -188.37439425062638 0 -188.37439425062638 -165.44661664945625 0 0 0 0 -5.1202973760878194 -173.86523189802432 0 -173.86523189802432 -40.654384153680894 0 0 0 0 -8.7981418131603277 -58.160453840262107 0 -58.160453840262107 -0.33017493929781949 0 0 0 0 -39.027414294767368 -87.517328986088614 0 -87.517328986088614 195.716348472557 0 0 0 0 -30.254118965094676 -74.175504611512906 0 -74.175504611512906 -4.1879532917432698 0 0 0 0 -25.309183675201183 -1.431738572308646 0 -1.431738572308646 -0.20023981301896887 0 0 0 0 -37.251545287411318 31.982858838769971 0 31.982858838769971 -80.278378583221638 0 0 0 0 -33.678609263766702 29.044866770810927 0 29.044866770810927 -22.66993109507348 0 0 0 0 -32.450153060741286 22.984409095089177 0 22.984409095089177 -64.085762792145943 0 0 0 0 -47.363926770963417 51.14082688848552 0 51.14082688848552 -76.226322925640034 0 0 0 0 -47.024997821965371 46.765451361823466 0 46.765451361823466 -38.248951624068241 0 0 0 0 -32.952029316342305 36.8896257651121 0 36.8896257651121 -31.87803745045926 0 0 0 0 -32.64156209293651 36.182480065399318 0 36.182480065399318 -56.996377695420506 0 0 0 0 -21.931067530389555 47.223418289254369 0 47.223418289254369 -46.765092311977241 0 0 0 0 -42.428436450587469 77.526434419574798 0 77.526434419574798 -14.2869743198778 0 0 0 0 -48.994289577054587 52.272480967683578 0 52.272480967683578 9.9322894639933565 0 0 0 0 -25.6132153396793 23.116245524177202 0 23.116245524177202 -64.080395965701598 0 0 0 0 -21.868949452802553 45.476037998675324 0 45.476037998675324 -76.845434696269422 0 0 0 0 -36.665822723733982 -25.782422399991134 0 -25.782422399991134 -46.830342103862449 0 0 0 0 -36.037971575107804 40.255512883805579 0 40.255512883805579 -79.920891289449628 0 0 0 0 -29.421878400507921 25.294309530159126 0 25.294309530159126 -35.366411859402888 0 0 0 0 -38.598683954518492 13.356784905794541 0 13.356784905794541 -41.7796102216561 0 0 0 0 -0.81397686458105056 -0.054133366470594524 0 -0.054133366470594524 0.93961887144977396 0 0 0 0 -47.465914076034096 7.7963743125604026 0 7.7963743125604026 -1.2298688483085698 0 0 0 0 -40.204598078158597 14.511161484395046 0 14.511161484395046 -0.30538319365054534 0 0 0 0 -19.235459574204469 4.1457149166653302 0 4.1457149166653302 2.7112804290211443 0 0 0 0 -46.381702615793984 3.6248181379073543 0 3.6248181379073543 10.06948076312483 0 0 0 0 -45.069364914328617 1.6195224851189778 0 1.6195224851189778 9.9555136217258138 0 0 0 0 -42.13639847066861 0.65192588235817084 0 0.65192588235817084 2.3134157988183688 0 0 0 0 -37.132503797405661 6.7449784452107906 0 6.7449784452107906 3.200477204918343 0 0 0 0 -19.441482360365626 -4.2523737523935097 0 -4.2523737523935097 0.4949918617712683 0 0 0 0 -46.068476663111142 0.090259670618763721 0 0.090259670618763721 12.107238947099631 0 0 0 0 -46.51651230400239 9.2935078690653654 0 9.2935078690653654 -4.3482495815559332 0 0 0 0 -50.911040326656803 5.5229116732642183 0 5.5229116732642183 19.820906784711838 0 0 0 0 -42.171235107568464 -13.768805508105672 0 -13.768805508105672 36.57736672024879 0 0 0 0 -38.080125448101171 -2.0172486131333613 0 -2.0172486131333613 11.180478107561768 0 0 0 0 -42.793860753061381 4.7027159463433463 0 4.7027159463433463 8.1058585605239841 0 0 0 0 -42.159129138497519 17.427466331888439 0 17.427466331888439 -1.2163010709679156 0 0 0 0 -48.302849011201033 33.045412380738696 0 33.045412380738696 -32.806227524820656 0 0 0 0 -61.730307023092791 23.051832092001149 0 23.051832092001149 10.961510985694986 0 0 0 0 -54.157367430059821 18.771107012946743 0 18.771107012946743 0.27867502005429401 0 0 0 0 -74.34907958770782 14.543817193949678 0 14.543817193949678 29.097793539440318 0 0 0 0 -59.173879099711485 -19.838459243124817 0 -19.838459243124817 21.829351090610089 0 0 0 0 -58.161163238302834 -20.530951890881454 0 -20.530951890881454 22.290613249946773 0 0 0 0 -39.973558750636585 -0.91541538693854818 0 -0.91541538693854818 41.204601720486039 0 0 0 0 -47.573361546966225 -33.282862525676762 0 -33.282862525676762 71.138002372338178 0 0 0 0 -30.238038719919132 -12.32285067792634 0 -12.32285067792634 29.057317070481087 0 0 0 0 -48.031925563704135 5.0447294973276406 0 5.0447294973276406 28.36906562431512 0 0 0 0 -44.846114461415709 25.969264376317369 0 25.969264376317369 -59.232448606081903 0 0 0 0 -34.733280349319919 -6.0098134946347486 0 -6.0098134946347486 6.5845791123102293 0 0 0 0 -40.50360728686519 18.720894639870437 0 18.720894639870437 -55.170069338174244 0 0 0 0 -35.896626209885873 -5.8691515250194275 0 -5.8691515250194275 6.7141011951931286 0 0 0 0 -56.880669163230777 43.300427380968586 0 43.300427380968586 -60.392008717768931 0 0 0 0 -24.582575419739442 7.7774411135198989 0 7.7774411135198989 -54.928071195674875 0 0 0 0 -26.87263229221935 7.2744418793161003 0 7.2744418793161003 -54.585281363691934 0 0 0 0 -41.366005925268837 10.062608300867396 0 10.062608300867396 -36.836412549659144 0 0 0 0 -38.781038270819408 13.175566498629564 0 13.175566498629564 -46.050913942883199 0 0 0 0 -41.188390933846676 12.213193875811157 0 12.213193875811157 -41.043429796048258 0 0 0 0 -37.609681893096422 8.9388349486757761 0 8.9388349486757761 -43.619055276077688 0 0 0 0 -32.792323707159994 0.39717596214370587 0 0.39717596214370587 -31.761535215078766 0 0 0 0 -40.269783682604611 11.517363653406846 0 11.517363653406846 -37.085504021069028 0 0 0 0 -42.805693777979286 8.3697819729986804 0 8.3697819729986804 -32.790716593720845 0 0 0 0 -35.079226200593659 -4.1232736449992728 0 -4.1232736449992728 5.5902080433564114 0 0 0 0 -11.701899287533251 -67.798295523270596 0 -67.798295523270596 -7.1753771991504891 0 0 0 0 -34.872399711857724 -26.776287187121284 0 -26.776287187121284 73.50935806182531 0 0 0 0 -0.61188005002229318 -3.0478236924726074 0 -3.0478236924726074 1.1821247389656631 0 0 0 0 -66.688436192380323 -64.866388809495675 0 -64.866388809495675 38.874985027847515 0 0 0 0 0.063243264041375369 -13.180525375548996 0 -13.180525375548996 17.717941461397004 0 0 0 0 0.14808162462531982 -15.861865046095676 0 -15.861865046095676 -3.0092834939528075 0 0 0 0 11.313809309427597 -30.60666550530118 0 -30.60666550530118 -33.908888197402121 0 0 0 0 -1.3152789397136075 -41.241350811819757 0 -41.241350811819757 4.9781492184423541 0 0 0 0 94.755454400074086 -21.677380777258691 0 -21.677380777258691 -34.232587922775565 0 0 0 0 33.143507063062316 3.2433031685489482 0 3.2433031685489482 -8.8386653264274173 0 0 0 0 30.123524389229715 -98.090776277714781 0 -98.090776277714781 -72.687965998277832 0 0 0 0 290.13893920397823 -74.637462439139199 0 -74.637462439139199 -71.050289640499841 0 0 0 0 -17.541617236398451 -265.21670404053498 0 -265.21670404053498 6.0883518280315911 0 0 0 0 -239.87543023596663 -58.927599222110985 0 -58.927599222110985 40.242229751866034 0 0 0 0 -44.536380998915774 -61.004226802051448 0 -61.004226802051448 6.2375440864843767 0 0 0 0 -5.2822232314119901 -47.330593172616432 0 -47.330593172616432 10.999115711255854 0 0 0 0 -74.865254475505935 -86.562366477520982 0 -86.562366477520982 21.818492733222683 0 0 0 0 -90.995032483226169 28.756697437833395 0 28.756697437833395 -4.4033957037154323 0 0 0 0 -148.57039937245645 -5.7027992033686132 0 -5.7027992033686132 35.56147980464641 0 0 0 0 -105.93190771334412 47.12620670764386 0 47.12620670764386 -5.7878628117912854 0 0 0 0 -47.672592780832929 33.785721512558439 0 33.785721512558439 -65.512517270391299 0 0 0 0 -264.66965519714722 92.390312650073611 0 92.390312650073611 -17.30625297244751 0 0 0 0 -180.96429387059106 -25.832415732063282 0 -25.832415732063282 6.3745543855493452 0 0 0 0 -643.2056951206614 103.25928850839864 0 103.25928850839864 -0.59515804034532493 0 0 0 0 -8.6360387165230463 -0.70662462090906075 0 -0.70662462090906075 -0.41785947146428393 0 0 0 0 -220.76551911751812 235.22913836293765 0 235.22913836293765 -316.34479109097538 0 0 0 0 -46.045434032574121 78.370576622581211 0 78.370576622581211 -179.353587960607 0 0 0 0 -66.186201798886032 -66.913042136671265 0 -66.913042136671265 15.70165854251627 0 0 0 0 -64.210383704525157 -45.688910250533127 0 -45.688910250533127 29.185546648362902 0 0 0 0 -203.64849521400902 -240.18554026506899 0 -240.18554026506899 -216.54396439443508 0 0 0 0 -446.34642377850469 126.32219126541304 0 126.32219126541304 253.02697065748464 0 0 0 0 374.54064187831318 255.95792689987729 0 255.95792689987729 -525.65865903600934 0 0 0 0 373.30371762063442 301.659918100298 0 301.659918100298 -137.36400221553413 0 0 0 0 -21.063422158153116 0.38465214760537947 0 0.38465214760537947 -12.754776839440211 0 0 0 0 -13.386012247692022 11.901202105410704 0 11.901202105410704 -5.700047223510583 0 0 0 0 76.702773740702469 122.42430237046869 0 122.42430237046869 28.415592128292701 0 0 0 0 -3.9322341860701187 4.4904097549908215 0 4.4904097549908215 -1.2426465547656473 0 0 0 0 462.59887537220493 -208.68865003871315 0 -208.68865003871315 98.064346739906341 0 0 0 0 149.29042809523526 65.224245351130321 0 65.224245351130321 63.264153873169334 0 0 0 0 -264.73391760666163 -347.59544825130502 0 -347.59544825130502 -327.63720192435721 0 0 0 0 -22.032881895655009 10.910267670770665 0 10.910267670770665 -13.311208105569547 0 0 0 0 -14.092471555064549 8.1595975382027461 0 8.1595975382027461 -13.966209756328652 0 0 0 0 -9.5120270203988184 10.066440691389968 0 10.066440691389968 -15.245746680948766 0 0 0 0 -13.645593041528628 9.7062122756852602 0 9.7062122756852602 -14.921196625873641 0 0 0 0 -6.1421207367979491 -0.74932738039250779 0 -0.74932738039250779 -3.9986545956833974 0 0 0 0 -19.889500022540687 6.1554008776583444 0 6.1554008776583444 -17.655162435566808 0 0 0 0 -2.0423500530112904 -2.0719572998371447 0 -2.0719572998371447 -1.4600987909876686 0 0 0 0 -21.468602211687539 14.670223805376637 0 14.670223805376637 -18.799922431555984 0 0 0 0 -21.806332260159252 13.574272470030166 0 13.574272470030166 -18.493154703350228 0 0 0 0 -24.940793820976069 20.419406171069078 0 20.419406171069078 -29.001634324972912 0 0 0 0 -50.255967536933895 26.969108006627565 0 26.969108006627565 -11.983460470798519 0 0 0 0 -32.728323779738275 14.755657017531234 0 14.755657017531234 -6.9770091901380624 0 0 0 0 -51.370312670116618 5.890138522005099 0 5.890138522005099 12.355004022462353 0 0 0 0 -40.686453375983547 14.670345713815273 0 14.670345713815273 -5.0870299809328969 0 0 0 0 -32.13362058797793 13.200733926282012 0 13.200733926282012 -8.0565740626999798 0 0 0 0 -32.219344429846387 9.2475888546986482 0 9.2475888546986482 -1.6193327795483028 0 0 0 0 -30.395831640424149 11.237290474218295 0 11.237290474218295 -8.466834917479904 0 0 0 0 -24.612784367622226 7.5799443025132263 0 7.5799443025132263 -7.3616994804825922 0 0 0 0 -21.520880113850836 -2.9914927735698207 0 -2.9914927735698207 4.1809869219105416 0 0 0 0 -28.807560619927244 4.722979057203986 0 4.722979057203986 -4.0279519862888549 0 0 0 0 -27.659890895191893 7.4829099709973965 0 7.4829099709973965 -7.1752314898884464 0 0 0 0 -14.296126393513987 -2.6213309882574549 0 -2.6213309882574549 -2.5632314803441432 0 0 0 0 -31.434497499678628 -3.0139761473953155 0 -3.0139761473953155 8.9355864755414984 0 0 0 0 -8.1265250300569143 1.5527101177285374 0 1.5527101177285374 -0.1823177661606539 0 0 0 0 -38.63265639742167 5.9332132006232428 0 5.9332132006232428 -3.3264279949867799 0 0 0 0 -6.1413480526952906 0.64368226907694037 0 0.64368226907694037 -5.6218790082769505 0 0 0 0 -10.589813581753333 -1.8907341693995434 0 -1.8907341693995434 -11.493599589814266 0 0 0 0 -12.427197553090082 0.81280195776105302 0 0.81280195776105302 -4.7077543719811956 0 0 0 0 -26.608501075337699 6.2900152446206903 0 6.2900152446206903 -11.411534297203843 0 0 0 0 -26.408337533623126 2.8101840566832834 0 2.8101840566832834 -7.02284979476849 0 0 0 0 -31.249005879865763 6.4821980453169061 0 6.4821980453169061 -9.807290872579415 0 0 0 0 -21.864821015631605 6.3029855468053384 0 6.3029855468053384 -9.7459473984739518 0 0 0 0 -21.127046225568947 -3.2089009787133449 0 -3.2089009787133449 4.3460504263721891 0 0 0 0 -13.451130096669658 4.3619633876366244 0 4.3619633876366244 -9.6263709061396909 0 0 0 0 -21.212712173182808 8.3164074837151354 0 8.3164074837151354 -8.7490361510165755 0 0 0 0 -7.634269405861815 8.5686932574441457 0 8.5686932574441457 -10.816074452643846 0 0 0 0 24.793657857917424 27.304609376169765 0 27.304609376169765 -12.333976773864237 0 0 0 0 -4.8238438234984642 6.4864153002590683 0 6.4864153002590683 -8.8004523777765371 0 0 0 0 -8.4954967960253711 6.9943276217035972 0 6.9943276217035972 -8.4598389964322251 0 0 0 0 -7.7094520167047449 -1.8531756890447468 0 -1.8531756890447468 -4.1151352368124208 0 0 0 0 14.263381706736254 -16.182743735221834 0 -16.182743735221834 -4.6908739045002221 0 0 0 0 -21.65995813140762 3.9329135163159208 0 3.9329135163159208 6.705495221133333 0 0 0 0 -25.32867121730041 3.0563280588525035 0 3.0563280588525035 1.086735323422656 0 0 0 0 -14.061552174417699 -0.7347259065761591 0 -0.7347259065761591 -1.4784258646778357 0 0 0 0 -13.291490480593225 0.073021406602549632 0 0.073021406602549632 0.48638637485909531 0 0 0 0 -29.983731072381488 2.723267128706766 0 2.723267128706766 8.0883422864217209 0 0 0 0 -24.857556856003157 -1.4284516141960069 0 -1.4284516141960069 1.321475659274256 0 0 0 0 -22.93942655399951 11.603795304482674 0 11.603795304482674 -5.6650922924263796 0 0 0 0 -24.445381418761826 0.52432583046334003 0 0.52432583046334003 -6.2059886577048928 0 0 0 0 -19.614250649850874 -2.0473396736936138 0 -2.0473396736936138 -32.371564140883947 0 0 0 0 -34.849276279888727 -3.3004362012356978 0 -3.3004362012356978 -15.699277521148986 0 0 0 0 -24.276719345863967 -6.857380231679258 0 -6.857380231679258 -49.366541394953629 0 0 0 0 -32.358698186808397 -27.019157902195616 0 -27.019157902195616 -56.259588388555358 0 0 0 0 -24.514987665224908 -10.666864146906164 0 -10.666864146906164 -29.181212709370755 0 0 0 0 -7.3371193990496977 -17.478638022780274 0 -17.478638022780274 -59.999437626278279 0 0 0 0 3.1219823648625606 -3.2978163606395015 0 -3.2978163606395015 -62.810803309097423 0 0 0 0 -19.755193342500206 0.58986281094217929 0 0.58986281094217929 -56.325153571964165 0 0 0 0 -37.803871668274951 20.798429396562483 0 20.798429396562483 -76.356794256054854 0 0 0 0 0.23327951130801772 -1.2660531129410657 0 -1.2660531129410657 -0.95489051747794029 0 0 0 0 -20.614379845826988 -47.031061701687634 0 -47.031061701687634 -125.47567888480853 0 0 0 0 -79.387799448437363 -51.687158524414031 0 -51.687158524414031 -44.258239763746133 0 0 0 0 -44.061383855771055 -7.1927897007719253 0 -7.1927897007719253 -1.2536230857886039 0 0 0 0 -20.135049532378616 4.7925159670755875 0 4.7925159670755875 -16.238241810563068 0 0 0 0 -55.958530918607721 -2.040646070683465 0 -2.040646070683465 7.0119417729958968 0 0 0 0 -28.153801663524064 8.8293136653221609 0 8.8293136653221609 10.641922843360589 0 0 0 0 -24.266155246823473 2.3051621636852815 0 2.3051621636852815 -1.9110799825471076 0 0 0 0 -16.473216191971787 6.7561082366832395 0 6.7561082366832395 -3.5036045007337546 0 0 0 0 -32.372961785189545 5.055064016596134 0 5.055064016596134 7.7560615473071266 0 0 0 0 -4.2586595138358323 0.040731664053240024 0 0.040731664053240024 -2.9945870534761063 0 0 0 0 -20.402703340697371 6.6794338035471128 0 6.6794338035471128 -8.3032267255475745 0 0 0 0 -18.209115431753119 1.3956859686427423 0 1.3956859686427423 -2.3816541444098611 0 0 0 0 -27.376212817267515 9.6793651947264152 0 9.6793651947264152 7.6447243970569616 0 0 0 0 -29.770602689425687 4.8506911734725691 0 4.8506911734725691 -7.2694316674492256 0 0 0 0 -20.160681538401846 6.3948379900060406 0 6.3948379900060406 -1.7921713458385169 0 0 0 0 -1.6030130728254477 -3.6231807808144518 0 -3.6231807808144518 1.8590049991851112 0 0 0 0 -26.259030388755491 5.1171716505509153 0 5.1171716505509153 -4.7381374647270604 0 0 0 0 -28.760366338625317 5.612720326496401 0 5.612720326496401 3.6884861367393569 0 0 0 0 -29.056933097497676 7.1903379307427713 0 7.1903379307427713 -4.3987169251588512 0 0 0 0 -29.25719740976092 -0.71344034296504333 0 -0.71344034296504333 -0.78652258421425358 0 0 0 0 -14.499103089992332 7.6981384551550214 0 7.6981384551550214 -12.602550297670632 0 0 0 0 -15.408502860882436 9.8264615382419152 0 9.8264615382419152 -8.638408347801203 0 0 0 0 -4.3483911751969844 1.1222829419471623 0 1.1222829419471623 -5.7578886848701609 0 0 0 0 -15.155911469257262 0.8423273891125973 0 0.8423273891125973 -23.106673786224803 0 0 0 0 -21.268805338506354 14.761803391140973 0 14.761803391140973 -15.338086605813999 0 0 0 0 -13.956353517434763 5.9716450708997399 0 5.9716450708997399 -7.4636493979907073 0 0 0 0 -25.783365264447639 23.859455495718294 0 23.859455495718294 -38.168470222681378 0 0 0 0 -0.33264572401191117 -0.29873192447505659 0 -0.29873192447505659 -0.40637674476251728 0 0 0 0 -25.01153096658436 4.8547295000338266 0 4.8547295000338266 -3.099896114688022 0 0 0 0 -11.04031068632996 3.3621040917175788 0 3.3621040917175788 -2.1250192376284116 0 0 0 0 76.911814134276938 36.678403986146122 0 36.678403986146122 -70.090114270942109 0 0 0 0 -4.2244699340219398 1.3902766594554805 0 1.3902766594554805 -1.6851803193960051 0 0 0 0 -16.103123786673677 4.7530360624870696 0 4.7530360624870696 -4.2500638228276273 0 0 0 0 -14.394026023956414 6.0880855872118094 0 6.0880855872118094 -2.8170465378406897 0 0 0 0 -16.536303724617028 11.620037830886986 0 11.620037830886986 -4.7675451825109576 0 0 0 0 -21.684170457014261 8.414860498131759 0 8.414860498131759 -0.86341706306632204 0 0 0 0 -17.149996385513077 7.6907123472292369 0 7.6907123472292369 2.0466554609947707 0 0 0 0 3.5855771211172396 18.16884452371221 0 18.16884452371221 -4.9812113362938817 0 0 0 0 -2.682525101192482 0.11910988710319259 0 0.11910988710319259 -5.3419910357103353 0 0 0 0 -129.65617658447263 111.27866990284383 0 111.27866990284383 17.65678189199798 0 0 0 0 -29.192931546955151 4.3239813292862408 0 4.3239813292862408 -210.58606704318402 0 0 0 0 -287.94335050569134 167.77729024629551 0 167.77729024629551 41.278421112375298 0 0 0 0 -224.10010060499735 189.21598282473875 0 189.21598282473875 -248.59071789646669 0 0 0 0 17.748117872073635 -41.221573154292855 0 -41.221573154292855 -87.372566859622282 0 0 0 0 -0.096568272252635978 -0.54603066474113149 0 -0.54603066474113149 -2.0489700457982245 0 0 0 0 -332.49795747818462 282.93118200707079 0 282.93118200707079 -254.64045820881324 0 0 0 0 -41.052891152335178 31.621668301744762 0 31.621668301744762 16.916517366470089 0 0 0 0 -882.12519400438759 258.57702938460932 0 258.57702938460932 -34.934532061113359 0 0 0 0 -730.88008875479863 40.563377395502677 0 40.563377395502677 -211.95131020603171 0 0 0 0 -296.27722837186229 361.37323351533587 0 361.37323351533587 -376.24752303984235 0 0 0 0 -132.05750396155418 20.379996632645998 0 20.379996632645998 -201.17970407682316 0 0 0 0 -582.99254426828156 733.45183834140573 0 733.45183834140573 -624.93447053382397 0 0 0 0 -1552.4051512335136 260.11945950040797 0 260.11945950040797 -19.00191732902767 0 0 0 0 -1500.1622954005052 326.13277740464724 0 326.13277740464724 -567.1330974774429 0 0 0 0 -1583.1711539302487 476.50582016652373 0 476.50582016652373 -66.848025853657461 0 0 0 0 -1398.2806870942804 165.63514984969214 0 165.63514984969214 99.622113224812637 0 0 0 0 22.168770491342002 2.5109415275862403 0 2.5109415275862403 -318.08277035896998 0 0 0 0 -805.61283776002529 -308.79273604668708 0 -308.79273604668708 62.591103486032523 0 0 0 0 10.541227356785384 62.826107550648416 0 62.826107550648416 25.4239533453121 0 0 0 0 -4.9898134389086266 1.5295460381028461 0 1.5295460381028461 -0.63000788677963659 0 0 0 0 -50.211272670450853 -115.58691266692881 0 -115.58691266692881 -19.849058616665559 0 0 0 0 -79.004388522262161 -72.951715210982996 0 -72.951715210982996 -21.513127238703987 0 0 0 0 -223.40653287040186 -166.8075558918836 0 -166.8075558918836 -43.397243232011419 0 0 0 0 -1500.8510623496531 364.36714433320299 0 364.36714433320299 -274.13368329217883 0 0 0 0 132.04449967922119 120.7027411895304 0 120.7027411895304 -63.540597433662526 0 0 0 0 -2.804345395451616 2.3704684675340317 0 2.3704684675340317 -1.1611119930958524 0 0 0 0 -444.1735676266162 307.5551748099121 0 307.5551748099121 -83.833866545281296 0 0 0 0 -1920.3491237129147 -331.44832967300977 0 -331.44832967300977 -138.10263755295713 0 0 0 0 -1403.7165361440348 -436.35727845660455 0 -436.35727845660455 -146.53534841474163 0 0 0 0 -5.5664814482003599 6.9279760421379706 0 6.9279760421379706 -2.6738033019706449 0 0 0 0 -1339.6545467182932 -320.58214934179415 0 -320.58214934179415 -73.69647144224902 0 0 0 0 -1422.1296371719 -311.12570687659547 0 -311.12570687659547 -8.221703298308725 0 0 0 0 -1499.7434410144269 -370.95898150962682 0 -370.95898150962682 -30.212968822831186 0 0 0 0 13.923208468122539 55.344354643489368 0 55.344354643489368 21.209311487789819 0 0 0 0 -30.545098673082975 5.3771078046069078 0 5.3771078046069078 8.3096102258473366 0 0 0 0 -56.289710868533803 14.405968868627099 0 14.405968868627099 -10.969426847147247 0 0 0 0 -73.255602420736977 26.856883006391172 0 26.856883006391172 85.840943419545397 0 0 0 0 -73.26540755804308 -47.785240855481788 0 -47.785240855481788 35.452433554308072 0 0 0 0 -57.870484873647001 -64.778941617547531 0 -64.778941617547531 -40.299085970965621 0 0 0 0 -54.033159448292281 -40.913804171995196 0 -40.913804171995196 -35.455361220465534 0 0 0 0 -90.391917307022595 -10.13702678142505 0 -10.13702678142505 25.52362133463464 0 0 0 0 -20.947895218690974 -13.035171595968393 0 -13.035171595968393 -71.860840003786507 0 0 0 0 -13.054564737161854 3.8296718764392779 0 3.8296718764392779 -19.192044776284547 0 0 0 0 -17.494919098055107 2.0545407413379309 0 2.0545407413379309 -23.321447701965326 0 0 0 0 -17.785757089113758 -10.764095654982043 0 -10.764095654982043 -32.117712855994114 0 0 0 0 -17.629683992025093 -8.4628491202439591 0 -8.4628491202439591 -8.535744459371017 0 0 0 0 -21.499140201845876 -10.345068161028053 0 -10.345068161028053 -0.9306510554852423 0 0 0 0 -21.611549519586319 -5.1392913411731378 0 -5.1392913411731378 1.2843439187988031 0 0 0 0 -24.926705731955735 -16.599482459134094 0 -16.599482459134094 3.5609893122586413 0 0 0 0 -42.205458874461328 -21.286496730636372 0 -21.286496730636372 -4.2844223207230243 0 0 0 0 -41.782472161943588 1.0737821874660654 0 1.0737821874660654 9.5536433483306382 0 0 0 0 -34.058323018172814 8.8424886418094957 0 8.8424886418094957 11.424427877739902 0 0 0 0 -21.802642831675456 -4.7442282757390046 0 -4.7442282757390046 1.648257799921014 0 0 0 0 -32.599507611666922 3.0291066425721738 0 3.0291066425721738 8.3590265983831671 0 0 0 0 -52.222172536348353 -4.1752258843274292 0 -4.1752258843274292 -22.588431542299702 0 0 0 0 -25.700052138949104 17.163704017743356 0 17.163704017743356 -6.980688125554849 0 0 0 0 -35.10641435488651 -32.265557312424548 0 -32.265557312424548 6.4380300476374828 0 0 0 0 -336.32069673931983 -123.23465781475994 0 -123.23465781475994 -51.724087068305835 0 0 0 0 -832.19971268716472 -137.82824807458042 0 -137.82824807458042 150.96072826200398 0 0 0 0 -1.9706939402371688 1.4022579711258416 0 1.4022579711258416 0.94326098005856629 0 0 0 0 -1074.9519735795402 -99.107837120756656 0 -99.107837120756656 194.42497705829811 0 0 0 0 -660.13203060683736 -106.73371370616275 0 -106.73371370616275 -177.96183110078002 0 0 0 0 -934.10136031297043 86.392781976625656 0 86.392781976625656 194.86567199497162 0 0 0 0 -1224.1735413273273 90.673502879147563 0 90.673502879147563 203.0752180387322 0 0 0 0 -1114.1888676010058 -169.22209773068795 0 -169.22209773068795 70.876163346668591 0 0 0 0 -1038.3447776740081 -106.83829821546169 0 -106.83829821546169 18.985196707553172 0 0 0 0 -1500.5350570560586 -103.86513056272256 0 -103.86513056272256 212.60289641662166 0 0 0 0 -1194.8277522953213 -237.62720401334772 0 -237.62720401334772 -3.9980641362460219 0 0 0 0 -1041.0032193632615 -142.59657942708543 0 -142.59657942708543 20.254583908282996 0 0 0 0 -29.834509527703631 6.930942316772871 0 6.930942316772871 7.6736977335549739 0 0 0 0 -8.7819929530514571 9.9878741497312546 0 9.9878741497312546 -3.8380883959573966 0 0 0 0 -40.972798031061757 -90.568046303011215 0 -90.568046303011215 155.63844268517323 0 0 0 0 -51.255339372066373 35.17198108556795 0 35.17198108556795 47.969578846123568 0 0 0 0 -9.7494901364403042 -8.0397647211421095 0 -8.0397647211421095 -3.1495884572913457 0 0 0 0 -515.06931703900773 283.02145052545234 0 283.02145052545234 -174.39592658612301 0 0 0 0 0.10808978575144579 -5.4652683821502288 0 -5.4652683821502288 0.026919548949040983 0 0 0 0 -1499.6214551538087 729.08899941537004 0 729.08899941537004 -238.2591443340759 0 0 0 0 -804.06805437990988 269.59500742243631 0 269.59500742243631 23.411786984444674 0 0 0 0 -761.59278676110989 141.51744124788391 0 141.51744124788391 41.584163026272222 0 0 0 0 -1496.3090122379108 55.46421110249841 0 55.46421110249841 278.80045054339587 0 0 0 0 -925.4494773748429 -219.79352119807413 0 -219.79352119807413 12.098002174468332 0 0 0 0 -275.26878207939444 -18.081019586229644 0 -18.081019586229644 -149.4633498761244 0 0 0 0 -928.6341241945629 183.52281051315521 0 183.52281051315521 52.591859634208376 0 0 0 0 -958.02018017207229 315.82074719441783 0 315.82074719441783 29.434688776771996 0 0 0 0 -221.41338360129339 218.1020832338132 0 218.1020832338132 -101.91812648174631 0 0 0 0 -194.08204441388625 67.268488325677538 0 67.268488325677538 -50.58811160622632 0 0 0 0 -3.602926284991554 -15.163297570879877 0 -15.163297570879877 9.1739457674720306 0 0 0 0 -11.450133625418601 -3.6110930295562156 0 -3.6110930295562156 4.2262442936616766 0 0 0 0 -3.6340284325724497 -2.1312728019244105 0 -2.1312728019244105 6.8550336195905857 0 0 0 0 -8.2064067128562783 -8.134198404262861 0 -8.134198404262861 -0.5872574947393332 0 0 0 0 354.34441914269701 -192.87763611356058 0 -192.87763611356058 107.46264642391179 0 0 0 0 566.53128745374852 -32.869925243499893 0 -32.869925243499893 -57.49657810300414 0 0 0 0 154.37473566442713 -240.79775511517505 0 -240.79775511517505 162.09184672197807 0 0 0 0 -32.949668524663139 3.3440991694003515 0 3.3440991694003515 31.47982045767003 0 0 0 0 -1.3978560797466599 0.41762061344572743 0 0.41762061344572743 0.97173225229801563 0 0 0 0 -20.141996703736368 9.6698242591542112 0 9.6698242591542112 34.187373682663065 0 0 0 0 -3.4996034281227217 2.2790897899108984 0 2.2790897899108984 10.4797232623749 0 0 0 0 -12.640879715272305 -4.6852440337569536 0 -4.6852440337569536 2.718960051037961 0 0 0 0 -17.718251030360989 -11.565780828857385 0 -11.565780828857385 5.7465910732391876 0 0 0 0 -5.5568574394536157 -7.3998290551214598 0 -7.3998290551214598 -0.87368481994705194 0 0 0 0 -38.336703695811593 9.2984805452738328 0 9.2984805452738328 86.014896124292761 0 0 0 0 12.389216859824955 7.4720515754530652 0 7.4720515754530652 17.356224381091806 0 0 0 0 12.139660209162685 7.7707806890056474 0 7.7707806890056474 29.718169143987552 0 0 0 0 -19.122111372449581 22.969290518117361 0 22.969290518117361 23.37892072508339 0 0 0 0 33.545377212118183 58.953651700125448 0 58.953651700125448 44.216397999227524 0 0 0 0 -59.989960471854374 26.543433913543563 0 26.543433913543563 65.369032853118938 0 0 0 0 -49.001375685576932 -14.866139429265644 0 -14.866139429265644 81.299905597747582 0 0 0 0 0.99227355397216144 1.1050418637300226 0 1.1050418637300226 3.0102500361848707 0 0 0 0 204.01105262916099 -577.27954701281033 0 -577.27954701281033 437.67939814053261 0 0 0 0 44.839488381447154 70.946633031406805 0 70.946633031406805 52.968159697929991 0 0 0 0 0.094595862763526384 -241.77653675327838 0 -241.77653675327838 261.37316193032757 0 0 0 0 32.931852782791793 7.7522525917798131 0 7.7522525917798131 -14.141235209854358 0 0 0 0 -68.09831613350616 -166.61396403615436 0 -166.61396403615436 268.66923219844807 0 0 0 0 -154.80751489505201 -222.55838872559104 0 -222.55838872559104 404.30854654937173 0 0 0 0 393.23148030175435 -410.28941145463426 0 -410.28941145463426 306.27233209317501 0 0 0 0 -83.052604243348696 -227.4021995473401 0 -227.4021995473401 38.145510547840075 0 0 0 0 -85.871889171332441 -233.16523361388965 0 -233.16523361388965 390.36442077856924 0 0 0 0 -21.468703614340484 90.445434441305849 0 90.445434441305849 285.23942376233811 0 0 0 0 -542.05377972555289 -389.07690021162733 0 -389.07690021162733 59.242355143727579 0 0 0 0 -431.53477830514566 -119.82933070749229 0 -119.82933070749229 231.08240925204882 0 0 0 0 -468.24474800081953 -223.38482747361553 0 -223.38482747361553 114.63564994978682 0 0 0 0 -128.79638138396149 -159.64524388379706 0 -159.64524388379706 -274.11838286342407 0 0 0 0 -158.91664097946705 -28.563832576670166 0 -28.563832576670166 64.25195043302574 0 0 0 0 -14.975367167057811 13.443741217497319 0 13.443741217497319 -0.37952387003360855 0 0 0 0 -4.277929950803177 -2.2200585581507184 0 -2.2200585581507184 -2.5028512741124405 0 0 0 0 -122.88442415334794 26.164877902154984 0 26.164877902154984 53.160720504430543 0 0 0 0 78.601476224379439 -383.20768959148876 0 -383.20768959148876 -597.25496441020618 0 0 0 0 -684.94769751844797 -824.83046563414405 0 -824.83046563414405 -391.08292291846408 0 0 0 0 -1497.3908550843053 -585.18450972078585 0 -585.18450972078585 256.42965842711726 0 0 0 0 -788.41462975567811 -197.60003904921473 0 -197.60003904921473 390.41680252434452 0 0 0 0 -1500.4998571752276 -136.59492530814526 0 -136.59492530814526 450.87345482488109 0 0 0 0 -350.22302378648624 -279.06121667122147 0 -279.06121667122147 285.34618499064794 0 0 0 0 -445.56871726804275 164.98062173437091 0 164.98062173437091 206.07377275291304 0 0 0 0 -1497.1117845897334 495.42768690958815 0 495.42768690958815 103.96086639395946 0 0 0 0 -535.48665353245542 -446.93103456523937 0 -446.93103456523937 49.326684330722742 0 0 0 0 -5.5397685731820161 -1.4481007072473133 0 -1.4481007072473133 -0.028617279926406301 0 0 0 0 -115.64580328124975 123.06334233109568 0 123.06334233109568 -201.7924387709709 0 0 0 0 -1496.953331517172 -42.548388357952923 0 -42.548388357952923 143.78293688292635 0 0 0 0 -202.50245439658465 252.19588013679945 0 252.19588013679945 -383.44546913872023 0 0 0 0 -208.91460196095795 222.45889234947839 0 222.45889234947839 -264.12598673306201 0 0 0 0 -216.71980809819433 286.33007996785267 0 286.33007996785267 -112.10035010291379 0 0 0 0 -371.88577889726002 196.87618938307409 0 196.87618938307409 -102.71828103006834 0 0 0 0 -330.71061942998858 169.10073512414931 0 169.10073512414931 -105.82226912741351 0 0 0 0 -328.76822591341261 212.70760408620421 0 212.70760408620421 -225.9586472335576 0 0 0 0 -228.48438888979945 220.37025355464851 0 220.37025355464851 -114.63885353916743 0 0 0 0 -205.98201685738786 31.978041099148669 0 31.978041099148669 69.42606378959465 0 0 0 0 -8.6433275857337648 -3.2805048075782679 0 -3.2805048075782679 0.05229610295953202 0 0 0 0 -4.4115543573061586 -108.9958272159389 0 -108.9958272159389 136.80315898407324 0 0 0 0 229.79943931799971 -291.79933079857454 0 -291.79933079857454 99.708352839255781 0 0 0 0 275.51884271944073 -140.53045187405172 0 -140.53045187405172 170.42111938157461 0 0 0 0 -379.40530183994451 270.59942965533492 0 270.59942965533492 -129.47448231264954 0 0 0 0 -3.7648659165185521 -1.3491243340609813 0 -1.3491243340609813 -0.032620846993481889 0 0 0 0 -419.93002095164593 178.08211532214852 0 178.08211532214852 -58.188785847787585 0 0 0 0 -307.1911652638064 151.02196169094208 0 151.02196169094208 -169.68093483506055 0 0 0 0 -263.85083167624907 218.38293151550818 0 218.38293151550818 -78.22173232370119 0 0 0 0 -274.60070111949972 102.9461795834971 0 102.9461795834971 -36.376978907773136 0 0 0 0 -4.0357387581207149 -13.422810245521163 0 -13.422810245521163 14.97588440400682 0 0 0 0 -1.8235292939321255 -0.13745734067813231 0 -0.13745734067813231 2.4543130615104856 0 0 0 0 -301.33451232181142 194.98312225997657 0 194.98312225997657 -88.427296828995622 0 0 0 0 -323.61237184784113 178.47686290240995 0 178.47686290240995 -113.34667931594819 0 0 0 0 -334.4943266220339 205.78779649991213 0 205.78779649991213 -90.87699683226387 0 0 0 0 6.0343542357683688 -48.39826852594021 0 -48.39826852594021 -68.778299785886588 0 0 0 0 -1.2929898772305322 -0.19199650771943411 0 -0.19199650771943411 1.0983856002804682 0 0 0 0 -21.781850730494625 9.3337902976096245 0 9.3337902976096245 23.29618537200912 0 0 0 0 5.7637972371994692 34.62773441007181 0 34.62773441007181 -44.110516403803445 0 0 0 0 -7.0992105713339697 19.518815089280565 0 19.518815089280565 -115.86558004616836 0 0 0 0 -72.623333023806481 10.013686189363511 0 10.013686189363511 -50.800562353771056 0 0 0 0 -63.591674682567827 -44.723831951687146 0 -44.723831951687146 -138.13914963615161 0 0 0 0 -23.378228406520066 48.774925026759348 0 48.774925026759348 -281.32666112049174 0 0 0 0 -80.998260052081832 -78.424050440777961 0 -78.424050440777961 -78.850813786140293 0 0 0 0 -4.7994907640486417 -16.605077283479204 0 -16.605077283479204 -71.000450693291441 0 0 0 0 -1.1965072709062952 9.4829505585400966 0 9.4829505585400966 -60.350416862072102 0 0 0 0 -9.6390543383004115 2.1033188146086488 0 2.1033188146086488 -41.299054001783361 0 0 0 0 -15.605467245230102 24.358192344387817 0 24.358192344387817 -25.352490790890784 0 0 0 0 -2.4674046052132326 -3.3919438200234993 0 -3.3919438200234993 -24.940716419265243 0 0 0 0 -1.4902616248384675 3.8005159724767248 0 3.8005159724767248 0.9737966461680756 0 0 0 0 -0.49813194760645274 5.2499558544125762 0 5.2499558544125762 4.1539294664627278 0 0 0 0 -10.122085053215415 13.76046307165052 0 13.76046307165052 0.43874850578049518 0 0 0 0 -14.776652201461729 3.5231710235312121 0 3.5231710235312121 4.6759764349228021 0 0 0 0 -9.377987670370203 6.3986524387121904 0 6.3986524387121904 5.9435159359337462 0 0 0 0 -6.9674507068266394 4.1353379493357352 0 4.1353379493357352 6.4395865931354592 0 0 0 0 -2.1057096480176867 1.2288973822098477 0 1.2288973822098477 3.8407553208871015 0 0 0 0 -141.12337445071989 -30.535570067664494 0 -30.535570067664494 -1.5351384821966576 0 0 0 0 -6.6948721787939576 4.2031513253122057 0 4.2031513253122057 3.22865729371415 0 0 0 0 -4.6495919130211405 6.3307086876741323 0 6.3307086876741323 4.3061090471733223 0 0 0 0 -3.5996140755059969 5.0419639154303013 0 5.0419639154303013 1.5987573364200216 0 0 0 0 -9.9895487065691668 4.6799623911814194 0 4.6799623911814194 2.7939077806049681 0 0 0 0 -13.775680182763608 1.9719405638047647 0 1.9719405638047647 4.1229707655766106 0 0 0 0 -4.7181127679541532 2.753784524566413 0 2.753784524566413 -0.68923583186642645 0 0 0 0 -4.6606079021003097 5.9939843304705107 0 5.9939843304705107 1.943877624345987 0 0 0 0 -1.7241977516985187 1.0014589672699969 0 1.0014589672699969 3.4040024982810495 0 0 0 0 -7.6808669955962614 -1.960252703991415 0 -1.960252703991415 6.1809144980506971 0 0 0 0 -4.2149644821830066 2.0899807885962982 0 2.0899807885962982 1.7632509375047547 0 0 0 0 -0.014255970085010006 -0.012221025049355738 0 -0.012221025049355738 0.53479634508121987 0 0 0 0 -18.750329590431647 2.8511021926051399 0 2.8511021926051399 6.6315300952933285 0 0 0 0 -113.99136298336089 46.772262425717145 0 46.772262425717145 4.0877548804482302 0 0 0 0 -143.11033728758048 106.22988706628138 0 106.22988706628138 2.6650823296641244 0 0 0 0 -8.0844976804564794 -2.2946253025434658 0 -2.2946253025434658 -10.419276618473305 0 0 0 0 -265.55092786315981 95.012816748180057 0 95.012816748180057 81.60948914536425 0 0 0 0 -1.948558651004447 0.70721598537722663 0 0.70721598537722663 1.3158507635002807 0 0 0 0 -207.1049130634492 266.22097662118335 0 266.22097662118335 -277.67097687640262 0 0 0 0 -152.63624872916262 155.55433432637926 0 155.55433432637926 -119.16924241449613 0 0 0 0 -342.57672441713657 223.22836819018556 0 223.22836819018556 -56.339764017224979 0 0 0 0 -295.49142183883305 51.539382114361501 0 51.539382114361501 63.652931512318901 0 0 0 0 -204.33890323265223 130.34003777970645 0 130.34003777970645 -167.02397074602328 0 0 0 0 -397.68672916281866 98.780169932727802 0 98.780169932727802 239.9567203320903 0 0 0 0 -67.980554352878244 -168.52198254773111 0 -168.52198254773111 261.39397338995337 0 0 0 0 -210.71328335511498 -90.916213722330099 0 -90.916213722330099 251.63515407731302 0 0 0 0 53.490167223662866 -114.78090217675208 0 -114.78090217675208 163.62164659806467 0 0 0 0 -155.40407803138805 110.41625923905281 0 110.41625923905281 73.528177828292655 0 0 0 0 -170.90955499230586 47.074261204321601 0 47.074261204321601 51.748074443146379 0 0 0 0 -210.6609130695233 -1.9761763712164111 0 -1.9761763712164111 186.32443183912073 0 0 0 0 -130.03342278125183 112.72553794088265 0 112.72553794088265 218.59084181298749 0 0 0 0 -15.388893366740376 -33.527181830801737 0 -33.527181830801737 137.90468455640985 0 0 0 0 -1.5115891560759351 -0.58748075637122454 0 -0.58748075637122454 1.6836202724223213 0 0 0 0 -95.921946697921157 -99.41604303286158 0 -99.41604303286158 222.15743420032595 0 0 0 0 65.480112889901648 -53.983429014021112 0 -53.983429014021112 197.34211925104773 0 0 0 0 -14.372225962180082 -4.2498071124787575 0 -4.2498071124787575 15.688207021470085 0 0 0 0 -66.375487489374791 25.047871471237954 0 25.047871471237954 -9.7487014015353779 0 0 0 0 -3.481647440862762 -0.31980824125829344 0 -0.31980824125829344 0.65084785236457243 0 0 0 0 -7.0145511550928035 -3.939557505472024 0 -3.939557505472024 7.7038714375620234 0 0 0 0 8.1685017161053111 -2.2340172972756136 0 -2.2340172972756136 7.9953172998038511 0 0 0 0 -75.265477495311643 24.40590176264277 0 24.40590176264277 16.758042739809753 0 0 0 0 -12.731030815466056 -1.0028867949878304 0 -1.0028867949878304 10.822789632809418 0 0 0 0 4.2112697561351524 12.084244096102452 0 12.084244096102452 -34.161308636316335 0 0 0 0 -123.36759356872335 -99.113500808574827 0 -99.113500808574827 -38.242086137424394 0 0 0 0 -296.78095648915587 -21.663879423322214 0 -21.663879423322214 23.781286057730995 0 0 0 0 -0.17309903228633772 0.72861983432252586 0 0.72861983432252586 -0.75421727441021691 0 0 0 0 -304.80962549907053 -98.022393767895664 0 -98.022393767895664 -0.22098821808913272 0 0 0 0 -93.394484799747261 -28.928335523116857 0 -28.928335523116857 8.6540864980670449 0 0 0 0 -232.47340663571231 47.852789558463883 0 47.852789558463883 185.17965503024402 0 0 0 0 -242.25497562095006 -5.6761566769584988 0 -5.6761566769584988 28.599817968396565 0 0 0 0 -0.87006305421154906 0.82186849696220055 0 0.82186849696220055 0.040170483841347138 0 0 0 0 -6.2165555888313975 -1.4331544433816248 0 -1.4331544433816248 -0.40393307820386326 0 0 0 0 -3.4469012329520652 2.412503926761012 0 2.412503926761012 -0.76524264442686452 0 0 0 0 45.546532783599105 125.4270392988833 0 125.4270392988833 175.24609849155502 0 0 0 0 113.73381290782527 119.93897798493026 0 119.93897798493026 117.56235928044089 0 0 0 0 -2.1362013160770132 0.41694516073211574 0 0.41694516073211574 3.372440132347597 0 0 0 0 -71.631356354287618 15.022178116283669 0 15.022178116283669 7.9298004081856561 0 0 0 0 -0.88225033396156505 11.933848841918007 0 11.933848841918007 7.8059667846173397 0 0 0 0 -83.536044359957941 -15.240593407073163 0 -15.240593407073163 -11.327065354730166 0 0 0 0 -9.8160950077517555 3.1947853616338762 0 3.1947853616338762 5.0358964826305055 0 0 0 0 18.23936788460378 97.775993103585733 0 97.775993103585733 281.74134825116835 0 0 0 0 14.216928017694954 61.775493141773495 0 61.775493141773495 161.77334673833025 0 0 0 0 -1.8283741790254169 0.17475090432084706 0 0.17475090432084706 1.1496254329029263 0 0 0 0 -1.6771474245773632 1.0209479409026123 0 1.0209479409026123 -0.22608994373655822 0 0 0 0 26.108663847782736 101.2324226297219 0 101.2324226297219 185.650506251362 0 0 0 0 133.44483932426738 100.00838195789856 0 100.00838195789856 120.48586984654139 0 0 0 0 68.810003248410794 95.993777747530658 0 95.993777747530658 124.93485147041974 0 0 0 0 48.186859562352765 32.920123380316909 0 32.920123380316909 133.73767814293433 0 0 0 0 53.110958780994224 61.629081668741719 0 61.629081668741719 49.230794463897837 0 0 0 0 93.362526061432618 36.029190372630751 0 36.029190372630751 126.2257267097948 0 0 0 0 -3.0376539487990613 74.69756989243831 0 74.69756989243831 23.809155739078051 0 0 0 0 8.2782378589199652 38.017205747144089 0 38.017205747144089 107.46895308183343 0 0 0 0 -4.6654909233893704 63.500917366493923 0 63.500917366493923 -47.808196390614739 0 0 0 0 -190.14312573989446 85.968789701581272 0 85.968789701581272 99.064316501934854 0 0 0 0 -4.3769000704642167 66.749968106409654 0 66.749968106409654 99.217388023031617 0 0 0 0 63.024573987091571 102.25933913067843 0 102.25933913067843 75.914984195864008 0 0 0 0 -20.118357351820123 88.986046907335492 0 88.986046907335492 172.91232114564309 0 0 0 0 -4.5882048342537018 3.9827393447667419 0 3.9827393447667419 7.9337600694648245 0 0 0 0 0.55545369580067927 0.55241913185045632 0 0.55241913185045632 8.8009912441038978 0 0 0 0 -3.3228796550005768 1.6067176244032506 0 1.6067176244032506 -0.49386881081925171 0 0 0 0 -3.4605879353803175 2.3224670437533632 0 2.3224670437533632 10.362551172125677 0 0 0 0 -3.7691567706497153 0.98714124616162735 0 0.98714124616162735 7.9528229177627736 0 0 0 0 -1.8839802246948238 -0.45472264310797073 0 -0.45472264310797073 9.0341082027216544 0 0 0 0 14.027768718624429 -4.6931934618705782 0 -4.6931934618705782 10.767498604274834 0 0 0 0 9.208807458659976 12.011129805240728 0 12.011129805240728 -14.409424977264052 0 0 0 0 -17.52273104777214 2.3311969191198614 0 2.3311969191198614 15.433793906937353 0 0 0 0 -10.13087382948288 -2.3145359823952276 0 -2.3145359823952276 -6.6904180894014189 0 0 0 0 -0.44261173744736482 0.80651554948668314 0 0.80651554948668314 0.33013981269132975 0 0 0 0 -0.49461870890081627 -0.14621903964280136 0 -0.14621903964280136 8.9100015031576731 0 0 0 0 -2.0614497267199923 2.4966238651965389 0 2.4966238651965389 0.049541770963215298 0 0 0 0 -1.6867306545718748 -1.1985923711599753 0 -1.1985923711599753 7.9845584780914578 0 0 0 0 -1.2385969483439112 2.6537826317889994 0 2.6537826317889994 2.809379178915492 0 0 0 0 2.0677521660491038 6.9917589869631911 0 6.9917589869631911 -10.904911962037886 0 0 0 0 -1.1027784589486984 1.1560953382432504 0 1.1560953382432504 -0.054045808529183059 0 0 0 0 -5.3192643684451468 -4.2281241852715539 0 -4.2281241852715539 11.920517042950173 0 0 0 0 -2.4994925983385556 2.2706758933553997 0 2.2706758933553997 0.20961648780763126 0 0 0 0 -2.8303058661258547 0.91996582525007398 0 0.91996582525007398 5.5704660323617645 0 0 0 0 -4.4833352019741142 2.3375773859238507 0 2.3375773859238507 5.516292396134304 0 0 0 0 -3.1209338294465852 2.3522812235269157 0 2.3522812235269157 -0.50223500657200759 0 0 0 0 -3.8058727907773573 2.6955648207704144 0 2.6955648207704144 5.6646468596072168 0 0 0 0 -4.8063453603244852 3.6932376483468943 0 3.6932376483468943 4.9855252021388878 0 0 0 0 -1.5535815825460304 5.6277390374245897 0 5.6277390374245897 5.4714743972162978 0 0 0 0 -7.0710647970645368 3.7452873150261894 0 3.7452873150261894 5.7428763836906001 0 0 0 0 -3.4927988806321082 4.9044089427978861 0 4.9044089427978861 3.2834916193269237 0 0 0 0 -0.57242046623273524 -0.55107872816859071 0 -0.55107872816859071 -0.016962423877861177 0 0 0 0 3.5997327413078892 7.9315368476123922 0 7.9315368476123922 3.503005847197187 0 0 0 0 -3.0467020837095333 7.0512334797535914 0 7.0512334797535914 6.484236618260411 0 0 0 0 0.099932254712257418 3.8632436057058612 0 3.8632436057058612 3.7947555187445232 0 0 0 0 1.4875133506466227 4.511888153933171 0 4.511888153933171 3.2669417096651614 0 0 0 0 -7.2919574375464435 0.5816677274380595 0 0.5816677274380595 -0.49462544822654309 0 0 0 0 -3.8342344851611259 2.4272823904027652 0 2.4272823904027652 0.52575590857989773 0 0 0 0 1.0426768490287941 6.0102353707924294 0 6.0102353707924294 0.91975194740416555 0 0 0 0 -0.96609108226284857 -0.44168261535344655 0 -0.44168261535344655 -0.20484001923948103 0 0 0 0 0.19203972948889714 -1.5171773970604363 0 -1.5171773970604363 3.4862095562726836 0 0 0 0 0.52063285066833487 -6.6124838743481291 0 -6.6124838743481291 -6.4758500862595838 0 0 0 0 -4.1723758271800762 -8.2105404583146822 0 -8.2105404583146822 3.3999006093085882 0 0 0 0 -0.26596452461853914 5.8558612998546238 0 5.8558612998546238 -11.6829170160646 0 0 0 0 0.24461013794304609 -1.0127283416762403 0 -1.0127283416762403 -0.56150181320713299 0 0 0 0 19.173691290514398 10.421829804302419 0 10.421829804302419 -9.4817329883078258 0 0 0 0 -16.62745192791499 19.171010606018257 0 19.171010606018257 -40.196182510916969 0 0 0 0 -26.542798014070286 5.9849853862805276 0 5.9849853862805276 1.4362548486989795 0 0 0 0 -25.759169768945867 24.324164238374038 0 24.324164238374038 -54.182921938492996 0 0 0 0 -25.27330736421527 12.970445156401812 0 12.970445156401812 -71.44754512712052 0 0 0 0 0.14453176311086136 -0.843407375042041 0 -0.843407375042041 -0.38309650426496322 0 0 0 0 26.053025637715109 -11.685583386652411 0 -11.685583386652411 -60.411199723907885 0 0 0 0 -29.330127333794735 34.740680943553457 0 34.740680943553457 -36.69033550219433 0 0 0 0 -10.703741876430286 12.288470474844416 0 12.288470474844416 -69.568220015582483 0 0 0 0 -43.165420520519547 28.56714745538784 0 28.56714745538784 -54.878315392805973 0 0 0 0 -33.153472503352532 18.092028902690345 0 18.092028902690345 -39.880692896763605 0 0 0 0 -39.395393324185989 35.114680911264955 0 35.114680911264955 -45.189073408675654 0 0 0 0 -25.693596536472796 27.860045504413812 0 27.860045504413812 -27.999746330782443 0 0 0 0 -41.381629491451349 38.896238542868744 0 38.896238542868744 -35.612551468742168 0 0 0 0 -22.347507125095945 24.888728215071154 0 24.888728215071154 -42.563135008368242 0 0 0 0 -15.943802450985572 30.07085157851629 0 30.07085157851629 -38.616305868974678 0 0 0 0 -29.755337193060768 26.123262579788786 0 26.123262579788786 -22.215819084880479 0 0 0 0 -18.544975981183597 8.8852821291118289 0 8.8852821291118289 -10.26698848873616 0 0 0 0 -6.7012055141940436 10.558628184826475 0 10.558628184826475 -10.571349674627527 0 0 0 0 -8.6618669512663473 -4.0639426798127261 0 -4.0639426798127261 17.078296766583133 0 0 0 0 -1.2150366846958605 21.390394833079554 0 21.390394833079554 -26.168064464826557 0 0 0 0 10.886823127191747 31.234050181310295 0 31.234050181310295 -61.549545284820852 0 0 0 0 -22.444783647364602 5.3673226603475541 0 5.3673226603475541 13.356119473998433 0 0 0 0 -73.26320908695925 47.252419377447268 0 47.252419377447268 -39.67882459134222 0 0 0 0 -68.979905262573197 76.829303469964231 0 76.829303469964231 -42.365125963918217 0 0 0 0 -21.624151898240598 43.206250910417445 0 43.206250910417445 -58.038488119251213 0 0 0 0 -65.98356604008768 59.234791559373662 0 59.234791559373662 -42.093164808237532 0 0 0 0 -36.913844249812428 42.625502460473967 0 42.625502460473967 -40.460235129437137 0 0 0 0 -74.960511296082586 48.748572074588779 0 48.748572074588779 -34.88593703016295 0 0 0 0 -72.918838452604177 50.353678788131361 0 50.353678788131361 -33.967735605723391 0 0 0 0 -36.551636425381531 -6.153649956398743 0 -6.153649956398743 6.6873841204539826 0 0 0 0 -65.839082334397972 47.661980134515375 0 47.661980134515375 -33.808149312716523 0 0 0 0 -68.172125757309004 42.249199025543945 0 42.249199025543945 -39.529334009065224 0 0 0 0 -40.803060524032844 6.8744458720248076 0 6.8744458720248076 -2.6311195447517548 0 0 0 0 -11.219845886954801 0.90571003257265659 0 0.90571003257265659 2.22983180085917 0 0 0 0 -42.839514394338948 -0.41655072521727732 0 -0.41655072521727732 2.2024556901294545 0 0 0 0 -37.612868228403116 -6.1693023043997854 0 -6.1693023043997854 6.8170268200627042 0 0 0 0 -82.405505141106005 -7.025889933674442 0 -7.025889933674442 6.3744886982408389 0 0 0 0 -161.5559945203986 19.776981353527674 0 19.776981353527674 -1.1128154180532022 0 0 0 0 -55.798713770704126 -45.098253653174993 0 -45.098253653174993 -35.042415419643476 0 0 0 0 -8.6613294816408768 -1.2853419905677015 0 -1.2853419905677015 0.87265568282813366 0 0 0 0 -61.705530387160252 41.205594550418937 0 41.205594550418937 -73.302654170993719 0 0 0 0 -56.247061947856309 -12.806009893250064 0 -12.806009893250064 94.678207444768987 0 0 0 0 -94.016226820305747 70.466823138588666 0 70.466823138588666 -57.065677507384407 0 0 0 0 -179.23706581500846 15.868796537909247 0 15.868796537909247 -58.200538698825646 0 0 0 0 -226.25320524907147 44.481198508773559 0 44.481198508773559 9.1827853927284195 0 0 0 0 -210.46110544635076 69.263490240792834 0 69.263490240792834 14.096347997665134 0 0 0 0 -195.1636009961876 113.29376312033719 0 113.29376312033719 -51.657415349569874 0 0 0 0 -74.954679597254653 52.677273069428793 0 52.677273069428793 -3.4401673636552914 0 0 0 0 -29.854747564310856 133.4623885349383 0 133.4623885349383 51.725871083478751 0 0 0 0 -3.2458152932933899 38.904781352039493 0 38.904781352039493 0.69998418494787984 0 0 0 0 -23.859959146518122 95.882584594788455 0 95.882584594788455 -83.921037852981954 0 0 0 0 -62.030463487000816 27.899732907252655 0 27.899732907252655 71.873291641623155 0 0 0 0 -76.036897644760302 53.422109418277728 0 53.422109418277728 65.923409310674288 0 0 0 0 -157.16840117589078 -0.84254007080644833 0 -0.84254007080644833 110.42581818593726 0 0 0 0 -158.98877814570733 129.06017125296614 0 129.06017125296614 5.5209089566988041 0 0 0 0 -47.76354383808939 77.546432037288923 0 77.546432037288923 -134.15174473697653 0 0 0 0 -41.738722729327492 -5.7439276107643309 0 -5.7439276107643309 39.126107820291431 0 0 0 0 -2.1647541050372183 1.3509609273569949 0 1.3509609273569949 0.38273566598290609 0 0 0 0 0.48665118766016136 0.11200725479320184 0 0.11200725479320184 -0.13489572347165613 0 0 0 0 -1.2058547036869882 2.8175247362147098 0 2.8175247362147098 0.26177553133374432 0 0 0 0 -2.8937316195414589 0.60855418474007017 0 0.60855418474007017 0.57959772138499854 0 0 0 0 -12.141329907435647 16.69760223171977 0 16.69760223171977 0.039539425476050383 0 0 0 0 -72.460810483700698 24.894645073739412 0 24.894645073739412 156.64178484155514 0 0 0 0 13.403952096608919 -10.648696026130438 0 -10.648696026130438 124.21405482592172 0 0 0 0 30.613913079672784 28.2301752232745 0 28.2301752232745 49.567673789285891 0 0 0 0 -81.564187050847977 42.367312517520531 0 42.367312517520531 127.64918168129498 0 0 0 0 -5.4989953805870755 -67.826897808794456 0 -67.826897808794456 119.92876763867403 0 0 0 0 0.065110159727366224 -0.14440871887309648 0 -0.14440871887309648 1.2425676745118803 0 0 0 0 -6.7354703982505271 -4.8916229544195176 0 -4.8916229544195176 65.086040684705949 0 0 0 0 -146.48247167332465 -130.56103446816428 0 -130.56103446816428 -11.745049022671992 0 0 0 0 -15.676834341502399 -15.304102755107579 0 -15.304102755107579 62.442786382738177 0 0 0 0 -3.87091573901081 0.99288798353744134 0 0.99288798353744134 3.5376995322443676 0 0 0 0 77.931902602278569 -85.222332927018556 0 -85.222332927018556 -121.07699622650762 0 0 0 0 -34.741200631924585 -10.42493803232037 0 -10.42493803232037 19.306091804834068 0 0 0 0 -51.977855948418437 -2.1014148555555039 0 -2.1014148555555039 41.419271768563362 0 0 0 0 -56.668325977880158 6.7673895729164997 0 6.7673895729164997 30.115244922455531 0 0 0 0 -49.151575201773085 12.660658637240886 0 12.660658637240886 33.066396213664575 0 0 0 0 -54.272041794335564 5.6184276620731453 0 5.6184276620731453 16.117028344046048 0 0 0 0 -56.231942474336392 12.540108488470196 0 12.540108488470196 19.328170189388402 0 0 0 0 -62.194277830276405 8.4370857090515301 0 8.4370857090515301 45.183158170470051 0 0 0 0 -65.928959474178555 0.73870812540508268 0 0.73870812540508268 42.209203123989482 0 0 0 0 -53.063621211692407 4.4759444273863664 0 4.4759444273863664 1.2896445750639032 0 0 0 0 -12.32217251031518 -7.9640817892981115 0 -7.9640817892981115 1.9668539471925008 0 0 0 0 -24.252808154206136 2.7266757676975661 0 2.7266757676975661 2.0231187552436669 0 0 0 0 -2.6457665284711496 -1.6099350801199499 0 -1.6099350801199499 -0.75455016246241513 0 0 0 0 -19.204537963596977 -31.565744052520245 0 -31.565744052520245 -29.035953269277343 0 0 0 0 -21.87442254114103 -2.9495262518394156 0 -2.9495262518394156 0.88501237287619006 0 0 0 0 -31.108075363526115 -4.2675735676990723 0 -4.2675735676990723 -0.99394401001182686 0 0 0 0 -5.5251214978165084 -0.27111459982316255 0 -0.27111459982316255 0.86254902010393408 0 0 0 0 -25.429159934457857 19.317567906008435 0 19.317567906008435 -39.644379571502213 0 0 0 0 -7.8147271924217421 -7.4947427561962741 0 -7.4947427561962741 -13.292673318665038 0 0 0 0 -54.060708346397405 16.850162021893539 0 16.850162021893539 21.772440132368502 0 0 0 0 -44.952556945998367 5.9243600351037458 0 5.9243600351037458 15.834597156397649 0 0 0 0 -49.088534430566142 17.010200239945789 0 17.010200239945789 -6.6012987404847081 0 0 0 0 -43.277859397459906 4.954463653071798 0 4.954463653071798 -0.96642570856420207 0 0 0 0 -51.764233858018088 2.2061222802503835 0 2.2061222802503835 -1.7983940144458757 0 0 0 0 -51.185297472900629 5.6242751333762726 0 5.6242751333762726 -0.45647994090177235 0 0 0 0 -45.496506380504798 8.0537771381357288 0 8.0537771381357288 0.55260888603334024 0 0 0 0 -13.925421066400574 8.4529156109273398 0 8.4529156109273398 4.1749825455168494 0 0 0 0 15.764682424226521 73.279992223013551 0 73.279992223013551 50.140604346689315 0 0 0 0 14.392444384468945 91.184002327396911 0 91.184002327396911 -182.88369803105638 0 0 0 0 -169.20700433075399 12.624862483428842 0 12.624862483428842 97.815063305796002 0 0 0 0 -226.94463814634855 -92.641548312009832 0 -92.641548312009832 39.332651174308012 0 0 0 0 -29.033332433246755 -3.7517587157535672 0 -3.7517587157535672 -1.9020468212183914 0 0 0 0 -83.685596542890153 -58.674583742349796 0 -58.674583742349796 33.302769308983898 0 0 0 0 -27.438375834667113 4.1121992101097931 0 4.1121992101097931 0.55238194104390459 0 0 0 0 -9.3482517686879874 73.340919333894362 0 73.340919333894362 37.692537355078457 0 0 0 0 -21.066476300813918 7.450816574417825 0 7.450816574417825 2.0570317237870572 0 0 0 0 -22.769927763411083 4.2540575380497163 0 4.2540575380497163 1.1662586384383227 0 0 0 0 -29.999658839950598 -1.3764126519434399 0 -1.3764126519434399 -0.1225710857888771 0 0 0 0 -27.061325477994615 -67.566443174734559 0 -67.566443174734559 23.068580357026349 0 0 0 0 -23.797114306309595 88.736731926504945 0 88.736731926504945 114.70225043475511 0 0 0 0 -3.3442350964748986 -1.81399616525953 0 -1.81399616525953 0.28114657576143642 0 0 0 0 -55.274886422970667 74.482986344577512 0 74.482986344577512 116.58285788195371 0 0 0 0 -28.73907704380872 76.230415531285871 0 76.230415531285871 107.75126122127494 0 0 0 0 15.416884758958076 55.867331996704706 0 55.867331996704706 81.909771316704791 0 0 0 0 -69.071909478470843 24.503545612070411 0 24.503545612070411 86.862364190499534 0 0 0 0 -31.157128174495483 56.309171167378736 0 56.309171167378736 112.38568471136205 0 0 0 0 -58.052428813503866 2.9791364981551851 0 2.9791364981551851 128.90606089676476 0 0 0 0 -50.106292376198326 -19.43941827154049 0 -19.43941827154049 120.02372128422576 0 0 0 0 -97.030209558500246 -36.527178618794096 0 -36.527178618794096 116.51410327139251 0 0 0 0 -44.190030221991037 -22.23830233673425 0 -22.23830233673425 97.263537854069 0 0 0 0 -31.82323761002317 13.742266084298535 0 13.742266084298535 102.29731339653517 0 0 0 0 -89.691913395710799 8.2057793503722678 0 8.2057793503722678 155.22989666058493 0 0 0 0 -25.580567216442546 2.5921951506034677 0 2.5921951506034677 2.5887072135506024 0 0 0 0 -38.195283944301991 0.051237697640317492 0 0.051237697640317492 -1.9501798434584998 0 0 0 0 -3.6001006171945331 -1.5968547447653836 0 -1.5968547447653836 0.61104526296105632 0 0 0 0 -25.023594559526828 45.912601270795676 0 45.912601270795676 126.43009621058218 0 0 0 0 -43.786721189721902 5.1612543725445903 0 5.1612543725445903 100.62402419955833 0 0 0 0 16.803169939490544 20.633830878457957 0 20.633830878457957 58.375850534546771 0 0 0 0 25.713761482977134 -36.894470660727166 0 -36.894470660727166 -27.216317648235417 0 0 0 0 -22.527492995416196 -3.6098481180306408 0 -3.6098481180306408 1.0907412731569366 0 0 0 0 -3.7067201703405557 -0.77546900212495906 0 -0.77546900212495906 1.0105818603325218 0 0 0 0 -23.557000851534184 -5.3858112054877338 0 -5.3858112054877338 -1.8659306072556703 0 0 0 0 -31.964915640724939 -17.843147965327717 0 -17.843147965327717 -15.684313205178114 0 0 0 0 -26.088523139181461 -19.522974595011419 0 -19.522974595011419 28.234792178252974 0 0 0 0 -8.25755705159931 -1.5908839874719138 0 -1.5908839874719138 -0.783669098698347 0 0 0 0 -21.298787851082121 3.6434402404324446 0 3.6434402404324446 3.1655730478101081 0 0 0 0 -37.60769223475836 -1.1959547416845453 0 -1.1959547416845453 -0.92328069003269775 0 0 0 0 -43.104298848313192 3.1006490540485174 0 3.1006490540485174 66.162650961226973 0 0 0 0 -42.366024402880157 -44.606152822404965 0 -44.606152822404965 86.41150064496378 0 0 0 0 -39.933154071970421 -21.80448581969722 0 -21.80448581969722 63.135860828424484 0 0 0 0 52.18256668791355 -160.75606990364543 0 -160.75606990364543 107.89033045493397 0 0 0 0 -58.054486001034093 -50.710265683971102 0 -50.710265683971102 118.72464339474391 0 0 0 0 -147.89260583247324 -52.183790776214209 0 -52.183790776214209 126.40285918151517 0 0 0 0 -207.70892965931762 1.8807185677299003 0 1.8807185677299003 91.45710309952301 0 0 0 0 -202.32172046408596 -43.959570777550198 0 -43.959570777550198 24.487389486100255 0 0 0 0 -66.442135217323084 -122.8655268656014 0 -122.8655268656014 -14.569813139220969 0 0 0 0 -31.432269275761769 -48.731494263385912 0 -48.731494263385912 111.90090423718812 0 0 0 0 -142.51027491850346 -143.09660209865456 0 -143.09660209865456 -214.48079495748857 0 0 0 0 -320.58447883438203 -197.89648695433334 0 -197.89648695433334 -33.570201652710239 0 0 0 0 -594.71166428714014 -137.33014488662798 0 -137.33014488662798 -52.188939074037989 0 0 0 0 -285.99862541224485 -3.0091734742949825 0 -3.0091734742949825 4.7013688652968995 0 0 0 0 -278.67999300333076 -294.09607517256723 0 -294.09607517256723 -363.19458785900633 0 0 0 0 -235.19697711227855 -35.077448527737488 0 -35.077448527737488 -447.93297842993979 0 0 0 0 -21.577157891548268 -15.61037587564374 0 -15.61037587564374 -44.787388621391528 0 0 0 0 -19.966907396436909 -27.131735831256719 0 -27.131735831256719 -92.400985970067268 0 0 0 0 -0.76818813663976471 34.555336379362871 0 34.555336379362871 -160.32576566513035 0 0 0 0 -349.46690647770083 191.9419998381677 0 191.9419998381677 -125.42323959929013 0 0 0 0 -63.792253359537426 74.939755827478393 0 74.939755827478393 -268.99460265621224 0 0 0 0 -121.02814601594946 50.318060341065802 0 50.318060341065802 -56.510127547101547 0 0 0 0 -80.061677322377363 109.20582695059352 0 109.20582695059352 -66.631097829608734 0 0 0 0 -15.093469061427641 61.115045307335549 0 61.115045307335549 -31.744950564589089 0 0 0 0 -74.241519186451569 55.386331482716287 0 55.386331482716287 37.405985144348961 0 0 0 0 -36.019748320550207 110.32670390674366 0 110.32670390674366 15.226201628896888 0 0 0 0 -120.42128474253332 113.20759989533644 0 113.20759989533644 -34.883408272315364 0 0 0 0 -250.49468514338014 67.496074490007004 0 67.496074490007004 67.207953890058889 0 0 0 0 -109.05123690134496 43.399244614620784 0 43.399244614620784 70.852174207514508 0 0 0 0 -157.15463394597941 48.691074788162311 0 48.691074788162311 119.41212702890789 0 0 0 0 -78.365479961445999 32.356024899304884 0 32.356024899304884 121.59230553956331 0 0 0 0 -95.298414827200759 46.941487591766418 0 46.941487591766418 112.5403553090558 0 0 0 0 -113.15259239084116 20.367964298281549 0 20.367964298281549 124.19147816180498 0 0 0 0 -26.502711642155191 64.088761033211085 0 64.088761033211085 94.368825016566007 0 0 0 0 -100.41452029313314 101.06453117343017 0 101.06453117343017 80.68261355816594 0 0 0 0 -58.876927265301674 84.531114021443045 0 84.531114021443045 110.47003515225151 0 0 0 0 105.42652406208254 87.320289176579536 0 87.320289176579536 48.801525237728129 0 0 0 0 111.60118297943791 190.49102754535761 0 190.49102754535761 74.109939522099012 0 0 0 0 -25.029330161042367 54.517005563387499 0 54.517005563387499 126.30118999068418 0 0 0 0 -194.90293914518043 -91.254311433118801 0 -91.254311433118801 -10.59409519145288 0 0 0 0 -0.9236781691070064 74.903767413407877 0 74.903767413407877 -30.027600487490417 0 0 0 0 -11.283799909821425 1.0763158938257567 0 1.0763158938257567 -1.9338327361694567 0 0 0 0 -0.32117680002645166 0.98066381610090181 0 0.98066381610090181 -0.2468044839137864 0 0 0 0 -32.024074727043626 -35.353873512930477 0 -35.353873512930477 -55.00473199971475 0 0 0 0 -218.07364011247887 102.64138906424802 0 102.64138906424802 98.41552813385988 0 0 0 0 123.62175672769172 -20.901911743355868 0 -20.901911743355868 -19.89486173552632 0 0 0 0 -69.972601461393424 58.527656811907946 0 58.527656811907946 35.345266722672932 0 0 0 0 1.1113993131575626 130.85307418694583 0 130.85307418694583 75.422365631817684 0 0 0 0 -17.516628596775263 81.793170243435725 0 81.793170243435725 58.434667357096259 0 0 0 0 46.679274535391414 104.08921574803003 0 104.08921574803003 1.4438028017948454 0 0 0 0 12.903088956954889 60.927347484231632 0 60.927347484231632 -47.293441078558317 0 0 0 0 -5.6820986091872783 94.146130438681666 0 94.146130438681666 10.587175579765244 0 0 0 0 57.070523264502299 64.074789790534396 0 64.074789790534396 5.9457455673646109 0 0 0 0 12.76290952164527 63.273497265231754 0 63.273497265231754 42.306639566570084 0 0 0 0 79.822753042090881 84.364772444208484 0 84.364772444208484 34.623488012641246 0 0 0 0 59.791200049454346 60.556806198615959 0 60.556806198615959 29.789662830317866 0 0 0 0 68.300202419519337 41.457167045480219 0 41.457167045480219 51.075779347209391 0 0 0 0 25.088038552598391 13.846013590561256 0 13.846013590561256 3.3400770866851417 0 0 0 0 77.739748199369387 31.030947062129144 0 31.030947062129144 -19.025873455171389 0 0 0 0 -3.8814089513005001 43.760903080407502 0 43.760903080407502 -26.341460003803149 0 0 0 0 20.484977115457696 25.020842517250003 0 25.020842517250003 -23.007379255575188 0 0 0 0 4.3316121300649684 -3.5171287662335544 0 -3.5171287662335544 -70.385133830468021 0 0 0 0 -356.54107052066229 153.96304182480139 0 153.96304182480139 156.18046630211666 0 0 0 0 -1.1640534417995578 1.3627599817920464 0 1.3627599817920464 -0.90134643832090333 0 0 0 0 -155.2967360858612 -18.319819795495533 0 -18.319819795495533 -3.7032722690782975 0 0 0 0 -156.22516513866503 1.6320425880107905 0 1.6320425880107905 -3.5785833042737067 0 0 0 0 -371.68194323757234 -51.443749593879602 0 -51.443749593879602 87.012465253004848 0 0 0 0 193.15711767752168 110.85699420562969 0 110.85699420562969 -28.068875024866429 0 0 0 0 108.01863817701633 39.343301410026925 0 39.343301410026925 -21.111241651242835 0 0 0 0 75.559465150548931 58.612701886058403 0 58.612701886058403 5.10851576109917 0 0 0 0 155.43804887721672 11.598605792223225 0 11.598605792223225 21.829709435110999 0 0 0 0 -95.023060605613864 -8.0584086454668977 0 -8.0584086454668977 -72.320274938127113 0 0 0 0 68.875174171147592 46.188943798390937 0 46.188943798390937 89.515557414518298 0 0 0 0 78.615929952542501 82.444535307084152 0 82.444535307084152 69.996808808491551 0 0 0 0 -146.11975061279736 -65.512362138200842 0 -65.512362138200842 -50.296138128816438 0 0 0 0 -242.87813247193685 -2.816286075511357 0 -2.816286075511357 -17.440468881275592 0 0 0 0 -233.11677003095974 -46.993792785447113 0 -46.993792785447113 -28.027737124162741 0 0 0 0 -40.432452608592939 35.978944575484093 0 35.978944575484093 -2.0238095755830727 0 0 0 0 -231.79799024477978 -14.386919683702843 0 -14.386919683702843 45.770923060876157 0 0 0 0 -86.331782509221739 -87.435814493083399 0 -87.435814493083399 -29.358592911517007 0 0 0 0 -1.7668166204063205 0.96295038084039497 0 0.96295038084039497 -0.92280157414844055 0 0 0 0 -245.0263880975599 17.971149508650342 0 17.971149508650342 -35.268973667814862 0 0 0 0 -0.14596283517768693 1.6881766526642759 0 1.6881766526642759 -3.0889083942021571 0 0 0 0 -217.92196912692816 -7.9387685399960901 0 -7.9387685399960901 -31.997505876406649 0 0 0 0 -299.2257317267904 0.012061411161539581 0 0.012061411161539581 37.817121268284609 0 0 0 0 -9.8179248092790203 32.742902571738796 0 32.742902571738796 -24.972621313638228 0 0 0 0 -189.95423881247848 25.433841232293162 0 25.433841232293162 11.372007851103263 0 0 0 0 -203.70530309228525 -28.310668588185763 0 -28.310668588185763 -20.828007572081447 0 0 0 0 -269.05530795507002 -13.348364882881469 0 -13.348364882881469 12.930159065434054 0 0 0 0 174.35205262305226 75.15343643983897 0 75.15343643983897 -15.700730960253168 0 0 0 0 -92.193383110883673 40.110220275096907 0 40.110220275096907 -36.086288278223947 0 0 0 0 -0.86274703219399118 3.4394531454337307 0 3.4394531454337307 -2.3351225569851799 0 0 0 0 -145.51836030155391 10.528594438356777 0 10.528594438356777 30.80800868330607 0 0 0 0 -144.25100573131931 23.672233517573659 0 23.672233517573659 -13.328825882623278 0 0 0 0 -5.6967814402337353 -44.381613608635917 0 -44.381613608635917 15.311580998947647 0 0 0 0 18.286395127254764 -30.708235016919843 0 -30.708235016919843 -60.606892400695415 0 0 0 0 -31.117041695367334 133.83384141872602 0 133.83384141872602 -91.689688668130657 0 0 0 0 2.5833255476306931 -30.843186986260207 0 -30.843186986260207 -4.9204438489432505 0 0 0 0 108.69942988963214 46.630679699802215 0 46.630679699802215 -7.3598942534154048 0 0 0 0 -292.15419251803542 75.907122017645634 0 75.907122017645634 27.739476738548547 0 0 0 0 -185.12435998312685 50.420085817490872 0 50.420085817490872 15.219598402396514 0 0 0 0 99.651041324406833 -95.327835709280407 0 -95.327835709280407 -18.305357098477543 0 0 0 0 242.81138329643181 -80.233104802407979 0 -80.233104802407979 -64.6822272141535 0 0 0 0 4.3202857544082249 8.4199386650612986 0 8.4199386650612986 -4.7600732037761118 0 0 0 0 -43.805343030762742 29.997615319658507 0 29.997615319658507 64.165248603461805 0 0 0 0 -27.219909235232819 32.788038193088937 0 32.788038193088937 -6.314419529476254 0 0 0 0 -38.3387247647847 5.6796872678507677 0 5.6796872678507677 -0.15212060139300787 0 0 0 0 -34.994385459594923 9.2257040958738799 0 9.2257040958738799 26.812132094753906 0 0 0 0 -20.349818458475511 32.217974132867084 0 32.217974132867084 -7.759647874599068 0 0 0 0 -16.241819802372511 8.6154892164290899 0 8.6154892164290899 -8.5635188786574972 0 0 0 0 -487.72821374581326 96.385057159011922 0 96.385057159011922 170.16088273479045 0 0 0 0 12.273715367711702 27.828006506147176 0 27.828006506147176 -5.9280100177443273 0 0 0 0 -11.531049466620971 24.457971391964065 0 24.457971391964065 -4.1858842915435162 0 0 0 0 -4.6054249708577117 12.074184453499356 0 12.074184453499356 1.7149876888506697 0 0 0 0 -42.906180747434568 0.77550023609907193 0 0.77550023609907193 2.3069694718954685 0 0 0 0 -56.042116964462821 4.8643675910603861 0 4.8643675910603861 -8.0456839715388924 0 0 0 0 -61.557930389957619 -0.15080395553877679 0 -0.15080395553877679 6.853396514146425 0 0 0 0 -44.969793743446644 -17.85307791438936 0 -17.85307791438936 -20.83742920971963 0 0 0 0 -34.549346180856446 -43.982818455792767 0 -43.982818455792767 -21.1423799892018 0 0 0 0 -14.629192372483127 -2.2185289040542546 0 -2.2185289040542546 0.56445580823934982 0 0 0 0 -36.115043905103448 9.1600972703231491 0 9.1600972703231491 -15.049933885095925 0 0 0 0 5.8487192176322651 146.44157763375802 0 146.44157763375802 14.354518249076136 0 0 0 0 -46.948977025958214 2.7262154866185107 0 2.7262154866185107 2.4934504508729036 0 0 0 0 -66.282593042411463 -1.0228345774430636 0 -1.0228345774430636 39.322795657129063 0 0 0 0 -11.301714391279319 -0.88871235203384469 0 -0.88871235203384469 -0.45824810282445405 0 0 0 0 -75.209514232186848 -27.211945002488392 0 -27.211945002488392 42.876197250676341 0 0 0 0 -74.97764172144889 -6.6001467228888941 0 -6.6001467228888941 14.740089525075746 0 0 0 0 -26.339711019768629 85.333861306201527 0 85.333861306201527 130.37054899719715 0 0 0 0 -104.20864127096684 -8.4344820125234037 0 -8.4344820125234037 6.0461775293110804 0 0 0 0 -102.48286865964201 -27.44794636163806 0 -27.44794636163806 34.274685281098755 0 0 0 0 -6.4637034158098459 6.0337159442682538 0 6.0337159442682538 -4.9999088050495537 0 0 0 0 -61.558944017507201 -65.640534878416929 0 -65.640534878416929 -64.165342728946371 0 0 0 0 -86.585496661402431 -58.816725951217677 0 -58.816725951217677 -4.7869108078157296 0 0 0 0 6.540951763638077 -9.1713468070843192 0 -9.1713468070843192 -8.3677713309989485 0 0 0 0 24.719376432709396 -0.22749973426471115 0 -0.22749973426471115 -11.746650118006073 0 0 0 0 -71.768831099437193 -53.832806326953346 0 -53.832806326953346 -107.74800243794562 0 0 0 0 -178.0456547333838 -175.03441417723275 0 -175.03441417723275 -85.555367820233187 0 0 0 0 -12.704043777850529 -6.0376596962382791 0 -6.0376596962382791 -38.328839580181921 0 0 0 0 -2.3396420224713594 1.6141637149591297 0 1.6141637149591297 -1.6164358371620793 0 0 0 0 22.007778313743984 27.601938400750669 0 27.601938400750669 16.540594877646981 0 0 0 0 -14.91416118488587 -4.2397426847703059 0 -4.2397426847703059 21.706067307139165 0 0 0 0 27.505716967643821 8.1078376335140092 0 8.1078376335140092 44.251569448479131 0 0 0 0 63.894588716013459 29.160074160541399 0 29.160074160541399 19.701485934753691 0 0 0 0 50.129156253966357 45.307763898855228 0 45.307763898855228 72.533237054595702 0 0 0 0 57.251606409527994 61.729432202835937 0 61.729432202835937 56.347186501619035 0 0 0 0 45.27710569852934 69.950695660374095 0 69.950695660374095 52.001650997094657 0 0 0 0 32.723290420675767 55.922312800503278 0 55.922312800503278 66.947674124011883 0 0 0 0 35.414239619551154 44.111129578739565 0 44.111129578739565 9.2741286628079251 0 0 0 0 0.86476450579721131 46.037276847761177 0 46.037276847761177 39.96004320540851 0 0 0 0 -6.0984643685979734 59.547822065036421 0 59.547822065036421 15.20257478698295 0 0 0 0 -5.9107640242707404 26.624505927218124 0 26.624505927218124 2.5231188761299563 0 0 0 0 35.955780952308487 21.766093828139219 0 21.766093828139219 -2.416009958324139 0 0 0 0 23.001619879731152 26.374994050915575 0 26.374994050915575 26.480737331236924 0 0 0 0 -113.78516450792449 13.999348220860611 0 13.999348220860611 25.236136226420967 0 0 0 0 -108.90795651163353 30.426051968351885 0 30.426051968351885 70.931103796211573 0 0 0 0 -28.636158539002281 103.43995092275009 0 103.43995092275009 62.974823056365494 0 0 0 0 -118.37419982599386 48.269977096214234 0 48.269977096214234 41.44985115388954 0 0 0 0 8.5476603683146095 48.965674592978758 0 48.965674592978758 19.004130863632554 0 0 0 0 -156.81928540197259 85.649764517468611 0 85.649764517468611 102.73353635666399 0 0 0 0 40.826093501438208 157.61067411075072 0 157.61067411075072 128.30463272506768 0 0 0 0 -106.20147945395729 -25.077668117374742 0 -25.077668117374742 -9.6230854444625038 0 0 0 0 -201.36315482973805 -15.25357928409187 0 -15.25357928409187 54.383165489161911 0 0 0 0 -38.920602153564687 -26.690761803630267 0 -26.690761803630267 13.130518070731341 0 0 0 0 -5.1685671877242214 -3.6060497596341463 0 -3.6060497596341463 9.1466166767949613 0 0 0 0 -108.26629101161734 -32.532703291527241 0 -32.532703291527241 19.666765931930513 0 0 0 0 -69.773638311593459 28.92405372119805 0 28.92405372119805 -38.519616524569756 0 0 0 0 0.38239727175641747 -5.0505398268620638 0 -5.0505398268620638 0.76858281662839545 0 0 0 0 -0.13616918019228308 -0.53144653624307736 0 -0.53144653624307736 0.46412788424998563 0 0 0 0 5.8410013585080378 -14.477945312609563 0 -14.477945312609563 17.048873993272082 0 0 0 0 -72.19122611840794 38.314780337641423 0 38.314780337641423 -4.565964558874839 0 0 0 0 -4.8496786195991568 -3.1291518241781127 0 -3.1291518241781127 11.40838620863067 0 0 0 0 -102.8032958339154 30.710365248843573 0 30.710365248843573 32.29615000940862 0 0 0 0 -60.07943932556509 -5.069560992338495 0 -5.069560992338495 28.113687500222113 0 0 0 0 -10.096471433214901 15.175350643783986 0 15.175350643783986 4.6254660118211177 0 0 0 0 -9.0736030964395127 -0.84222073714179935 0 -0.84222073714179935 7.3219198241269163 0 0 0 0 -10.546404089683833 -9.9678629552711406 0 -9.9678629552711406 23.107968735552731 0 0 0 0 -69.699247161353924 37.498627337429355 0 37.498627337429355 11.521571416238148 0 0 0 0 -19.861875857699488 -13.176036032581408 0 -13.176036032581408 -9.9766482201806639 0 0 0 0 -59.575778014708703 -3.7479088155188833 0 -3.7479088155188833 7.6594338816482832 0 0 0 0 -7.6769418709526747 -0.80521867946257508 0 -0.80521867946257508 10.363342324239483 0 0 0 0 -18.591495229213251 0.79951284688740998 0 0.79951284688740998 4.9581140591945854 0 0 0 0 -7.6728593942514429 0.61621015557023284 0 0.61621015557023284 11.075671137452801 0 0 0 0 -54.63393360677037 62.144291603392958 0 62.144291603392958 -3.0668727095174404 0 0 0 0 -88.887472237029215 28.583902477083029 0 28.583902477083029 0.24943748905479879 0 0 0 0 -82.32063182517868 41.578690663573298 0 41.578690663573298 17.361240441108748 0 0 0 0 -45.233278435858665 37.412000176535003 0 37.412000176535003 -13.951971215881827 0 0 0 0 -47.802993710811279 41.116705368734074 0 41.116705368734074 9.7382744323331281 0 0 0 0 -53.696360814465152 60.180757527733476 0 60.180757527733476 29.047157993789369 0 0 0 0 -36.138382326464125 50.482719060113141 0 50.482719060113141 3.3812978095756989 0 0 0 0 -98.663318785693264 59.934933943871329 0 59.934933943871329 9.3138058922704658 0 0 0 0 -8.1428320128380669 1.5311140323907502 0 1.5311140323907502 -0.29397531995429915 0 0 0 0 -27.407711635574515 30.137586342556233 0 30.137586342556233 -5.4366049574055069 0 0 0 0 -123.70507690388513 36.117282877148682 0 36.117282877148682 15.00208038551682 0 0 0 0 -63.635729986508522 58.783048618367502 0 58.783048618367502 -15.76812273430744 0 0 0 0 -84.709010857895919 31.863919251122752 0 31.863919251122752 18.200122427504539 0 0 0 0 -74.339188520731113 42.150513364378639 0 42.150513364378639 -2.8479785824883947 0 0 0 0 -35.411823781796556 11.513315842568772 0 11.513315842568772 14.725549518596381 0 0 0 0 -41.381337251106743 28.751572575936734 0 28.751572575936734 11.150051964246813 0 0 0 0 -103.24144907310256 35.477821483382286 0 35.477821483382286 32.584024254641918 0 0 0 0 -64.850277691642987 49.796655266094604 0 49.796655266094604 -31.768251566085382 0 0 0 0 -16.677995343197836 16.598407604069507 0 16.598407604069507 7.0790853521430108 0 0 0 0 -43.133325081767914 23.216809123516914 0 23.216809123516914 -8.2845668124260765 0 0 0 0 -63.654191982917837 51.764773595743463 0 51.764773595743463 -18.258742650163185 0 0 0 0 236.95569523024679 120.59084363542304 0 120.59084363542304 14.690957611232079 0 0 0 0 -14.003249598987239 0.1406398744520132 0 0.1406398744520132 6.3855325609201969 0 0 0 0 -96.681760326075164 59.793008850572733 0 59.793008850572733 -3.4538757077934861 0 0 0 0 -89.102534492823906 -6.9463238384651049 0 -6.9463238384651049 -8.8208546917703643 0 0 0 0 -16.387255049712053 14.279214633707568 0 14.279214633707568 -1.8239594628572711 0 0 0 0 -10.264704074390465 5.8410603173560958 0 5.8410603173560958 3.5618909857694234 0 0 0 0 2.2257149497021942 54.554496111499702 0 54.554496111499702 -0.26783183201405336 0 0 0 0 -28.546211547305361 12.960638193181854 0 12.960638193181854 0.73182215068261769 0 0 0 0 -48.956423064177379 27.607261293721393 0 27.607261293721393 0.082048106907899765 0 0 0 0 35.41410455523237 73.054863713796294 0 73.054863713796294 42.139933159809516 0 0 0 0 2.7436349444069492 19.506503083863208 0 19.506503083863208 -13.108899519699662 0 0 0 0 14.296939621645834 66.668619592479445 0 66.668619592479445 -19.279407821746645 0 0 0 0 1.0424988231061434 43.860026537672638 0 43.860026537672638 17.545588570743348 0 0 0 0 -32.826862554830768 19.579564555603383 0 19.579564555603383 -12.803644607101887 0 0 0 0 -25.810026018982171 7.2582423746443965 0 7.2582423746443965 6.0099442778409866 0 0 0 0 -44.416332775599585 4.8021094257007917 0 4.8021094257007917 25.670325743684543 0 0 0 0 -19.319673124894329 -2.0278582087529724 0 -2.0278582087529724 15.163195595838211 0 0 0 0 -13.601089852268931 6.8928965848515507 0 6.8928965848515507 12.062039070475516 0 0 0 0 -39.383876598090865 -1.9320896764094186 0 -1.9320896764094186 33.376996306184083 0 0 0 0 -12.902527237805771 3.4683949398147433 0 3.4683949398147433 5.7760307101821127 0 0 0 0 -28.948699158601812 -5.6123939645850101 0 -5.6123939645850101 17.583961848239369 0 0 0 0 -10.605871195545618 5.7111200256233356 0 5.7111200256233356 2.8571335526158297 0 0 0 0 -20.86607881720829 8.4185898111785491 0 8.4185898111785491 2.0552622625873482 0 0 0 0 -18.23271592117203 -2.8668702950221814 0 -2.8668702950221814 0.90081368892060709 0 0 0 0 -11.349891803100064 1.021109171366704 0 1.021109171366704 4.8382233323082842 0 0 0 0 -15.184222708048921 -1.2435188337500938 0 -1.2435188337500938 3.426697103143558 0 0 0 0 -22.339061707164319 0.053700298982676031 0 0.053700298982676031 7.838123266886214 0 0 0 0 -13.069360048648377 0.66160595019482571 0 0.66160595019482571 19.030450004185695 0 0 0 0 -6.6923913291684585 4.8601232600813091 0 4.8601232600813091 8.6024540116013668 0 0 0 0 -9.3412754109343368 7.7933202165370945 0 7.7933202165370945 10.10932822700992 0 0 0 0 -30.838200526409921 5.7506109500125708 0 5.7506109500125708 7.0400383702059859 0 0 0 0 -16.306545204915892 1.3568671167777211 0 1.3568671167777211 15.494622826372506 0 0 0 0 -12.284399109920553 0.888727424128545 0 0.888727424128545 7.5827111491284018 0 0 0 0 -16.673048208038381 4.4477837638733035 0 4.4477837638733035 8.02626168701795 0 0 0 0 17.722331698725611 43.238975918535289 0 43.238975918535289 -58.575829136012544 0 0 0 0 0.22215242845936523 7.4460790035812483 0 7.4460790035812483 0.42907816859595832 0 0 0 0 -12.209414816209573 28.915418774783802 0 28.915418774783802 2.2921946999213105 0 0 0 0 -5.3223640036858342 31.676490696594556 0 31.676490696594556 12.928945002859109 0 0 0 0 -20.529651795273821 3.7436941684836711 0 3.7436941684836711 1.6201105509953777 0 0 0 0 -21.213166396277757 15.234634358932453 0 15.234634358932453 0.9479826575984589 0 0 0 0 -14.542223603268823 23.025901862968269 0 23.025901862968269 3.58709057647253 0 0 0 0 -18.961154833388719 13.752633408628753 0 13.752633408628753 10.072256229279446 0 0 0 0 -17.091351358624394 15.172816049826386 0 15.172816049826386 13.81894286232767 0 0 0 0 -23.077899400505604 3.591627600736258 0 3.591627600736258 14.95796007595137 0 0 0 0 -26.989020075146982 5.2464180602764827 0 5.2464180602764827 15.187579143879702 0 0 0 0 -31.07441109361389 9.8081197679584875 0 9.8081197679584875 16.327258129931579 0 0 0 0 -26.278949283441762 9.7599594190869539 0 9.7599594190869539 15.607113897571253 0 0 0 0 -25.791017256994543 8.3918542616495682 0 8.3918542616495682 8.2967251909387159 0 0 0 0 -23.378673308947327 8.1130520312826775 0 8.1130520312826775 11.024130849746143 0 0 0 0 -11.419827514164719 7.5528216643238046 0 7.5528216643238046 11.442891385757576 0 0 0 0 -5.5075385149747849 3.7696213326320809 0 3.7696213326320809 4.3940699145295561 0 0 0 0 -6.5033918541193998 5.9902227575039433 0 5.9902227575039433 10.693412453339761 0 0 0 0 -31.139078943618109 7.00082388778086 0 7.00082388778086 5.7392236943277464 0 0 0 0 -9.8831742079932337 6.4980601501110726 0 6.4980601501110726 1.5087801654611415 0 0 0 0 -13.836271557858838 -0.90147747867935757 0 -0.90147747867935757 3.0266277745789942 0 0 0 0 -2.6055699877920828 8.2054522997259074 0 8.2054522997259074 3.4385412744330779 0 0 0 0 -18.487826271016729 10.057060571482452 0 10.057060571482452 0.91695624160638545 0 0 0 0 -6.4314844334868964 1.7086396197403566 0 1.7086396197403566 3.5451779443075608 0 0 0 0 -28.37847804092462 6.0956802001619508 0 6.0956802001619508 2.3629077523673914 0 0 0 0 -3.1292162236528971 7.0582431753658046 0 7.0582431753658046 -0.11268819588046597 0 0 0 0 -17.229591881667602 11.175925877393183 0 11.175925877393183 1.1908720259369829 0 0 0 0 -2.4906971490880538 3.7436397814205398 0 3.7436397814205398 2.2310672140929526 0 0 0 0 -11.475712009084191 0.79716444549012522 0 0.79716444549012522 3.1439367423300268 0 0 0 0 -29.006775738745205 8.6126598899863041 0 8.6126598899863041 6.3607330599370471 0 0 0 0 -12.275371104377882 1.9314802711671746 0 1.9314802711671746 4.5438126237615961 0 0 0 0 -3.0431418105343049 1.2071326391269341 0 1.2071326391269341 1.1009197078267583 0 0 0 0 -17.276026124136024 5.8392244339811441 0 5.8392244339811441 0.68276211238662654 0 0 0 0 -29.352849994467419 6.9593650745011928 0 6.9593650745011928 6.2579145655299726 0 0 0 0 -2.8374762867776608 6.4141064377846648 0 6.4141064377846648 0.82713701552373919 0 0 0 0 -21.796074374128693 6.221450155765524 0 6.221450155765524 1.9832203508551629 0 0 0 0 -3.7458571512882015 2.2606395679181732 0 2.2606395679181732 3.7960302070747076 0 0 0 0 -10.652955088945017 3.8704895194877658 0 3.8704895194877658 0.30403795471054984 0 0 0 0 -12.699069836057561 0.78896069168973781 0 0.78896069168973781 -0.78518668010920578 0 0 0 0 -18.029686417105609 11.878889596867591 0 11.878889596867591 2.2024702635752078 0 0 0 0 -14.46033254872043 1.51421613365045 0 1.51421613365045 6.8654225271822042 0 0 0 0 -8.6268551011742716 8.6244558075895554 0 8.6244558075895554 6.6451853704020323 0 0 0 0 -8.2384701105719316 3.3001534242652468 0 3.3001534242652468 6.5182422704533103 0 0 0 0 -16.006044550829984 -2.7836946921879484 0 -2.7836946921879484 3.0490650449057197 0 0 0 0 -10.046149069800226 -1.3982525416649283 0 -1.3982525416649283 3.463002817985525 0 0 0 0 -11.975702351413872 2.1357055603292654 0 2.1357055603292654 4.6695183822795086 0 0 0 0 -8.3660120982881381 2.4421644826957163 0 2.4421644826957163 -1.8695216654755313 0 0 0 0 -18.572799340743586 0.453322570350565 0 0.453322570350565 3.1955711779338571 0 0 0 0 -14.700005376972172 -0.75391278249693983 0 -0.75391278249693983 0.049491559226225945 0 0 0 0 -11.040275601316647 0.53108389439214942 0 0.53108389439214942 -0.62693210591778326 0 0 0 0 -7.9157732446445666 2.2125649004615511 0 2.2125649004615511 1.7510603548662576 0 0 0 0 -14.888109268384554 2.7779934400782524 0 2.7779934400782524 2.4741205869121359 0 0 0 0 -15.028084469866343 -3.194851688348006 0 -3.194851688348006 2.808416093372557 0 0 0 0 -11.231327635236759 0.67593584403888363 0 0.67593584403888363 0.61002175758833854 0 0 0 0 -10.920383947571251 1.6630294762933593 0 1.6630294762933593 3.2217037358663809 0 0 0 0 -17.920684956430705 -2.1267064901114736 0 -2.1267064901114736 4.5951746903380126 0 0 0 0 -30.674565492439797 2.6844611151686308 0 2.6844611151686308 25.28719764821733 0 0 0 0 -15.223377206904843 26.723055176881019 0 26.723055176881019 6.7778409250552158 0 0 0 0 -19.637981157935428 -14.644593900252858 0 -14.644593900252858 22.871529670975974 0 0 0 0 -3.984879043395857 -1.4313390480775983 0 -1.4313390480775983 0.39292546246546789 0 0 0 0 2.6958339120592427 36.59070877099208 0 36.59070877099208 42.247502267926507 0 0 0 0 -27.94407880402332 34.03140541165412 0 34.03140541165412 19.307445782695822 0 0 0 0 -28.27992142597941 17.208970871135591 0 17.208970871135591 66.060169726355994 0 0 0 0 -72.898511813195 -46.385923923397797 0 -46.385923923397797 52.859830631577324 0 0 0 0 -1.1584623693445835 -0.41646316301995245 0 -0.41646316301995245 -0.18044585242039457 0 0 0 0 -0.23921795474598184 -14.66379185197161 0 -14.66379185197161 -23.828569367130513 0 0 0 0 -9.2821160418388899 -9.2206169975967214 0 -9.2206169975967214 29.892907800187061 0 0 0 0 -16.716355004676188 -60.278671671454362 0 -60.278671671454362 -30.185926660086409 0 0 0 0 -18.965885112071192 5.7050441742560025 0 5.7050441742560025 24.28654136614648 0 0 0 0 -1.7177523736498168 -0.55941558456291673 0 -0.55941558456291673 0.51082477562701667 0 0 0 0 -22.297334873635918 0.90389401978252693 0 0.90389401978252693 0.33331879251512841 0 0 0 0 -22.549302763012435 0.081514527182983132 0 0.081514527182983132 1.4657672278429674 0 0 0 0 -28.064301456193789 -1.3871944883726428 0 -1.3871944883726428 0.21616979678447024 0 0 0 0 -11.994009858079307 -3.6098767646497834 0 -3.6098767646497834 1.7229120148972488 0 0 0 0 -31.502373737000653 4.1483543849893501 0 4.1483543849893501 -1.6268203340717946 0 0 0 0 -9.7904084732846144 -1.5759532686997657 0 -1.5759532686997657 1.13840003619885 0 0 0 0 -55.555393451995769 -18.580593755014604 0 -18.580593755014604 79.877835295886712 0 0 0 0 -12.711920718490397 -1.7922704132562908 0 -1.7922704132562908 0.2132392478779129 0 0 0 0 26.813731273985468 -46.430189892246517 0 -46.430189892246517 6.2360126196397232 0 0 0 0 -4.5674730674114912 0.47693663423109633 0 0.47693663423109633 2.3598524241714647 0 0 0 0 -19.521439292020659 -0.75672900081882943 0 -0.75672900081882943 1.3179537960580774 0 0 0 0 -19.920434391108301 -2.0826064469035206 0 -2.0826064469035206 0.11724407082979837 0 0 0 0 -15.160433626307167 2.5020950896783489 0 2.5020950896783489 1.2643497613074965 0 0 0 0 -22.4292544937598 -0.63766444833245117 0 -0.63766444833245117 1.3971952966060286 0 0 0 0 -25.948775165104053 -1.5348999578326197 0 -1.5348999578326197 1.7441794657621301 0 0 0 0 -5.6701456440028313 0.48868346001597907 0 0.48868346001597907 0.54234282890980645 0 0 0 0 -22.579081077467151 -1.7519608502558925 0 -1.7519608502558925 -0.89402732038593768 0 0 0 0 -27.493601931560988 1.8762339150714666 0 1.8762339150714666 0.36299006344395934 0 0 0 0 -15.719105841212331 -4.0763264555812473 0 -4.0763264555812473 0.8824858373778246 0 0 0 0 -4.449242586874556 -0.1670308216546128 0 -0.1670308216546128 0.0034334057169831331 0 0 0 0 -4.3710653122105025 0.31676972291731675 0 0.31676972291731675 -1.7966520533180326 0 0 0 0 -21.960345152927403 0.57136993647035794 0 0.57136993647035794 -2.7265230850409043 0 0 0 0 -22.600194442078646 -2.3911607163600337 0 -2.3911607163600337 -0.9252334871638519 0 0 0 0 -12.760338940540942 2.0614101873729607 0 2.0614101873729607 -0.42116187891074153 0 0 0 0 -11.256898564372786 -1.8072932893376277 0 -1.8072932893376277 -0.077679562468651098 0 0 0 0 -7.3347231972229565 1.0423656052458554 0 1.0423656052458554 -0.34025397567637583 0 0 0 0 -8.38060677162796 -1.5427308484460409 0 -1.5427308484460409 -1.4557842742229958 0 0 0 0 -22.78862067107184 -0.98526004640157083 0 -0.98526004640157083 -0.36745958244265342 0 0 0 0 -11.538978756083907 -1.217963478496813 0 -1.217963478496813 -0.34675060361905707 0 0 0 0 -10.214485735863702 3.6815477574947604 0 3.6815477574947604 0.23157644746215467 0 0 0 0 -17.786373834523147 -1.9254222905234499 0 -1.9254222905234499 -0.98121841477460237 0 0 0 0 -644.59760794645194 261.18326037924874 0 261.18326037924874 -24.387496753411831 0 0 0 0 -11.108528960257217 -3.4822264444321682 0 -3.4822264444321682 3.0337663849102618 0 0 0 0 -645.07401263783947 252.55571912975046 0 252.55571912975046 -86.123618177229844 0 0 0 0 -323.10438360619173 116.84245152043714 0 116.84245152043714 -112.45199473747283 0 0 0 0 -451.0530681329119 187.70837163102496 0 187.70837163102496 -66.010377411408044 0 0 0 0 -9.7095180003459713 -2.3450209351539528 0 -2.3450209351539528 0.43340771463757155 0 0 0 0 20.589431092028462 27.026873757914842 0 27.026873757914842 25.38396783132891 0 0 0 0 10.785734467725433 -2.5933814454570818 0 -2.5933814454570818 -31.032543459856903 0 0 0 0 -4.9783076476023407 -2.1718474430838315 0 -2.1718474430838315 -0.22338824075214558 0 0 0 0 -178.18602027120596 -103.12615348858624 0 -103.12615348858624 81.782868492977187 0 0 0 0 -4.9971012458967534 -0.16749021396498232 0 -0.16749021396498232 0.28128735811637279 0 0 0 0 21.747047002681938 -0.23424694153147385 0 -0.23424694153147385 -59.246031622117229 0 0 0 0 -1497.762005779105 825.15240469250512 0 825.15240469250512 -338.79620684931535 0 0 0 0 -82.836362494868808 365.66071149901842 0 365.66071149901842 -137.23007768932425 0 0 0 0 -1488.1393251357649 -59.911185935372892 0 -59.911185935372892 94.143576950040597 0 0 0 0 -7.2601775605348777 -2.382339714161803 0 -2.382339714161803 0.35697419013055831 0 0 0 0 -172.09746037542413 -152.96557281437359 0 -152.96557281437359 -96.564283856288299 0 0 0 0 -1.8496253029358325 -3.5273621690438608 0 -3.5273621690438608 -0.12918069902050042 0 0 0 0 -512.39460077167132 -1036.1728069163582 0 -1036.1728069163582 -670.28606860098398 0 0 0 0 -2.9315744962476895 -0.49258606246546788 0 -0.49258606246546788 -1.0010660015758448 0 0 0 0 -6.2113606077473378 -3.3964825226416906 0 -3.3964825226416906 1.9779865088904671 0 0 0 0 -21.887053702998742 -0.72112509078982789 0 -0.72112509078982789 -0.0040850134848255948 0 0 0 0 -43.922107168678394 -8.5720656634997159 0 -8.5720656634997159 65.734073449197922 0 0 0 0 -12.867466660463815 0.14244359074322688 0 0.14244359074322688 0.82769617822457908 0 0 0 0 -9.6806334883804084 -3.5807682749790501 0 -3.5807682749790501 1.272855894286522 0 0 0 0 -12.210268553874471 -2.823111078664434 0 -2.823111078664434 2.214480795367507 0 0 0 0 -9.8265815042515552 -2.5590696999174836 0 -2.5590696999174836 -0.15178535600909412 0 0 0 0 -24.628413435461425 -5.7394243405485312 0 -5.7394243405485312 25.723983894639076 0 0 0 0 -7.3395147461988834 -8.3664116063148413 0 -8.3664116063148413 0.39450944112335135 0 0 0 0 -18.698225727912359 -8.3500197076002962 0 -8.3500197076002962 -13.138759458975272 0 0 0 0 -14.35374199215476 -1.4972957887184561 0 -1.4972957887184561 2.3633613205578503 0 0 0 0 -589.75759305313204 -221.89851209365554 0 -221.89851209365554 -114.44783968808176 0 0 0 0 -1498.0599565000221 -442.74844927866803 0 -442.74844927866803 133.11985184264068 0 0 0 0 -664.89889046293047 -77.145487242325004 0 -77.145487242325004 42.015519688687561 0 0 0 0 -862.8326206991369 93.845362005633461 0 93.845362005633461 135.52658987240039 0 0 0 0 -1499.8045062087067 188.4769893250878 0 188.4769893250878 136.59626043322842 0 0 0 0 -5.1369226883382613 -6.7865333505951231 0 -6.7865333505951231 0.011075721184372805 0 0 0 0 -1251.9402418878162 309.7737356929818 0 309.7737356929818 -70.443291156631034 0 0 0 0 11.718921991893694 -77.876967511764292 0 -77.876967511764292 63.837219811016524 0 0 0 0 -39.099375342686471 -42.642961394394803 0 -42.642961394394803 50.635776401124609 0 0 0 0 -30.914284124302867 3.2986246982488439 0 3.2986246982488439 44.421888069465027 0 0 0 0 20.63633256694402 -26.083458020927583 0 -26.083458020927583 29.690941083860196 0 0 0 0 -60.05374813257913 2.9633746541107797 0 2.9633746541107797 49.363962169606651 0 0 0 0 -30.793624762662148 -24.008770746008267 0 -24.008770746008267 58.190101127388132 0 0 0 0 -47.827966974661649 0.6575749289123376 0 0.6575749289123376 6.3066504061370239 0 0 0 0 -17.004006296743682 26.731104591941893 0 26.731104591941893 27.742839781896727 0 0 0 0 -79.946126799892227 70.016404402849119 0 70.016404402849119 -14.383181314058298 0 0 0 0 -9.7898035846869256 -2.2657932554176377 0 -2.2657932554176377 5.7101053100391272 0 0 0 0 -3.0086952862420731 -14.423944118412834 0 -14.423944118412834 14.697863554750029 0 0 0 0 -61.609944604039356 44.987685810275245 0 44.987685810275245 -54.602603108004161 0 0 0 0 169.52684564718766 -279.1304296352684 0 -279.1304296352684 11.242765338648118 0 0 0 0 -1499.9442741241835 415.5422505126038 0 415.5422505126038 -111.75025233938408 0 0 0 0 -2.8619163738254372 -2.3877374062032484 0 -2.3877374062032484 -0.066013697170028307 0 0 0 0 -134.92657127744906 13.919500687259514 0 13.919500687259514 80.899462286882752 0 0 0 0 -57.591452771031982 207.15271886347591 0 207.15271886347591 -516.22314999842729 0 0 0 0 -2.5763607703460103 0.63770773792952973 0 0.63770773792952973 -3.3539644087847877 0 0 0 0 -147.13032652849142 202.00641124721778 0 202.00641124721778 -401.10820675856576 0 0 0 0 196.26830129373047 -143.59814464532678 0 -143.59814464532678 -276.56103265079082 0 0 0 0 20.582411662004688 -445.1850139235604 0 -445.1850139235604 96.767858918924503 0 0 0 0 -192.34953509836294 -166.63072165253382 0 -166.63072165253382 98.901421323440445 0 0 0 0 -113.68190943950458 25.400242107812574 0 25.400242107812574 16.834034977330248 0 0 0 0 -0.53224837741596609 1.0072631094762057 0 1.0072631094762057 2.1482427618717264 0 0 0 0 -412.55464214554286 252.31347602326889 0 252.31347602326889 110.84961900385224 0 0 0 0 -87.561507014579547 -118.43026628397806 0 -118.43026628397806 252.31327475894301 0 0 0 0 3.154812491241362 4.441212526432337 0 4.441212526432337 5.3418874295845757 0 0 0 0 -100.74010125931272 202.37358778370373 0 202.37358778370373 -24.989041236658409 0 0 0 0 -157.90929019102077 134.12232201924837 0 134.12232201924837 -103.52693075239523 0 0 0 0 -157.92360275621468 186.57527311333735 0 186.57527311333735 -85.429409692896002 0 0 0 0 -5.1084889502974136 -4.2689452551810234 0 -4.2689452551810234 -5.4146904195838435 0 0 0 0 -10.263909644439991 7.9251089713616238 0 7.9251089713616238 9.8711043284329207 0 0 0 0 -2.3331025847230791 -1.2320543002604794 0 -1.2320543002604794 1.1553970961037159 0 0 0 0 -1.6038222121023864 21.750126564889797 0 21.750126564889797 -42.255946833836788 0 0 0 0 -50.948481596477905 35.883602349129092 0 35.883602349129092 -22.769056514812291 0 0 0 0 -62.06167468278727 210.08454714159143 0 210.08454714159143 -189.02601141359628 0 0 0 0 -6.1287936728389028 -0.7193447572429843 0 -0.7193447572429843 -2.6144813057047287 0 0 0 0 -35.920284687625099 -48.501329418947535 0 -48.501329418947535 26.241873149670937 0 0 0 0 -44.950454471920864 43.363538698615969 0 43.363538698615969 45.337549977772142 0 0 0 0 -92.652042346894632 -47.60961796444326 0 -47.60961796444326 -30.603611855532563 0 0 0 0 -160.72314126791025 52.482053502535564 0 52.482053502535564 -22.427901618586475 0 0 0 0 -18.597303512239588 5.0706527559757788 0 5.0706527559757788 -3.6989450580401257 0 0 0 0 -31.456521853584263 29.22933150043923 0 29.22933150043923 -10.927331431092171 0 0 0 0 -46.592162496877791 8.8826853425612171 0 8.8826853425612171 5.0085657918589277 0 0 0 0 -46.95566842396147 7.6553781316933964 0 7.6553781316933964 8.1363028582363768 0 0 0 0 103.7221405800592 -30.637321099307883 0 -30.637321099307883 -31.173475659572432 0 0 0 0 -26.126023827974706 5.2207863178964296 0 5.2207863178964296 -0.20485330981563976 0 0 0 0 -1.8381680163566081 0.2295749440706496 0 0.2295749440706496 -0.49868032416978281 0 0 0 0 7.8985483055503209 -11.299214854462662 0 -11.299214854462662 -143.61031185438242 0 0 0 0 -24.686452735672447 -95.923704592162267 0 -95.923704592162267 -281.67339243294373 0 0 0 0 -59.836906866867139 -116.33676725820578 0 -116.33676725820578 -252.79266168355298 0 0 0 0 -213.14989601132311 -342.69107262833541 0 -342.69107262833541 -437.92997355859569 0 0 0 0 55.100376662107692 -70.155991468270031 0 -70.155991468270031 -455.49747071988259 0 0 0 0 -48.013193086962929 39.39522203836259 0 39.39522203836259 -21.471914279532029 0 0 0 0 -2.8503202015164195 -1.8863722985267795 0 -1.8863722985267795 -1.9207538021429258 0 0 0 0 -391.29647415090921 303.69477991564611 0 303.69477991564611 -188.72915517630281 0 0 0 0 -359.8191255728625 -22.399471246336816 0 -22.399471246336816 -10.537666087617708 0 0 0 0 -9.4605195013946535 -3.9024446442825176 0 -3.9024446442825176 -4.2570638021648861 0 0 0 0 -36.665256102931181 -73.491155473720625 0 -73.491155473720625 35.316727395640555 0 0 0 0 -664.3365507990402 271.36993204517876 0 271.36993204517876 -95.286981369798013 0 0 0 0 -451.83986451621354 -244.06337704584701 0 -244.06337704584701 -341.77234773583859 0 0 0 0 -147.17475059049139 -8.3855278289197486 0 -8.3855278289197486 -599.34811074446679 0 0 0 0 -645.91785604824167 -153.91081897735921 0 -153.91081897735921 -205.76843111856306 0 0 0 0 -423.57391094619925 156.44766530155266 0 156.44766530155266 -387.4138740548633 0 0 0 0 -143.246819236997 88.256997038231475 0 88.256997038231475 -294.27722888814009 0 0 0 0 -126.53299761390008 -86.040999945775638 0 -86.040999945775638 -310.41972028578238 0 0 0 0 -38.142476444499152 -69.495499847199881 0 -69.495499847199881 -224.57876874897988 0 0 0 0 -21.315272253949843 -11.649644266232372 0 -11.649644266232372 -255.88876159114398 0 0 0 0 -82.99791164952876 -121.86901533148739 0 -121.86901533148739 -203.41213935331541 0 0 0 0 -30.761541932557975 -50.587883164266941 0 -50.587883164266941 -186.05099722530213 0 0 0 0 -45.995954995834609 -41.335256420219366 0 -41.335256420219366 -308.76445181221879 0 0 0 0 -111.82261004047723 -3.6204905060139936 0 -3.6204905060139936 -174.71568245512935 0 0 0 0 -63.355553036377387 -197.63890285646221 0 -197.63890285646221 -251.48959908128791 0 0 0 0 -49.008201695841308 -0.49233073026880447 0 -0.49233073026880447 -106.9246990482975 0 0 0 0 -36.752735923329965 13.637917316669245 0 13.637917316669245 -116.89200496152898 0 0 0 0 -37.59683691590908 -42.825575646325433 0 -42.825575646325433 -193.27824568337337 0 0 0 0 -24.867399745907505 -17.328364434268906 0 -17.328364434268906 -146.0535644753154 0 0 0 0 -19.256578055726095 9.8356245428617513 0 9.8356245428617513 -138.81870467588396 0 0 0 0 -84.080007730683519 -63.474274277745508 0 -63.474274277745508 -154.06285552537804 0 0 0 0 -73.231475397245049 -38.126107048315589 0 -38.126107048315589 -109.60884163447236 0 0 0 0 -102.56048546702505 -11.239723824423891 0 -11.239723824423891 -119.48176696271639 0 0 0 0 -146.49670272657215 -46.211442695751543 0 -46.211442695751543 -105.9186631591665 0 0 0 0 -121.86107240980436 -73.446817168019834 0 -73.446817168019834 -110.79608269637492 0 0 0 0 -71.334742352312333 -86.963727272290953 0 -86.963727272290953 -111.01698731472925 0 0 0 0 -118.10129249271858 -65.584170700030199 0 -65.584170700030199 -94.951256376584297 0 0 0 0 -161.16985397430108 -35.445476993099646 0 -35.445476993099646 -92.799667779256822 0 0 0 0 -118.26769590329059 -90.302100245004794 0 -90.302100245004794 -56.461954999605382 0 0 0 0 -86.294572200713446 -148.18429579295116 0 -148.18429579295116 -70.348094908498751 0 0 0 0 -115.5745484297554 -89.479023714836785 0 -89.479023714836785 -73.279600017877783 0 0 0 0 -151.60316189669857 -72.18420819300286 0 -72.18420819300286 -33.991094609005813 0 0 0 0 -92.437277786707455 -14.266178284492071 0 -14.266178284492071 4.7663052736556892 0 0 0 0 -121.94799706284175 -53.091785368147839 0 -53.091785368147839 -53.018528485458887 0 0 0 0 -113.27747497154974 -61.181250508253981 0 -61.181250508253981 -46.036293892392678 0 0 0 0 -103.7658124233576 -17.436016967318437 0 -17.436016967318437 -17.97132887576015 0 0 0 0 -65.764056125581646 -28.057991656976867 0 -28.057991656976867 -31.543797985807487 0 0 0 0 -52.634745596017638 9.8202253399259121 0 9.8202253399259121 -4.4334885269745428 0 0 0 0 -50.786757745641808 -20.133304471734164 0 -20.133304471734164 -25.534310404266307 0 0 0 0 -208.48355449190652 -41.534912011523986 0 -41.534912011523986 -53.665178224351166 0 0 0 0 -127.78707310649588 -67.035612142053651 0 -67.035612142053651 -66.602591712589401 0 0 0 0 -121.77193794332334 -56.465260866014887 0 -56.465260866014887 -48.573829219685194 0 0 0 0 -163.47869004428685 -35.589448045650897 0 -35.589448045650897 -47.174750959466223 0 0 0 0 -167.06833408164675 -50.743179421936475 0 -50.743179421936475 -63.09201671372216 0 0 0 0 -233.76083702315373 -36.017063741539005 0 -36.017063741539005 -33.076340966930502 0 0 0 0 -154.74156621795601 -62.344679939371645 0 -62.344679939371645 -53.4752539438241 0 0 0 0 -91.471649558014178 -37.515164707835538 0 -37.515164707835538 -31.833757626666738 0 0 0 0 -134.93466722399126 -15.26706816769331 0 -15.26706816769331 -31.203326003491838 0 0 0 0 -114.50315481937014 -45.073586792701008 0 -45.073586792701008 -37.497452082453435 0 0 0 0 -74.75706456551552 12.094993463627873 0 12.094993463627873 -29.806439603558829 0 0 0 0 -173.45488318873322 -19.939931539958366 0 -19.939931539958366 -25.854866045190192 0 0 0 0 -14.030270074390501 -1.4446468556416221 0 -1.4446468556416221 -15.278981461998228 0 0 0 0 -80.688473167288976 2.672557021525563 0 2.672557021525563 -7.9699055227299596 0 0 0 0 -76.363161358267007 5.114460778119394 0 5.114460778119394 13.954770952515901 0 0 0 0 -28.803401767220748 -0.77685934747000829 0 -0.77685934747000829 -26.317481175647345 0 0 0 0 21.725598987962712 27.350239650183653 0 27.350239650183653 8.8210275068820465 0 0 0 0 -32.3212005861443 30.597735115916848 0 30.597735115916848 26.537089558267326 0 0 0 0 30.988768990630433 72.293890386719795 0 72.293890386719795 58.811572946386832 0 0 0 0 -24.904439798403057 8.8648254558186537 0 8.8648254558186537 16.705618115819181 0 0 0 0 37.71349959991494 63.193677415273186 0 63.193677415273186 38.80005092336296 0 0 0 0 24.238779779990182 19.059382428172967 0 19.059382428172967 16.83014846450601 0 0 0 0 28.441112117473949 25.861097283310556 0 25.861097283310556 8.2803398500814183 0 0 0 0 -5.5129338887081758 34.973741860373366 0 34.973741860373366 18.974721288184128 0 0 0 0 4.0785154159766535 3.323731959837005 0 3.323731959837005 -15.580192080818733 0 0 0 0 11.593401801535492 26.589191798634204 0 26.589191798634204 12.607200428884425 0 0 0 0 0.90170194940787951 -7.9460400411675778 0 -7.9460400411675778 3.614493111556385 0 0 0 0 12.190919300643145 10.197970485323594 0 10.197970485323594 -6.60019352163647 0 0 0 0 -33.251540616940702 21.464435171743617 0 21.464435171743617 -9.7283869562193104 0 0 0 0 2.0146403444850876 -7.5681291727416919 0 -7.5681291727416919 -27.866805200020735 0 0 0 0 -17.497802270354441 189.48406491255946 0 189.48406491255946 -186.03400070875205 0 0 0 0 -251.36286222616559 158.74478043877423 0 158.74478043877423 2.6688227774393454 0 0 0 0 6.7636631014774942 12.394324977245624 0 12.394324977245624 11.586148292078146 0 0 0 0 -114.10268083327719 45.826046590174428 0 45.826046590174428 66.591943756123555 0 0 0 0 18.469947142933506 27.377334997753962 0 27.377334997753962 20.87230611615405 0 0 0 0 -22.402670029495415 7.8646955835508461 0 7.8646955835508461 18.337110712308061 0 0 0 0 28.043950882111858 37.530835639752695 0 37.530835639752695 18.287617284550322 0 0 0 0 -62.243597402899468 -81.965114606712689 0 -81.965114606712689 -94.692034247567335 0 0 0 0 -512.74350623537066 147.35607961221177 0 147.35607961221177 3.8959249245774572 0 0 0 0 -0.060232445724153649 1.3719209863834099 0 1.3719209863834099 0.8162324916702719 0 0 0 0 2.7277316137897287 40.1659235700115 0 40.1659235700115 -32.164770204835349 0 0 0 0 -103.18393285262846 -70.953522796996538 0 -70.953522796996538 -47.194410321188116 0 0 0 0 -59.655295263873995 -63.898560441442896 0 -63.898560441442896 -23.498881310044567 0 0 0 0 -20.228419792623754 -16.741296041963096 0 -16.741296041963096 -32.834307342335705 0 0 0 0 -63.769615654709924 -33.285466956432174 0 -33.285466956432174 -21.886207931505169 0 0 0 0 -140.92557483030396 -41.32215793471596 0 -41.32215793471596 2.6604381417294007 0 0 0 0 -103.23340762240696 -39.881255984889094 0 -39.881255984889094 -28.361823900763284 0 0 0 0 -73.647563338554846 -66.033292306707551 0 -66.033292306707551 -31.678249348931786 0 0 0 0 -230.53645894120928 -91.98011258455108 0 -91.98011258455108 -8.3782989947067108 0 0 0 0 -222.04077567678542 49.972062297906177 0 49.972062297906177 86.418594618468433 0 0 0 0 -559.98316021938081 -24.468542310815337 0 -24.468542310815337 73.546020298120993 0 0 0 0 -285.46234140698289 -183.90821600921549 0 -183.90821600921549 -80.211192265734553 0 0 0 0 -278.02477231667035 508.85722933906902 0 508.85722933906902 -52.916779588876125 0 0 0 0 -57.645130248482019 30.316243224799109 0 30.316243224799109 -53.742766831996732 0 0 0 0 166.41445010820189 48.426064575933765 0 48.426064575933765 -70.405780167442572 0 0 0 0 -6.3132012622446076 -10.199968410548706 0 -10.199968410548706 -16.623039986247971 0 0 0 0 -117.31734969230763 73.369981168757278 0 73.369981168757278 -30.084539058874725 0 0 0 0 -45.583956327003762 38.372499272746154 0 38.372499272746154 -55.412022491953678 0 0 0 0 -43.551722147709597 50.803524353121219 0 50.803524353121219 -22.722975029062582 0 0 0 0 -40.80702662514841 35.793996686605169 0 35.793996686605169 -37.394604640096077 0 0 0 0 -36.573991108969494 21.419950069591323 0 21.419950069591323 -18.183181425225314 0 0 0 0 -57.738407821437931 46.591607694117272 0 46.591607694117272 -35.413105152380922 0 0 0 0 -57.685557252663784 46.551801090711479 0 46.551801090711479 -43.178622481695129 0 0 0 0 -57.716880790645519 31.543365530940264 0 31.543365530940264 -27.119160335867946 0 0 0 0 -68.144758236270718 23.688451080038249 0 23.688451080038249 -15.835566208656928 0 0 0 0 -49.040008397143538 31.375289195206278 0 31.375289195206278 -30.526490724150335 0 0 0 0 -54.205810609633772 15.105650907754352 0 15.105650907754352 -3.9692689324813273 0 0 0 0 -48.968771731939341 21.729733149664753 0 21.729733149664753 -20.628870853712669 0 0 0 0 -62.604354060480546 25.575541764530499 0 25.575541764530499 -18.417398031340781 0 0 0 0 -49.19596448075572 34.024546567088464 0 34.024546567088464 -11.737701535401357 0 0 0 0 -28.307951925626185 -1.9417305664078413 0 -1.9417305664078413 -10.347491114731838 0 0 0 0 -25.816749597455782 -12.65841503645197 0 -12.65841503645197 3.3832594923052284 0 0 0 0 -11.702730004919541 1.2826220207268868 0 1.2826220207268868 0.8092490005004116 0 0 0 0 -38.535164841277037 9.4701643772414172 0 9.4701643772414172 9.2395595541092916 0 0 0 0 -36.675720317858577 11.895688174400448 0 11.895688174400448 -13.932116946510178 0 0 0 0 -47.072945783023897 11.496678574535963 0 11.496678574535963 -23.393878629907704 0 0 0 0 -41.577624374695006 0.33088486977339926 0 0.33088486977339926 -0.56492806863207079 0 0 0 0 -46.242853519973323 12.630547480762061 0 12.630547480762061 -21.877297775596162 0 0 0 0 -37.821414828751585 -6.0475954984058262 0 -6.0475954984058262 -12.011687230734424 0 0 0 0 -50.869322868591553 1.4633107736135571 0 1.4633107736135571 -31.766397725000843 0 0 0 0 -63.496750068277834 11.957821373583556 0 11.957821373583556 -31.866588532293463 0 0 0 0 -69.098233841370529 29.833111925065168 0 29.833111925065168 -25.935146129526402 0 0 0 0 -55.400608118936361 24.853061844915828 0 24.853061844915828 -42.30199270990488 0 0 0 0 -77.244768113278042 59.097845344819689 0 59.097845344819689 -85.24406873769658 0 0 0 0 -67.528034733521054 33.620920322317488 0 33.620920322317488 -28.279265657405631 0 0 0 0 -67.185959875463595 -3.3214415965449007 0 -3.3214415965449007 -78.664703895444973 0 0 0 0 -7.3991495825618969 -8.770433302737807 0 -8.770433302737807 -10.170362702575973 0 0 0 0 -216.24683727158572 -31.591080088585713 0 -31.591080088585713 -41.016856260184113 0 0 0 0 2.3458791085504345 -32.317193856952144 0 -32.317193856952144 -57.010275418230776 0 0 0 0 -0.99210042583646896 -0.13572009187940637 0 -0.13572009187940637 -0.6621320250288889 0 0 0 0 -129.49779588407182 73.280327109095651 0 73.280327109095651 8.6180591390411792 0 0 0 0 -248.13321789744987 368.04096398789437 0 368.04096398789437 -127.72627046306309 0 0 0 0 -9.6622768759251869 -2.7983789840921496 0 -2.7983789840921496 1.87075171680958 0 0 0 0 -400.44870211175476 -490.26421528261517 0 -490.26421528261517 -88.550312006940302 0 0 0 0 -7.6451681268427727 -11.328170169107864 0 -11.328170169107864 -16.471123119406279 0 0 0 0 -82.136835679726573 20.890028219590931 0 20.890028219590931 -8.4128601419333791 0 0 0 0 -81.880804134016216 18.590371243935351 0 18.590371243935351 -27.081333212539903 0 0 0 0 -65.832449724401158 29.780767193525207 0 29.780767193525207 -19.313431521778512 0 0 0 0 -74.884354891284602 29.210902593790706 0 29.210902593790706 -18.559936464842849 0 0 0 0 -61.697636363145648 26.791445299620818 0 26.791445299620818 -25.578130004561899 0 0 0 0 -103.9913085598746 30.062345762924451 0 30.062345762924451 7.1359308460039301 0 0 0 0 -80.395291491600801 39.072709646808107 0 39.072709646808107 -24.637144048678238 0 0 0 0 -34.393910262771541 -3.8280007261239675 0 -3.8280007261239675 7.2419963843019737 0 0 0 0 0.56514942885041819 -13.470149376326617 0 -13.470149376326617 14.937787718009872 0 0 0 0 8.8439520015272137 -50.643614291745507 0 -50.643614291745507 18.120284233997523 0 0 0 0 26.482161067688139 -25.172265892750602 0 -25.172265892750602 -11.351540739311531 0 0 0 0 4.083819913453226 -0.82235338160566585 0 -0.82235338160566585 -26.309516460360101 0 0 0 0 -9.227755379411974 18.106571682147205 0 18.106571682147205 -8.1374780577079946 0 0 0 0 -12.24201557777269 -5.6462039442285459 0 -5.6462039442285459 -18.083398028993997 0 0 0 0 -25.852171094684309 12.076838028679276 0 12.076838028679276 18.243260143196011 0 0 0 0 -25.798427904342134 12.161490771704052 0 12.161490771704052 -41.428984338283954 0 0 0 0 -21.654713982436078 -35.040425106015391 0 -35.040425106015391 -46.911149304247374 0 0 0 0 -19.21362326347662 -24.354691550681309 0 -24.354691550681309 -2.4235672012280247 0 0 0 0 -98.04965895391615 16.47241091610158 0 16.47241091610158 -8.4117135895730826 0 0 0 0 -278.09300545531823 95.222613377709649 0 95.222613377709649 3.3705680721991484 0 0 0 0 -1.3662784124514644 -0.66636100389403907 0 -0.66636100389403907 1.0353143700762075 0 0 0 0 -197.9949815873988 -71.401159966313116 0 -71.401159966313116 -7.1122120720165185 0 0 0 0 -119.55097221479991 -214.85313149736282 0 -214.85313149736282 78.391049137128675 0 0 0 0 -55.82488614488102 -64.479000469422431 0 -64.479000469422431 -80.294570649121397 0 0 0 0 -1.6853129086620768 -0.7233320270682313 0 -0.7233320270682313 0.068228912271325548 0 0 0 0 -28.638229059484729 -56.398922795095132 0 -56.398922795095132 -27.922138326272943 0 0 0 0 12.491079477906169 -8.1770476349784076 0 -8.1770476349784076 -48.497379845569867 0 0 0 0 -294.00839394572904 128.85511151924197 0 128.85511151924197 -54.142477479803034 0 0 0 0 -103.69634041684185 -9.6014320559033877 0 -9.6014320559033877 -85.142223299693342 0 0 0 0 -83.502469527709763 -39.170625733005409 0 -39.170625733005409 -103.48155348341561 0 0 0 0 -282.99785053202299 -36.651409257713794 0 -36.651409257713794 -53.470812945750367 0 0 0 0 -47.133178200383554 51.644394140243548 0 51.644394140243548 -63.641112006805429 0 0 0 0 6.2519588521718106 28.494010065631301 0 28.494010065631301 -52.513470356750076 0 0 0 0 -43.089694978294574 61.830012134047593 0 61.830012134047593 12.011722865966476 0 0 0 0 -1.1784852974686615 -1.4226786441453712 0 -1.4226786441453712 1.5272847179779685 0 0 0 0 -51.778524215998914 21.481010731546235 0 21.481010731546235 40.712688073608206 0 0 0 0 -0.57857012564636534 -10.882828547901227 0 -10.882828547901227 9.2185637823786237 0 0 0 0 -153.5801736984713 91.142520805830827 0 91.142520805830827 18.588023036644699 0 0 0 0 -111.06100059036908 17.396359604948429 0 17.396359604948429 37.088529804204427 0 0 0 0 4.6182824833922496 23.501656606337747 0 23.501656606337747 -72.861457815190079 0 0 0 0 -75.565253430884695 -119.00548740933584 0 -119.00548740933584 154.94647690933334 0 0 0 0 -39.624969396424717 -7.8053305244545497 0 -7.8053305244545497 6.1698358024818658 0 0 0 0 -74.218830134623204 -61.165789387569362 0 -61.165789387569362 80.905561051257791 0 0 0 0 -53.040468277982654 41.197268760470024 0 41.197268760470024 -50.853402044572476 0 0 0 0 -134.39209028877076 13.62894133376102 0 13.62894133376102 69.460913973228344 0 0 0 0 -164.74814788380172 16.049334382868931 0 16.049334382868931 69.626929309275525 0 0 0 0 -33.239430361501945 -76.407541696533144 0 -76.407541696533144 -0.77450293054047847 0 0 0 0 -52.596992110495194 -72.158337006236138 0 -72.158337006236138 96.342045693537329 0 0 0 0 -37.111051512391882 -6.5246471433229543 0 -6.5246471433229543 6.825603434038908 0 0 0 0 -12.063876244435733 38.224714550424551 0 38.224714550424551 37.957089066117078 0 0 0 0 -183.79981284752557 -26.910259544170685 0 -26.910259544170685 30.710491318381173 0 0 0 0 196.94916447377909 10.3657431428162 0 10.3657431428162 -45.59284993827896 0 0 0 0 -0.40666352956439411 0.20695364975454034 0 0.20695364975454034 2.2091939245252181 0 0 0 0 -267.10024690122464 90.579991322475735 0 90.579991322475735 82.427079806826896 0 0 0 0 130.43130803839631 -23.603015544096177 0 -23.603015544096177 -53.529131336083225 0 0 0 0 -98.823181928678423 87.434085911599382 0 87.434085911599382 51.142687724557334 0 0 0 0 -25.05266199685957 38.105935731277853 0 38.105935731277853 -69.148145730257468 0 0 0 0 5.9186747589328661 47.372617250289068 0 47.372617250289068 8.1232937902336744 0 0 0 0 -33.683952467339168 82.714994075852474 0 82.714994075852474 -22.024327580930958 0 0 0 0 -142.58346476612314 97.163467973858133 0 97.163467973858133 -40.247303292969718 0 0 0 0 1.1284855817278343 2.3398341118631016 0 2.3398341118631016 3.839097529378753 0 0 0 0 18.270794957774797 13.830659386921184 0 13.830659386921184 0.28443332439564983 0 0 0 0 -331.51806285266844 114.30546214698927 0 114.30546214698927 23.379467489752187 0 0 0 0 -186.33076149384669 77.391472352328037 0 77.391472352328037 -65.337042222669055 0 0 0 0 -159.47284340044735 38.529059086251436 0 38.529059086251436 -16.824449384796935 0 0 0 0 -83.042047895216001 14.627324811121525 0 14.627324811121525 -0.07748491669235591 0 0 0 0 -227.02191358371192 21.864504466669246 0 21.864504466669246 42.164956740386515 0 0 0 0 -148.33592485219103 -43.616707072192057 0 -43.616707072192057 86.224490920877543 0 0 0 0 -69.033400222936507 11.52811501756878 0 11.52811501756878 118.08156717680959 0 0 0 0 -4.0895931881494789 -137.95841868561229 0 -137.95841868561229 144.22309151448962 0 0 0 0 42.383839594496067 -81.238645479174238 0 -81.238645479174238 47.202660208947236 0 0 0 0 -38.569046171206942 -8.5406124791741291 0 -8.5406124791741291 5.7493125372495832 0 0 0 0 -54.751207467774748 -26.543916633961544 0 -26.543916633961544 21.514787683366649 0 0 0 0 -114.05447764323799 -65.63920991515397 0 -65.63920991515397 92.671462536071431 0 0 0 0 -166.16397943421089 -52.728242824182871 0 -52.728242824182871 53.342851931594851 0 0 0 0 -40.048981800682952 -113.99553460985737 0 -113.99553460985737 76.319146007155723 0 0 0 0 -115.74549584852821 -7.3028584055227839 0 -7.3028584055227839 -4.2908882389674545 0 0 0 0 -133.49440087092955 -62.930078444428318 0 -62.930078444428318 63.908011142973919 0 0 0 0 -235.17335885093274 -25.483566583022991 0 -25.483566583022991 16.484220332504265 0 0 0 0 -175.99945568063481 -43.809592937830324 0 -43.809592937830324 27.003708593849296 0 0 0 0 -173.94517234269642 37.780667357421862 0 37.780667357421862 -33.489435971688181 0 0 0 0 -351.41988867373038 118.34836649456338 0 118.34836649456338 -23.251313941322223 0 0 0 0 -347.97999933028859 69.046203611688725 0 69.046203611688725 3.2200114035172192 0 0 0 0 -230.50288156622992 4.6292733024683912 0 4.6292733024683912 -40.173806601913384 0 0 0 0 -314.52965539933393 85.096367698370159 0 85.096367698370159 -132.47451403229411 0 0 0 0 -3.8603705273999935 -27.758274586038851 0 -27.758274586038851 17.549519481948664 0 0 0 0 -495.35804321946398 181.07415922100972 0 181.07415922100972 -15.977876608012593 0 0 0 0 -437.18943491315304 206.49149833076103 0 206.49149833076103 -108.75350524221722 0 0 0 0 -5.1410735468928594 -5.1845449852886194 0 -5.1845449852886194 -5.895235918122669 0 0 0 0 -575.2877151441262 123.43079949927051 0 123.43079949927051 -56.791815114960627 0 0 0 0 -0.43523082185397222 -0.14580897034001161 0 -0.14580897034001161 -0.2539968067721059 0 0 0 0 -333.92280112924436 192.35017379631881 0 192.35017379631881 -109.92284105811268 0 0 0 0 -407.12514819284843 158.04044668852066 0 158.04044668852066 -12.111408514145296 0 0 0 0 -331.59632830296778 44.998486512496129 0 44.998486512496129 -76.18525698645135 0 0 0 0 -346.63911707071293 42.335922996708177 0 42.335922996708177 -11.147673792072055 0 0 0 0 -331.18130705764725 97.500148984616317 0 97.500148984616317 -44.108837517280335 0 0 0 0 -289.56852786064155 29.564487169136555 0 29.564487169136555 17.205484791463277 0 0 0 0 -222.20817356691413 58.982182461634409 0 58.982182461634409 -27.718586661212612 0 0 0 0 -278.09640895854227 160.47068714846955 0 160.47068714846955 -62.904682100811812 0 0 0 0 -15.740679754244411 9.3362759553250498 0 9.3362759553250498 8.9959435415466942 0 0 0 0 -16.161142488459973 10.227100925469131 0 10.227100925469131 9.9577843134047725 0 0 0 0 -0.72961376302010628 3.4676423059811685 0 3.4676423059811685 5.1553010799464847 0 0 0 0 -5.9341509378409683 12.788736475753922 0 12.788736475753922 9.9092809788703633 0 0 0 0 -16.101636211295066 3.8878887687492192 0 3.8878887687492192 6.2028184189353794 0 0 0 0 5.2438581141777831 -2.759163961795366 0 -2.759163961795366 7.7761593433924645 0 0 0 0 -26.380535428364965 6.8113673992138501 0 6.8113673992138501 10.412581302952276 0 0 0 0 -66.621746160586554 -3.6605715973246333 0 -3.6605715973246333 27.230471157571174 0 0 0 0 -25.539147102548668 0.1254367576302684 0 0.1254367576302684 23.990335418490758 0 0 0 0 -49.777921413652621 10.121921946075418 0 10.121921946075418 22.98068267760118 0 0 0 0 -23.446875905665365 17.181840622028176 0 17.181840622028176 1.555352738449983 0 0 0 0 -23.518294454821444 17.941879178255022 0 17.941879178255022 25.114445328889133 0 0 0 0 -61.112915665723904 37.119799386842672 0 37.119799386842672 15.694019044955894 0 0 0 0 -60.069705184505438 -0.69221538838974084 0 -0.69221538838974084 14.545816845967238 0 0 0 0 -37.435360721785401 -20.364727941987439 0 -20.364727941987439 15.195875527028051 0 0 0 0 -74.803995108200979 -79.358815619852408 0 -79.358815619852408 63.806429425113492 0 0 0 0 -36.958370799522427 -7.8651055338658251 0 -7.8651055338658251 4.9857141519633323 0 0 0 0 -67.166762735239899 16.7629313664238 0 16.7629313664238 1.9749938558443318 0 0 0 0 -49.343350257968268 11.543666525814842 0 11.543666525814842 -1.9098536434134985 0 0 0 0 -43.767225318404144 18.924237677313613 0 18.924237677313613 -25.199308829680376 0 0 0 0 -95.527595474019364 -4.2754990415193816 0 -4.2754990415193816 -28.495398999772078 0 0 0 0 -95.066762016351277 45.317838917697372 0 45.317838917697372 -31.105224900417852 0 0 0 0 -86.068714418182935 8.6079744823200599 0 8.6079744823200599 -10.966768468544615 0 0 0 0 -53.916017966194886 -8.4753999404724709 0 -8.4753999404724709 -0.016437708485682379 0 0 0 0 -65.433622611148166 9.7455632724459065 0 9.7455632724459065 -12.073002415057999 0 0 0 0 -54.389168629307278 -10.26052993742428 0 -10.26052993742428 -3.6348291636295471 0 0 0 0 -49.38395268793829 3.3777864818530361 0 3.3777864818530361 -14.789377597979183 0 0 0 0 -63.005991114130666 -8.6025823258014498 0 -8.6025823258014498 -24.404311140981008 0 0 0 0 -38.044348269581079 -8.7270735497431779 0 -8.7270735497431779 4.9111440310326664 0 0 0 0 -48.217962165446806 7.1465452790030213 0 7.1465452790030213 -19.842933192605415 0 0 0 0 -26.172834843397141 -27.136913372725758 0 -27.136913372725758 9.4118833363872909 0 0 0 0 -33.53831417065885 -9.6821504050785734 0 -9.6821504050785734 -15.400515410961361 0 0 0 0 -40.114127637699312 -13.123400907556288 0 -13.123400907556288 10.787685255520046 0 0 0 0 -36.322378713766739 -0.92997021801329538 0 -0.92997021801329538 -0.71761958800288994 0 0 0 0 -29.538673212005961 -0.59984087106386141 0 -0.59984087106386141 -0.029069933209029841 0 0 0 0 62.160363102273095 -64.076470453754609 0 -64.076470453754609 71.180362799625527 0 0 0 0 -12.553321827159257 2.1579461094945014 0 2.1579461094945014 1.1634138468028734 0 0 0 0 105.11679252862371 -155.17577678006012 0 -155.17577678006012 85.341010832304164 0 0 0 0 77.822464878197025 -71.642380062786287 0 -71.642380062786287 99.954143631008719 0 0 0 0 39.446765203978657 -117.01772368360753 0 -117.01772368360753 46.77606710325017 0 0 0 0 -22.279146693680559 -54.654095846985911 0 -54.654095846985911 38.599004883487396 0 0 0 0 -115.53683818743684 17.286782469379432 0 17.286782469379432 46.331460554758451 0 0 0 0 10.34992994340223 36.36429648468993 0 36.36429648468993 -81.989706673116416 0 0 0 0 -192.95223779408411 91.111852439411905 0 91.111852439411905 14.029614337130624 0 0 0 0 -0.088226653904888153 -0.62577432571695768 0 -0.62577432571695768 0.53572729874191083 0 0 0 0 239.97681399663418 -163.49231384948303 0 -163.49231384948303 -2.5760879402787396 0 0 0 0 187.98055222098014 -59.340062085824002 0 -59.340062085824002 27.130627592587189 0 0 0 0 130.48170244158109 -146.06707267652109 0 -146.06707267652109 33.326368947856736 0 0 0 0 -22.194703934000245 -97.705036151711738 0 -97.705036151711738 13.138229878375569 0 0 0 0 19.01787765849258 -58.446208466445569 0 -58.446208466445569 39.840266535922638 0 0 0 0 91.475987034436457 -120.37538604537622 0 -120.37538604537622 12.076308258387144 0 0 0 0 90.047237639592822 -62.839483233922692 0 -62.839483233922692 -11.606595092764564 0 0 0 0 70.882515211752889 -97.920866269098497 0 -97.920866269098497 -21.284953311581148 0 0 0 0 -200.07522795374439 -4.9503003683166753 0 -4.9503003683166753 83.710180990292429 0 0 0 0 -16.978381156265868 -119.27339456589152 0 -119.27339456589152 -5.1698887768097848 0 0 0 0 46.169037770188311 -43.361652889269862 0 -43.361652889269862 -81.143876462312619 0 0 0 0 2.2704808857654908 -0.50329804156456071 0 -0.50329804156456071 0.25509253074833715 0 0 0 0 71.639293134253876 -92.101564579381829 0 -92.101564579381829 7.6980227891290269 0 0 0 0 4.5604719014388593 -83.450491234812944 0 -83.450491234812944 -15.485736731558973 0 0 0 0 -46.737435431677113 36.091859668420057 0 36.091859668420057 178.53028127614425 0 0 0 0 -163.08050950079618 -46.281227960994443 0 -46.281227960994443 21.325434891106852 0 0 0 0 -33.358526188194219 -20.422793821176128 0 -20.422793821176128 -10.997835572110489 0 0 0 0 -57.942310470279608 17.166161923508298 0 17.166161923508298 51.912801712906912 0 0 0 0 -45.567167515373512 -0.13704108908132184 0 -0.13704108908132184 6.5376566213681144 0 0 0 0 -31.672043915289304 -39.734576089007561 0 -39.734576089007561 -1.4544440730214774 0 0 0 0 -36.034656783267188 -5.2707006277522055 0 -5.2707006277522055 5.1380126763340996 0 0 0 0 14.830028239197048 -56.126926766404267 0 -56.126926766404267 -4.1502087751377985 0 0 0 0 3.2178288113871432 -5.5386757006909626 0 -5.5386757006909626 2.3358993440137716 0 0 0 0 -37.540985258705405 0.42033213774811884 0 0.42033213774811884 46.629359378273875 0 0 0 0 -16.591713087608184 -62.901974177455372 0 -62.901974177455372 -32.500469529572001 0 0 0 0 -38.947993933600173 -100.85395909027193 0 -100.85395909027193 -178.71853796500773 0 0 0 0 -35.982241213100679 -181.10532422266397 0 -181.10532422266397 -100.51646988457696 0 0 0 0 -134.78436442272312 45.675992667481296 0 45.675992667481296 -109.48637307798981 0 0 0 0 103.1752465599925 -144.67290081202646 0 -144.67290081202646 26.76856247239175 0 0 0 0 92.153093244814272 74.001562126752106 0 74.001562126752106 -159.41198699567121 0 0 0 0 -126.28511830206601 43.595420746603395 0 43.595420746603395 -148.29603106946433 0 0 0 0 96.31258470083435 31.848004957154444 0 31.848004957154444 -235.71342107797454 0 0 0 0 86.693643677477439 54.272978632629247 0 54.272978632629247 -165.8310730479925 0 0 0 0 -1.872039535595631 0.98600868460436075 0 0.98600868460436075 -0.44802311513364046 0 0 0 0 -160.59254234816126 -64.894024910122653 0 -64.894024910122653 -32.326807636630292 0 0 0 0 -200.19168324004738 -90.570960299571652 0 -90.570960299571652 -42.151495629724195 0 0 0 0 -127.06031556681864 -42.269148961487872 0 -42.269148961487872 29.231489594797495 0 0 0 0 -3.9276400878469371 2.1056586727031821 0 2.1056586727031821 -0.6034740166917949 0 0 0 0 -81.416876332886147 -48.685928084663374 0 -48.685928084663374 -87.541369999938524 0 0 0 0 -81.088422197760167 -42.103054921841249 0 -42.103054921841249 -95.504459198436962 0 0 0 0 -60.021378471809612 -51.950580710272789 0 -51.950580710272789 -38.551336951698886 0 0 0 0 -86.662926347170924 -102.93838642618562 0 -102.93838642618562 -39.461133664410681 0 0 0 0 -127.85532489662251 -41.284194791768641 0 -41.284194791768641 -131.69819278870182 0 0 0 0 -3.1121387950119583 4.075915677566627 0 4.075915677566627 -32.344181571994341 0 0 0 0 -49.9985809455668 2.3513019033707678 0 2.3513019033707678 14.857794834280412 0 0 0 0 -24.25350464918472 33.046015710413485 0 33.046015710413485 0.19534486466295675 0 0 0 0 -115.13863246805704 24.239213080440095 0 24.239213080440095 -40.187592847090855 0 0 0 0 -23.197537774277276 8.097574548569078 0 8.097574548569078 2.147450523955829 0 0 0 0 -41.860795620841827 -9.5566940613553015 0 -9.5566940613553015 -39.589614174029521 0 0 0 0 -55.092622566614523 -2.392221218470695 0 -2.392221218470695 -14.063904853553595 0 0 0 0 -105.745765300735 57.615990158554268 0 57.615990158554268 -9.9714791432734273 0 0 0 0 -148.21571414946402 -42.737000680660231 0 -42.737000680660231 60.348144591795062 0 0 0 0 -9.6586610621234286 -39.941364268222515 0 -39.941364268222515 27.30196774731121 0 0 0 0 -29.955946317738267 -20.724389085227813 0 -20.724389085227813 0.30043775387275673 0 0 0 0 -28.649495908264271 3.2434549502931986 0 3.2434549502931986 20.908517450552608 0 0 0 0 -49.137454824102491 1.9865713980061628 0 1.9865713980061628 23.128847809258332 0 0 0 0 -31.959553137264834 -8.6876314202936555 0 -8.6876314202936555 -7.7531963078690751 0 0 0 0 -68.848709036042465 -16.784733334684915 0 -16.784733334684915 -6.4686661537089094 0 0 0 0 -59.706362430036762 -51.216952019529572 0 -51.216952019529572 -27.908813176033618 0 0 0 0 -41.928196220948166 2.9638994490255754 0 2.9638994490255754 -36.230855500170946 0 0 0 0 -50.52075344783816 -40.115891060474041 0 -40.115891060474041 -56.107897090712413 0 0 0 0 -150.54399578978416 -185.5187437742411 0 -185.5187437742411 -157.94800699286617 0 0 0 0 3.1226696272908612 -53.986335798123264 0 -53.986335798123264 -141.64440012832165 0 0 0 0 39.480675454743505 6.4261745833641726 0 6.4261745833641726 -74.480987633365658 0 0 0 0 -0.95581355088278563 -1.0907070336510647 0 -1.0907070336510647 -2.6996880447898057 0 0 0 0 -57.905080193303434 -19.958615887082942 0 -19.958615887082942 21.022909995162991 0 0 0 0 -483.12184248804738 94.724758361372494 0 94.724758361372494 -5.5559282426238497 0 0 0 0 -654.07824417851384 218.35112343682158 0 218.35112343682158 -78.18815493810871 0 0 0 0 -179.29414245699627 -5.1730280303913787 0 -5.1730280303913787 -131.23112389075686 0 0 0 0 -560.46711769302055 -69.501145296948835 0 -69.501145296948835 -33.169749298292118 0 0 0 0 -126.20392228590408 -107.88809506360451 0 -107.88809506360451 -312.67287284092436 0 0 0 0 -246.12492386482813 129.60794727719986 0 129.60794727719986 -216.17806297565357 0 0 0 0 -136.45920643212247 -107.98976227929188 0 -107.98976227929188 5.2896638914990035 0 0 0 0 -82.143758835865356 122.45092623057917 0 122.45092623057917 56.9793661319855 0 0 0 0 -193.36454417845428 -113.49577272757324 0 -113.49577272757324 15.708573640521536 0 0 0 0 -177.23226322655893 -90.975169857274977 0 -90.975169857274977 6.744328635826605 0 0 0 0 -403.7376440343113 -151.25113240568339 0 -151.25113240568339 -8.3781609445486538 0 0 0 0 -125.02287248543638 -13.313587891307634 0 -13.313587891307634 10.909253435956998 0 0 0 0 -167.54126226560092 -112.6714123035008 0 -112.6714123035008 -49.813143917450247 0 0 0 0 -92.776369133467597 -0.35359050989609386 0 -0.35359050989609386 4.4666603306200159 0 0 0 0 -162.08856237573218 -30.001290541689968 0 -30.001290541689968 -5.3640020264244868 0 0 0 0 -44.626877871362012 -1.3845585978851886 0 -1.3845585978851886 -13.854184022106892 0 0 0 0 -86.92954788637644 -37.434895229682297 0 -37.434895229682297 -20.570940563600743 0 0 0 0 -0.66483601766424916 -0.97484731833159977 0 -0.97484731833159977 -1.2829896423998406 0 0 0 0 323.95855533084659 -289.93134175178807 0 -289.93134175178807 -182.17497643858269 0 0 0 0 -665.98542000216958 -105.14634751457788 0 -105.14634751457788 -36.119701721578622 0 0 0 0 -0.94633721597840914 -2.7655159163152829 0 -2.7655159163152829 -1.7344367990113909 0 0 0 0 -311.34413058850566 50.435842127596516 0 50.435842127596516 24.322696396460742 0 0 0 0 -289.99489984262885 -208.00969152342682 0 -208.00969152342682 -100.51722592099577 0 0 0 0 -3.3615745980058414 0.57760284957569263 0 0.57760284957569263 0.47414340478907491 0 0 0 0 -92.080590919563519 -138.07655697661676 0 -138.07655697661676 -147.99130774221885 0 0 0 0 -517.55829889924485 -218.20003788858867 0 -218.20003788858867 -86.963111743559011 0 0 0 0 -381.12358197687809 -448.36841414358514 0 -448.36841414358514 -318.65926770008809 0 0 0 0 -103.10353821946163 -133.83673975427399 0 -133.83673975427399 -117.28969375544966 0 0 0 0 -95.012535956768943 -87.666761871085328 0 -87.666761871085328 -85.391440073109152 0 0 0 0 -4.1609124427423456 1.5717323848227345 0 1.5717323848227345 0.082046883799845816 0 0 0 0 -180.51140131246757 -94.074815479713379 0 -94.074815479713379 31.550665144697177 0 0 0 0 -181.52657633505191 -88.370509563708765 0 -88.370509563708765 4.6947326177801187 0 0 0 0 -58.191611106016545 -97.048608003181243 0 -97.048608003181243 -120.27346675141371 0 0 0 0 -45.985917050917749 -91.465804493902397 0 -91.465804493902397 -62.239155371230481 0 0 0 0 -40.177152607380506 -73.208663087736568 0 -73.208663087736568 -113.46853053571522 0 0 0 0 -21.64813617754578 -34.82408012816245 0 -34.82408012816245 -30.8386817684368 0 0 0 0 -48.754561135568025 -63.800142636363944 0 -63.800142636363944 -46.980945939256344 0 0 0 0 -10.373512110963361 -32.16074552013788 0 -32.16074552013788 -47.683867674757806 0 0 0 0 -20.82248188132688 -32.9628969258697 0 -32.9628969258697 -2.395817338580855 0 0 0 0 -1.2644139297949266 4.7468160971579891 0 4.7468160971579891 10.043291965926983 0 0 0 0 8.3799570117577389 1.040881019966946 0 1.040881019966946 10.728366591590884 0 0 0 0 0.40533989961807038 6.7717337202666386 0 6.7717337202666386 17.171802002742879 0 0 0 0 8.5175575794539782 22.26231468513879 0 22.26231468513879 23.657306213024185 0 0 0 0 -6.1651589536114102 -12.562125023592102 0 -12.562125023592102 -22.042254011261321 0 0 0 0 0.75894636867610643 12.16034020927782 0 12.16034020927782 7.5949266547322623 0 0 0 0 -17.722657889530183 -19.014935830826744 0 -19.014935830826744 -7.1472047449724414 0 0 0 0 -35.120962954117203 -40.117814277360139 0 -40.117814277360139 -30.897785052919062 0 0 0 0 -7.4023986908216557 -17.767313097432179 0 -17.767313097432179 -33.865493172876086 0 0 0 0 -26.292502440084263 -53.968804695497965 0 -53.968804695497965 -72.564136168190089 0 0 0 0 -38.854799050205202 -39.590818538494204 0 -39.590818538494204 -46.135617861069932 0 0 0 0 -16.200539082015894 -29.622617028903733 0 -29.622617028903733 -53.05510495306271 0 0 0 0 -13.820045494195028 -20.168406800756657 0 -20.168406800756657 -23.160042354038524 0 0 0 0 -24.771299752479308 -18.468471935755588 0 -18.468471935755588 -15.858587071053989 0 0 0 0 -32.670694480157181 -39.94192938118249 0 -39.94192938118249 -44.003345387786794 0 0 0 0 -5.5001106050199269 9.7979440091535253 0 9.7979440091535253 2.8503242846536523 0 0 0 0 -43.923250581225602 -41.293739724154648 0 -41.293739724154648 -47.498358179607749 0 0 0 0 -19.043170705554985 -32.457617433081396 0 -32.457617433081396 -62.1399197910157 0 0 0 0 -22.916369198051143 -11.943475028879675 0 -11.943475028879675 -30.084497985126973 0 0 0 0 -47.746615056471455 -50.271065395771984 0 -50.271065395771984 -59.176265450781102 0 0 0 0 -45.898576047019105 -54.502235588369786 0 -54.502235588369786 -89.540583986397905 0 0 0 0 -27.210192817204643 -34.749157453678436 0 -34.749157453678436 -62.316520233201118 0 0 0 0 -47.571923381806755 -63.107042803132572 0 -63.107042803132572 -71.19607099998143 0 0 0 0 -61.174801312345068 -91.562935777011631 0 -91.562935777011631 -100.24619702318068 0 0 0 0 -57.612747394287908 -57.144600996080953 0 -57.144600996080953 -65.117558345304587 0 0 0 0 -31.334700398855716 -69.905263955000464 0 -69.905263955000464 -97.32191754784435 0 0 0 0 -80.173190578206231 -83.564366175218765 0 -83.564366175218765 -100.65467526088401 0 0 0 0 -95.752269639227052 -90.947742736574583 0 -90.947742736574583 -156.12291264740452 0 0 0 0 -159.31528142539105 -126.2255628999269 0 -126.2255628999269 -110.56087308213773 0 0 0 0 -127.67906282787999 -84.384124812450864 0 -84.384124812450864 -131.82367804418209 0 0 0 0 -84.349544293920189 -79.875360674294825 0 -79.875360674294825 -111.60781106903693 0 0 0 0 -110.34467175176087 -105.13686091342379 0 -105.13686091342379 -109.98831004075419 0 0 0 0 -79.349419387276612 -105.66439388733852 0 -105.66439388733852 -143.67525519636183 0 0 0 0 -76.362414022624762 -68.503153781587571 0 -68.503153781587571 -79.899067760994512 0 0 0 0 -70.432649640541058 -86.727967551566962 0 -86.727967551566962 -110.65847291177306 0 0 0 0 -41.04504194715264 -49.553922492831589 0 -49.553922492831589 -85.064721178252057 0 0 0 0 -72.397315563116081 -62.466728792742742 0 -62.466728792742742 -71.716440797194082 0 0 0 0 -31.766639470631162 -44.817421929873035 0 -44.817421929873035 -77.058626561575011 0 0 0 0 -67.239593082299507 -62.175716306511276 0 -62.175716306511276 -71.767617106148464 0 0 0 0 -71.964067279113351 -56.917201228674912 0 -56.917201228674912 -77.476766105063234 0 0 0 0 -90.254551437561418 -122.24004306980055 0 -122.24004306980055 -139.10924094592792 0 0 0 0 -56.449116524747751 -64.560916208525668 0 -64.560916208525668 -106.10072741327804 0 0 0 0 -103.44657880526029 -85.411254857337099 0 -85.411254857337099 -98.160013806045754 0 0 0 0 -91.672611114810024 -91.14642706487848 0 -91.14642706487848 -98.160620660130917 0 0 0 0 -60.414509137744062 -94.121401738048462 0 -94.121401738048462 -136.19417528019858 0 0 0 0 -102.35058558480841 -98.762324229438036 0 -98.762324229438036 -112.48320561001992 0 0 0 0 -78.449491322161521 -115.85655637869104 0 -115.85655637869104 -193.68793987852905 0 0 0 0 -125.0274884149967 -166.18452804412709 0 -166.18452804412709 -160.52012043400373 0 0 0 0 -168.1323728692318 -361.97020044567068 0 -361.97020044567068 -192.56166621563898 0 0 0 0 -167.20169985206303 -296.77323018025345 0 -296.77323018025345 -327.12727569306298 0 0 0 0 -1.992270793808637 -0.075925719934680336 0 -0.075925719934680336 0.63321078021983546 0 0 0 0 -347.66624133999858 11.079996562201131 0 11.079996562201131 -32.569045387794176 0 0 0 0 -254.25923124374799 250.29612162461626 0 250.29612162461626 -98.034861197401369 0 0 0 0 -1.9502107523229255 -0.86603204207528606 0 -0.86603204207528606 -0.53493065285523667 0 0 0 0 -4.1655685210989475 -119.60745222836121 0 -119.60745222836121 13.244112962655436 0 0 0 0 -32.734340775643147 -1.3265208770216645 0 -1.3265208770216645 84.068980775043201 0 0 0 0 -178.68477907392628 -114.27377239474595 0 -114.27377239474595 32.794292373861481 0 0 0 0 -222.66658605293401 -35.454301256214421 0 -35.454301256214421 -46.288933575697683 0 0 0 0 -149.04904583528736 12.063339244450844 0 12.063339244450844 -133.5697708857665 0 0 0 0 -39.476535088307799 -63.512050325419068 0 -63.512050325419068 -119.4798329120822 0 0 0 0 -8.4541523456098844 -43.857810921193959 0 -43.857810921193959 -85.847503441712433 0 0 0 0 -71.985586854230178 -67.869529062070796 0 -67.869529062070796 -94.872939288314456 0 0 0 0 -45.236328062496113 -54.152013130787736 0 -54.152013130787736 -167.29020141668013 0 0 0 0 -26.12360999883893 -110.93119591722871 0 -110.93119591722871 -3.4655376557111595 0 0 0 0 -60.604937244603661 -50.399208093827042 0 -50.399208093827042 66.491037966169642 0 0 0 0 39.842635073782048 39.464786414492551 0 39.464786414492551 -32.724332496552506 0 0 0 0 9.1193101053935379 16.870338737294333 0 16.870338737294333 39.359680039871364 0 0 0 0 -5.5073683279628654 -34.004161122699543 0 -34.004161122699543 -34.80467670895132 0 0 0 0 -22.126486584593295 -14.713892628682629 0 -14.713892628682629 35.739617069308224 0 0 0 0 21.799008450231668 6.5353342285466169 0 6.5353342285466169 19.797583587256668 0 0 0 0 15.58558513843866 19.16251113449681 0 19.16251113449681 86.54730963657039 0 0 0 0 30.143226544422987 60.557819083194317 0 60.557819083194317 100.15397050618571 0 0 0 0 19.828116398033444 29.162414068513044 0 29.162414068513044 55.000364807984624 0 0 0 0 11.378653727054143 32.467054165052559 0 32.467054165052559 56.932605177971709 0 0 0 0 -0.99624870854310643 10.600072061264427 0 10.600072061264427 34.828278155119733 0 0 0 0 51.292677523938892 121.64835539547198 0 121.64835539547198 216.54101756373257 0 0 0 0 28.016821031625 4.4710126775796653 0 4.4710126775796653 40.363438629193297 0 0 0 0 -26.00252218951141 -23.538886731650564 0 -23.538886731650564 3.15725332252714 0 0 0 0 0.15138736912930906 -0.43467932774421225 0 -0.43467932774421225 1.304142118428576 0 0 0 0 -2.3152537319453597 0.63967032103118626 0 0.63967032103118626 -0.23781595719894799 0 0 0 0 -10.219695477559753 22.505230889769791 0 22.505230889769791 9.7267913693478931 0 0 0 0 -223.44939833103319 188.29039530568366 0 188.29039530568366 83.69365751317946 0 0 0 0 -299.19005524164436 121.28601675763821 0 121.28601675763821 120.0685427920813 0 0 0 0 -173.32661972097503 116.5579922881584 0 116.5579922881584 -33.351409024496434 0 0 0 0 -93.403204388980271 -21.471346829678737 0 -21.471346829678737 11.18340399113913 0 0 0 0 -113.68193006912384 13.064021906590824 0 13.064021906590824 11.000110098885671 0 0 0 0 -293.06685512181883 -66.272160733952703 0 -66.272160733952703 -9.8490662217800491 0 0 0 0 -165.83860291971632 83.281306346906604 0 83.281306346906604 -122.03930219073777 0 0 0 0 -113.45252590270854 -17.267738464261129 0 -17.267738464261129 10.573818984473291 0 0 0 0 1.5272255377186639 -63.184015254957785 0 -63.184015254957785 16.503488119059057 0 0 0 0 17.757237610757784 -34.659278404495126 0 -34.659278404495126 -65.469086479965654 0 0 0 0 31.286291042794801 6.6146817734916112 0 6.6146817734916112 -61.492741719386686 0 0 0 0 32.90620919114167 0.0026554109413154947 0 0.0026554109413154947 -40.435366033434548 0 0 0 0 79.022471811022115 22.073139919086771 0 22.073139919086771 -53.576737917647961 0 0 0 0 3.1210002891291424 11.487934183403922 0 11.487934183403922 6.7227835239445994 0 0 0 0 3.7916972925905839 9.4423650758820941 0 9.4423650758820941 8.5554818068400209 0 0 0 0 1.4228509240241689 1.0152246731534813 0 1.0152246731534813 0.42172587320645505 0 0 0 0 -1.4362763439429287 2.1950280496472163 0 2.1950280496472163 -0.99014606810363048 0 0 0 0 64.248289352915435 35.721955500137028 0 35.721955500137028 -13.159426944727784 0 0 0 0 15.300386893623454 -7.4737391070675585 0 -7.4737391070675585 -16.426832742971328 0 0 0 0 47.418818554990139 15.143442000396817 0 15.143442000396817 14.382477538987587 0 0 0 0 55.346249030938452 17.982550731123411 0 17.982550731123411 -27.750148277878907 0 0 0 0 35.881694592225813 -17.244673007617166 0 -17.244673007617166 -15.837490641478325 0 0 0 0 24.438922613781415 -17.988828169677618 0 -17.988828169677618 17.511888997941696 0 0 0 0 42.35113971271744 -1.3651203280958271 0 -1.3651203280958271 22.40098633326852 0 0 0 0 -7.01809518419687 0.42240740851467695 0 0.42240740851467695 0.39824617143739438 0 0 0 0 -5.9131794273046125 3.2687848545372162 0 3.2687848545372162 2.5371391136693546 0 0 0 0 -2.8861948722797837 0.93152217577577812 0 0.93152217577577812 0.28739899095321508 0 0 0 0 -2.4224848240792198 -8.3213432386055501 0 -8.3213432386055501 8.7625152898108354 0 0 0 0 -99.385514106622736 -18.823818214074436 0 -18.823818214074436 37.79442217189262 0 0 0 0 -5.3905103666147447 -2.1452863081750233 0 -2.1452863081750233 -0.62697643369224387 0 0 0 0 -0.81869355485201023 -1.0079934882974468 0 -1.0079934882974468 0.50593038595958717 0 0 0 0 -126.53103075166899 -32.76426125246951 0 -32.76426125246951 13.198030857027334 0 0 0 0 -10.221236276484433 16.653403675026766 0 16.653403675026766 29.598161888723553 0 0 0 0 32.290636729143671 -10.559410811418729 0 -10.559410811418729 -27.890223733586026 0 0 0 0 -0.87678896913121207 -67.15524238258331 0 -67.15524238258331 81.299225526741793 0 0 0 0 65.63382648878769 -47.722272930079271 0 -47.722272930079271 -21.565129709742109 0 0 0 0 -35.621229917785058 20.101332261677044 0 20.101332261677044 -13.371240571234878 0 0 0 0 12.176487176266392 22.489987960921951 0 22.489987960921951 18.264642034186636 0 0 0 0 -17.782903977203887 -18.913459811732537 0 -18.913459811732537 4.7514861884774291 0 0 0 0 -20.506598799287531 -7.7756818731841122 0 -7.7756818731841122 -18.267628473587138 0 0 0 0 20.489666892635796 11.787331878922487 0 11.787331878922487 -18.484378639644774 0 0 0 0 -13.021909661951213 11.073887036425731 0 11.073887036425731 -13.668375756139994 0 0 0 0 1.3396833161235779 0.26113989347091504 0 0.26113989347091504 -0.10169559845242482 0 0 0 0 19.410495388059644 6.8260197843392234 0 6.8260197843392234 -18.127906262171564 0 0 0 0 10.511271259102967 6.0411764841496245 0 6.0411764841496245 -0.57589442241229616 0 0 0 0 8.6558046989757713 2.0120295431801196 0 2.0120295431801196 12.352062715116972 0 0 0 0 7.2533528107035181 14.405762797455509 0 14.405762797455509 1.2676993604304698 0 0 0 0 4.6202784925253155 -2.8710923778325252 0 -2.8710923778325252 -6.4062657381145982 0 0 0 0 3.8054057317714225 7.1343449737386075 0 7.1343449737386075 0.82414394833090654 0 0 0 0 12.521605650804418 5.8891827870143061 0 5.8891827870143061 -0.060193967436134699 0 0 0 0 5.7327735299290907 16.114482889402325 0 16.114482889402325 7.8429275113571748 0 0 0 0 -5.2554234561703197 2.4491211839554126 0 2.4491211839554126 1.2726699667218782 0 0 0 0 -6.4150288228822667 3.909562131117605 0 3.909562131117605 1.0270758353046503 0 0 0 0 44.725669322367139 49.198197465155317 0 49.198197465155317 5.4465569112916228 0 0 0 0 -2.5619335730912915 4.5982901051058347 0 4.5982901051058347 -1.9127334741769797 0 0 0 0 68.005933835918995 -83.202683085003628 0 -83.202683085003628 -83.076430794890257 0 0 0 0 87.659981957707714 11.026823657500017 0 11.026823657500017 -39.582507114628243 0 0 0 0 -9.708566499939252 32.293629197044766 0 32.293629197044766 52.550731453267417 0 0 0 0 2.3342113402486575 46.181229143480323 0 46.181229143480323 4.8079425196474403 0 0 0 0 19.397877785378114 55.409818598207607 0 55.409818598207607 68.404357015666392 0 0 0 0 -10.557341071517129 2.3201143734989991 0 2.3201143734989991 0.81954469633727989 0 0 0 0 -8.3763469327865145 3.8255956289814748 0 3.8255956289814748 -0.63217981639443455 0 0 0 0 -6.6004565935941173 6.2868317402758294 0 6.2868317402758294 5.994406536346105 0 0 0 0 -11.969075443228348 43.039629295252212 0 43.039629295252212 105.20368329276243 0 0 0 0 -10.854768457379578 42.098437208573614 0 42.098437208573614 103.79490843973645 0 0 0 0 -73.66324572850499 -9.6198071797984994 0 -9.6198071797984994 84.034031579923976 0 0 0 0 -50.399302980555149 42.746812215991099 0 42.746812215991099 187.45262503188405 0 0 0 0 12.498254097559766 38.333217687752949 0 38.333217687752949 69.860660599051698 0 0 0 0 -2.7229656444251304 82.645353648938908 0 82.645353648938908 93.306563704585415 0 0 0 0 -9.3800796123932741 105.03951062676151 0 105.03951062676151 18.360425187376904 0 0 0 0 15.614800432306765 100.91592269467674 0 100.91592269467674 -87.341157083603321 0 0 0 0 -22.615923985122208 29.396671506581697 0 29.396671506581697 57.707336416112412 0 0 0 0 -1.3096822008762956 -8.0558296286847053 0 -8.0558296286847053 81.484025013400242 0 0 0 0 -24.693792296234278 -32.904598192462345 0 -32.904598192462345 105.55277945373928 0 0 0 0 -41.849999463935092 -1.7069585624612955 0 -1.7069585624612955 80.867496099009088 0 0 0 0 -30.468370501884237 4.3632315400118387 0 4.3632315400118387 81.054861794440512 0 0 0 0 -18.729604663707505 17.187768542774393 0 17.187768542774393 92.312357928998381 0 0 0 0 -65.378050279223771 -19.361426993260011 0 -19.361426993260011 68.187637706769465 0 0 0 0 -23.014842196285827 5.9078469881471847 0 5.9078469881471847 53.538058255150645 0 0 0 0 -21.423272119282501 -13.365129444465538 0 -13.365129444465538 35.106088655123131 0 0 0 0 -70.667071074798059 -68.248022871997364 0 -68.248022871997364 17.091070071250101 0 0 0 0 -62.128252385935411 -123.71755247714464 0 -123.71755247714464 -112.32407908906953 0 0 0 0 -68.1402712131935 -97.558591963318122 0 -97.558591963318122 -10.739743671383167 0 0 0 0 -103.77620603555215 -104.74516024012905 0 -104.74516024012905 28.165829299418419 0 0 0 0 -50.542094023794562 -20.499306733073354 0 -20.499306733073354 46.199690693202683 0 0 0 0 -15.930245035657208 -36.073573670734277 0 -36.073573670734277 104.73802241664134 0 0 0 0 22.156432388801477 103.26312177703562 0 103.26312177703562 279.01350270272633 0 0 0 0 -16.613559027811789 -23.8087913817767 0 -23.8087913817767 139.81762295016097 0 0 0 0 -85.61736427492815 12.358533109460268 0 12.358533109460268 121.86548675437916 0 0 0 0 -45.438245614729794 -52.878086855781021 0 -52.878086855781021 32.288558535167795 0 0 0 0 -106.64102806476876 -48.110780664899266 0 -48.110780664899266 124.83210378495323 0 0 0 0 -73.531573323857174 -93.060996869948212 0 -93.060996869948212 -1.7370988199691055 0 0 0 0 -152.76508931631543 -118.61082312999042 0 -118.61082312999042 18.003963443138446 0 0 0 0 -116.09267506798278 -78.592222127859714 0 -78.592222127859714 -47.750272027232313 0 0 0 0 -177.87986088947946 -134.85153865506254 0 -134.85153865506254 -86.81012977308319 0 0 0 0 -87.081157080101548 -36.746207672598757 0 -36.746207672598757 -27.445081238598505 0 0 0 0 -168.19425610846338 -77.499904047029304 0 -77.499904047029304 30.652087807394992 0 0 0 0 -228.62522026656893 -24.497370523448012 0 -24.497370523448012 -28.182210531994315 0 0 0 0 -143.90880091182589 -12.763823160536958 0 -12.763823160536958 -114.85944569241474 0 0 0 0 -254.09793866755217 -160.84260720385464 0 -160.84260720385464 -205.66545615349878 0 0 0 0 -332.26701932958554 44.970528386982892 0 44.970528386982892 -131.92577648396127 0 0 0 0 -198.93278364749403 -88.834758831054842 0 -88.834758831054842 -117.36545613783119 0 0 0 0 -128.52155117267239 -189.24701612825356 0 -189.24701612825356 -287.16191841716136 0 0 0 0 -101.50918414415401 -117.3394455876271 0 -117.3394455876271 -125.46560112214502 0 0 0 0 -82.195419985738681 -155.22386624332171 0 -155.22386624332171 -108.87116560641107 0 0 0 0 -36.87057577670339 -138.09973153722513 0 -138.09973153722513 -146.67154243040176 0 0 0 0 -38.923045028747822 -138.24144305116801 0 -138.24144305116801 -104.21547249794457 0 0 0 0 -92.672486120062104 -151.86830316273995 0 -151.86830316273995 -105.93635450459624 0 0 0 0 2.2564431500127284 51.041607135663071 0 51.041607135663071 -44.226744600676284 0 0 0 0 -39.336544096140074 65.20963897714887 0 65.20963897714887 34.766773087219008 0 0 0 0 -21.25614083203709 60.110349877278622 0 60.110349877278622 32.6572458871442 0 0 0 0 11.681837556776827 65.511198314416106 0 65.511198314416106 -34.390150213836023 0 0 0 0 -26.383418197579886 42.881223086227692 0 42.881223086227692 -52.788536697469681 0 0 0 0 13.49989170290246 36.736637241204562 0 36.736637241204562 -53.619913023932895 0 0 0 0 0.13857463649492274 33.400532996939091 0 33.400532996939091 -117.11783069630212 0 0 0 0 -16.860167279161487 14.357970159072011 0 14.357970159072011 -84.210730218028402 0 0 0 0 -5.3950870787234635 19.412373012100943 0 19.412373012100943 -146.27249400857363 0 0 0 0 -37.490298115657424 46.306176432283792 0 46.306176432283792 -41.092847971026913 0 0 0 0 -22.092541005846215 55.86612436598125 0 55.86612436598125 -94.611739999888414 0 0 0 0 -58.744133233038156 49.269279834265944 0 49.269279834265944 -152.2045425642782 0 0 0 0 -30.97186413216798 19.398948550324803 0 19.398948550324803 -122.56873612465006 0 0 0 0 -72.103511422968609 0.29329110296907857 0 0.29329110296907857 -188.11880440803816 0 0 0 0 -185.08140199744321 -10.800615584033494 0 -10.800615584033494 -270.25893443740188 0 0 0 0 -90.476509095449728 83.692466163649442 0 83.692466163649442 -137.50820114491808 0 0 0 0 -176.51991292589537 22.017953465196342 0 22.017953465196342 -39.584072880572421 0 0 0 0 -96.636894420817953 50.647269791278632 0 50.647269791278632 46.387008684638204 0 0 0 0 -62.829334535619637 35.258961529749286 0 35.258961529749286 -38.619172261635811 0 0 0 0 -130.91992393337523 3.7244332860345821 0 3.7244332860345821 37.656728810725326 0 0 0 0 -50.021165266201933 76.488048451149552 0 76.488048451149552 -62.448611636596979 0 0 0 0 -71.585885504800899 33.395946487982201 0 33.395946487982201 -39.614800070938145 0 0 0 0 -36.493218841672387 52.799918566037377 0 52.799918566037377 -37.887813572299706 0 0 0 0 -32.926224552384838 42.030464470856941 0 42.030464470856941 -35.398527945990281 0 0 0 0 -47.952043366297403 82.705397735634961 0 82.705397735634961 33.234715450060321 0 0 0 0 -32.326575697004955 49.857591165948634 0 49.857591165948634 54.23534286953236 0 0 0 0 -59.266123946505331 49.824426811221429 0 49.824426811221429 141.58025212744633 0 0 0 0 -40.535184801904734 89.805508096261974 0 89.805508096261974 104.39085141106079 0 0 0 0 -24.823144949818015 57.68253557511116 0 57.68253557511116 123.85418619516804 0 0 0 0 -32.499961389505188 10.05540056933296 0 10.05540056933296 36.810997722811294 0 0 0 0 -21.713436194209862 64.664068117034731 0 64.664068117034731 46.246717046097459 0 0 0 0 -73.678755114319756 27.157812591947277 0 27.157812591947277 116.86252262296512 0 0 0 0 -52.416840740561383 70.405461707294535 0 70.405461707294535 247.58441411702097 0 0 0 0 35.440326370042385 0.88142048300596798 0 0.88142048300596798 240.81556464064215 0 0 0 0 -82.615892578152852 -15.462046987798658 0 -15.462046987798658 493.91548212930638 0 0 0 0 20.646874360032598 67.909838369628233 0 67.909838369628233 127.97783279870782 0 0 0 0 5.8265423405882757 53.466585783874507 0 53.466585783874507 199.12239469832411 0 0 0 0 -46.769657628758068 75.034284481757368 0 75.034284481757368 201.92831587321689 0 0 0 0 -20.957648608379714 85.441186609399665 0 85.441186609399665 165.68153968123988 0 0 0 0 -12.716789602393874 43.620204405207915 0 43.620204405207915 141.62090732296889 0 0 0 0 -28.66831938109317 71.848269130188783 0 71.848269130188783 206.15638205896801 0 0 0 0 -21.902021631206026 81.590874353670188 0 81.590874353670188 133.30441212930782 0 0 0 0 -18.17346772206929 60.696717123947565 0 60.696717123947565 190.56155941338875 0 0 0 0 -40.064625575230821 59.983798119436415 0 59.983798119436415 174.53386951832726 0 0 0 0 -22.756257411097067 49.744415095094155 0 49.744415095094155 115.29248825520244 0 0 0 0 -18.695202976075961 84.151040273060062 0 84.151040273060062 36.215405214465989 0 0 0 0 -4.6502371771221078 76.094292849489193 0 76.094292849489193 99.332818347779721 0 0 0 0 -9.4809036047831796 85.739167403314241 0 85.739167403314241 93.663477085669001 0 0 0 0 6.0195220811792751 48.840695786969263 0 48.840695786969263 36.255542080016312 0 0 0 0 11.851552027572325 59.281252726612365 0 59.281252726612365 118.28450675220392 0 0 0 0 -6.4260185824768996 92.245337007739181 0 92.245337007739181 155.13457872828076 0 0 0 0 5.6132313372413591 68.174170437854173 0 68.174170437854173 103.19021848213379 0 0 0 0 48.658881624615788 97.54978570860294 0 97.54978570860294 146.41210086311094 0 0 0 0 -3.5473070875323174 47.328804035664689 0 47.328804035664689 200.12995381470682 0 0 0 0 38.024995545159072 53.381353446955472 0 53.381353446955472 169.95264198025143 0 0 0 0 0.66392749905025994 85.330109406487281 0 85.330109406487281 142.93750426900988 0 0 0 0 7.8218209487570505 9.6926057004740755 0 9.6926057004740755 -2.7801418752137579 0 0 0 0 47.777850381069129 -30.394198183389108 0 -30.394198183389108 -60.618808731250738 0 0 0 0 -4.4254567591547698 2.161827727361711 0 2.161827727361711 -0.95108600861852199 0 0 0 0 0.57689007625579514 0.45295487449438454 0 0.45295487449438454 -0.82466841756155151 0 0 0 0 -11.181483743746867 -25.818008429203473 0 -25.818008429203473 9.1215941835794183 0 0 0 0 -17.384390275909556 5.9763487559970976 0 5.9763487559970976 -1.3062066077928307 0 0 0 0 -2.6738649881679066 37.884117386907974 0 37.884117386907974 10.123936830881121 0 0 0 0 -5.5344211496692353 4.2863656373209835 0 4.2863656373209835 -0.57905141634244206 0 0 0 0 -10.841772607264829 20.983986177181919 0 20.983986177181919 51.262653458289151 0 0 0 0 -9.6086153890400965 -9.6672997599896462 0 -9.6672997599896462 38.911453452229011 0 0 0 0 -2.7450794503456279 1.2907308777016029 0 1.2907308777016029 0.15562846264650165 0 0 0 0 71.936779961295542 13.858862107052119 0 13.858862107052119 -6.1986485625641308 0 0 0 0 6.0949794823970933 5.1824612209353518 0 5.1824612209353518 19.809993382167249 0 0 0 0 -26.642040063447894 -7.4380352863156531 0 -7.4380352863156531 24.691330126511957 0 0 0 0 -10.843584835635284 -2.5098443497345215 0 -2.5098443497345215 43.960155999852304 0 0 0 0 0.91010880254756721 -0.2268732734082155 0 -0.2268732734082155 0.083683873235271822 0 0 0 0 57.117062883180552 67.171776137191046 0 67.171776137191046 -157.9022675784654 0 0 0 0 -37.322794122145297 57.82809439156847 0 57.82809439156847 104.44262901881393 0 0 0 0 -23.810815893451945 8.9517001260001052 0 8.9517001260001052 64.682735032761229 0 0 0 0 1.3060059909112169 -30.65269568236954 0 -30.65269568236954 -54.198613470068722 0 0 0 0 -33.96501987755164 23.008181552526821 0 23.008181552526821 257.56821869355281 0 0 0 0 -46.848010158233592 46.531721063105124 0 46.531721063105124 96.674369357877367 0 0 0 0 -13.051033022697084 66.319565970426709 0 66.319565970426709 6.3836530631224377 0 0 0 0 -24.680399189810622 6.0666757331662708 0 6.0666757331662708 0.10385305749585427 0 0 0 0 0.073521160392235885 5.3838340605501678 0 5.3838340605501678 0.2122794533746295 0 0 0 0 -1.5232654402851402 0.3849811900488187 0 0.3849811900488187 0.0094288965326194685 0 0 0 0 -442.37531651856261 -85.999585698561532 0 -85.999585698561532 82.399494562871382 0 0 0 0 -176.75590361313789 4.0230495568723654 0 4.0230495568723654 25.147924027656245 0 0 0 0 69.994456811768899 -23.656899739145018 0 -23.656899739145018 -73.787543033236943 0 0 0 0 123.51613762683974 -12.109788549555105 0 -12.109788549555105 -96.978424267154878 0 0 0 0 -26.800889724417175 68.674573631194562 0 68.674573631194562 104.39136180984769 0 0 0 0 -22.924735269494978 5.8699247931465859 0 5.8699247931465859 -0.13048735140179346 0 0 0 0 -2.1918934997347712 0.95174163408109225 0 0.95174163408109225 -0.73600731224063587 0 0 0 0 -171.82812674511752 -2.1363255569572175 0 -2.1363255569572175 32.83227113556768 0 0 0 0 -170.39941155241388 32.013802397917573 0 32.013802397917573 34.182889939075721 0 0 0 0 -147.66614050693806 -99.555503205576315 0 -99.555503205576315 5.7949088631394261 0 0 0 0 -57.713210479725603 -18.017116572302257 0 -18.017116572302257 6.6293041612443631 0 0 0 0 -4.5617988475478342 -132.71636157357671 0 -132.71636157357671 -64.132275447958818 0 0 0 0 -97.640331543658249 61.276249397878701 0 61.276249397878701 21.692464322775322 0 0 0 0 -52.607816744160118 60.280667521227315 0 60.280667521227315 4.2857615694210835 0 0 0 0 -26.191246721411517 63.241307701455753 0 63.241307701455753 21.617631799531864 0 0 0 0 36.829383574187887 21.740260173700108 0 21.740260173700108 -3.13859655856686 0 0 0 0 -34.296982391560505 21.739362502350104 0 21.739362502350104 -1.4200404171424452 0 0 0 0 -25.027931356895351 29.050293246775936 0 29.050293246775936 -3.8660691564132321 0 0 0 0 -46.136548795462204 29.91067675815134 0 29.91067675815134 -3.8586763981553531 0 0 0 0 -46.17931212177109 17.534955496152179 0 17.534955496152179 1.7899145915127974 0 0 0 0 -84.865238562083505 21.780102747384717 0 21.780102747384717 23.53697210503833 0 0 0 0 -59.575981796265296 14.226228827728846 0 14.226228827728846 8.6174699766950198 0 0 0 0 -53.050144383471888 -2.6908363655411449 0 -2.6908363655411449 4.0259245525103324 0 0 0 0 -7.7157591628651971 -16.084721524700171 0 -16.084721524700171 -13.147189078251358 0 0 0 0 -44.68875834053506 -32.546001954726762 0 -32.546001954726762 -6.4183436541991341 0 0 0 0 -41.778944169711849 -11.238988157955191 0 -11.238988157955191 1.259371116963159 0 0 0 0 -5.4620732287976352 1.3504131474057885 0 1.3504131474057885 0.54925761187178068 0 0 0 0 -15.80650486902573 14.387951709822687 0 14.387951709822687 -10.900452410557818 0 0 0 0 -42.338581976965543 3.5215625119435572 0 3.5215625119435572 -15.13858322170563 0 0 0 0 -27.954856286330596 -26.104846708805894 0 -26.104846708805894 -25.3027414268131 0 0 0 0 -55.011751426818137 -30.522961009985465 0 -30.522961009985465 -15.344103906890496 0 0 0 0 -91.195842974272637 -50.711630428173521 0 -50.711630428173521 -25.723097557819983 0 0 0 0 -72.004128318639232 -26.482842768285877 0 -26.482842768285877 -14.942480770848306 0 0 0 0 -90.509595194830126 2.7314102675610457 0 2.7314102675610457 -5.9824047544143468 0 0 0 0 -158.35330643472207 -45.602262315033613 0 -45.602262315033613 -15.102285635247696 0 0 0 0 -120.37459065156645 17.816220951057403 0 17.816220951057403 -13.094890690749025 0 0 0 0 -39.243796824654623 9.6239036393513402 0 9.6239036393513402 2.1163555232665203 0 0 0 0 -48.293627412780211 24.580109795232488 0 24.580109795232488 -13.804172325912077 0 0 0 0 -38.442663687780168 9.7138985084666274 0 9.7138985084666274 -8.7407342396369927 0 0 0 0 -51.026966776540121 23.348628856633809 0 23.348628856633809 -18.161819078351527 0 0 0 0 -37.759541079963867 -2.499831083427523 0 -2.499831083427523 -6.0035053834760674 0 0 0 0 -8.2639519349995627 -5.2333968440984897 0 -5.2333968440984897 -2.9638858916676929 0 0 0 0 -31.363440658469301 18.299252443477783 0 18.299252443477783 -36.510276495689368 0 0 0 0 49.873235591947378 -2.0747059537661698 0 -2.0747059537661698 -326.6410677557592 0 0 0 0 -2.8887241240946366 -1.8784465612006684 0 -1.8784465612006684 -1.3619742243612074 0 0 0 0 24.257749273700711 -21.019140633498523 0 -21.019140633498523 -144.38781071110179 0 0 0 0 -19.163504512799591 -65.118068013445054 0 -65.118068013445054 -28.960973512616647 0 0 0 0 -114.03071336025732 -77.925785998491335 0 -77.925785998491335 -39.751834479764057 0 0 0 0 -177.70614648177843 -85.025173269248967 0 -85.025173269248967 -39.365739725537651 0 0 0 0 -261.61980357159928 26.809378073546213 0 26.809378073546213 -9.4513673304762733 0 0 0 0 -226.7759778711071 -159.89062746242308 0 -159.89062746242308 -138.68714133372805 0 0 0 0 -125.83625324251716 -61.982477894473504 0 -61.982477894473504 -258.31040470296739 0 0 0 0 -225.57514715289517 56.703962096244823 0 56.703962096244823 -181.87585866917323 0 0 0 0 -165.79333722945807 -36.070365020351915 0 -36.070365020351915 -85.043456830765081 0 0 0 0 -250.54481076853693 63.696746943924076 0 63.696746943924076 104.58027576979441 0 0 0 0 -258.72100544970237 -147.10639029678234 0 -147.10639029678234 45.020254359794649 0 0 0 0 -2.3578807161265107 -1.0242519247337187 0 -1.0242519247337187 0.48308218606966524 0 0 0 0 -64.88750395993975 -131.50727694788591 0 -131.50727694788591 -217.85747780234306 0 0 0 0 -328.74632328232451 86.161254036359594 0 86.161254036359594 151.97317946509759 0 0 0 0 -3.4652483393515467 -157.95207701843265 0 -157.95207701843265 -226.50338558830509 0 0 0 0 -13.845567023871808 -128.1035295784568 0 -128.1035295784568 -18.641012834718708 0 0 0 0 56.576876245908352 -97.211925570247331 0 -97.211925570247331 -167.42039678570109 0 0 0 0 15.769584556040172 -95.048235630201134 0 -95.048235630201134 -96.20073121629639 0 0 0 0 64.428297029384339 -37.024410971705265 0 -37.024410971705265 -115.88088166209286 0 0 0 0 -4.9617585234959449 -1.5177763158762014 0 -1.5177763158762014 0.91470216654627812 0 0 0 0 -10.25205541658238 -22.976150670724053 0 -22.976150670724053 85.02287050426412 0 0 0 0 -5.3172075175425562 -66.472877277618409 0 -66.472877277618409 -8.6960474163364836 0 0 0 0 -52.083325696587963 -57.378510816295403 0 -57.378510816295403 27.527569000444373 0 0 0 0 -28.261803804344027 -61.316100316310333 0 -61.316100316310333 26.180586448446945 0 0 0 0 -31.329871293811266 -61.287843899537648 0 -61.287843899537648 76.223343142117542 0 0 0 0 -76.503096641785305 -82.050292207707884 0 -82.050292207707884 60.332805449253499 0 0 0 0 109.14807337745015 -116.31671216449708 0 -116.31671216449708 57.566260048798654 0 0 0 0 -3.0405804045531113 -47.848103381284112 0 -47.848103381284112 171.17345920592106 0 0 0 0 15.033423474249503 -34.701922793201611 0 -34.701922793201611 16.321846267298532 0 0 0 0 16.799287335881672 -79.514992596754951 0 -79.514992596754951 65.866536332115999 0 0 0 0 14.680604057781238 -32.58607690678889 0 -32.58607690678889 26.725764056731805 0 0 0 0 49.842554507006753 -44.708832782357206 0 -44.708832782357206 30.213699731221141 0 0 0 0 -28.811374700396982 -45.853198530975419 0 -45.853198530975419 87.797016774546137 0 0 0 0 -39.788977637055723 -19.412898621936961 0 -19.412898621936961 55.821054062494341 0 0 0 0 -22.435422098617892 -58.747512377015369 0 -58.747512377015369 57.902647406895994 0 0 0 0 -29.089638791433572 17.203238735526384 0 17.203238735526384 118.29285070020131 0 0 0 0 -27.826682233680465 0.80100947698704772 0 0.80100947698704772 3.3627074929530281 0 0 0 0 -76.164465627627578 20.619805311722871 0 20.619805311722871 213.36462748963913 0 0 0 0 -13.349578048051626 -24.40845851141944 0 -24.40845851141944 -39.803521850829839 0 0 0 0 -21.619791625938511 -1.0386532745145516 0 -1.0386532745145516 -6.9978694391224927 0 0 0 0 97.634359670992239 125.24438255905123 0 125.24438255905123 159.82447678688345 0 0 0 0 99.999173311212132 83.151703300324755 0 83.151703300324755 158.25435246770815 0 0 0 0 20.394681287456478 133.45656736462712 0 133.45656736462712 189.3422819453682 0 0 0 0 24.935166868048327 42.622592526822423 0 42.622592526822423 136.40403820720175 0 0 0 0 10.365189479902256 -5.8621576674619291 0 -5.8621576674619291 155.68617620416751 0 0 0 0 -118.1325734386146 -37.693022147794522 0 -37.693022147794522 162.6483498571157 0 0 0 0 -36.907915350807343 91.443778599216614 0 91.443778599216614 133.9170204840762 0 0 0 0 -96.643667660894607 65.242286610919194 0 65.242286610919194 162.30151872763105 0 0 0 0 -72.145260337993022 31.462281309759987 0 31.462281309759987 103.13677578359199 0 0 0 0 -73.95459844337347 -33.504218634949154 0 -33.504218634949154 67.976927956871123 0 0 0 0 -117.59883031216305 -34.171498243908729 0 -34.171498243908729 137.8210589852163 0 0 0 0 -178.23602122895727 24.447855501938392 0 24.447855501938392 -36.755686946928691 0 0 0 0 -71.946714881485605 -120.78204836403155 0 -120.78204836403155 -72.907578735942934 0 0 0 0 -200.88596695244451 -92.724334010580833 0 -92.724334010580833 14.151371648889835 0 0 0 0 -84.39551294611374 -33.607679711741639 0 -33.607679711741639 30.198064132551337 0 0 0 0 -158.71029244731562 16.814303061423558 0 16.814303061423558 102.97628151009098 0 0 0 0 -58.345322492079504 24.880396982282036 0 24.880396982282036 23.670603621159927 0 0 0 0 -55.495894875339218 9.7548596516255657 0 9.7548596516255657 17.784329390300258 0 0 0 0 -66.616462586354828 14.331090022685629 0 14.331090022685629 56.535350956735556 0 0 0 0 -26.175387558021612 24.706167943875982 0 24.706167943875982 -59.006471143563886 0 0 0 0 7.9832578958139493 -37.908985527174991 0 -37.908985527174991 -90.307277509083633 0 0 0 0 -263.904468590129 110.67392168884081 0 110.67392168884081 39.496886527192544 0 0 0 0 -63.922956495084691 20.910176405794459 0 20.910176405794459 21.19866289902302 0 0 0 0 0.89330344447668342 1.2674049920401984 0 1.2674049920401984 0.60704088357790464 0 0 0 0 -44.093068284939363 -21.206986987158075 0 -21.206986987158075 -118.60237503078542 0 0 0 0 -65.771405088838947 16.818938384219337 0 16.818938384219337 115.51089598696683 0 0 0 0 0.54846453201676049 0.53861116085165861 0 0.53861116085165861 -0.64564343732938667 0 0 0 0 -242.36344700124391 -5.4235533086273904 0 -5.4235533086273904 233.19875566064684 0 0 0 0 -46.832884815214129 -81.016915539563882 0 -81.016915539563882 105.94375796742099 0 0 0 0 -2.8944290324130932 -1.4232809756806279 0 -1.4232809756806279 0.68037307811148895 0 0 0 0 -110.75991541881376 -193.46032815462149 0 -193.46032815462149 -207.95654703960767 0 0 0 0 -74.26522158699845 74.734630807350811 0 74.734630807350811 141.95554063556091 0 0 0 0 35.77873075001844 -0.45338723479284226 0 -0.45338723479284226 58.569035088997211 0 0 0 0 58.868353937744359 -27.102877596895041 0 -27.102877596895041 -124.24669967401246 0 0 0 0 -308.15009080317759 -108.81666681571983 0 -108.81666681571983 -125.58496558880893 0 0 0 0 -9.6584460406465951 -149.72294343502892 0 -149.72294343502892 -180.6454826118179 0 0 0 0 -69.15883110114919 41.237430628407992 0 41.237430628407992 -176.21004243219977 0 0 0 0 -5.3716426319853525 -1.6287588647962854 0 -1.6287588647962854 1.0474205574849478 0 0 0 0 -132.2963972676298 35.662181175748856 0 35.662181175748856 13.939928223834386 0 0 0 0 11.695950356805042 -71.746021838845763 0 -71.746021838845763 -62.051413976221625 0 0 0 0 -175.09922608706256 -136.12719567518707 0 -136.12719567518707 -79.521181727185649 0 0 0 0 24.861718179613717 -102.4488071857603 0 -102.4488071857603 -213.30754467027714 0 0 0 0 -150.89820957807478 60.98925105902731 0 60.98925105902731 -27.584776779201547 0 0 0 0 -50.720411055721343 -201.80882406366516 0 -201.80882406366516 -222.89742718490697 0 0 0 0 0.13646406705047909 -2.3998717501872324 0 -2.3998717501872324 -2.2076503037440802 0 0 0 0 -30.585386601076607 22.267471961006549 0 22.267471961006549 -0.072065665470972817 0 0 0 0 -65.030441911141679 -11.445991446656535 0 -11.445991446656535 96.726792978919775 0 0 0 0 -8.4655542773735064 3.0566299718624492 0 3.0566299718624492 0.65018662466193433 0 0 0 0 -129.26321338487469 68.381474940666294 0 68.381474940666294 50.850609305462513 0 0 0 0 -251.93152222218805 -107.92446870462425 0 -107.92446870462425 6.8434349164954256 0 0 0 0 -153.55505783305125 -186.71660233541343 0 -186.71660233541343 -188.95726209421491 0 0 0 0 -21.602233491084917 68.150389292088335 0 68.150389292088335 -62.267414029538941 0 0 0 0 -1.0985414392058885 2.0606659911415184 0 2.0606659911415184 -0.73837209724638098 0 0 0 0 -204.43156112495853 -76.135875288838179 0 -76.135875288838179 -46.304178756837018 0 0 0 0 -7.5042667422709357 -0.23417551924554303 0 -0.23417551924554303 2.4136466546416369 0 0 0 0 63.494219628224528 -2.4806118357509206 0 -2.4806118357509206 -70.534384503354786 0 0 0 0 -26.9508353524011 28.19359821354891 0 28.19359821354891 -1.258985776676127 0 0 0 0 -24.04205790704518 14.669852152651217 0 14.669852152651217 3.1428474521541414 0 0 0 0 -8.055662877017312 24.063356601704982 0 24.063356601704982 -19.337624480681825 0 0 0 0 -19.701969092143429 30.310278027454103 0 30.310278027454103 33.75477067635893 0 0 0 0 -36.963415188034112 14.8178554286809 0 14.8178554286809 81.080423841355696 0 0 0 0 -36.446254348915886 54.661248067396741 0 54.661248067396741 -15.388147194881981 0 0 0 0 -6.5765703984121124 3.3270434138075737 0 3.3270434138075737 1.3375976855830265 0 0 0 0 2.1317974459198012 28.276831338451871 0 28.276831338451871 -9.3760633404599503 0 0 0 0 -17.231139321503115 14.750290297359355 0 14.750290297359355 5.2465876770158211 0 0 0 0 -33.919627772093918 17.496044774613893 0 17.496044774613893 18.818624972776888 0 0 0 0 50.193763561363539 35.947954152690727 0 35.947954152690727 10.052832453732663 0 0 0 0 -16.456354956857023 12.919910982561079 0 12.919910982561079 6.6917857800588774 0 0 0 0 -18.020994066608182 19.938307017897841 0 19.938307017897841 18.392510905722304 0 0 0 0 34.209854260786528 69.311753874253213 0 69.311753874253213 6.9860978992951459 0 0 0 0 -11.69290769959548 36.286592144005226 0 36.286592144005226 33.013235081287348 0 0 0 0 -58.529893843502364 32.289054195836343 0 32.289054195836343 19.163773862728249 0 0 0 0 -73.100093420972826 47.889775045423903 0 47.889775045423903 56.053849000567197 0 0 0 0 -24.406822442537532 51.580552355015357 0 51.580552355015357 16.149960180092876 0 0 0 0 0.4030857917468893 -42.299600201023168 0 -42.299600201023168 -42.986586120898664 0 0 0 0 -93.434538451512708 5.5939013008149914 0 5.5939013008149914 44.201318812240515 0 0 0 0 -26.52446845731356 7.2573553323736633 0 7.2573553323736633 -22.012465816733311 0 0 0 0 -45.250409854786994 36.917387390860313 0 36.917387390860313 -14.007647132007605 0 0 0 0 -9.8241135515640963 -1.3847392390961204 0 -1.3847392390961204 -3.6815240199771324 0 0 0 0 -47.761754512217522 -15.768071251514812 0 -15.768071251514812 52.893878560830444 0 0 0 0 -15.223487733341067 -5.3129943492349776 0 -5.3129943492349776 -2.1569191207184417 0 0 0 0 -10.814065762112477 -5.1028374185098073 0 -5.1028374185098073 -16.066029193408212 0 0 0 0 -9.9586074478856972 1.6244328272063058 0 1.6244328272063058 -1.8195106784137351 0 0 0 0 -11.826549868132133 6.9635696205712065 0 6.9635696205712065 -16.208400605121682 0 0 0 0 -10.785748889240747 5.3787150768517229 0 5.3787150768517229 0.16418840352364139 0 0 0 0 29.764668025513288 36.903035658260933 0 36.903035658260933 3.2939750131690744 0 0 0 0 -5.8344382361888165 2.9570432333521239 0 2.9570432333521239 -5.8499027478886774 0 0 0 0 -4.5014184594458095 6.9928793404860521 0 6.9928793404860521 0.23201967463456441 0 0 0 0 25.404105683198964 17.119546610890438 0 17.119546610890438 -5.2850522370056296 0 0 0 0 32.252703538521018 30.814162543360453 0 30.814162543360453 9.8982289005002713 0 0 0 0 25.802252875289241 6.6708832994390832 0 6.6708832994390832 -8.9248020354652908 0 0 0 0 20.817788868617299 6.3520669834613273 0 6.3520669834613273 -1.7896640454946464 0 0 0 0 -0.72003673600132956 0.56978679777325869 0 0.56978679777325869 0.19601883617667593 0 0 0 0 -1.0433742097970935 5.2506602706089325 0 5.2506602706089325 -2.6319938524939062 0 0 0 0 -10.632374047434496 -2.835372414068388 0 -2.835372414068388 5.6875124761186271 0 0 0 0 -152.71888156789521 101.56125045139368 0 101.56125045139368 -24.899376766024716 0 0 0 0 1.4889331983206375 12.327547411108299 0 12.327547411108299 -26.452299614552203 0 0 0 0 -21.445481737043224 32.058019953906751 0 32.058019953906751 -41.801963913878353 0 0 0 0 -12.029297665472569 37.408563803026368 0 37.408563803026368 -108.27577641311973 0 0 0 0 -2.8963653762909871 52.204069239232922 0 52.204069239232922 45.213180186113732 0 0 0 0 -8.0782351891705275 71.216569406848294 0 71.216569406848294 -23.393451960497259 0 0 0 0 44.416386031774437 69.609857696223116 0 69.609857696223116 56.596677524320512 0 0 0 0 63.287773639285803 19.065905096834058 0 19.065905096834058 -15.32730524287399 0 0 0 0 -6.4740764806952065 6.5789159184300949 0 6.5789159184300949 4.8436396475513339 0 0 0 0 23.758187529411543 21.634338183662294 0 21.634338183662294 -10.755126407212174 0 0 0 0 25.530638068055964 22.412645519914577 0 22.412645519914577 -40.753933628541745 0 0 0 0 3.1329530599296049 -3.199273519081089 0 -3.199273519081089 -21.120199277441316 0 0 0 0 9.8211143800435821 6.2793663687270964 0 6.2793663687270964 -28.497078134692401 0 0 0 0 23.732845583440998 5.8645360432744553 0 5.8645360432744553 -35.448067069123681 0 0 0 0 36.765351755433358 14.731696562991146 0 14.731696562991146 -26.416351248883984 0 0 0 0 23.487002489501876 10.626598447039612 0 10.626598447039612 -14.545756820701172 0 0 0 0 21.531217739154499 -3.9093250476335015 0 -3.9093250476335015 -17.760225675218635 0 0 0 0 17.198748000739101 -0.11130707908910153 0 -0.11130707908910153 -20.62222378450042 0 0 0 0 -7.0607227746355079 -31.466892804728843 0 -31.466892804728843 -15.272134485251627 0 0 0 0 -1.1206931971283134 0.64261911182315767 0 0.64261911182315767 -0.47787709142926627 0 0 0 0 -11.481539028267775 -12.778618053227433 0 -12.778618053227433 -82.005795632367153 0 0 0 0 -234.45080943181847 64.901351705960678 0 64.901351705960678 5.1741754140917067 0 0 0 0 -5.334109823508129 -19.335616612451304 0 -19.335616612451304 -50.80870590237555 0 0 0 0 8.8450960898420021 13.195604314696652 0 13.195604314696652 -65.797765740188879 0 0 0 0 -360.21198917752048 50.035112780221198 0 50.035112780221198 26.10258810221012 0 0 0 0 -221.90783034163954 31.926427015600041 0 31.926427015600041 -11.409427530684752 0 0 0 0 -175.11866453993986 -73.74489593225519 0 -73.74489593225519 21.92411997839622 0 0 0 0 -146.23824888696117 -46.432886010225047 0 -46.432886010225047 -55.082733102898601 0 0 0 0 -146.34095356167526 -46.479384597534256 0 -46.479384597534256 15.986227748863257 0 0 0 0 -84.903811740902029 -60.767771518618702 0 -60.767771518618702 -24.405821517803929 0 0 0 0 -16.7316843725838 -14.565097643752324 0 -14.565097643752324 -43.639690499336666 0 0 0 0 -208.68980696090335 -114.29862311858233 0 -114.29862311858233 -40.813406728962946 0 0 0 0 -5.6863611470393156 2.3415336918278764 0 2.3415336918278764 -0.010843699849052868 0 0 0 0 -37.406098107139314 14.193502506625236 0 14.193502506625236 19.686155825362221 0 0 0 0 -20.631238701400434 6.2732648825551678 0 6.2732648825551678 24.168204007235317 0 0 0 0 -1.0350016713107086 -1.7430305553702103 0 -1.7430305553702103 4.0527646629826393 0 0 0 0 -14.772329049676728 -11.268756341856715 0 -11.268756341856715 14.121039177300702 0 0 0 0 -41.213179560046683 19.551639157284171 0 19.551639157284171 12.42822249945948 0 0 0 0 14.334794010324828 40.12166323106112 0 40.12166323106112 65.266952044746176 0 0 0 0 23.898627554652194 41.932596200338139 0 41.932596200338139 51.087208323295272 0 0 0 0 9.6877826565717839 35.478311749175532 0 35.478311749175532 61.165322163201381 0 0 0 0 24.142357903566676 39.046175040678236 0 39.046175040678236 66.686190503159196 0 0 0 0 64.071054408604823 77.326081911593064 0 77.326081911593064 72.670399699234622 0 0 0 0 55.599496516734945 44.636486798143665 0 44.636486798143665 56.174602737606619 0 0 0 0 36.812235241862595 56.67566054509598 0 56.67566054509598 69.842979893820711 0 0 0 0 -4.3677562165159998 -1.0479202199203428 0 -1.0479202199203428 1.0840886826053975 0 0 0 0 -3.5696912684876172 -0.65597758219595015 0 -0.65597758219595015 3.741882764327384 0 0 0 0 37.953668385026731 35.512558304471895 0 35.512558304471895 51.810121152413103 0 0 0 0 12.229285366465433 54.02816129544567 0 54.02816129544567 96.786666388787353 0 0 0 0 20.570467549613056 49.779664821390725 0 49.779664821390725 71.247633399791084 0 0 0 0 37.955778469752616 35.24861408585258 0 35.24861408585258 81.674817259866359 0 0 0 0 24.314187632570921 44.092215128154407 0 44.092215128154407 64.091012120458799 0 0 0 0 -0.82901709325038109 -0.15535135589570603 0 -0.15535135589570603 1.5726633600880033 0 0 0 0 -2.4975737131749725 0.16963075702159358 0 0.16963075702159358 2.0477027276635908 0 0 0 0 -2.541125699078322 0.23595527785645262 0 0.23595527785645262 1.2104100285101405 0 0 0 0 -3.598577915967359 0.96207150582758616 0 0.96207150582758616 1.8500346255368552 0 0 0 0 26.144600719115374 24.238889664332191 0 24.238889664332191 9.4780398489051549 0 0 0 0 -25.707352003862979 -5.3891842134810304 0 -5.3891842134810304 11.23088506300121 0 0 0 0 -2.1415964782948338 1.0907150667866401 0 1.0907150667866401 2.6259572622823786 0 0 0 0 -22.164410894184812 3.153552510783129 0 3.153552510783129 -13.845919160610265 0 0 0 0 -65.611040256723982 -4.8880150810871328 0 -4.8880150810871328 6.5690253608931926 0 0 0 0 -24.081320503157485 -14.311328244592232 0 -14.311328244592232 -11.154965617176686 0 0 0 0 -112.68518209679956 3.4734967427573338 0 3.4734967427573338 -2.4537804095625688 0 0 0 0 -50.686677270832988 -19.128710096780253 0 -19.128710096780253 -49.991628954598582 0 0 0 0 -9.0978743125730261 -1.601127209374738 0 -1.601127209374738 1.5671574579582739 0 0 0 0 27.951272110410628 19.451906630698318 0 19.451906630698318 -12.26398072403822 0 0 0 0 -48.230926920973388 -1.7986380094156402 0 -1.7986380094156402 14.137174813874026 0 0 0 0 26.844797654475087 1.8942134192492119 0 1.8942134192492119 -18.193726308633813 0 0 0 0 -0.19761258250716107 -1.3145282046623832 0 -1.3145282046623832 0.27225055035054968 0 0 0 0 -1.0663652061417737 -0.31996807417451834 0 -0.31996807417451834 2.8176337734802486 0 0 0 0 -5.9083796907533497 -2.295446926210559 0 -2.295446926210559 3.6078989641900989 0 0 0 0 -67.946728849835154 -15.350522458932687 0 -15.350522458932687 15.111997263131798 0 0 0 0 -83.940336202480239 -58.628534345614185 0 -58.628534345614185 -22.281832496630386 0 0 0 0 -128.68718750864059 -75.064026724508608 0 -75.064026724508608 -24.579274888901409 0 0 0 0 -176.48125687724303 -55.689594075634886 0 -55.689594075634886 9.4228437637102616 0 0 0 0 -141.9154351837941 107.23365228188538 0 107.23365228188538 -83.632206258634938 0 0 0 0 -0.13916367811899999 -1.1682580657073278 0 -1.1682580657073278 -0.83485426359027004 0 0 0 0 -32.84690747400272 -83.550661389320723 0 -83.550661389320723 61.405827630946533 0 0 0 0 -165.0196819969521 -39.007975600607779 0 -39.007975600607779 47.687856365716698 0 0 0 0 -149.58540190198391 -49.068447398853209 0 -49.068447398853209 14.914631338824108 0 0 0 0 -64.832243228730022 57.804390004413648 0 57.804390004413648 -10.244061690429248 0 0 0 0 -22.024746513234476 -11.599056040194911 0 -11.599056040194911 69.465279875467786 0 0 0 0 -26.148105447782655 79.686671034920892 0 79.686671034920892 105.43191495704849 0 0 0 0 -132.71727339660993 -78.982602335496495 0 -78.982602335496495 -131.24385509335866 0 0 0 0 -17.145776804424468 -38.441930303520373 0 -38.441930303520373 -166.66900138409119 0 0 0 0 -93.630420762821245 -107.75588458772773 0 -107.75588458772773 -122.98375560154136 0 0 0 0 -67.930351678734951 -46.821632275032243 0 -46.821632275032243 -105.21523840143436 0 0 0 0 -17.781294415473365 25.338333590874264 0 25.338333590874264 -49.451382065232792 0 0 0 0 -49.346359578077681 -61.212608648636433 0 -61.212608648636433 -95.564274808320533 0 0 0 0 -29.947328659261416 -7.2793750179201311 0 -7.2793750179201311 -34.99013096742965 0 0 0 0 -28.260578074992281 -38.023430164399315 0 -38.023430164399315 -76.493204721960296 0 0 0 0 -6.395562538122249 6.8434180069243666 0 6.8434180069243666 -41.672791173959695 0 0 0 0 -26.48107072452126 12.809285569472081 0 12.809285569472081 32.215503964838263 0 0 0 0 -13.528902426907734 17.067340527877377 0 17.067340527877377 31.3471320090066 0 0 0 0 2.1208894469742745 49.568451170375738 0 49.568451170375738 28.825044294715553 0 0 0 0 -24.275297312007751 34.097765416525704 0 34.097765416525704 12.062709068478853 0 0 0 0 -24.674909666818166 3.8529433361533165 0 3.8529433361533165 5.2616702168229494 0 0 0 0 -2.3532077492980648 65.18293177721263 0 65.18293177721263 64.815520672593721 0 0 0 0 -6.6934162292573092 34.953575898636359 0 34.953575898636359 7.2350978664475036 0 0 0 0 16.052568793584214 78.422616473970834 0 78.422616473970834 85.704195802269624 0 0 0 0 8.2671959771660113 32.876625717459035 0 32.876625717459035 105.45297890777243 0 0 0 0 -5.3214176136934839 75.718705403288823 0 75.718705403288823 118.48031379323976 0 0 0 0 -0.60045136423341994 -0.18940042740686253 0 -0.18940042740686253 0.69665327627093399 0 0 0 0 -5.4108833317268363 68.493524226008958 0 68.493524226008958 112.63906324415279 0 0 0 0 -1.8562127479353876 55.395062504121825 0 55.395062504121825 69.504918986137682 0 0 0 0 -6.9606757944270612 47.180565924173152 0 47.180565924173152 132.29168199181549 0 0 0 0 10.292204999710975 26.095769976881911 0 26.095769976881911 38.869600622072994 0 0 0 0 -6.597533088439377 36.996972468798958 0 36.996972468798958 102.2061610846954 0 0 0 0 27.095042438457767 13.99669969305387 0 13.99669969305387 132.08872361710246 0 0 0 0 11.178439809569682 25.803385316371077 0 25.803385316371077 123.78204763281337 0 0 0 0 5.8954443472136973 41.480726344604591 0 41.480726344604591 80.981267105801635 0 0 0 0 5.4460830664638706 22.611513626029137 0 22.611513626029137 83.191985852287701 0 0 0 0 -11.912859152137116 40.533036766994428 0 40.533036766994428 77.924107307111399 0 0 0 0 -7.3847243604377582 54.648298617810042 0 54.648298617810042 73.212027338983717 0 0 0 0 -10.58992178151766 19.148326170673499 0 19.148326170673499 46.705783826368133 0 0 0 0 2.295071410447008 21.083833393563054 0 21.083833393563054 -0.93708896355110483 0 0 0 0 -13.683878904814151 0.024982643741168431 0 0.024982643741168431 -40.57073736748498 0 0 0 0 -23.402968944849363 -10.725889929318328 0 -10.725889929318328 3.2668808675659307 0 0 0 0 -2.7706864527294783 15.084699110920951 0 15.084699110920951 -6.4418259458452667 0 0 0 0 -3.0243711436389731 3.1239304857067509 0 3.1239304857067509 16.872655051509355 0 0 0 0 7.171737810224954 26.139740545179166 0 26.139740545179166 21.774113048622894 0 0 0 0 16.031926458971157 25.985141757998917 0 25.985141757998917 18.677685955361483 0 0 0 0 10.68957216128274 18.985316776811487 0 18.985316776811487 45.38890554180216 0 0 0 0 27.738083620646194 33.466695892753478 0 33.466695892753478 49.314227719703013 0 0 0 0 28.062431101091761 28.370660775575288 0 28.370660775575288 52.358640970755914 0 0 0 0 31.728372549781625 54.799890798901743 0 54.799890798901743 59.162569058014924 0 0 0 0 14.325121179164853 33.878086711253673 0 33.878086711253673 47.646378107676355 0 0 0 0 9.2858635857292029 19.623380304111379 0 19.623380304111379 32.116984867758219 0 0 0 0 18.909656025416268 37.847012318250222 0 37.847012318250222 42.549691837164573 0 0 0 0 19.303748974735583 37.448566033221141 0 37.448566033221141 33.97497239455879 0 0 0 0 0.44482504001331336 18.972413899341745 0 18.972413899341745 30.246463958986169 0 0 0 0 9.3697330978616264 8.413959076064657 0 8.413959076064657 0.9072208276152196 0 0 0 0 5.4668490074276974 18.737377891919436 0 18.737377891919436 36.948193378459109 0 0 0 0 13.97683754119754 30.397506347384933 0 30.397506347384933 26.713672852726631 0 0 0 0 8.1843197174392515 26.618972228860912 0 26.618972228860912 44.275220239602277 0 0 0 0 17.127324040032704 41.157686044601178 0 41.157686044601178 50.712480341255741 0 0 0 0 17.030825807439442 45.101913436511495 0 45.101913436511495 64.495470816322268 0 0 0 0 14.186153151580129 51.473010414524651 0 51.473010414524651 84.007185920897427 0 0 0 0 20.3355560869187 48.758024152418784 0 48.758024152418784 56.236125933019139 0 0 0 0 27.332718880609036 59.406507695705841 0 59.406507695705841 68.726049923592768 0 0 0 0 22.367691799234422 51.367506839430234 0 51.367506839430234 74.497719552899071 0 0 0 0 19.861244811378128 63.195487758462605 0 63.195487758462605 79.417790435293682 0 0 0 0 -4.3181747921560145 1.8178984375286973 0 1.8178984375286973 1.8678665722678787 0 0 0 0 -3.1505258067414132 0.3322150275079454 0 0.3322150275079454 2.044402210969622 0 0 0 0 24.561606064120497 71.993161780118044 0 71.993161780118044 86.968220564009471 0 0 0 0 46.142835451631527 70.58284307446047 0 70.58284307446047 78.952275485316477 0 0 0 0 36.524345095610329 46.398268231518955 0 46.398268231518955 81.409317051864491 0 0 0 0 55.226179574735397 31.603947983078797 0 31.603947983078797 71.158454802954566 0 0 0 0 20.302601628940579 41.071355679090402 0 41.071355679090402 69.48651424673244 0 0 0 0 86.630099975654957 36.038992543667064 0 36.038992543667064 82.56331541102395 0 0 0 0 31.120373086277141 40.949787560643927 0 40.949787560643927 87.62124858424886 0 0 0 0 69.745266533311678 12.396099170868183 0 12.396099170868183 108.3770386241963 0 0 0 0 26.302178607576479 48.173561165179763 0 48.173561165179763 149.08785606901256 0 0 0 0 63.516528076759641 65.771792707484565 0 65.771792707484565 79.734504581755118 0 0 0 0 0.04212201429362783 0.64194928034279686 0 0.64194928034279686 0.62450055632041779 0 0 0 0 -3.0833458474028248 3.0747403541383846 0 3.0747403541383846 1.4328431685318606 0 0 0 0 -3.0442075475833121 2.9377439876652858 0 2.9377439876652858 1.7374655226216191 0 0 0 0 -6.409918924218232 0.13526773346415588 0 0.13526773346415588 3.7239942151685028 0 0 0 0 -1.8422264450934862 2.563467214097118 0 2.563467214097118 2.1003243266020943 0 0 0 0 -7.3156065936145751 1.3141296682002803 0 1.3141296682002803 2.2047391198540254 0 0 0 0 -3.4611958236603284 0.28991449804799085 0 0.28991449804799085 3.5587311347466066 0 0 0 0 -5.0480462964098081 -1.3632265497789611 0 -1.3632265497789611 3.4518283767708908 0 0 0 0 -5.0334752433709582 -1.534092248875254 0 -1.534092248875254 0.85172255770009997 0 0 0 0 -5.9081513533326415 -2.1165950714826351 0 -2.1165950714826351 4.7337198486725356 0 0 0 0 -8.3407962718927724 -2.0425500416620053 0 -2.0425500416620053 3.6442024267657618 0 0 0 0 -21.634772690988029 -8.861660435937381 0 -8.861660435937381 18.520519039389093 0 0 0 0 -65.52446548234002 1.1789684663110052 0 1.1789684663110052 19.391734439074298 0 0 0 0 -1.1782214854010817 17.963042042292386 0 17.963042042292386 -6.9385044027219465 0 0 0 0 -1.9431698779519184 2.869655782262762 0 2.869655782262762 1.3183144448892306 0 0 0 0 -11.135574408144748 0.72551955467292828 0 0.72551955467292828 1.9629394679261623 0 0 0 0 -12.012929699557427 0.81864406515191934 0 0.81864406515191934 5.634270450383811 0 0 0 0 -2.2719669010330108 16.920234329362579 0 16.920234329362579 -6.5166984348289176 0 0 0 0 -6.567649407094355 4.7938718713094879 0 4.7938718713094879 2.1220239767683862 0 0 0 0 -8.1287449456663126 1.7879494436123551 0 1.7879494436123551 2.8436885790927136 0 0 0 0 -8.1718736388837883 3.4654632278116679 0 3.4654632278116679 3.2969490047062799 0 0 0 0 -7.4214536079277131 3.2707360327323429 0 3.2707360327323429 4.6471237295061085 0 0 0 0 -12.82129876255658 41.444461615978639 0 41.444461615978639 -0.46096663080345479 0 0 0 0 -16.480826191837622 -2.3145413595408044 0 -2.3145413595408044 10.126812262205817 0 0 0 0 -8.326014198211535 -0.02239095236341293 0 -0.02239095236341293 1.601134146734424 0 0 0 0 -7.057936402249652 0.91780957458354351 0 0.91780957458354351 4.654295229815034 0 0 0 0 -1.7804912616493311 2.1765345348374012 0 2.1765345348374012 3.061683406911925 0 0 0 0 -5.6618792814028893 0.17451750858504056 0 0.17451750858504056 0.32799674889383823 0 0 0 0 -0.36166356358891116 0.57257121973802572 0 0.57257121973802572 0.4482742350224308 0 0 0 0 4.8075049547924209 0.9209379701899536 0 0.9209379701899536 -17.12066455616673 0 0 0 0 -4.9512102535327358 12.526474658553212 0 12.526474658553212 30.643357992612238 0 0 0 0 -4.975948037906619 0.91200194787691657 0 0.91200194787691657 7.4396532056903197 0 0 0 0 11.652917903030811 32.895098117820851 0 32.895098117820851 -1.7488016737295879 0 0 0 0 17.302492446159704 26.981552593053834 0 26.981552593053834 -11.147699915325916 0 0 0 0 0.82999302397592878 -0.59308568531381411 0 -0.59308568531381411 -0.63928343996670334 0 0 0 0 22.552197306513335 -18.289947374044004 0 -18.289947374044004 5.6127369380089931 0 0 0 0 -35.422898659954626 -10.764737640321755 0 -10.764737640321755 174.71596781002836 0 0 0 0 24.320118819036907 110.25918542231037 0 110.25918542231037 -30.149325956753685 0 0 0 0 10.946574062883883 -21.877874453464457 0 -21.877874453464457 55.853805557159063 0 0 0 0 -4.6217633411157664 -1.2427456876673881 0 -1.2427456876673881 -0.021607429826276059 0 0 0 0 -6.0275989312167439 0.63279033188001677 0 0.63279033188001677 -0.13485963259563505 0 0 0 0 -66.64304582724526 38.30506004421261 0 38.30506004421261 -9.2179577255251388 0 0 0 0 -41.153288865554998 -46.563799899766096 0 -46.563799899766096 36.816300157044225 0 0 0 0 -3.1012075252022733 -0.50716728174101089 0 -0.50716728174101089 -0.33698842677684215 0 0 0 0 -19.103003779917344 93.782062416855524 0 93.782062416855524 -121.83769614198405 0 0 0 0 -49.113856904114982 40.005826960065519 0 40.005826960065519 -87.512037860560213 0 0 0 0 -33.041156617524393 55.5090198841865 0 55.5090198841865 -17.407865611217858 0 0 0 0 -45.305989689382841 79.92896556276196 0 79.92896556276196 -21.216568105355691 0 0 0 0 -6.4821487431528588 -1.5738929323575168 0 -1.5738929323575168 -0.31455256834496237 0 0 0 0 -1.671992282273095 -37.457373016984917 0 -37.457373016984917 189.43247014083346 0 0 0 0 -1.4592821789683281 0.54614629184198193 0 0.54614629184198193 0.18248583259390672 0 0 0 0 -19.331504493165767 -3.0277573374785689 0 -3.0277573374785689 74.129725361928308 0 0 0 0 -25.014827632859124 -62.351247699896078 0 -62.351247699896078 81.844156651154208 0 0 0 0 -4.4097155737395042 -77.740370154107609 0 -77.740370154107609 69.592910885716719 0 0 0 0 -2.5152557644360058 -28.461746514241554 0 -28.461746514241554 20.850177691933823 0 0 0 0 -31.658932201726543 -10.722660834931503 0 -10.722660834931503 -30.808818023421281 0 0 0 0 -89.131332140064842 -32.856123222567021 0 -32.856123222567021 29.467851411287938 0 0 0 0 -34.871832863111536 -25.751362560060244 0 -25.751362560060244 84.647053219077861 0 0 0 0 3.8489429197070422 -8.8318456473252809 0 -8.8318456473252809 45.745343931833986 0 0 0 0 -33.231108494088858 39.951984820132338 0 39.951984820132338 3.7181615518297804 0 0 0 0 -44.857802694174097 39.492333156880932 0 39.492333156880932 52.64660522972099 0 0 0 0 -72.242691519497384 66.411643183544584 0 66.411643183544584 11.277679861364049 0 0 0 0 -78.047393492228366 67.146460920332856 0 67.146460920332856 -10.176644055044562 0 0 0 0 -79.789308975707172 55.086363130404152 0 55.086363130404152 -3.8399331687757012 0 0 0 0 -46.956341689547799 -16.596608425119143 0 -16.596608425119143 -3.695075757721952 0 0 0 0 -0.76635958347049637 -0.061237196617955902 0 -0.061237196617955902 0.218729753630444 0 0 0 0 -107.86694438822815 52.41485075450214 0 52.41485075450214 8.1071287800486971 0 0 0 0 -42.946676330906485 51.270835480729602 0 51.270835480729602 -58.306463452865955 0 0 0 0 -99.709214357921383 60.353119959842971 0 60.353119959842971 -1.0649008881327973 0 0 0 0 -44.410789610620668 9.5058168811988253 0 9.5058168811988253 24.518402864636755 0 0 0 0 -4.5027429375564827 11.641661226875625 0 11.641661226875625 1.6413522241437395 0 0 0 0 -20.521341140954064 19.103425691971552 0 19.103425691971552 0.4590175385925761 0 0 0 0 -15.198268056220513 36.908862359365912 0 36.908862359365912 -22.390664386716935 0 0 0 0 -9.183569250380474 4.8788375730641569 0 4.8788375730641569 2.2267645033797105 0 0 0 0 -8.8852392990265798 5.4791686572825711 0 5.4791686572825711 2.0278759175180312 0 0 0 0 5.1517125179743744 -0.57898071589988831 0 -0.57898071589988831 2.3228842955292066 0 0 0 0 -5.262390524874073 7.7225820933966842 0 7.7225820933966842 1.1561558483689831 0 0 0 0 -0.1531016637724143 0.45929629642962944 0 0.45929629642962944 0.51431296432468443 0 0 0 0 7.2490577018561453 10.942620095062466 0 10.942620095062466 -0.1968997823769314 0 0 0 0 3.3098615436047112 1.7592132026766194 0 1.7592132026766194 10.524650125073094 0 0 0 0 -5.5481713143227775 1.471945163443042 0 1.471945163443042 3.4885421783528927 0 0 0 0 -11.754207669880998 9.9266721559915823 0 9.9266721559915823 -4.9190648256044369 0 0 0 0 -3.9762303714959639 3.0965223029445648 0 3.0965223029445648 1.4033076847600361 0 0 0 0 -7.1169872382015456 3.3323845523525506 0 3.3323845523525506 2.8114370796376988 0 0 0 0 -9.2880165023570953 2.3015860644582062 0 2.3015860644582062 1.7723225736817767 0 0 0 0 -2.6029987765505211 2.9535112251651299 0 2.9535112251651299 1.5783636543870898 0 0 0 0 0.32965939200450833 4.0198559685671089 0 4.0198559685671089 0.54719819953308169 0 0 0 0 -5.9941605296624232 4.7994322715594713 0 4.7994322715594713 -0.28722184912166426 0 0 0 0 -2.3442518567803496 1.7736163254785797 0 1.7736163254785797 1.1605631836655181 0 0 0 0 -2.3472582826413761 0.68219366680978766 0 0.68219366680978766 1.052248767802106 0 0 0 0 -7.2027456481882837 4.67530082169867 0 4.67530082169867 0.050343319359335226 0 0 0 0 -4.2606895946992154 3.3391607056050816 0 3.3391607056050816 1.9347010472865804 0 0 0 0 -6.0349434412658205 4.2881509730379932 0 4.2881509730379932 3.1429896821067116 0 0 0 0 -30.332533955277086 -1.5382204854184351 0 -1.5382204854184351 10.391786696012105 0 0 0 0 -15.116795493632253 0.46347728639543107 0 0.46347728639543107 4.2202326229153186 0 0 0 0 -24.29520519570724 13.297333068522732 0 13.297333068522732 -0.15758213139940835 0 0 0 0 -24.355960877584948 2.1001069486649158 0 2.1001069486649158 11.356355926609695 0 0 0 0 -9.5556397911585211 -4.6274557381934791 0 -4.6274557381934791 8.0005775638358259 0 0 0 0 -20.967417532498075 -6.5094095451759131 0 -6.5094095451759131 0.60163894292577424 0 0 0 0 -17.345627033677733 3.5522594594260548 0 3.5522594594260548 3.2474890053692151 0 0 0 0 -26.266037422125009 6.5190755781180947 0 6.5190755781180947 5.1687718921228853 0 0 0 0 -17.321661522586055 4.6762344769608433 0 4.6762344769608433 5.5351067942397094 0 0 0 0 -12.532413354200759 1.7617003337332076 0 1.7617003337332076 6.6064298355867157 0 0 0 0 -13.217354989814545 11.485659024247614 0 11.485659024247614 6.0689335859478648 0 0 0 0 -5.8030878882851056 1.6535769799999471 0 1.6535769799999471 1.1172258969430662 0 0 0 0 -49.716071409260621 26.524574179797355 0 26.524574179797355 0.82877369713605731 0 0 0 0 -4.667007663876392 11.259543158025259 0 11.259543158025259 2.2308217271502273 0 0 0 0 -19.178581161475449 11.656117390759789 0 11.656117390759789 4.8957906864654888 0 0 0 0 -28.108631462837366 9.2211516831519589 0 9.2211516831519589 12.414813026128968 0 0 0 0 -14.51092019857915 3.9270643817035555 0 3.9270643817035555 5.5446671934152532 0 0 0 0 -12.868675321176458 5.5444190649850889 0 5.5444190649850889 0.32775834448275099 0 0 0 0 -7.1997943682367787 10.419640541367709 0 10.419640541367709 5.8162871805277554 0 0 0 0 -18.8511499634551 11.684445053142099 0 11.684445053142099 4.6020342281444755 0 0 0 0 -25.688746084697414 9.4558069741464124 0 9.4558069741464124 4.6347572351578492 0 0 0 0 -31.202844783003002 -4.7372296490943313 0 -4.7372296490943313 17.724528849909802 0 0 0 0 -51.133651882505546 23.937656629688263 0 23.937656629688263 22.110343987017586 0 0 0 0 -41.66708525283866 -8.9367880894358223 0 -8.9367880894358223 46.831760769172888 0 0 0 0 -37.437785056778921 19.353496504872737 0 19.353496504872737 37.192910647518602 0 0 0 0 -3.6426534556025558 -4.7770348823312574 0 -4.7770348823312574 -9.4822776452310791 0 0 0 0 -21.647580156597542 39.483001607871302 0 39.483001607871302 16.479362364976396 0 0 0 0 -23.195651009564244 -3.3956894812224618 0 -3.3956894812224618 -3.0611060546635827 0 0 0 0 -6.0639282886475208 -0.031356787086094684 0 -0.031356787086094684 -0.80519080927581754 0 0 0 0 -15.685515573432927 -4.7476327506355664 0 -4.7476327506355664 -0.76448248258997964 0 0 0 0 0.87487071005307371 39.154819653964665 0 39.154819653964665 -18.010611554775096 0 0 0 0 -50.231414301204495 19.397410926018892 0 19.397410926018892 -14.99850738791929 0 0 0 0 -57.007849750516471 28.432724758623408 0 28.432724758623408 -1.6534330726155986 0 0 0 0 -2.561628369564005 -39.183154477487619 0 -39.183154477487619 -35.477574221332816 0 0 0 0 -11.879764487789039 -5.6015772380297824 0 -5.6015772380297824 -1.6923692913967177 0 0 0 0 -2.0186513598148252 -1.8509910775716412 0 -1.8509910775716412 -1.0374460444057352 0 0 0 0 -52.460455138385441 3.9965114943338449 0 3.9965114943338449 -21.972797382998579 0 0 0 0 31.570631537037116 -52.055403105711321 0 -52.055403105711321 26.803251625984558 0 0 0 0 -53.58213980929213 1.8919792730079052 0 1.8919792730079052 32.472214104817425 0 0 0 0 -49.97154545755366 -2.6189205788068737 0 -2.6189205788068737 -0.2726610614180438 0 0 0 0 -45.119674437821232 -22.384979089670182 0 -22.384979089670182 13.919660027969087 0 0 0 0 -44.858764068540047 0.69331253237538348 0 0.69331253237538348 1.0992213917196276 0 0 0 0 -42.05702029972781 -16.55206588365148 0 -16.55206588365148 23.627351437771075 0 0 0 0 -45.397278884432481 19.445502728234644 0 19.445502728234644 -16.675547029445852 0 0 0 0 -59.784123228905514 31.694277438607742 0 31.694277438607742 74.859408734432918 0 0 0 0 -36.300398952411115 66.78999773077021 0 66.78999773077021 1.9665089395784889 0 0 0 0 -110.97269946474512 -23.227168136538239 0 -23.227168136538239 146.29202434281297 0 0 0 0 -72.222782996127762 58.707131646281709 0 58.707131646281709 -13.984719054801786 0 0 0 0 -133.38452924243961 -36.962887725914811 0 -36.962887725914811 12.383901199284765 0 0 0 0 -37.049674889524567 -131.02795784771752 0 -131.02795784771752 4.3513456582012395 0 0 0 0 -62.14703694889954 -69.953929041107017 0 -69.953929041107017 109.11249786202382 0 0 0 0 -11.698159607010609 -9.7831563605205645 0 -9.7831563605205645 20.519007751815025 0 0 0 0 8.741299244183665 -26.547511701888425 0 -26.547511701888425 -79.484041202335675 0 0 0 0 -53.52076282796471 -1.5491996197515654 0 -1.5491996197515654 3.0029236347233099 0 0 0 0 -65.786847648527328 13.660988273659541 0 13.660988273659541 35.158051115000099 0 0 0 0 -56.847764271421511 11.582861813024898 0 11.582861813024898 15.365914960459179 0 0 0 0 -47.528091874448364 5.1323170942801255 0 5.1323170942801255 22.585405369328157 0 0 0 0 -66.547814326269872 -10.128192513410852 0 -10.128192513410852 57.181315035636437 0 0 0 0 -75.713343969664493 14.336175731503772 0 14.336175731503772 21.158797085316223 0 0 0 0 -65.372148237802321 8.744463921556985 0 8.744463921556985 14.293930493151606 0 0 0 0 -64.163876764956512 18.39174851210322 0 18.39174851210322 14.001017153105863 0 0 0 0 -74.253570496239263 33.810238738282294 0 33.810238738282294 2.5997093593732643 0 0 0 0 -84.99154490003275 23.853413204173876 0 23.853413204173876 13.267201257360398 0 0 0 0 -68.483789785212139 14.54703172880977 0 14.54703172880977 3.1741849045888557 0 0 0 0 -55.643737941034487 35.67438010807723 0 35.67438010807723 -1.0350276998365189 0 0 0 0 -99.12501945132135 15.228129411280293 0 15.228129411280293 4.1302291255617547 0 0 0 0 -81.540889199299272 2.8569940383788435 0 2.8569940383788435 12.647094325205558 0 0 0 0 -111.29365637866249 -25.522269035150998 0 -25.522269035150998 12.551291154387428 0 0 0 0 -67.514898164258284 -44.347564765722609 0 -44.347564765722609 -11.152867044495679 0 0 0 0 -58.960273019623855 -16.765860419316084 0 -16.765860419316084 13.768636073573589 0 0 0 0 -78.501606492747669 -14.282706091298493 0 -14.282706091298493 25.024090893310529 0 0 0 0 -71.960298569961196 -30.586782959084189 0 -30.586782959084189 13.422921603365381 0 0 0 0 -15.701793004058345 -39.653973824747524 0 -39.653973824747524 -15.975945412789045 0 0 0 0 -77.872549125211663 -67.703063500178359 0 -67.703063500178359 -28.530389223874067 0 0 0 0 -63.880250612264717 -64.141680027641087 0 -64.141680027641087 -34.6367569178135 0 0 0 0 -97.459284313829812 -95.355136020047439 0 -95.355136020047439 -42.517297629675795 0 0 0 0 4.2065054399845394 -54.654558931740439 0 -54.654558931740439 -61.740574738866258 0 0 0 0 2.2853806338531584 -0.9253550318689463 0 -0.9253550318689463 -3.1395179439945817 0 0 0 0 -178.11725464657866 -46.768462521209358 0 -46.768462521209358 -9.040185752403886 0 0 0 0 -151.52396196462769 26.994255262847616 0 26.994255262847616 -34.479826527374826 0 0 0 0 -97.993362652185169 -3.6830260504034413 0 -3.6830260504034413 -17.395517154164281 0 0 0 0 -102.30132576829828 24.363641038185122 0 24.363641038185122 6.2929168326108993 0 0 0 0 -68.386462971739093 18.184845291916417 0 18.184845291916417 4.1128966049718656 0 0 0 0 -73.709195514507883 28.550273909647558 0 28.550273909647558 -14.960950595856048 0 0 0 0 -81.74139132669734 -3.8503741779336451 0 -3.8503741779336451 -20.139907553387502 0 0 0 0 -98.833470472956833 2.2070124937465607 0 2.2070124937465607 -20.874119874878033 0 0 0 0 -119.43992603687002 -49.359314849893963 0 -49.359314849893963 -63.155498874863497 0 0 0 0 -154.15372976875551 -79.075215553856196 0 -79.075215553856196 -74.656055272933145 0 0 0 0 -107.30136633254369 -29.505779907221495 0 -29.505779907221495 -107.68881432415401 0 0 0 0 -131.06387999302206 -50.046426286523456 0 -50.046426286523456 -43.136034862201996 0 0 0 0 -123.54945620660874 -1.3410765993257883 0 -1.3410765993257883 -13.849267323647609 0 0 0 0 -80.183664878697527 -28.607762109621035 0 -28.607762109621035 2.3000932099253077 0 0 0 0 -124.01222049385524 22.800359426617661 0 22.800359426617661 85.484811762894424 0 0 0 0 -58.930211083488757 23.745211463408396 0 23.745211463408396 -18.781171586997971 0 0 0 0 -78.958467080858469 1.5114897076796048 0 1.5114897076796048 7.898016002260924 0 0 0 0 -81.209604980288532 55.829542156063553 0 55.829542156063553 34.21008252422871 0 0 0 0 -94.988225523542496 -3.3486543681704006 0 -3.3486543681704006 18.484734950682366 0 0 0 0 -12.784368907804769 1.4796819216194965 0 1.4796819216194965 1.1708272196413301 0 0 0 0 -219.88805645105003 63.364803041194534 0 63.364803041194534 -25.869718165947234 0 0 0 0 -47.650832863218056 12.315143600939507 0 12.315143600939507 -3.9742461736395853 0 0 0 0 -57.247052756226367 39.385989387973098 0 39.385989387973098 -24.20130388998723 0 0 0 0 -62.13243498961674 18.314042449090266 0 18.314042449090266 -16.28905275727675 0 0 0 0 -27.536423895948246 32.705900028583528 0 32.705900028583528 -19.965683150504901 0 0 0 0 -25.520128686547537 7.6187678128659329 0 7.6187678128659329 2.0923237413817333 0 0 0 0 -16.096220864061252 27.892953498807856 0 27.892953498807856 -5.7287186708133504 0 0 0 0 5.3133318275376951 23.678212374477653 0 23.678212374477653 -19.357360332911867 0 0 0 0 -12.522718428335793 8.5879377614844543 0 8.5879377614844543 -13.421708593153198 0 0 0 0 -8.6412005403458281 15.71107894529462 0 15.71107894529462 0.88127513948533753 0 0 0 0 -60.687243691425465 -3.1785670742362981 0 -3.1785670742362981 2.6298162375910579 0 0 0 0 -21.983367094198911 9.2033910852680947 0 9.2033910852680947 0.23108343375884033 0 0 0 0 -24.347460621963819 7.4383827278392118 0 7.4383827278392118 0.81746486562315113 0 0 0 0 -20.754073624252811 -2.999121875527111 0 -2.999121875527111 3.1830183559234229 0 0 0 0 -7.7289863423151033 6.5076871730589225 0 6.5076871730589225 -2.0134716480375019 0 0 0 0 15.039092233644624 25.514109087845554 0 25.514109087845554 -20.843465290121458 0 0 0 0 -1.234798167097324 21.879981509878689 0 21.879981509878689 29.146584987332972 0 0 0 0 -4.504020865274228 2.5453786363761033 0 2.5453786363761033 2.2324021657404254 0 0 0 0 24.102836960562854 21.522845578650958 0 21.522845578650958 -0.025121902137925645 0 0 0 0 -60.069870540584816 30.984197787045787 0 30.984197787045787 20.388168360302188 0 0 0 0 -73.099113074968955 30.044278499375139 0 30.044278499375139 -4.0163309811341605 0 0 0 0 -6.7557047191439779 6.746450903580353 0 6.746450903580353 0.65308303815254476 0 0 0 0 -7.847460332497576 34.399752828139299 0 34.399752828139299 -19.664476565049426 0 0 0 0 -1.9648253367132824 -0.49208782136456364 0 -0.49208782136456364 -1.3267459990953352 0 0 0 0 -90.781155140724877 10.185811184326099 0 10.185811184326099 -15.893921565168057 0 0 0 0 -0.10294574734918172 0.10663842818289382 0 0.10663842818289382 -1.9475219882681678 0 0 0 0 -90.966356288098723 -61.201178913789931 0 -61.201178913789931 -20.024992796025799 0 0 0 0 -5.4910872482996638 -6.2614418505809226 0 -6.2614418505809226 -44.142551604529217 0 0 0 0 -55.073377121931117 -38.545710986173162 0 -38.545710986173162 -5.9957467767535491 0 0 0 0 1.7558882177460404 0.34656481432778463 0 0.34656481432778463 -5.1627219376387856 0 0 0 0 -64.710774589620996 -7.5779210424282155 0 -7.5779210424282155 2.803635151888102 0 0 0 0 -72.436947461697855 -16.725188009723979 0 -16.725188009723979 11.439105569644198 0 0 0 0 -44.574481027864749 1.4834529009922903 0 1.4834529009922903 -12.136556796854165 0 0 0 0 -80.061664041155382 1.5985838778642574 0 1.5985838778642574 1.5122911333305638 0 0 0 0 -79.22207473211347 35.26940634848097 0 35.26940634848097 14.072935125953563 0 0 0 0 -25.654538026926275 28.563306289546119 0 28.563306289546119 -3.8742422456971326 0 0 0 0 -89.740391140567226 -10.796772538967048 0 -10.796772538967048 10.692750038893791 0 0 0 0 -5.2373249457226763 16.729583412246306 0 16.729583412246306 0.90063062443554465 0 0 0 0 -27.844505624811063 6.6550532468586425 0 6.6550532468586425 2.4032685197282717 0 0 0 0 -58.305598080925847 2.7136195091754871 0 2.7136195091754871 3.4581072999385469 0 0 0 0 -0.47020860312442636 0.38550508251688242 0 0.38550508251688242 0.17637079304629388 0 0 0 0 -99.736099348801417 -2.4321931894944555 0 -2.4321931894944555 16.224893999609321 0 0 0 0 -22.654890122017605 19.42589313344024 0 19.42589313344024 1.0901685887265558 0 0 0 0 -83.590328895628772 9.3866156666672396 0 9.3866156666672396 -37.640564266067486 0 0 0 0 -50.430173237385134 5.8423642334453234 0 5.8423642334453234 11.791046178626175 0 0 0 0 -10.45924869007251 15.481321742123839 0 15.481321742123839 0.58048637358800903 0 0 0 0 -81.915476270725321 21.705093848779654 0 21.705093848779654 -8.1868037533276947 0 0 0 0 -89.431440495536663 8.8662750781113573 0 8.8662750781113573 -10.771547072959947 0 0 0 0 -119.09613391367839 -26.797963212495688 0 -26.797963212495688 11.35116497067429 0 0 0 0 -12.183824874277292 -2.7440424720579628 0 -2.7440424720579628 -0.93364608345292233 0 0 0 0 3.0499304901703681 2.179126701059964 0 2.179126701059964 -3.1846145961465906 0 0 0 0 -61.242780506698182 -34.942510978990867 0 -34.942510978990867 -30.875707832714397 0 0 0 0 -86.721772185523605 -26.38950461189728 0 -26.38950461189728 -3.3630747513789174 0 0 0 0 -14.982589237661994 -3.0106509859427391 0 -3.0106509859427391 -9.2437642674145657 0 0 0 0 -76.851776367713683 26.726692965763959 0 26.726692965763959 -55.600784192069113 0 0 0 0 -128.78570480606504 -16.013575549658071 0 -16.013575549658071 20.615307663429121 0 0 0 0 -81.773079530174073 -28.664772119546342 0 -28.664772119546342 -9.651958338102304 0 0 0 0 -67.474368622459281 0.59703373886305755 0 0.59703373886305755 9.6870122550624842 0 0 0 0 -59.378001450517331 27.311946669976749 0 27.311946669976749 30.902982889157343 0 0 0 0 -53.914991545650992 20.573200268291615 0 20.573200268291615 27.115126729009106 0 0 0 0 -64.779781593169901 31.635030260639546 0 31.635030260639546 15.944607348996414 0 0 0 0 -51.016413409375673 36.621238922764718 0 36.621238922764718 4.5676401552188963 0 0 0 0 -64.435986291144218 24.13692125665068 0 24.13692125665068 13.24919882811335 0 0 0 0 -40.401857271821427 18.908336696034098 0 18.908336696034098 14.865923239268795 0 0 0 0 -44.756907476206834 20.711007716479443 0 20.711007716479443 14.124502925444517 0 0 0 0 -14.803166715539586 -1.7448033966461054 0 -1.7448033966461054 1.5495349113661823 0 0 0 0 -69.512105749719922 -18.400578697410765 0 -18.400578697410765 -6.350357093107732 0 0 0 0 -109.4944837644598 -16.027847398903347 0 -16.027847398903347 1.1692321614852972 0 0 0 0 -58.526175588036665 6.7558793385864959 0 6.7558793385864959 5.4175522301352892 0 0 0 0 -57.432130176886858 -24.036773464422367 0 -24.036773464422367 -0.34250226977746934 0 0 0 0 -25.305831170679848 -6.4864208214996566 0 -6.4864208214996566 -5.2448493214381937 0 0 0 0 -34.468352057962662 2.3670652648663015 0 2.3670652648663015 1.3955020128912823 0 0 0 0 -20.480048819819913 8.2722815697751741 0 8.2722815697751741 4.84045283459308 0 0 0 0 -88.596842864528298 3.0597168978460445 0 3.0597168978460445 -0.00048511062766465329 0 0 0 0 -11.220870530169869 -8.3823579714810847 0 -8.3823579714810847 -2.8414429218997448 0 0 0 0 -73.127553394892857 -5.4372627054431462 0 -5.4372627054431462 11.38747299881129 0 0 0 0 -41.697041837381988 4.1135775328947908 0 4.1135775328947908 2.020078724503648 0 0 0 0 -35.364370643350853 8.1644163198867687 0 8.1644163198867687 3.3110348505196416 0 0 0 0 -35.19626989440394 5.6939598465428958 0 5.6939598465428958 2.8273786740664946 0 0 0 0 -35.663634924923826 5.6013220991712842 0 5.6013220991712842 2.8314007720235281 0 0 0 0 -102.82839298104955 -15.333854240789236 0 -15.333854240789236 31.470314048789238 0 0 0 0 -100.69508465418949 -22.410020527654943 0 -22.410020527654943 27.477921043446088 0 0 0 0 -96.860248922315805 -16.913154775015286 0 -16.913154775015286 29.967496495838759 0 0 0 0 -86.692539583138569 -19.697588278766659 0 -19.697588278766659 5.1685463722785698 0 0 0 0 -74.122612547624499 3.8986754768052485 0 3.8986754768052485 9.3673016309223023 0 0 0 0 -79.111634143737319 -0.49895318726817095 0 -0.49895318726817095 32.076743187510999 0 0 0 0 -87.277357215960365 3.3877553137544396 0 3.3877553137544396 44.747390362375654 0 0 0 0 -71.520738359222506 1.9326301554848264 0 1.9326301554848264 10.131974554784797 0 0 0 0 -93.796895886068796 -7.7202458469794237 0 -7.7202458469794237 44.624758145890155 0 0 0 0 -80.634767820236448 22.874193635725078 0 22.874193635725078 54.082304502889706 0 0 0 0 -61.373686032417481 13.791279782743961 0 13.791279782743961 31.369431138623341 0 0 0 0 -73.144716920418432 -0.12367781237724529 0 -0.12367781237724529 32.158036993596227 0 0 0 0 -87.457889658304339 4.2639696158476283 0 4.2639696158476283 35.059023008020617 0 0 0 0 -84.885795195004903 16.295582590356616 0 16.295582590356616 31.116046257990469 0 0 0 0 -102.280521249515 14.2004183938202 0 14.2004183938202 15.757203591941874 0 0 0 0 -84.344790501387251 39.394918752063944 0 39.394918752063944 6.9335012276453654 0 0 0 0 -94.383810146719043 26.024014742311508 0 26.024014742311508 22.625606850195595 0 0 0 0 -109.57047008870359 -4.1884242299261309 0 -4.1884242299261309 27.581306666231143 0 0 0 0 -135.62465097987297 -37.010361963730077 0 -37.010361963730077 15.04341714706112 0 0 0 0 -141.94735214699176 4.0971106326977065 0 4.0971106326977065 25.621032414636744 0 0 0 0 -111.74734072501496 -25.555408854691244 0 -25.555408854691244 27.190193669094242 0 0 0 0 -114.70293336888426 -1.0526116009661592 0 -1.0526116009661592 35.356095810204749 0 0 0 0 -98.476777565803786 -18.157805806320916 0 -18.157805806320916 30.869024925302938 0 0 0 0 -105.82332270997904 -38.384636238491979 0 -38.384636238491979 15.483875539785373 0 0 0 0 -108.27700174925849 -22.977425437853668 0 -22.977425437853668 21.992147766811826 0 0 0 0 -59.088296048044867 -35.772043121944336 0 -35.772043121944336 -3.8297043732018476 0 0 0 0 -38.240802478430851 -18.573098067022897 0 -18.573098067022897 1.324227283850135 0 0 0 0 -61.279766292944259 -30.961354016915784 0 -30.961354016915784 -3.5707055895614417 0 0 0 0 -50.968692996895697 -11.271275967575107 0 -11.271275967575107 16.51753243593086 0 0 0 0 -61.036316838246421 -28.317218668838279 0 -28.317218668838279 5.5122101950368645 0 0 0 0 -76.323658972149133 -20.018425356958048 0 -20.018425356958048 17.164375735387637 0 0 0 0 -82.044698082841933 -29.420748736109346 0 -29.420748736109346 18.841974160752812 0 0 0 0 -67.795337986681261 -18.999275521057882 0 -18.999275521057882 16.419570212225722 0 0 0 0 -87.865583965634869 -13.914947787835786 0 -13.914947787835786 15.615963565977836 0 0 0 0 -51.763007579655095 -19.04837748111261 0 -19.04837748111261 12.350682903959097 0 0 0 0 -64.424488276539705 -13.016026493100526 0 -13.016026493100526 11.264631029128623 0 0 0 0 -50.149494084158505 11.753798935148097 0 11.753798935148097 -22.089516183958846 0 0 0 0 -77.606481165843434 -13.852317398640508 0 -13.852317398640508 12.276790044634879 0 0 0 0 -31.055945503379917 -31.146299775734519 0 -31.146299775734519 8.0838502532540133 0 0 0 0 -61.363368968870418 -21.823002354037385 0 -21.823002354037385 13.972930363003115 0 0 0 0 -19.89456592228089 -44.33752003748998 0 -44.33752003748998 -26.438523409963864 0 0 0 0 -41.706664775432728 -11.861864682377785 0 -11.861864682377785 9.0475922364399111 0 0 0 0 -103.34263908662251 26.743917292918923 0 26.743917292918923 41.268469304363862 0 0 0 0 -5.6945645621380976 2.0907407918949517 0 2.0907407918949517 0.4467544835467363 0 0 0 0 -39.30557555236436 -11.926547395097666 0 -11.926547395097666 -2.4752003280097323 0 0 0 0 -12.330078626793693 19.351025597355829 0 19.351025597355829 -7.7711156970353841 0 0 0 0 -99.596358859213069 46.542625321829405 0 46.542625321829405 -7.7335538611309858 0 0 0 0 -89.514004478507559 -12.382176984534851 0 -12.382176984534851 21.252144066640994 0 0 0 0 -163.30756543583993 -20.902628856618094 0 -20.902628856618094 22.925694010743484 0 0 0 0 -98.785222505306592 -14.150568387866542 0 -14.150568387866542 21.958865924398296 0 0 0 0 -55.386505818842124 -3.7819642547159305 0 -3.7819642547159305 13.992375470406614 0 0 0 0 -97.571930324367713 4.1582167835521204 0 4.1582167835521204 13.475503707713528 0 0 0 0 -64.677045674787223 -7.7116401818371969 0 -7.7116401818371969 5.8227078862576036 0 0 0 0 -13.658669002894488 -8.4025845050010091 0 -8.4025845050010091 1.3219640119318115 0 0 0 0 -13.576778722047436 -0.68784061937736851 0 -0.68784061937736851 5.7110151266221267 0 0 0 0 -41.47950018149308 -10.130295266218386 0 -10.130295266218386 1.28595740494558 0 0 0 0 -43.928178092183686 -7.2477988621035738 0 -7.2477988621035738 2.6728572779583679 0 0 0 0 -56.838518116717751 -5.558450659828253 0 -5.558450659828253 3.9983149734885188 0 0 0 0 -37.361971094269393 -52.593732906968285 0 -52.593732906968285 37.660570218977796 0 0 0 0 -10.031150419857621 -0.016773668237036077 0 -0.016773668237036077 12.301673037189884 0 0 0 0 -37.460567866924976 -8.696467350199157 0 -8.696467350199157 3.3160353620340572 0 0 0 0 -67.32974883823772 -11.13038253669788 0 -11.13038253669788 41.72989099854567 0 0 0 0 -43.298919773471425 -11.442350839913217 0 -11.442350839913217 15.559922743427109 0 0 0 0 -14.124796132291522 -46.262888942212157 0 -46.262888942212157 25.047406849869276 0 0 0 0 -57.344163236222812 -6.9129759824131725 0 -6.9129759824131725 2.2008546188874334 0 0 0 0 -107.84702516361358 13.950801021405596 0 13.950801021405596 26.227084129111972 0 0 0 0 -126.40956823077158 -62.26137008752562 0 -62.26137008752562 79.878383078656952 0 0 0 0 -24.123480311522144 -30.71641897369409 0 -30.71641897369409 -66.879246679712651 0 0 0 0 -1.5325756990744139 1.8148506485306015 0 1.8148506485306015 11.856354548600272 0 0 0 0 -22.093020196531143 25.777711756251733 0 25.777711756251733 -0.17899490420313668 0 0 0 0 -31.513519141390134 -7.6123839958275994 0 -7.6123839958275994 2.8358691810954326 0 0 0 0 -1.2609950344563856 1.1966990727363722 0 1.1966990727363722 2.5690728635257782 0 0 0 0 -141.27169712413797 -57.202592228728463 0 -57.202592228728463 -24.382318717612179 0 0 0 0 -94.08666746874519 -47.011290277374449 0 -47.011290277374449 -30.863386371480829 0 0 0 0 -156.96065077838284 -11.932555338409429 0 -11.932555338409429 -43.894572576670498 0 0 0 0 -0.34460277442278198 -0.21576811127393825 0 -0.21576811127393825 2.2629347648923837 0 0 0 0 -94.579744307673536 -57.954815448827503 0 -57.954815448827503 -57.90503795953839 0 0 0 0 -45.935175549733685 -70.606876003027537 0 -70.606876003027537 -54.881093833430668 0 0 0 0 -16.834173144763554 5.587829223000881 0 5.587829223000881 30.420473774175207 0 0 0 0 -24.667350258067017 -9.4135046309031623 0 -9.4135046309031623 3.0681661148014427 0 0 0 0 -9.0079987242848034 -3.4407664130263029 0 -3.4407664130263029 4.1605326293780429 0 0 0 0 -84.888103997105645 -47.213965931128541 0 -47.213965931128541 6.2537762731444673 0 0 0 0 -77.563225647019863 -59.261189347568234 0 -59.261189347568234 -8.0090025793360837 0 0 0 0 -41.858188261703617 -6.1436217348050377 0 -6.1436217348050377 5.9006516369415749 0 0 0 0 -61.652150018097018 -32.342672724592376 0 -32.342672724592376 0.34908248987699153 0 0 0 0 -77.699606165653677 -20.406201585017698 0 -20.406201585017698 29.215885313675699 0 0 0 0 -45.326905098938369 -88.424814654959619 0 -88.424814654959619 -3.0055108265896706 0 0 0 0 -82.559079301863676 -42.733451609675285 0 -42.733451609675285 0.47469503040883865 0 0 0 0 -82.657789607226732 -57.143308682891075 0 -57.143308682891075 52.633268793293155 0 0 0 0 -34.021083428844577 -15.882614518834998 0 -15.882614518834998 12.063814271985393 0 0 0 0 -32.060552014243513 -2.1828932298365089 0 -2.1828932298365089 2.4085339318226033 0 0 0 0 -26.119705163808248 -8.7803425491802045 0 -8.7803425491802045 19.783721607660482 0 0 0 0 -27.132447211337421 -11.076979024782986 0 -11.076979024782986 15.155407111524255 0 0 0 0 -22.153663466466242 -9.0138146203389624 0 -9.0138146203389624 9.4680865694454042 0 0 0 0 -33.236817417491693 -17.008926344165047 0 -17.008926344165047 20.822580484846867 0 0 0 0 -9.6123895075074515 -12.459896607235081 0 -12.459896607235081 5.7551255344492915 0 0 0 0 -42.376407566329362 -7.5328296654788574 0 -7.5328296654788574 15.434050818716059 0 0 0 0 -39.261184452287125 -14.654027401837993 0 -14.654027401837993 17.556719515603618 0 0 0 0 -23.476635113074735 -12.220310403669828 0 -12.220310403669828 8.530388065052648 0 0 0 0 -33.298265608609654 -11.250364743583305 0 -11.250364743583305 19.223293253236079 0 0 0 0 -24.826344535464159 -10.312997679587625 0 -10.312997679587625 15.334851521654855 0 0 0 0 -27.917510708053797 -10.08679548498208 0 -10.08679548498208 -1.36721966015776 0 0 0 0 -8.8362553373699484 -45.163505310899154 0 -45.163505310899154 25.738377348595805 0 0 0 0 -16.480475020551239 -8.9407462707285958 0 -8.9407462707285958 -16.065647304095819 0 0 0 0 -15.137010422586172 -7.6055394730235548 0 -7.6055394730235548 -16.435237699038225 0 0 0 0 39.916211723053493 -47.435249187872842 0 -47.435249187872842 -24.050415805424564 0 0 0 0 1.0131682813735097 20.880310860860874 0 20.880310860860874 -43.831545607856242 0 0 0 0 3.2732026437674904 -26.897343485835265 0 -26.897343485835265 -5.9583608253924467 0 0 0 0 62.574611261146856 -1.8332148715628591 0 -1.8332148715628591 -61.731562271375878 0 0 0 0 -7.7619560948987782 -26.751195862957502 0 -26.751195862957502 -1.8730201755754479 0 0 0 0 -15.450878563857849 -2.5770902943173946 0 -2.5770902943173946 4.5089812470730033 0 0 0 0 -30.191716746761813 -1.8634735468667714 0 -1.8634735468667714 19.254950884836035 0 0 0 0 -19.390555314355879 -8.8191781772688955 0 -8.8191781772688955 1.4716559569787933 0 0 0 0 -33.075603432778735 -10.418007042366298 0 -10.418007042366298 7.5779849771497538 0 0 0 0 -29.610333998952498 -11.684538077916969 0 -11.684538077916969 6.5962200380649385 0 0 0 0 -17.64505081037538 -3.40166729429518 0 -3.40166729429518 4.3782038042614406 0 0 0 0 -53.206108150396176 -27.447512253020818 0 -27.447512253020818 -10.292750652974405 0 0 0 0 -56.359574414083909 -20.796287378842294 0 -20.796287378842294 -17.185541983013536 0 0 0 0 -30.579789807635002 -7.6318718423052356 0 -7.6318718423052356 2.5562731426538665 0 0 0 0 -22.078861384592088 -14.803467311167715 0 -14.803467311167715 -1.1117311444100917 0 0 0 0 -49.846305981927799 -16.279082632184497 0 -16.279082632184497 -8.4663956406463967 0 0 0 0 -44.759515002650005 -21.587659013507846 0 -21.587659013507846 -20.121794069630369 0 0 0 0 -44.252029138830039 -20.688054941051433 0 -20.688054941051433 -18.646916809414506 0 0 0 0 -46.493967639258699 -25.166949457527494 0 -25.166949457527494 -15.613080692295512 0 0 0 0 -45.749321532272006 -24.539207661768842 0 -24.539207661768842 -23.212709510354898 0 0 0 0 -4.2262778856173213 -3.0538500564560422 0 -3.0538500564560422 -2.1893404631256268 0 0 0 0 -33.291217847840016 -39.47936535404915 0 -39.47936535404915 -11.027135340312952 0 0 0 0 -47.683398925073561 -17.845885170106612 0 -17.845885170106612 -41.426694261941975 0 0 0 0 -43.542728307780635 -19.887921144258826 0 -19.887921144258826 -31.77487048545936 0 0 0 0 -43.357677076215623 -21.168925711513111 0 -21.168925711513111 -28.554811555232845 0 0 0 0 -44.664091182833999 19.347020370127019 0 19.347020370127019 11.151489767434668 0 0 0 0 -98.086186936925515 -3.0712748242975749 0 -3.0712748242975749 24.300414998855558 0 0 0 0 -11.680025325202944 0.087087396877919332 0 0.087087396877919332 1.1291434423622277 0 0 0 0 -70.679342095725588 5.3139438260886891 0 5.3139438260886891 7.8411210946060237 0 0 0 0 -50.772724774211142 -11.331460777820698 0 -11.331460777820698 -0.169626491536226 0 0 0 0 -42.003495072924125 -21.542210829864644 0 -21.542210829864644 6.1859491237555631 0 0 0 0 -73.656983254033548 -24.33374110685736 0 -24.33374110685736 5.9849169954304671 0 0 0 0 -61.738734766629932 -35.353717771838092 0 -35.353717771838092 11.141655972945955 0 0 0 0 -39.759836138826358 -12.868651713752797 0 -12.868651713752797 -3.2279021499221017 0 0 0 0 -54.706018453114666 -24.71874732487413 0 -24.71874732487413 1.5168590678676992 0 0 0 0 -66.424463938034023 -36.154741718431524 0 -36.154741718431524 6.208229390627821 0 0 0 0 -48.922801846449147 -34.152877432001333 0 -34.152877432001333 -19.103267092575607 0 0 0 0 -33.794357300093907 -3.5265267388922439 0 -3.5265267388922439 8.9366992037030286 0 0 0 0 -36.572790898011675 -16.156664145425182 0 -16.156664145425182 1.660270306939676 0 0 0 0 -27.5563950890174 -18.574066456037542 0 -18.574066456037542 -2.4392341371551201 0 0 0 0 -6.078844675590517 -12.465560127267963 0 -12.465560127267963 7.2869199608685449 0 0 0 0 -29.943668756380944 -20.735332231873336 0 -20.735332231873336 -0.20456645125958062 0 0 0 0 -23.013248768853316 -16.730405506782439 0 -16.730405506782439 2.3106361916951785 0 0 0 0 -41.868226266684957 -15.012888242945252 0 -15.012888242945252 -3.3213255150458663 0 0 0 0 -45.624065680789499 -7.206486618990084 0 -7.206486618990084 -5.7228454835030789 0 0 0 0 -19.361197895153314 -16.788127837058589 0 -16.788127837058589 -6.3531601592758093 0 0 0 0 -58.541290990691778 -20.819687476484262 0 -20.819687476484262 -10.100664646910559 0 0 0 0 -50.880600138356385 -17.599393019845365 0 -17.599393019845365 -3.4654893664036308 0 0 0 0 -66.699528385610392 -10.571823733680162 0 -10.571823733680162 -0.17242195287053619 0 0 0 0 -55.078161538012864 -6.2830586006770659 0 -6.2830586006770659 0.000521319406288967 0 0 0 0 -39.759460343462706 -9.6938046225635333 0 -9.6938046225635333 -12.333331203783928 0 0 0 0 -53.277250668827037 -7.4547796105765656 0 -7.4547796105765656 -5.7230447468271706 0 0 0 0 -7.9342410803276699 -15.642224598522066 0 -15.642224598522066 -3.6685936472138487 0 0 0 0 -40.918516875317437 -10.404927502419525 0 -10.404927502419525 -5.4325675559850879 0 0 0 0 -41.100957716978883 -5.388726834236877 0 -5.388726834236877 0.5923928603223203 0 0 0 0 -38.420176325216744 -4.9140065089212612 0 -4.9140065089212612 0.25493062687445445 0 0 0 0 -29.05946789050904 -17.637212168033869 0 -17.637212168033869 -4.7512646211614538 0 0 0 0 -41.71003094812113 -7.1553557609462928 0 -7.1553557609462928 5.5983367553103562 0 0 0 0 -54.149299016600708 0.2380974123667059 0 0.2380974123667059 2.4213351666356289 0 0 0 0 -53.86678327221307 -4.0744638570777738 0 -4.0744638570777738 -2.1314153468033226 0 0 0 0 -13.692775649233244 -14.108260882980424 0 -14.108260882980424 0.27896058421217251 0 0 0 0 -32.472974996835546 -17.723822599927644 0 -17.723822599927644 -16.099973746389878 0 0 0 0 -42.91639963509806 -13.466175735688694 0 -13.466175735688694 -8.9005097022902646 0 0 0 0 -43.940799435337112 -13.320396262886852 0 -13.320396262886852 -15.442054795224067 0 0 0 0 -43.773218816073495 -15.814782432756601 0 -15.814782432756601 -12.706879646536208 0 0 0 0 -44.417307658667596 -21.277078240188921 0 -21.277078240188921 -17.095992569750933 0 0 0 0 -30.912378830496891 -19.421472178186491 0 -19.421472178186491 -26.615948391194479 0 0 0 0 -56.406948681685208 -50.72568968237249 0 -50.72568968237249 -27.51779487574413 0 0 0 0 -46.136844331984321 -28.994693466865272 0 -28.994693466865272 -32.196785648284958 0 0 0 0 -64.858695558585168 -14.395796268622803 0 -14.395796268622803 -18.814707319585068 0 0 0 0 -54.950517721554206 -18.052182426033369 0 -18.052182426033369 -17.472861129122293 0 0 0 0 -46.187397415051237 -9.6869656562646469 0 -9.6869656562646469 -25.138256753041333 0 0 0 0 -57.846020217755722 -5.1128508981033747 0 -5.1128508981033747 -26.932817754079224 0 0 0 0 -45.294701754552079 -11.279181368792024 0 -11.279181368792024 -36.533339458326736 0 0 0 0 -42.645328769824118 -13.437621909016798 0 -13.437621909016798 -26.109496803119555 0 0 0 0 -44.799219620977965 -14.433798889444915 0 -14.433798889444915 -23.727537515634594 0 0 0 0 -48.064438033325132 -8.126621353913265 0 -8.126621353913265 -18.845092877387515 0 0 0 0 -43.482868521145065 -11.414055191930856 0 -11.414055191930856 -16.917398491228596 0 0 0 0 -45.695182953048061 -7.38005159460306 0 -7.38005159460306 -10.140719237785561 0 0 0 0 -44.432819589717838 -10.060676854943949 0 -10.060676854943949 -7.0035052835200986 0 0 0 0 -42.703621624285006 -4.853079243435559 0 -4.853079243435559 -7.3758825887131252 0 0 0 0 -45.420796372746736 -8.6710411147251136 0 -8.6710411147251136 -8.4285460089224671 0 0 0 0 -42.651475512252013 -10.71977118334131 0 -10.71977118334131 -19.007987622959035 0 0 0 0 -42.774867150856153 -11.778558990696695 0 -11.778558990696695 -17.450093796934198 0 0 0 0 -43.378647481909866 -8.0560193865151177 0 -8.0560193865151177 -6.563072593162758 0 0 0 0 -41.85138688150937 -8.7721102888082214 0 -8.7721102888082214 -6.2387076712814178 0 0 0 0 -42.281967853934475 -5.4584794268597534 0 -5.4584794268597534 0.58989735823416822 0 0 0 0 -42.167067870061146 -3.3853622794016474 0 -3.3853622794016474 -0.93430057881778339 0 0 0 0 -43.229205927998919 -3.3419524961655043 0 -3.3419524961655043 9.2578199704828421 0 0 0 0 -41.774614641357402 -3.4905329686555717 0 -3.4905329686555717 4.0777452060094674 0 0 0 0 -41.3313086189155 -3.4578905455985023 0 -3.4578905455985023 0.76403844470814875 0 0 0 0 -43.981242749490775 -5.7230439973452008 0 -5.7230439973452008 1.0815751935379012 0 0 0 0 -41.533379488195351 -6.5690796178720348 0 -6.5690796178720348 -5.8778807151520596 0 0 0 0 -38.218167319217173 -7.0727231891864903 0 -7.0727231891864903 -5.9774000218480978 0 0 0 0 -43.051034650448855 -6.4841817014661842 0 -6.4841817014661842 -0.60722425223229948 0 0 0 0 -35.672304052946856 -4.5823110041364998 0 -4.5823110041364998 -0.74036923337527583 0 0 0 0 -30.365082664935471 -9.4430620174491651 0 -9.4430620174491651 -3.2730912868908035 0 0 0 0 -36.515726936884676 -8.4084004062992221 0 -8.4084004062992221 0.45663141711906974 0 0 0 0 -40.083765365214276 -11.030870133345445 0 -11.030870133345445 -3.3486565955442984 0 0 0 0 -31.797489647527982 -12.497120618861345 0 -12.497120618861345 -8.9175913904544366 0 0 0 0 -23.622468327242132 -4.0448201615540427 0 -4.0448201615540427 -0.009847940600138827 0 0 0 0 -27.599111652867578 -6.8934096795725281 0 -6.8934096795725281 0.55917756185559142 0 0 0 0 -20.521180378700592 -11.154157586546944 0 -11.154157586546944 -0.7395510001731509 0 0 0 0 -29.88148647502021 -10.562576119561697 0 -10.562576119561697 0.54589937074888439 0 0 0 0 -31.981839483320073 0.52466208284579352 0 0.52466208284579352 5.0174450667329324 0 0 0 0 -33.306981245350471 -4.7888488414176891 0 -4.7888488414176891 1.5441859050641824 0 0 0 0 -20.971704822230095 6.0391079375416439 0 6.0391079375416439 1.4628706602429133 0 0 0 0 -23.657421122195956 -3.655154582804812 0 -3.655154582804812 -0.58546737444817154 0 0 0 0 -19.71647925819525 13.097755051013593 0 13.097755051013593 -9.9252930645056949 0 0 0 0 -27.491870052141167 30.7605411283389 0 30.7605411283389 -31.21010685333772 0 0 0 0 -40.592457503682681 7.7871088261481702 0 7.7871088261481702 19.540207873820009 0 0 0 0 -40.777724373965611 5.5530222181557178 0 5.5530222181557178 2.9554694982546152 0 0 0 0 -48.782436660665553 -2.2930340209738915 0 -2.2930340209738915 9.065298402274891 0 0 0 0 -46.832434559939429 -9.1270589236607407 0 -9.1270589236607407 30.89071357054263 0 0 0 0 -70.309096611734276 1.3057622580903399 0 1.3057622580903399 31.566016442000546 0 0 0 0 -36.06168418283778 48.372005055505156 0 48.372005055505156 28.86090947053259 0 0 0 0 -39.691873332239993 86.175064913027711 0 86.175064913027711 -64.001030615252034 0 0 0 0 -58.97640296650934 14.775780610326819 0 14.775780610326819 23.78718236687223 0 0 0 0 -1.7634734930258489 0.66180901457565255 0 0.66180901457565255 -0.13248150863302843 0 0 0 0 -6.7086180739133852 27.766021188747743 0 27.766021188747743 -74.397642765176329 0 0 0 0 -71.923308862860722 3.6502764557155842 0 3.6502764557155842 -48.6064472078574 0 0 0 0 109.16524473686513 -102.99070034664214 0 -102.99070034664214 -63.091524461336348 0 0 0 0 -2.3574202643603712 -6.9201088957792365 0 -6.9201088957792365 -13.224524064713478 0 0 0 0 -7.0492425506017753 6.7676777135395696 0 6.7676777135395696 -24.432279329389303 0 0 0 0 -17.930051361528967 -6.2242491050319018 0 -6.2242491050319018 5.424883020127254 0 0 0 0 -18.290083572785079 -7.2696576321037583 0 -7.2696576321037583 8.5204864314595454 0 0 0 0 -7.1491423459571237 -0.41284266407108028 0 -0.41284266407108028 -2.3730807141811372 0 0 0 0 -13.78890351690643 -11.512948220592534 0 -11.512948220592534 5.9806889618432706 0 0 0 0 -15.300950166940311 -7.3157503453882669 0 -7.3157503453882669 -1.827700490916186 0 0 0 0 -44.32488315122103 3.0837615040927044 0 3.0837615040927044 5.8252934487237269 0 0 0 0 -82.426683492863958 -1.4878343580253386 0 -1.4878343580253386 15.284454384238984 0 0 0 0 -89.772457969754214 8.0864518959490397 0 8.0864518959490397 -29.848583099762436 0 0 0 0 -38.67059828319907 26.85780636806021 0 26.85780636806021 0.52966313726619774 0 0 0 0 -11.700624651935632 10.395557132119322 0 10.395557132119322 11.433655169932917 0 0 0 0 66.130175380545552 -22.888436930299775 0 -22.888436930299775 27.99883908534116 0 0 0 0 0.96571308225570363 0.9727001443731389 0 0.9727001443731389 -0.66846721534431719 0 0 0 0 -78.570587230164165 -14.028832910111305 0 -14.028832910111305 11.769202835776923 0 0 0 0 0.13739099708618596 -98.193483430034235 0 -98.193483430034235 -15.414009135999834 0 0 0 0 -0.48405224623496679 -1.9729259869366658 0 -1.9729259869366658 0.53552661640136412 0 0 0 0 -45.899315116384969 -34.750264885967908 0 -34.750264885967908 -16.693513516876919 0 0 0 0 -61.048539465900831 -25.284663610621919 0 -25.284663610621919 28.724450063221639 0 0 0 0 -45.940278806949209 -12.453328667649203 0 -12.453328667649203 3.6903284259520319 0 0 0 0 -229.82800572106498 -131.34624857660481 0 -131.34624857660481 143.27962746453315 0 0 0 0 -69.145176745762001 -15.319193541283028 0 -15.319193541283028 103.3461006690161 0 0 0 0 -84.657914388466452 151.08611726030119 0 151.08611726030119 77.642239806048593 0 0 0 0 -63.521488018814125 -2.5139339107774958 0 -2.5139339107774958 172.04942888629557 0 0 0 0 -25.309116766741177 0.8392490384198581 0 0.8392490384198581 6.6198852980216465 0 0 0 0 -182.94035567576066 34.972219105068461 0 34.972219105068461 -49.651303789996746 0 0 0 0 -11.406582982707732 -23.099609362969431 0 -23.099609362969431 47.819900566828096 0 0 0 0 -16.007486584441722 -16.432487536558028 0 -16.432487536558028 38.970297003643395 0 0 0 0 -3.4749462420106045 -0.61275752432961283 0 -0.61275752432961283 -1.4639768759091307 0 0 0 0 -182.0686468581489 26.847395386614039 0 26.847395386614039 62.381730788092682 0 0 0 0 -99.355168010461057 -12.998770686145917 0 -12.998770686145917 -63.521374289168193 0 0 0 0 -51.803941340317579 -8.7932128593702146 0 -8.7932128593702146 43.72355918219057 0 0 0 0 -110.19691830857028 20.372571430989865 0 20.372571430989865 54.412654253287201 0 0 0 0 -135.16934981592749 -37.001108975646503 0 -37.001108975646503 -24.853668390156145 0 0 0 0 -60.738317722130887 0.9625578706898068 0 0.9625578706898068 -4.9666886197669555 0 0 0 0 -97.638654099486757 -7.517298728822027 0 -7.517298728822027 -0.86686820840895962 0 0 0 0 -6.258873846125443 0.80621805821779624 0 0.80621805821779624 3.1283123773943524 0 0 0 0 -65.239996282871289 6.4222266397352996 0 6.4222266397352996 7.0315889134044482 0 0 0 0 -7.3487868689855063 -0.276491266409014 0 -0.276491266409014 0.51481767799288303 0 0 0 0 -60.722496398783278 10.997619037860204 0 10.997619037860204 9.9390342756996688 0 0 0 0 -55.983151136124434 1.8553359439683845 0 1.8553359439683845 16.608017798243054 0 0 0 0 -37.20026729332676 10.549334942706082 0 10.549334942706082 5.9739170374823516 0 0 0 0 -38.264080964978348 -13.27264516455125 0 -13.27264516455125 -7.1859982634960033 0 0 0 0 -60.70902490737717 -0.23828867464135328 0 -0.23828867464135328 11.67620125322901 0 0 0 0 -56.068424311964918 6.9340310967181722 0 6.9340310967181722 9.9328281702710228 0 0 0 0 -58.825356011051554 2.4106399624807864 0 2.4106399624807864 5.5338353015013126 0 0 0 0 -56.701248444793237 5.7956023640716694 0 5.7956023640716694 -0.23749641862377757 0 0 0 0 -57.765204768351396 6.3965177646603024 0 6.3965177646603024 4.4476407056639005 0 0 0 0 -56.232547243042063 16.415722392901216 0 16.415722392901216 15.299816438947119 0 0 0 0 -54.820024826685767 11.463988973217965 0 11.463988973217965 -8.2452924447989062 0 0 0 0 -62.955333472382335 6.1880982314141875 0 6.1880982314141875 -0.25869765459492555 0 0 0 0 -69.2592255168056 -1.9801688134052711 0 -1.9801688134052711 7.4856712250402779 0 0 0 0 -101.27596540404738 -6.5149253318170395 0 -6.5149253318170395 12.9323779921192 0 0 0 0 -78.853190083817026 19.446014372080072 0 19.446014372080072 22.279900759105885 0 0 0 0 -79.432984194078927 -40.538911091841669 0 -40.538911091841669 -1.157908530133227 0 0 0 0 -55.12181733124271 -15.492936559326381 0 -15.492936559326381 -11.371635284647368 0 0 0 0 -43.837933127407268 3.1770479350706182 0 3.1770479350706182 16.714758295575393 0 0 0 0 -62.799533626754055 -3.6867909944726307 0 -3.6867909944726307 13.175061500649463 0 0 0 0 -55.617015128111234 0.26190249369665253 0 0.26190249369665253 6.9734055544213334 0 0 0 0 -51.378360482322023 -7.7588924044071064 0 -7.7588924044071064 14.580445895338016 0 0 0 0 -56.132458290927389 -10.549074409083687 0 -10.549074409083687 12.972399662325643 0 0 0 0 -53.978754145613493 -16.281983515790216 0 -16.281983515790216 25.339436540467204 0 0 0 0 -48.416993705490313 -14.333782516067615 0 -14.333782516067615 14.241825083075014 0 0 0 0 -73.841076321899891 -119.56751063845581 0 -119.56751063845581 -13.151664770464322 0 0 0 0 3.205353563768071 -5.8818568073061179 0 -5.8818568073061179 -1.7818199279661158 0 0 0 0 -52.873263604062146 -9.0213994100864809 0 -9.0213994100864809 4.5967418836663612 0 0 0 0 -76.376851945009548 19.799067962235085 0 19.799067962235085 -70.358969530772356 0 0 0 0 -45.768344492872906 -4.445377222659916 0 -4.445377222659916 8.7400788884670462 0 0 0 0 -46.168179778018384 -4.3072701650959573 0 -4.3072701650959573 18.807240879592854 0 0 0 0 -44.449886380620228 -3.4190600763856338 0 -3.4190600763856338 4.4464854460128436 0 0 0 0 -41.290974045652547 -13.659125472811041 0 -13.659125472811041 1.7273484646902943 0 0 0 0 -69.611365486631257 -14.948035193397999 0 -14.948035193397999 6.5419316003593622 0 0 0 0 -49.760526046800805 -10.943516063853863 0 -10.943516063853863 -2.6310594499845479 0 0 0 0 -64.056681976922846 -5.9806593051541768 0 -5.9806593051541768 0.79352284346759916 0 0 0 0 -103.72334445121669 -8.5984394966221629 0 -8.5984394966221629 1.6377797291814282 0 0 0 0 -12.861842436263164 -8.646271174393398 0 -8.646271174393398 2.3844929312594592 0 0 0 0 -103.7315914001374 -9.0827235931712096 0 -9.0827235931712096 -2.4000225478334869 0 0 0 0 -13.629050232960953 0.11510127313520968 0 0.11510127313520968 -1.6150444399328148 0 0 0 0 -35.827605487589608 -8.6840444650729296 0 -8.6840444650729296 1.4329797632017289 0 0 0 0 -32.891011125949902 -15.454398601302142 0 -15.454398601302142 -2.3191097665449254 0 0 0 0 -34.045455962569939 1.5289456991281831 0 1.5289456991281831 7.1660268900301691 0 0 0 0 -38.555210491118878 0.71600068207667711 0 0.71600068207667711 5.7724471018547536 0 0 0 0 -60.432179024290235 -8.4307361344954757 0 -8.4307361344954757 2.1828104018049999 0 0 0 0 -47.364469934376302 3.523605789683188 0 3.523605789683188 12.728144946063367 0 0 0 0 -45.268142268005072 0.88360118347335437 0 0.88360118347335437 8.7813286019056029 0 0 0 0 -56.006531953800732 6.7680930458823241 0 6.7680930458823241 19.209154942389432 0 0 0 0 -672.60840143147834 110.77628368766122 0 110.77628368766122 92.952005482184873 0 0 0 0 -10.231504953909887 7.8020290715995522 0 7.8020290715995522 -3.9463613954678349 0 0 0 0 -505.51300490883295 104.55782884664619 0 104.55782884664619 82.28152105715634 0 0 0 0 -717.65965639929163 -97.335741108278128 0 -97.335741108278128 110.42628407903504 0 0 0 0 -555.47880197461382 -88.657494649210221 0 -88.657494649210221 105.73697415702124 0 0 0 0 -4.905673609212009 3.0008706700761785 0 3.0008706700761785 -1.9074264810603652 0 0 0 0 -1498.9823951689259 -528.42709473558648 0 -528.42709473558648 -8.999075760254696 0 0 0 0 71.14340137731233 184.07597292467435 0 184.07597292467435 136.78301137925041 0 0 0 0 -152.48225607447421 97.030310232119177 0 97.030310232119177 126.18790210125647 0 0 0 0 -47.357570330706949 45.853816053274386 0 45.853816053274386 79.880979787100728 0 0 0 0 -67.715331406739097 6.8357270820821441 0 6.8357270820821441 95.19834991970265 0 0 0 0 -25.164043113265507 32.360168282060613 0 32.360168282060613 106.6950883238606 0 0 0 0 -51.861856523204551 35.077433401197226 0 35.077433401197226 105.73450327437854 0 0 0 0 2.4077202206089403 4.1752983878308001 0 4.1752983878308001 -0.95568248409123169 0 0 0 0 -11.149659040328981 9.033803654013532 0 9.033803654013532 -4.5747577095965841 0 0 0 0 -1.5434459445914399 56.798609767743528 0 56.798609767743528 112.27320108033263 0 0 0 0 39.883140531744175 20.002187481505501 0 20.002187481505501 -9.2020958708794183 0 0 0 0 -9.0554348707630652 1.4575167190194871 0 1.4575167190194871 0.13098330480087217 0 0 0 0 -31.632550814946626 20.829796059587323 0 20.829796059587323 128.68506336741052 0 0 0 0 -74.086386717342975 -22.050978968384015 0 -22.050978968384015 31.44073743824282 0 0 0 0 -20.500588874820096 62.304046573337928 0 62.304046573337928 -24.860451211161489 0 0 0 0 -0.72485528554486933 1.184578186938797 0 1.184578186938797 -2.3629373719006375 0 0 0 0 6.3886796896758824 -51.829778310259201 0 -51.829778310259201 -42.451696274752976 0 0 0 0 10.225365905997023 17.728471150201329 0 17.728471150201329 -30.242111627955353 0 0 0 0 16.138728666719544 109.17915750083603 0 109.17915750083603 83.077016048790597 0 0 0 0 -29.699390808344106 -2.290506704695531 0 -2.290506704695531 26.581597125247526 0 0 0 0 -0.47908509731564664 2.272861552304239 0 2.272861552304239 0.040465728852451643 0 0 0 0 -247.8197073777319 -6.8320511319581527 0 -6.8320511319581527 -167.8897556045647 0 0 0 0 -13.858547181643758 3.543732667052959 0 3.543732667052959 -1.559176150252364 0 0 0 0 -6.9176448364887619 22.523615826662763 0 22.523615826662763 8.1778132423770558 0 0 0 0 -427.65614668409762 -4.1765701609920711 0 -4.1765701609920711 88.385520374472378 0 0 0 0 58.452518761119791 104.7574294115409 0 104.7574294115409 -156.95112330041468 0 0 0 0 -259.04954036124582 -60.841520865249862 0 -60.841520865249862 -67.525815926188685 0 0 0 0 -1497.8106709336125 248.10321088340015 0 248.10321088340015 227.91219786236792 0 0 0 0 -787.30821900085448 600.64688418766889 0 600.64688418766889 -212.31420183842633 0 0 0 0 -2.7402129235463519 0.46632614137853556 0 0.46632614137853556 -1.2625222335631896 0 0 0 0 -1485.5502093831383 5.1556480273120684 0 5.1556480273120684 -1.9469132958258499 0 0 0 0 -2.1855232016875128 0.84535190474335264 0 0.84535190474335264 -1.3680112259338606 0 0 0 0 169.88828589717741 270.08607116948292 0 270.08607116948292 -607.38666876204923 0 0 0 0 -267.38126926163386 -654.54596012218292 0 -654.54596012218292 -620.52663404666805 0 0 0 0 -835.53403750354073 236.18531363104208 0 236.18531363104208 312.84907833400382 0 0 0 0 -1494.061538958967 -230.85259056827024 0 -230.85259056827024 287.22815045180539 0 0 0 0 163.96456531979493 -52.790554098131395 0 -52.790554098131395 -223.29333262170809 0 0 0 0 -7.6011669092250118 -1.7832544069999188 0 -1.7832544069999188 0.20762804517113193 0 0 0 0 -68.156225281512889 105.03807705955651 0 105.03807705955651 29.134055228019008 0 0 0 0 -1496.9595340746973 -406.67725736021771 0 -406.67725736021771 226.52594203508573 0 0 0 0 -4.5677733453163096 -1.4103607806428187 0 -1.4103607806428187 0.0098576086959430223 0 0 0 0 -450.34284440449164 -642.93350656115035 0 -642.93350656115035 -244.82604606234923 0 0 0 0 -706.79567413490099 -131.38266210496857 0 -131.38266210496857 238.13622287456209 0 0 0 0 -706.68104789155404 -81.52466170043455 0 -81.52466170043455 -14.189093371660135 0 0 0 0 -260.4146389479929 -128.95545247653683 0 -128.95545247653683 -101.05665382134339 0 0 0 0 -333.67008445698957 80.791151605191544 0 80.791151605191544 -24.439472720172716 0 0 0 0 -833.91546882924536 99.340544347758325 0 99.340544347758325 77.724914465470363 0 0 0 0 -566.81458662229352 16.443526853386487 0 16.443526853386487 -32.337353732900247 0 0 0 0 -358.25906647750361 142.3236010026861 0 142.3236010026861 -29.112600942755932 0 0 0 0 -502.19793764701626 45.573174979490915 0 45.573174979490915 -34.853620928971736 0 0 0 0 -617.77412260811525 209.85419566936412 0 209.85419566936412 -32.920701374180226 0 0 0 0 -1500.5356829416976 28.913529712762358 0 28.913529712762358 246.32120172277644 0 0 0 0 -847.75773643829257 310.0995671124947 0 310.0995671124947 -1.7969611180637983 0 0 0 0 -10.519744858417198 18.35376424833305 0 18.35376424833305 34.253175558258249 0 0 0 0 -26.333740184476483 0.68361404215318089 0 0.68361404215318089 16.970192464475758 0 0 0 0 -18.718397499192179 -10.916466300977163 0 -10.916466300977163 53.929821057909351 0 0 0 0 -4.1500457420002022 23.710553472799873 0 23.710553472799873 15.392460037338424 0 0 0 0 -1.8212731457123503 1.1561354473435521 0 1.1561354473435521 1.0270515799312532 0 0 0 0 7.6954416582484555 11.295889698047233 0 11.295889698047233 3.3843440361356443 0 0 0 0 -14.700274314899616 -10.307203385388902 0 -10.307203385388902 1.8637282926624721 0 0 0 0 -12.295150779324434 0.99473790569298126 0 0.99473790569298126 -0.42006436437215366 0 0 0 0 -1.662643478096844 -0.66014680727215413 0 -0.66014680727215413 0.58307017317053711 0 0 0 0 -59.770421033578714 2.6642635490152884 0 2.6642635490152884 3.8124356225709448 0 0 0 0 -4.3852654032584315 -1.3318125868496518 0 -1.3318125868496518 0.51833405503843655 0 0 0 0 -29.802322298134527 13.23191184944249 0 13.23191184944249 -55.42220205724044 0 0 0 0 -16.1213582167385 14.159728295324824 0 14.159728295324824 15.997819680258999 0 0 0 0 -31.368794918907724 -1.7946031039551826 0 -1.7946031039551826 -1.2864786259391394 0 0 0 0 -47.113612197052589 11.166409881518319 0 11.166409881518319 -4.7892905485046526 0 0 0 0 -200.96043579089678 133.03098878251933 0 133.03098878251933 -95.333311132013137 0 0 0 0 -344.89296788661471 72.975281107012961 0 72.975281107012961 21.700371684072593 0 0 0 0 -28.961164539015044 32.415351468710043 0 32.415351468710043 5.0952420108127114 0 0 0 0 -46.218082150562282 12.638199200244642 0 12.638199200244642 -10.884445854264868 0 0 0 0 -0.10337665736553303 -0.11285166397827329 0 -0.11285166397827329 -0.84920199782784445 0 0 0 0 -318.968607840564 48.019777362814892 0 48.019777362814892 -153.70697482393518 0 0 0 0 -58.516344680897873 134.35900853184552 0 134.35900853184552 -133.30880322949565 0 0 0 0 -32.821565139000541 84.910851416205162 0 84.910851416205162 -132.59480013731286 0 0 0 0 -19.920105193369636 4.0429163146100535 0 4.0429163146100535 -69.957474894824131 0 0 0 0 -25.984804191370131 37.498537249312307 0 37.498537249312307 -9.1512645941784712 0 0 0 0 -19.411997693070532 2.7269163127788225 0 2.7269163127788225 -8.8057632389890159 0 0 0 0 -24.933141221299252 49.800624354340997 0 49.800624354340997 -6.3537842602659964 0 0 0 0 -47.306038917231035 33.060787560275713 0 33.060787560275713 -14.641568445474633 0 0 0 0 -181.51034685620311 170.09060254358468 0 170.09060254358468 90.314208313710523 0 0 0 0 -93.776521800355567 156.8207040074447 0 156.8207040074447 81.591157259265003 0 0 0 0 -153.68731592074073 84.464553579662379 0 84.464553579662379 0.99697400930574176 0 0 0 0 -84.44383231622669 145.00738219051328 0 145.00738219051328 -74.008773053655759 0 0 0 0 -278.66356822491662 107.51474618881414 0 107.51474618881414 69.569946876557822 0 0 0 0 -224.53626850669275 -22.413726118763428 0 -22.413726118763428 388.48752445761772 0 0 0 0 -179.13971196061652 94.988740111748555 0 94.988740111748555 23.359460904390296 0 0 0 0 97.733253612827411 99.658689336708136 0 99.658689336708136 15.880598257739571 0 0 0 0 -25.650561200065905 7.6832476438497661 0 7.6832476438497661 -2.0826294596252644 0 0 0 0 -95.589282920047026 -110.33258319978302 0 -110.33258319978302 174.56842955198459 0 0 0 0 -30.419774013167626 -120.07088635776093 0 -120.07088635776093 -53.504551129231317 0 0 0 0 274.76709885719265 -154.18699602629079 0 -154.18699602629079 -191.27485553485766 0 0 0 0 -3.0018747241664423 -0.69429367583653601 0 -0.69429367583653601 -0.052369580898832667 0 0 0 0 219.90277813208741 154.19389241823319 0 154.19389241823319 -317.60465092976938 0 0 0 0 -162.36442986523525 -243.76077217507918 0 -243.76077217507918 101.58079649459023 0 0 0 0 -33.663430860563523 9.621861978408031 0 9.621861978408031 -2.4239056831818653 0 0 0 0 -486.55596152096632 230.20078981932767 0 230.20078981932767 0.85003317854273064 0 0 0 0 -178.54920813871286 76.136896007290261 0 76.136896007290261 251.2175983092751 0 0 0 0 29.865145210937044 48.223767112177711 0 48.223767112177711 17.814306551737566 0 0 0 0 -43.885279793468726 -0.40970991386097921 0 -0.40970991386097921 0.74580767707948326 0 0 0 0 -34.405592131846788 -36.139439943013713 0 -36.139439943013713 63.831638589508657 0 0 0 0 -17.761921620638077 25.792062494825657 0 25.792062494825657 15.202128142043804 0 0 0 0 -33.920197837506095 10.89832876389643 0 10.89832876389643 -1.6008460606152788 0 0 0 0 35.437553343215882 50.691622046067721 0 50.691622046067721 24.132151136862262 0 0 0 0 -112.37607770376508 -105.25189951997049 0 -105.25189951997049 49.894503523192228 0 0 0 0 -301.5463818053654 -8.5551834517406071 0 -8.5551834517406071 81.551274514917225 0 0 0 0 107.8570261519485 -42.091928259091475 0 -42.091928259091475 -11.112040940722295 0 0 0 0 -35.663404408109272 -28.894595608644892 0 -28.894595608644892 -3.9433405276365505 0 0 0 0 -48.697261451206032 -1.3642487778331933 0 -1.3642487778331933 2.2325572403547511 0 0 0 0 -117.04269619612239 -17.684885107502531 0 -17.684885107502531 81.925146278124203 0 0 0 0 -40.81059864364704 -9.2789020422366004 0 -9.2789020422366004 4.6284213795541262 0 0 0 0 -11.090007437202814 -18.6975353843135 0 -18.6975353843135 6.0092085268445317 0 0 0 0 -26.438124338634225 -5.3153054785746363 0 -5.3153054785746363 -0.93786334424606643 0 0 0 0 -25.715707929578841 -18.074483413028457 0 -18.074483413028457 -2.0413308897309754 0 0 0 0 21.054876993456674 -14.876180830912094 0 -14.876180830912094 -6.2749932475391379 0 0 0 0 -13.69660265970424 15.363324280333558 0 15.363324280333558 -1.0042300370837083 0 0 0 0 -6.1340796678450715 12.026532454036655 0 12.026532454036655 -4.296044256658945 0 0 0 0 25.528914877357238 26.440348107558464 0 26.440348107558464 1.9098099697603672 0 0 0 0 -8.6354678810216683 -7.3449544999342606 0 -7.3449544999342606 4.0078900632436216 0 0 0 0 -9.956373808347962 9.1880339575992593 0 9.1880339575992593 -6.4437544650913594 0 0 0 0 -11.550517692790436 -0.18149650455507071 0 -0.18149650455507071 10.360426888581003 0 0 0 0 -17.386079153624905 13.757896392474919 0 13.757896392474919 -4.1189055462407396 0 0 0 0 -2.8989754433409169 2.3233816332436135 0 2.3233816332436135 6.6350629466007431 0 0 0 0 -3.1082838400375863 0.90036869206083203 0 0.90036869206083203 2.4237127161677505 0 0 0 0 -46.132386381153538 2.4924557594852672 0 2.4924557594852672 6.8448162592138253 0 0 0 0 -25.108339756739042 21.996692503355803 0 21.996692503355803 2.9477454040427347 0 0 0 0 -12.266807201218398 9.4465734120918228 0 9.4465734120918228 3.226599801085456 0 0 0 0 -28.275558658468071 -1.8986013424830048 0 -1.8986013424830048 38.50506727736348 0 0 0 0 -29.07894067955408 -9.6734274673080307 0 -9.6734274673080307 2.528791697866609 0 0 0 0 -36.135390356665084 -2.6561671086322463 0 -2.6561671086322463 3.340248451855814 0 0 0 0 -22.98961918772045 2.813873051551866 0 2.813873051551866 13.097222236874586 0 0 0 0 -5.5209443639094022 6.9127119824380854 0 6.9127119824380854 6.9044455135515923 0 0 0 0 -19.759065499987628 5.5034462748290025 0 5.5034462748290025 14.334497508580171 0 0 0 0 -13.058132761761954 -1.1454006674089214 0 -1.1454006674089214 12.743338645555923 0 0 0 0 -13.917692971255747 5.3478193499722693 0 5.3478193499722693 0.20733193709133957 0 0 0 0 -4.2782337534773163 -0.38890837743995554 0 -0.38890837743995554 0.11742446833633835 0 0 0 0 -22.537977070590841 3.0719322561277522 0 3.0719322561277522 8.0137724211787145 0 0 0 0 -13.785500835981026 17.295646225045456 0 17.295646225045456 5.2624465781858945 0 0 0 0 -6.1450081456652725 0.66605609771977603 0 0.66605609771977603 6.6597346076589519 0 0 0 0 -30.265739893154205 13.949658077500629 0 13.949658077500629 10.584318845317782 0 0 0 0 -13.136124637311216 5.113771710236664 0 5.113771710236664 6.8960010154118212 0 0 0 0 -17.529575548501271 8.8934548257971073 0 8.8934548257971073 11.52774095720315 0 0 0 0 -23.940279405452202 2.6923940862207019 0 2.6923940862207019 14.945560150053097 0 0 0 0 -4.3468705608290925 5.3546537292585334 0 5.3546537292585334 1.1347534148339402 0 0 0 0 -12.023657787343836 4.4171960985099759 0 4.4171960985099759 -1.0537257851627544 0 0 0 0 -15.000648714998754 7.2865840724245121 0 7.2865840724245121 4.8272246631661142 0 0 0 0 -14.903374894850913 4.4686073657589755 0 4.4686073657589755 3.1488962841635728 0 0 0 0 -18.903086416451515 4.9244872316786541 0 4.9244872316786541 6.1239942255490405 0 0 0 0 -5.1325805769346449 -2.514282223355039 0 -2.514282223355039 5.2331460804220553 0 0 0 0 -18.086254755248774 1.6129828450723664 0 1.6129828450723664 8.7474618243899158 0 0 0 0 -8.9970760449815046 2.2265816775202918 0 2.2265816775202918 0.60070862573350237 0 0 0 0 -68.958086851096596 87.726815003743809 0 87.726815003743809 277.15604135371223 0 0 0 0 -11.541440736927782 3.2479846962162906 0 3.2479846962162906 0.58689144513930613 0 0 0 0 -14.597065055048461 10.299528027611998 0 10.299528027611998 5.04561162886489 0 0 0 0 -162.90699572390076 73.514405616912541 0 73.514405616912541 275.22557779920407 0 0 0 0 59.634992232382501 93.038594453078758 0 93.038594453078758 36.484116827099569 0 0 0 0 -36.298679589806852 14.818282322778032 0 14.818282322778032 27.479167980749025 0 0 0 0 -218.11384795457474 113.25770095274957 0 113.25770095274957 -19.700072816208603 0 0 0 0 34.248654264774814 30.409097925098422 0 30.409097925098422 -235.19483675743726 0 0 0 0 -14.623594112650608 -18.152812144550126 0 -18.152812144550126 -54.463452430321155 0 0 0 0 -2.4929042306284828 66.1441792095344 0 66.1441792095344 112.38911648151225 0 0 0 0 83.118343565860414 71.755394625476583 0 71.755394625476583 -82.552795533143581 0 0 0 0 13.292689749799138 169.72731830484673 0 169.72731830484673 189.38915905786712 0 0 0 0 191.35738027020489 176.36205594959949 0 176.36205594959949 79.864195481229217 0 0 0 0 -35.555010962463712 146.80046156705293 0 146.80046156705293 61.289429053950926 0 0 0 0 47.942045259747829 74.383809019335445 0 74.383809019335445 120.80317815683748 0 0 0 0 -14.571186299808687 -80.414024595858336 0 -80.414024595858336 -65.390391286386944 0 0 0 0 -6.9006373168799655 10.142460187566854 0 10.142460187566854 -36.849823084587342 0 0 0 0 -1.6062022331566581 0.96013862578569942 0 0.96013862578569942 -0.33075839915985172 0 0 0 0 -1.0274408112767581 -0.55034490709654449 0 -0.55034490709654449 0.71245875945051829 0 0 0 0 -28.852140100454562 150.90570250742735 0 150.90570250742735 16.988075169220508 0 0 0 0 -131.46734366702003 81.624917718344477 0 81.624917718344477 -35.898276369265716 0 0 0 0 -21.909192616720702 48.415439315261182 0 48.415439315261182 -151.09315806921086 0 0 0 0 -167.55708578352278 -36.326653237373421 0 -36.326653237373421 20.666830642785854 0 0 0 0 -78.883431256594122 -61.122937346292304 0 -61.122937346292304 -69.230630158581675 0 0 0 0 -123.2352574804504 80.618839690582831 0 80.618839690582831 -33.508787829224275 0 0 0 0 28.650293565577158 137.98335538387693 0 137.98335538387693 -102.67592003213889 0 0 0 0 -6.5438850907373904 0.07000169230928055 0 0.07000169230928055 0.6963804733953074 0 0 0 0 175.48896615120611 79.163981182920338 0 79.163981182920338 -48.539153242148586 0 0 0 0 -16.907333167309844 137.12838503870142 0 137.12838503870142 -57.798192497592183 0 0 0 0 -48.638217881492437 -35.203036765965521 0 -35.203036765965521 219.6084548211245 0 0 0 0 0.64282629796616675 36.081693325503977 0 36.081693325503977 73.856113621780125 0 0 0 0 -4.1140837835691855 5.3158094709557702 0 5.3158094709557702 76.684812963206696 0 0 0 0 -65.015165310873272 33.555803292242601 0 33.555803292242601 4.7144990444679706 0 0 0 0 -43.252350843387831 -18.696650461082868 0 -18.696650461082868 66.09200339540098 0 0 0 0 -65.326772615651862 -71.764384875267908 0 -71.764384875267908 -0.56200231837686943 0 0 0 0 -94.127601384941954 -55.308033732712431 0 -55.308033732712431 52.069180777574083 0 0 0 0 -222.05055490039194 -151.1048257359578 0 -151.1048257359578 30.003066855123507 0 0 0 0 -250.61396584799513 -160.51830584709938 0 -160.51830584709938 70.55468404805751 0 0 0 0 -222.65617211701647 -153.04573999953647 0 -153.04573999953647 45.011886265311261 0 0 0 0 -531.54454873768191 -167.35489240182682 0 -167.35489240182682 88.544379226452065 0 0 0 0 -415.95577999852264 -12.064369356379668 0 -12.064369356379668 -185.64888703028942 0 0 0 0 64.535364566339922 -111.79193464231139 0 -111.79193464231139 4.6454483796357806 0 0 0 0 -2.5807576448652156 0.053790194193430452 0 0.053790194193430452 0.13618831843496504 0 0 0 0 -152.36322367538378 -221.3667011775816 0 -221.3667011775816 43.580482739604633 0 0 0 0 -1.0968358576600394 -1.1278047534678239 0 -1.1278047534678239 -0.5157076414812809 0 0 0 0 34.969799218248227 -153.62839959896496 0 -153.62839959896496 -73.55329386977985 0 0 0 0 81.608015200100454 125.87536970372298 0 125.87536970372298 386.28961308373664 0 0 0 0 21.662856516979446 -17.317933990185452 0 -17.317933990185452 94.925814674495541 0 0 0 0 -411.89267118364052 -139.9575004861974 0 -139.9575004861974 -142.58434329450699 0 0 0 0 -347.92501060018913 38.793443374701951 0 38.793443374701951 -30.509899359308406 0 0 0 0 237.86563828034468 -158.07913412922477 0 -158.07913412922477 -463.1821478178972 0 0 0 0 -0.70141458864013018 -1.6006041074122983 0 -1.6006041074122983 -3.4299291087761947 0 0 0 0 -305.16535659574583 -98.655585761374994 0 -98.655585761374994 30.947844362757337 0 0 0 0 -155.25358554925333 -35.519958284356093 0 -35.519958284356093 -10.379327191066494 0 0 0 0 38.339903954803958 -78.01261995021332 0 -78.01261995021332 92.171465121684605 0 0 0 0 -1.3495479059455775 -3.9810524195194006 0 -3.9810524195194006 -7.8298732691523849 0 0 0 0 -7.8068682455377711 -32.792791713016413 0 -32.792791713016413 113.14335985551998 0 0 0 0 -109.84944720962994 -109.72870152150176 0 -109.72870152150176 208.13693525505869 0 0 0 0 -6.5351265177487221 -54.6337574646343 0 -54.6337574646343 97.108794245456465 0 0 0 0 -3.0361178342403434 -1.6311982701556031 0 -1.6311982701556031 -0.41538315820207217 0 0 0 0 -32.440785203707492 -25.848298560124704 0 -25.848298560124704 63.836658542532177 0 0 0 0 44.82217410895646 -160.43210602626795 0 -160.43210602626795 -129.71326219639468 0 0 0 0 8.5631299090910034 -160.38572748808815 0 -160.38572748808815 -129.2004986004938 0 0 0 0 -90.978603056791144 -123.15678740976819 0 -123.15678740976819 -97.820804071672455 0 0 0 0 -183.11186425481037 -82.684307519554238 0 -82.684307519554238 -112.48548028490723 0 0 0 0 -58.345790056715487 -100.26055036585097 0 -100.26055036585097 -201.66000139667045 0 0 0 0 -78.706212141567448 -238.1072720565945 0 -238.1072720565945 -192.7652356371234 0 0 0 0 55.111341872261619 -222.54192275315427 0 -222.54192275315427 -186.74979145628288 0 0 0 0 -36.344185522273619 -235.69740985757005 0 -235.69740985757005 -164.82659999316229 0 0 0 0 -55.903909417505929 -169.51948044364622 0 -169.51948044364622 14.380147307347784 0 0 0 0 199.15355794790048 -176.52802922040109 0 -176.52802922040109 -218.10283438571446 0 0 0 0 -5.5692107567319908 -300.13520056388921 0 -300.13520056388921 -268.21955529363277 0 0 0 0 -676.80071104772651 -275.18267834484152 0 -275.18267834484152 -107.06147816283715 0 0 0 0 -214.34112702813999 -152.32035448881643 0 -152.32035448881643 -382.18642015085607 0 0 0 0 -303.47609675300191 3.3176777056221454 0 3.3176777056221454 38.765341450238111 0 0 0 0 -270.36977571580792 -333.58919083145832 0 -333.58919083145832 -102.05586848963981 0 0 0 0 -36.59364859280322 -29.264449352336442 0 -29.264449352336442 41.109659080746837 0 0 0 0 11.598485210454783 39.620638249533329 0 39.620638249533329 48.701659779362643 0 0 0 0 -9.0677387397008715 84.386944121720717 0 84.386944121720717 205.53024896145166 0 0 0 0 22.730171197115851 -83.757515005877963 0 -83.757515005877963 369.68016377483946 0 0 0 0 -65.341969624760168 -187.08377701639606 0 -187.08377701639606 34.361510539326218 0 0 0 0 -2.8681069896721603 1.6603498754010708 0 1.6603498754010708 0.24477037275743774 0 0 0 0 -36.134933334062225 -2.7544534017349136 0 -2.7544534017349136 136.40896888873951 0 0 0 0 23.1485898205392 -58.026458907664733 0 -58.026458907664733 -107.79811994836837 0 0 0 0 -24.858141304443052 -125.07168782293792 0 -125.07168782293792 -13.884701068777417 0 0 0 0 9.2448511548645911 6.848216251713211 0 6.848216251713211 -32.933815007367457 0 0 0 0 -10.076367570361157 3.7661977337878261 0 3.7661977337878261 -0.65379328371873968 0 0 0 0 -33.975542956721256 32.881751097283427 0 32.881751097283427 -0.82544360815120399 0 0 0 0 -12.746888176299763 27.273981894659073 0 27.273981894659073 11.537913549921115 0 0 0 0 -18.041847069365758 12.944962780302035 0 12.944962780302035 8.1185975744394909 0 0 0 0 -12.962467783359898 5.807242391539603 0 5.807242391539603 -9.4946826684376902 0 0 0 0 4.5149144961396814 26.734881157416794 0 26.734881157416794 -10.454609753451891 0 0 0 0 -19.749741193336956 7.7432148497596867 0 7.7432148497596867 -1.6441327814544189 0 0 0 0 -27.174145152803703 11.744766357641197 0 11.744766357641197 28.407388828377862 0 0 0 0 -46.836615966051795 2.610822084472602 0 2.610822084472602 24.805916309143413 0 0 0 0 -20.847100556937221 25.407041822813881 0 25.407041822813881 35.637374428661133 0 0 0 0 -17.273063675977745 6.7771880265787505 0 6.7771880265787505 -2.7130507699959567 0 0 0 0 -21.185218264352443 60.022395928511514 0 60.022395928511514 60.412342413766396 0 0 0 0 2.1917184151203628 -2.2490476833408835 0 -2.2490476833408835 25.713853987888115 0 0 0 0 12.141736939250222 25.412410777561263 0 25.412410777561263 -30.821821772933617 0 0 0 0 -22.477133541260628 37.787845625451382 0 37.787845625451382 5.7494797000363178 0 0 0 0 49.832742242137101 64.975024832533563 0 64.975024832533563 -26.260890466163801 0 0 0 0 -24.230154374340373 68.835775662418371 0 68.835775662418371 -21.35085347488166 0 0 0 0 56.092780075013707 28.540532979767931 0 28.540532979767931 -33.844648657639482 0 0 0 0 38.307484028663566 57.702603708980178 0 57.702603708980178 -16.843847425267086 0 0 0 0 -24.716409327695601 135.41647763436958 0 135.41647763436958 -1.1931952098884722 0 0 0 0 81.513638337615021 143.13857396734159 0 143.13857396734159 -2.5865067102940884 0 0 0 0 -160.04411354191507 3.5687804104718452 0 3.5687804104718452 -206.69350682042204 0 0 0 0 -12.251267554907827 -4.1344683812117182 0 -4.1344683812117182 16.586456637069205 0 0 0 0 -0.043351659870976889 0.05426265473620262 0 0.05426265473620262 0.14498473521793542 0 0 0 0 -17.81419587317032 0.73643770888065774 0 0.73643770888065774 22.61209544976964 0 0 0 0 -139.83150147647484 108.3401622417432 0 108.3401622417432 35.230855784467167 0 0 0 0 -26.647176866536029 60.08999109490469 0 60.08999109490469 36.585968847636565 0 0 0 0 -9.6915500652153241 -22.507539674053078 0 -22.507539674053078 -51.236852238906067 0 0 0 0 -14.275805142998742 4.7867030325873126 0 4.7867030325873126 -1.4825062479355444 0 0 0 0 -83.925029704530971 156.36055076407388 0 156.36055076407388 145.94665080815901 0 0 0 0 23.630194335786655 33.212590093722611 0 33.212590093722611 -28.60006793575144 0 0 0 0 -15.45926449568924 -22.342656557018017 0 -22.342656557018017 -37.590057360418882 0 0 0 0 -5.0168442063579732 25.449476298435798 0 25.449476298435798 -13.294140850484837 0 0 0 0 22.850197386269429 7.056063250085117 0 7.056063250085117 -19.112021206876776 0 0 0 0 80.266576982421611 50.664690708027422 0 50.664690708027422 -54.186494730078607 0 0 0 0 -64.197651137132198 -51.989786012296577 0 -51.989786012296577 57.758822990477938 0 0 0 0 -52.549632237286005 8.3210736120488207 0 8.3210736120488207 -294.40505058717997 0 0 0 0 -7.564089090762792 1.9920271346461647 0 1.9920271346461647 -0.64181320757435156 0 0 0 0 15.097069000802094 -30.837112670281186 0 -30.837112670281186 -76.817638649682863 0 0 0 0 -98.961896279779467 27.206688631418274 0 27.206688631418274 14.805691182350472 0 0 0 0 16.84365326535044 -74.334412011723089 0 -74.334412011723089 -149.96751397122625 0 0 0 0 -26.99131478088384 -147.8187247613709 0 -147.8187247613709 -131.40408850738368 0 0 0 0 -165.44401991507175 -262.24783444283059 0 -262.24783444283059 -345.38286590478788 0 0 0 0 22.279585689107989 -332.68305211980078 0 -332.68305211980078 30.860740097505641 0 0 0 0 -247.61746175603548 -386.27446975461748 0 -386.27446975461748 20.22936456077889 0 0 0 0 -4.2103190666120724 -2.3454221781737505 0 -2.3454221781737505 -1.4545857947302356 0 0 0 0 -449.08103617348206 -189.7687016942333 0 -189.7687016942333 -249.71650543583326 0 0 0 0 -503.76125276006678 -288.43622244134986 0 -288.43622244134986 -17.108042208182113 0 0 0 0 -409.69947017832487 -370.42203815182029 0 -370.42203815182029 -131.4264352014651 0 0 0 0 -533.94383194666716 -232.81943207674911 0 -232.81943207674911 -63.070405688752302 0 0 0 0 -3.6077811942804878 -0.079932772115045125 0 -0.079932772115045125 0.21732864359043513 0 0 0 0 26.658100019385529 -30.675382682433394 0 -30.675382682433394 -230.99338945313525 0 0 0 0 14.866060029633445 182.5718997648471 0 182.5718997648471 -129.15910761988107 0 0 0 0 -461.04919545716621 -184.76031223848167 0 -184.76031223848167 -40.740863772795251 0 0 0 0 -497.23883090152867 -315.12939159092105 0 -315.12939159092105 -83.842318825088569 0 0 0 0 -467.64513701401484 -176.79122685384277 0 -176.79122685384277 -210.35117525794112 0 0 0 0 -595.87446980812274 -292.32155496770622 0 -292.32155496770622 -33.637550020727758 0 0 0 0 -543.48797282948726 -325.27503154079773 0 -325.27503154079773 -27.047872029209884 0 0 0 0 -448.38889027837649 -364.52956054225524 0 -364.52956054225524 -57.931594711340949 0 0 0 0 -6.6219870621805619 1.2027597698495782 0 1.2027597698495782 -0.38626268039298717 0 0 0 0 -271.18772346039805 1.6571572109552335 0 1.6571572109552335 -125.95240221183968 0 0 0 0 -131.55728286969111 -168.22469804556306 0 -168.22469804556306 -278.34955497160672 0 0 0 0 -262.95175529239168 -220.72175955474137 0 -220.72175955474137 -94.909407742176086 0 0 0 0 -640.35818263254714 -76.664957877645179 0 -76.664957877645179 -135.03439119056202 0 0 0 0 -478.28978858918754 -198.51331790362599 0 -198.51331790362599 12.88188388378785 0 0 0 0 -69.567709461503455 -89.667338057463553 0 -89.667338057463553 -111.57643562645842 0 0 0 0 35.605552067969256 52.219858986948623 0 52.219858986948623 13.576063524721121 0 0 0 0 -79.390315403734348 41.004185918101712 0 41.004185918101712 221.62626829759841 0 0 0 0 -164.77453494428437 -267.29756632673866 0 -267.29756632673866 -1.5572942745612295 0 0 0 0 -2.1831871805039356 -1.4252140294059614 0 -1.4252140294059614 -0.77355094381292999 0 0 0 0 -360.00164155614038 138.98760401314215 0 138.98760401314215 -201.33363517690736 0 0 0 0 10.914223595400472 39.328533209109992 0 39.328533209109992 -174.75810600201112 0 0 0 0 -207.1559182028135 81.338057314407976 0 81.338057314407976 -32.945181061880703 0 0 0 0 8.7222654960205546 76.181507585243708 0 76.181507585243708 -46.900130494836162 0 0 0 0 -40.481647809485366 84.210144233447863 0 84.210144233447863 110.90625797103894 0 0 0 0 51.587016224897525 -12.138510351398054 0 -12.138510351398054 0.61875696600759511 0 0 0 0 150.4100210377328 74.61820544528382 0 74.61820544528382 61.291192084602699 0 0 0 0 -55.44001300794298 102.15984815667343 0 102.15984815667343 -64.210157791701477 0 0 0 0 -60.634643191627219 30.616664200719811 0 30.616664200719811 -55.673210149047236 0 0 0 0 -34.387191851576517 37.681164780489951 0 37.681164780489951 72.847739132882907 0 0 0 0 -31.797874210164082 51.882566112770746 0 51.882566112770746 -31.923406872361738 0 0 0 0 -20.216069919608344 76.619737600807184 0 76.619737600807184 -9.6965070160476898 0 0 0 0 -1.4807441754237516 19.967614503650111 0 19.967614503650111 38.708034644194811 0 0 0 0 -46.870100254212048 56.999486825511667 0 56.999486825511667 45.817718208276347 0 0 0 0 -13.57268452747121 34.838222850323746 0 34.838222850323746 67.737038155384198 0 0 0 0 8.9064439900657817 -31.458170331180327 0 -31.458170331180327 131.05756673965334 0 0 0 0 -10.924145309098094 -27.55862196194721 0 -27.55862196194721 148.55162234360796 0 0 0 0 34.626036712892528 -61.712178725474587 0 -61.712178725474587 120.75831109211867 0 0 0 0 51.965315423874017 -102.90137964858798 0 -102.90137964858798 169.12109770902862 0 0 0 0 -19.053160596573434 18.192444935362005 0 18.192444935362005 97.004191772271042 0 0 0 0 55.400181333581713 -45.483904374626945 0 -45.483904374626945 90.201692157266336 0 0 0 0 9.5193075355327892 -13.348949465666919 0 -13.348949465666919 82.373778990724531 0 0 0 0 96.439320899564336 -44.336007216342296 0 -44.336007216342296 83.735626880537566 0 0 0 0 1.7540676193784748 46.28318539614429 0 46.28318539614429 28.230894080347753 0 0 0 0 1.1275722006403157 -4.8092139618333931 0 -4.8092139618333931 84.383116378161503 0 0 0 0 99.693091363964413 -117.76236279482282 0 -117.76236279482282 116.22184607845156 0 0 0 0 121.85216430472065 -88.570310775298822 0 -88.570310775298822 83.972372908171565 0 0 0 0 -180.98188908451084 128.64579623597683 0 128.64579623597683 -76.639052658581136 0 0 0 0 -1.1837498478882686 -0.54899640788744897 0 -0.54899640788744897 -0.45522143265322779 0 0 0 0 0.98553049172090823 -43.677208593857465 0 -43.677208593857465 -28.22610554961193 0 0 0 0 -188.56296507676961 111.08264780600666 0 111.08264780600666 -45.122465529367901 0 0 0 0 -208.4334625065203 128.28704873046581 0 128.28704873046581 -53.97389094348182 0 0 0 0 -122.17006549159851 118.21929223040797 0 118.21929223040797 -88.713189572251849 0 0 0 0 -202.80173141539854 104.64440160377239 0 104.64440160377239 -87.645922668531966 0 0 0 0 -9.786703225596284 -109.41020795553595 0 -109.41020795553595 295.43362499326213 0 0 0 0 -82.499407681949378 -50.516736730683078 0 -50.516736730683078 -11.227530471302089 0 0 0 0 -10.358838704439588 -4.8710238507883608 0 -4.8710238507883608 -1.4829708348652701 0 0 0 0 32.990119748010329 -140.77066299037233 0 -140.77066299037233 204.45355357849076 0 0 0 0 -36.298068614192744 -36.528181383881929 0 -36.528181383881929 278.06459432995189 0 0 0 0 -3.9201803074215604 -53.58371164970913 0 -53.58371164970913 161.82076915536709 0 0 0 0 2.7329470754193608 16.55718617007301 0 16.55718617007301 106.29075348079868 0 0 0 0 -28.538346248726157 3.9880014602963456 0 3.9880014602963456 204.50006625008882 0 0 0 0 -14.06615101238458 27.509575306333318 0 27.509575306333318 382.82308051662039 0 0 0 0 96.628498645524814 121.32700269286397 0 121.32700269286397 277.70615025911775 0 0 0 0 -17.455416114918989 -22.113559805760815 0 -22.113559805760815 210.89146152195372 0 0 0 0 24.580408782654558 16.409258971714053 0 16.409258971714053 140.29759558055594 0 0 0 0 -10.091132477311476 59.549896520439688 0 59.549896520439688 238.80025926758685 0 0 0 0 157.00672179910907 100.88229956453324 0 100.88229956453324 121.19839803570085 0 0 0 0 -412.23139902729054 329.98458138971068 0 329.98458138971068 -247.04999546174417 0 0 0 0 -106.454321439458 190.42778522163235 0 190.42778522163235 -184.60776992958381 0 0 0 0 39.76070605410132 103.15765394269192 0 103.15765394269192 -299.121513781256 0 0 0 0 -659.11207507901509 137.36410537028632 0 137.36410537028632 -65.903429278831027 0 0 0 0 -536.14478796324147 -253.03373516439444 0 -253.03373516439444 -135.81649759801599 0 0 0 0 -232.39056491235715 42.589448340835588 0 42.589448340835588 -45.000707870412157 0 0 0 0 -254.97331651779677 40.758791629042094 0 40.758791629042094 12.42808774678042 0 0 0 0 -312.3246659968172 147.20356814004481 0 147.20356814004481 -23.357021489816361 0 0 0 0 -199.28377503474985 85.027099873198495 0 85.027099873198495 -204.65941767522463 0 0 0 0 -201.17409537333151 133.43551185033266 0 133.43551185033266 -83.757068718999108 0 0 0 0 -215.23991426167413 188.42306649053126 0 188.42306649053126 -182.57296133427394 0 0 0 0 -218.09371027041288 109.6795933582124 0 109.6795933582124 -53.424905485901036 0 0 0 0 -229.39824717022384 133.30779866850821 0 133.30779866850821 -27.985229587770618 0 0 0 0 -244.25587345229224 77.527750552991364 0 77.527750552991364 34.025558195124177 0 0 0 0 -29.402392840433095 -74.203212192576302 0 -74.203212192576302 64.418854128140197 0 0 0 0 -124.02631511484105 107.85380161930448 0 107.85380161930448 32.741655610957196 0 0 0 0 -280.25795542467677 59.366960203769622 0 59.366960203769622 114.40581606215255 0 0 0 0 -213.14402763650105 111.50067224324459 0 111.50067224324459 93.772490429681056 0 0 0 0 -1.6855061501885018 -0.79981567693390643 0 -0.79981567693390643 -0.21237469618646276 0 0 0 0 -149.28156367869815 21.536173061914269 0 21.536173061914269 17.898033971597442 0 0 0 0 -237.74724818683717 -10.408730375620507 0 -10.408730375620507 11.623291331920825 0 0 0 0 -55.210081033584629 39.37814527342664 0 39.37814527342664 -25.26157671320334 0 0 0 0 -70.331172051322937 10.519479611791212 0 10.519479611791212 -21.574795757498123 0 0 0 0 -99.718899284007875 54.102500426718791 0 54.102500426718791 -26.920076448752297 0 0 0 0 -138.82352315536991 57.158249353561587 0 57.158249353561587 -25.173055333845696 0 0 0 0 -97.692661218547755 25.284762142384295 0 25.284762142384295 -21.784475361148907 0 0 0 0 -34.783858714435382 11.578538941638243 0 11.578538941638243 -45.247708817671992 0 0 0 0 -39.849336089664348 73.490244279985134 0 73.490244279985134 -64.4632405437942 0 0 0 0 -187.82737890297722 104.93459773755694 0 104.93459773755694 -21.293557453162975 0 0 0 0 -137.56066926096537 82.398997432918804 0 82.398997432918804 -25.185384704046783 0 0 0 0 -220.57794847472542 55.508562068259323 0 55.508562068259323 13.300572247620948 0 0 0 0 -230.0896291371555 81.462798163091747 0 81.462798163091747 42.634836830814038 0 0 0 0 -227.03243464606021 118.78333295560037 0 118.78333295560037 13.716746749928461 0 0 0 0 -173.17051158729464 49.567721699351409 0 49.567721699351409 -4.667959612006257 0 0 0 0 -90.108878102086237 49.755418247540774 0 49.755418247540774 11.076372373328923 0 0 0 0 -89.800818139703551 -5.4406061353472523 0 -5.4406061353472523 19.530218678378787 0 0 0 0 -95.592083293338874 37.744840572641806 0 37.744840572641806 -6.616857611056048 0 0 0 0 -103.40965110614366 1.2584269323800612 0 1.2584269323800612 -55.406854318006481 0 0 0 0 -65.214350711401494 -124.51420838313402 0 -124.51420838313402 22.881189560818939 0 0 0 0 11.741260843226883 -44.27501329138363 0 -44.27501329138363 -0.62564352787512689 0 0 0 0 -87.075369899692305 -55.614807644309906 0 -55.614807644309906 14.787232560154735 0 0 0 0 -200.48213406237119 -69.828507784027124 0 -69.828507784027124 58.253787021578091 0 0 0 0 -92.31009351099533 -44.052566194503811 0 -44.052566194503811 32.877805153076679 0 0 0 0 -100.96452337908431 -37.414351142362648 0 -37.414351142362648 29.515589335209143 0 0 0 0 -87.519004475750307 -19.145655977072579 0 -19.145655977072579 4.5668058509713774 0 0 0 0 -81.441545639968581 -35.498707645868421 0 -35.498707645868421 19.65425006666419 0 0 0 0 -103.69239515547144 -24.540951233050009 0 -24.540951233050009 19.651633831481377 0 0 0 0 -50.020023473745823 -18.228084915369891 0 -18.228084915369891 14.242608481034381 0 0 0 0 -21.876285623226067 42.641193514481074 0 42.641193514481074 9.5502820556632741 0 0 0 0 -45.51090148223193 -4.8972565547564955 0 -4.8972565547564955 18.441093826703934 0 0 0 0 -21.849225252356518 13.670684576680969 0 13.670684576680969 1.8647718461029399 0 0 0 0 -0.62630223725292211 0.56942363494841786 0 0.56942363494841786 0.06538194821521337 0 0 0 0 -101.23484940077469 -57.931440821988417 0 -57.931440821988417 -5.2604576917783561 0 0 0 0 -19.759091025361158 -9.7457062351404602 0 -9.7457062351404602 -35.569673724352469 0 0 0 0 -0.42575768769380318 0.39537219575485949 0 0.39537219575485949 0.15149571605089385 0 0 0 0 -9.2933110241083341 -0.69875976671869466 0 -0.69875976671869466 7.7513445433439756 0 0 0 0 6.6295890487631368 18.145262320696474 0 18.145262320696474 11.100747253604823 0 0 0 0 -37.89375298841469 10.842170927933125 0 10.842170927933125 12.629313200335673 0 0 0 0 78.832201948869624 131.7269295645774 0 131.7269295645774 -1.7852995671381109 0 0 0 0 -38.131420267937862 6.5805053940173011 0 6.5805053940173011 3.225392654137849 0 0 0 0 95.547518820810183 -18.713692554538426 0 -18.713692554538426 -15.471747563731697 0 0 0 0 -35.145843937643804 16.859430188913393 0 16.859430188913393 10.710661830187746 0 0 0 0 -39.10919116729481 4.9626955882965582 0 4.9626955882965582 2.5886690514092816 0 0 0 0 -53.275659932878625 20.042102011109591 0 20.042102011109591 40.594739036823739 0 0 0 0 -37.541541111153492 -6.9772516845723658 0 -6.9772516845723658 -4.1133603254922946 0 0 0 0 -93.410122394943983 -176.73290529634386 0 -176.73290529634386 -174.48670599155776 0 0 0 0 -189.18626698071603 125.5104695274872 0 125.5104695274872 236.07619542677458 0 0 0 0 -38.138247378557523 3.2472993449116458 0 3.2472993449116458 3.1463836517506176 0 0 0 0 -33.856499547448948 11.21590692186254 0 11.21590692186254 33.789597966939255 0 0 0 0 -30.493406879832037 30.396249117224215 0 30.396249117224215 22.742641623070085 0 0 0 0 -189.75279992649303 190.90175700456621 0 190.90175700456621 54.959696579647243 0 0 0 0 -36.831353207420229 6.985524145977724 0 6.985524145977724 3.8515988196322155 0 0 0 0 -36.49982748700495 27.654421316707158 0 27.654421316707158 -30.516100121434647 0 0 0 0 -26.379637042360855 -17.133759925577181 0 -17.133759925577181 -283.08753521308336 0 0 0 0 -73.683045962234246 68.014845037335135 0 68.014845037335135 -53.471162353438103 0 0 0 0 -2.6071834571645951 0.7777216389817152 0 0.7777216389817152 -0.14327441585182132 0 0 0 0 -283.53780196511434 -25.994255251984669 0 -25.994255251984669 6.0444437943933735 0 0 0 0 -68.333623626109329 -130.76462985822764 0 -130.76462985822764 -200.16292293379615 0 0 0 0 -73.728436252633401 -93.101816097277606 0 -93.101816097277606 -142.26173783185232 0 0 0 0 -117.75911629703842 -24.664884733048666 0 -24.664884733048666 17.394837632688962 0 0 0 0 -97.147584520756027 -19.833916642774966 0 -19.833916642774966 0.65874377124555394 0 0 0 0 -111.24104789026842 7.9899030762135226 0 7.9899030762135226 -1.3532024550513597 0 0 0 0 -18.06803730188949 0.35969820430250365 0 0.35969820430250365 -23.057437220209067 0 0 0 0 -37.532081860525068 -2.5489359495018107 0 -2.5489359495018107 -5.8138073452450953 0 0 0 0 -37.616564809221018 12.938840699428283 0 12.938840699428283 -44.227090183242581 0 0 0 0 -23.578108302563123 -14.093133767784821 0 -14.093133767784821 -25.348836316288043 0 0 0 0 -11.101814449538367 -4.7620029116808915 0 -4.7620029116808915 -2.5773825051481012 0 0 0 0 -34.627892870062169 -13.828014959456141 0 -13.828014959456141 -0.82243646009283111 0 0 0 0 -31.234949342891923 -12.697456583169469 0 -12.697456583169469 -16.645713432555567 0 0 0 0 -9.5375655567441449 -3.1382438631266076 0 -3.1382438631266076 -10.643864188815813 0 0 0 0 -13.067719027291787 24.868875753467364 0 24.868875753467364 -3.2012644525134419 0 0 0 0 -80.485456357562725 -39.597244568709357 0 -39.597244568709357 2.9260825257988472 0 0 0 0 -88.779738023580649 -74.613963106857227 0 -74.613963106857227 57.32172597308363 0 0 0 0 -75.391093962956802 -82.426413802675143 0 -82.426413802675143 -75.792993466590588 0 0 0 0 -99.731876117817592 -41.393497277513006 0 -41.393497277513006 90.792687545473314 0 0 0 0 -37.534919968617032 32.915884723122872 0 32.915884723122872 16.586601206319187 0 0 0 0 -65.061389342339126 5.9527337305075889 0 5.9527337305075889 -1.7896921794922918 0 0 0 0 -47.592412901552962 44.289029532457107 0 44.289029532457107 5.1127981175618515 0 0 0 0 -53.316870136285161 24.726230799989736 0 24.726230799989736 8.9964969049631236 0 0 0 0 -23.101769201328352 36.36450576663924 0 36.36450576663924 -14.911888755693781 0 0 0 0 -49.097937870012174 30.914985466478782 0 30.914985466478782 -10.233634695081705 0 0 0 0 51.25576215232104 36.7424014540575 0 36.7424014540575 -45.766600809139732 0 0 0 0 -0.14200868022482815 -4.1120183541285797 0 -4.1120183541285797 -11.465032355793408 0 0 0 0 -49.724429684718643 24.803018977880143 0 24.803018977880143 -65.226200277752696 0 0 0 0 63.434000325972647 -14.823647798107709 0 -14.823647798107709 -82.846956442894623 0 0 0 0 -83.395313257460657 34.02135841797552 0 34.02135841797552 -26.399161583868519 0 0 0 0 -141.52419277748231 -55.357348460229659 0 -55.357348460229659 -1.4373057142099839 0 0 0 0 -1.3558839988887641 -4.3760657144734978 0 -4.3760657144734978 -11.312709049489049 0 0 0 0 -36.941947493374755 -7.9171000328642549 0 -7.9171000328642549 -8.5612985185725847 0 0 0 0 -50.096631114296542 2.1628624241857324 0 2.1628624241857324 -6.2494765610674676 0 0 0 0 -21.131692267855442 -2.6319912260673846 0 -2.6319912260673846 -7.9650171535495247 0 0 0 0 -48.88132196634615 -11.23369942294994 0 -11.23369942294994 1.4995335172877731 0 0 0 0 -22.570037752462667 -33.080309076261983 0 -33.080309076261983 6.8843226121962289 0 0 0 0 11.35594258916899 -21.35457101367524 0 -21.35457101367524 -5.0653265402509646 0 0 0 0 -17.066484572470927 -10.381400665721628 0 -10.381400665721628 56.720454569349386 0 0 0 0 35.819957145769877 -56.778172073534506 0 -56.778172073534506 10.017248287107122 0 0 0 0 -184.29007430984166 -62.725767921875132 0 -62.725767921875132 41.610318488435212 0 0 0 0 15.033284400494722 -78.807277514493933 0 -78.807277514493933 -52.987131314112474 0 0 0 0 -1.3231663172340475 -4.4367109200324855 0 -4.4367109200324855 -9.9586673610653857 0 0 0 0 -24.39099398419512 0.60987161598040984 0 0.60987161598040984 10.036579180716217 0 0 0 0 -216.78231941367994 -185.5036308539473 0 -185.5036308539473 -105.24554014442703 0 0 0 0 -213.15776353061392 -154.40250540935449 0 -154.40250540935449 -44.369519133093604 0 0 0 0 -258.44514576578149 -157.63674581022161 0 -157.63674581022161 44.455453516161725 0 0 0 0 -270.78733039075905 -199.5339120688852 0 -199.5339120688852 -30.842211893988235 0 0 0 0 -50.057016694560843 145.92696340496769 0 145.92696340496769 25.855672000631813 0 0 0 0 21.170209497567612 6.3389179322026337 0 6.3389179322026337 -84.575586782903358 0 0 0 0 -353.80906938845055 -32.073841394783543 0 -32.073841394783543 37.207029260843456 0 0 0 0 -42.592428719615782 -7.5635000538239225 0 -7.5635000538239225 -37.909853878820286 0 0 0 0 -3.5453634456842877 1.25070600694999 0 1.25070600694999 -0.42263686298469505 0 0 0 0 -431.6095079120405 -327.40137731344339 0 -327.40137731344339 -263.4689181445429 0 0 0 0 -222.6653889894983 -206.90643027918995 0 -206.90643027918995 -165.26617265650833 0 0 0 0 -184.67783613649954 -134.1310857993746 0 -134.1310857993746 -160.3814490248368 0 0 0 0 -127.37104273923615 -0.7813231193330239 0 -0.7813231193330239 -120.54355710941681 0 0 0 0 -423.35830683952236 -53.603360052698193 0 -53.603360052698193 -62.502875856951178 0 0 0 0 -148.5347514576988 -21.077554288476151 0 -21.077554288476151 -165.53054400893359 0 0 0 0 -294.02116655029567 -102.9203602704041 0 -102.9203602704041 -72.629551178136239 0 0 0 0 -132.80796486561121 -8.5798782879033126 0 -8.5798782879033126 -22.722918987283947 0 0 0 0 -100.42994888946487 -20.888907102933686 0 -20.888907102933686 -63.273717106271874 0 0 0 0 -128.11742648500058 -13.374990864430742 0 -13.374990864430742 -6.4625675670520195 0 0 0 0 -92.29512214964052 51.795502697549637 0 51.795502697549637 -9.7557561621820241 0 0 0 0 -46.059856321011466 25.729955517231588 0 25.729955517231588 -4.538391810931941 0 0 0 0 -84.516052688563832 28.728076245891998 0 28.728076245891998 89.000071640453825 0 0 0 0 -61.984596937702882 10.375604109187959 0 10.375604109187959 -0.53542166813247105 0 0 0 0 -73.022477590217022 58.09111735194756 0 58.09111735194756 72.329875222042347 0 0 0 0 -42.958648061186977 -2.7865991564738124 0 -2.7865991564738124 -27.57954010761614 0 0 0 0 -93.049914528481168 -0.4062430586973278 0 -0.4062430586973278 -13.271646939631182 0 0 0 0 -86.810276090354023 -82.827076260812049 0 -82.827076260812049 -90.828667024505876 0 0 0 0 -121.70909165690273 -160.36524712042291 0 -160.36524712042291 -170.52754922697602 0 0 0 0 -167.30962725769677 -72.335535337456605 0 -72.335535337456605 -52.004764533729229 0 0 0 0 -189.4982378168279 -170.08975178802774 0 -170.08975178802774 -145.15188035724822 0 0 0 0 -12.491177172147005 4.9532800525183696 0 4.9532800525183696 -0.76959143842439359 0 0 0 0 -173.80654279948021 -118.31318629061616 0 -118.31318629061616 -7.8451811530564441 0 0 0 0 -411.20068058131437 -333.8786735051184 0 -333.8786735051184 -66.082681555830504 0 0 0 0 -61.877032729213624 -169.61154156562844 0 -169.61154156562844 -367.69221090186704 0 0 0 0 -44.330904174910756 -77.575209616735719 0 -77.575209616735719 -118.93454947082421 0 0 0 0 -0.51514612597384257 46.222885052632932 0 46.222885052632932 -131.61885394522176 0 0 0 0 0.42718865617782065 -0.21365292362381894 0 -0.21365292362381894 -4.2694786397456284 0 0 0 0 -67.766173988427909 -43.776738801060674 0 -43.776738801060674 -5.7600713162912598 0 0 0 0 -57.506420930732929 16.128555900267429 0 16.128555900267429 -22.117495609536832 0 0 0 0 -1530.542930972957 -12.63800360931565 0 -12.63800360931565 103.45278395407468 0 0 0 0 -866.71753687514138 -274.83773448901644 0 -274.83773448901644 73.203459489102499 0 0 0 0 -634.90084023355848 -152.06099748533137 0 -152.06099748533137 107.01110884774286 0 0 0 0 -711.96850824120338 4.5966684330601453 0 4.5966684330601453 -193.40261775245122 0 0 0 0 -403.26214919536505 -275.6323124988354 0 -275.6323124988354 -461.56163147343676 0 0 0 0 -169.51404253341025 286.26196180385489 0 286.26196180385489 -248.46999303774862 0 0 0 0 -361.87489302732502 -164.12398649384653 0 -164.12398649384653 -170.86816512817558 0 0 0 0 -475.84024937077356 -309.99225272144491 0 -309.99225272144491 -255.97343142573402 0 0 0 0 -856.48834801453268 244.93960542990897 0 244.93960542990897 -247.69776279359971 0 0 0 0 -1500.9340157790728 -145.90448830079612 0 -145.90448830079612 -716.62462207152612 0 0 0 0 -1765.846502588181 -513.73594433955918 0 -513.73594433955918 -153.20345970524045 0 0 0 0 -1499.5846373790573 -655.95126026538321 0 -655.95126026538321 -78.803331013158726 0 0 0 0 -6.7430488190800872 2.2222434542266036 0 2.2222434542266036 -0.80397262185926144 0 0 0 0 120.99318729482547 -189.10720701188092 0 -189.10720701188092 -544.93347411832701 0 0 0 0 -540.77714533315338 -8.5195796492715488 0 -8.5195796492715488 124.41979077171681 0 0 0 0 -617.31700268851637 -181.69276244549968 0 -181.69276244549968 152.79574291435722 0 0 0 0 -1500.1419833330692 -215.50502614383143 0 -215.50502614383143 252.11296308497722 0 0 0 0 -795.85516685766561 168.16972713646524 0 168.16972713646524 199.0615721999749 0 0 0 0 -92.917774644096426 65.666002440206455 0 65.666002440206455 124.05116531740208 0 0 0 0 -548.67903481775465 -171.81493666448901 0 -171.81493666448901 62.256283351680651 0 0 0 0 -87.787772063757984 55.279378656295705 0 55.279378656295705 -84.938690019657244 0 0 0 0 -9.4256016132732512 3.7963716965631065 0 3.7963716965631065 -0.64618173944987256 0 0 0 0 -283.58189678167219 -11.860633870658759 0 -11.860633870658759 -6.2031847195722847 0 0 0 0 -105.88152204082144 -43.099520223049836 0 -43.099520223049836 19.326920535674972 0 0 0 0 -48.636954801726461 25.300491420205145 0 25.300491420205145 -87.075392292365834 0 0 0 0 -99.727521517261266 56.72121967676528 0 56.72121967676528 -59.705121051287051 0 0 0 0 -150.03047167693421 848.17121667354536 0 848.17121667354536 -474.46305156669973 0 0 0 0 -1496.8154021669573 591.49735021323102 0 591.49735021323102 232.05053579189951 0 0 0 0 -873.04285117826294 197.36701440991038 0 197.36701440991038 204.31469071299514 0 0 0 0 -426.48058901042032 347.69328719284096 0 347.69328719284096 -205.08716617630751 0 0 0 0 -982.85089827498086 534.46582461260323 0 534.46582461260323 -199.40448557218505 0 0 0 0 -1281.4859493281947 467.29883161332714 0 467.29883161332714 -14.174106386608011 0 0 0 0 -1500.0317005622601 570.54619869643909 0 570.54619869643909 -32.462269120620604 0 0 0 0 -1128.8475726665674 419.73491353260471 0 419.73491353260471 -13.427265909017578 0 0 0 0 -1499.6100018649777 294.02058643462033 0 294.02058643462033 101.36547349249545 0 0 0 0 -1088.6422180228619 323.7200212688781 0 323.7200212688781 -102.4661749534028 0 0 0 0 -792.14169077450788 450.30978029282636 0 450.30978029282636 -177.13693589390215 0 0 0 0 -771.71413194154957 367.00247522869176 0 367.00247522869176 -206.41895668022914 0 0 0 0 -584.45943062190781 366.11644500889082 0 366.11644500889082 -242.02878254236666 0 0 0 0 -602.94182312757948 414.54614463539571 0 414.54614463539571 -262.58818503893201 0 0 0 0 -954.85717560488047 450.58991786156776 0 450.58991786156776 -168.50948455861314 0 0 0 0 -569.0964664573512 479.20161225933481 0 479.20161225933481 -288.12526635488257 0 0 0 0 -708.14228420071595 552.52724083859607 0 552.52724083859607 -287.1793383937258 0 0 0 0 -558.60544506772203 383.37486354466614 0 383.37486354466614 -251.69283960061864 0 0 0 0 -273.91856179428578 287.03908259538053 0 287.03908259538053 -301.16852417359161 0 0 0 0 -536.7254477287679 481.30784967535845 0 481.30784967535845 -385.42113781266573 0 0 0 0 -39.256255502106796 232.03411149586373 0 232.03411149586373 -404.84928208183339 0 0 0 0 -271.69850498734741 139.42901045787914 0 139.42901045787914 -102.12675703723244 0 0 0 0 -1039.9416646516947 723.96970125213193 0 723.96970125213193 -317.5521755009662 0 0 0 0 -393.5241056226987 621.29233974759654 0 621.29233974759654 -568.29543228459659 0 0 0 0 -1083.4232446226868 523.25009937974983 0 523.25009937974983 -254.06554412619568 0 0 0 0 -1223.0333641913567 632.18966486500381 0 632.18966486500381 -217.70680391930151 0 0 0 0 -1499.7539285539606 856.65948890181949 0 856.65948890181949 -505.83767569540964 0 0 0 0 -1245.9448800365644 976.36874568766325 0 976.36874568766325 -450.97439984752481 0 0 0 0 -1648.3061155381647 736.90943101691744 0 736.90943101691744 -151.82275752353479 0 0 0 0 -0.30296004253971276 1.940735397117983 0 1.940735397117983 -4.5777721940263252 0 0 0 0 -252.51249627341167 82.622418800208607 0 82.622418800208607 -251.04416679747857 0 0 0 0 -1498.1634005404721 1041.3471459933376 0 1041.3471459933376 -296.44781120711912 0 0 0 0 -490.91572025969072 -787.301645557489 0 -787.301645557489 -646.93889870183057 0 0 0 0 -595.14891287861974 1093.4808213631993 0 1093.4808213631993 -1276.446696918445 0 0 0 0 -7.857941663479167 1.7060996230738397 0 1.7060996230738397 -1.9621531229561644 0 0 0 0 -8.0576751578841321 4.8385790233355621 0 4.8385790233355621 -9.0454726483996453 0 0 0 0 -546.55034108129576 -104.65936963277512 0 -104.65936963277512 35.193340833088143 0 0 0 0 -231.39831244691231 146.99466451547289 0 146.99466451547289 -112.59183122616218 0 0 0 0 -18.476840145449984 4.9117667232372959 0 4.9117667232372959 -4.978499250080441 0 0 0 0 -145.81107737980528 -39.286237940021124 0 -39.286237940021124 -188.52061855852867 0 0 0 0 -1497.2803601293735 -392.79742424517377 0 -392.79742424517377 90.378371228507575 0 0 0 0 -6.9574169006676838 0.4314146080205532 0 0.4314146080205532 -9.8749882186205635 0 0 0 0 -37.803899765662209 -15.947452196415043 0 -15.947452196415043 18.720504062237069 0 0 0 0 162.41208273803841 162.44118059245721 0 162.44118059245721 72.745652018355486 0 0 0 0 -40.960377287612786 7.1040155381421339 0 7.1040155381421339 -2.3455126025731148 0 0 0 0 -52.988614596237312 152.96277515167094 0 152.96277515167094 165.73843966629784 0 0 0 0 15.72515881495201 56.943785056208924 0 56.943785056208924 169.55220580787 0 0 0 0 -106.7656746304894 39.538565105780172 0 39.538565105780172 10.224845906121573 0 0 0 0 -104.13056749078896 229.71263955237782 0 229.71263955237782 65.139570191019061 0 0 0 0 494.82530831603526 142.38917974414505 0 142.38917974414505 -349.18270346911936 0 0 0 0 -161.66982612442371 138.76517305087236 0 138.76517305087236 -105.21325319129767 0 0 0 0 -246.12038638682134 97.591011362821405 0 97.591011362821405 -97.793757179767795 0 0 0 0 -149.86159917555051 14.884325411549526 0 14.884325411549526 -46.062652410270857 0 0 0 0 -229.20961374950275 7.8676620998785438 0 7.8676620998785438 -27.658725743795458 0 0 0 0 -214.48023689147522 -4.6079582956308514 0 -4.6079582956308514 -61.976037154300229 0 0 0 0 -137.29886672906287 -33.047757548073719 0 -33.047757548073719 -15.404462858653005 0 0 0 0 -118.92243692587726 -27.032400765956936 0 -27.032400765956936 87.659204811363907 0 0 0 0 -181.26343028496922 -40.002783523482776 0 -40.002783523482776 20.124582060204574 0 0 0 0 -86.107801517588086 -21.108817468271127 0 -21.108817468271127 17.497800884550088 0 0 0 0 -50.749817819123564 25.977076248564799 0 25.977076248564799 23.158310336070258 0 0 0 0 -191.22371011922041 36.922418599487855 0 36.922418599487855 23.972928325414614 0 0 0 0 -142.07964699707009 125.9190366806622 0 125.9190366806622 140.49917384295986 0 0 0 0 -75.261222164961509 72.66316157736037 0 72.66316157736037 156.95111579618106 0 0 0 0 36.973202510402189 45.91436111272742 0 45.91436111272742 159.63145211676874 0 0 0 0 -51.313025176046132 8.5271803778936253 0 8.5271803778936253 -0.33237928718340015 0 0 0 0 -92.971157404374026 1.508424294058841 0 1.508424294058841 98.646100633266997 0 0 0 0 -96.336587549671094 150.43142978405263 0 150.43142978405263 328.00262256534734 0 0 0 0 -19.263300070024343 -15.377641997694525 0 -15.377641997694525 21.867108730220934 0 0 0 0 -136.53726485584775 -119.80186498857677 0 -119.80186498857677 78.828261070213102 0 0 0 0 -58.6425356989606 9.4045057774544052 0 9.4045057774544052 -0.56368993525697952 0 0 0 0 -84.376136906483225 126.56915610628738 0 126.56915610628738 222.9632689568316 0 0 0 0 -129.65487313283666 67.770657931236656 0 67.770657931236656 390.84583533471437 0 0 0 0 -60.001746035086398 -53.101881576422784 0 -53.101881576422784 50.968054450899217 0 0 0 0 -147.75270682137489 -21.477067926160089 0 -21.477067926160089 47.448492769318818 0 0 0 0 -124.0884667496648 -77.942216071358189 0 -77.942216071358189 -60.368276388266622 0 0 0 0 -460.85331818992563 -280.94087707374047 0 -280.94087707374047 -38.353107124464032 0 0 0 0 -295.64286915540652 -111.80425504627647 0 -111.80425504627647 84.119277311011956 0 0 0 0 -206.12453431625181 -211.15633536083715 0 -211.15633536083715 -74.304413884676251 0 0 0 0 -161.7810903315476 -153.28467696240659 0 -153.28467696240659 -89.483328811152205 0 0 0 0 -321.84863672452775 -2.8063931765000234 0 -2.8063931765000234 -101.57224364175272 0 0 0 0 -217.21632421926188 -160.25621529849514 0 -160.25621529849514 -41.517100994136626 0 0 0 0 -233.28471483572503 -117.96752239380669 0 -117.96752239380669 86.856176456249159 0 0 0 0 -223.50040576347965 -119.79731456639047 0 -119.79731456639047 79.089827528023307 0 0 0 0 -205.8538531553786 -93.87758267112622 0 -93.87758267112622 66.317423513078211 0 0 0 0 -165.23344300569443 -18.096880884339043 0 -18.096880884339043 420.99070973719381 0 0 0 0 -156.33738111742423 -138.37056465252954 0 -138.37056465252954 274.22119400875727 0 0 0 0 -138.45350603014231 -123.85889860621046 0 -123.85889860621046 79.963510460194811 0 0 0 0 -125.1146627075068 -91.149204948140323 0 -91.149204948140323 -8.9104412436013263 0 0 0 0 -256.86300809477689 -102.83100448380333 0 -102.83100448380333 8.4737682812747153 0 0 0 0 -180.7806454540987 -123.59599137427222 0 -123.59599137427222 -45.622416912366134 0 0 0 0 -174.23873761035975 -89.505655847993921 0 -89.505655847993921 21.992593484735153 0 0 0 0 -166.85473106036807 -86.92785960278843 0 -86.92785960278843 22.643494694969377 0 0 0 0 -205.92928022731849 -78.872248101775057 0 -78.872248101775057 84.709806636413759 0 0 0 0 -206.12758662892156 -70.155650224249257 0 -70.155650224249257 17.033143225504318 0 0 0 0 -199.26410665189178 -51.788250620629697 0 -51.788250620629697 8.1459508773473317 0 0 0 0 -185.70544482923651 -29.456018091696478 0 -29.456018091696478 -29.396718920175317 0 0 0 0 -218.21022092191561 -43.887713752109221 0 -43.887713752109221 29.854981406286129 0 0 0 0 -124.19547343065642 -74.402113958461541 0 -74.402113958461541 112.31633878145476 0 0 0 0 -112.44338827116007 -2.2415602033886444 0 -2.2415602033886444 100.74118516708404 0 0 0 0 -88.900944924214855 -4.8500606705424616 0 -4.8500606705424616 192.57456166047587 0 0 0 0 -191.0062185805873 -51.582595908338135 0 -51.582595908338135 173.63219805631843 0 0 0 0 -189.71625769064121 -25.453031398272287 0 -25.453031398272287 59.819729248577687 0 0 0 0 -143.97012853136039 -50.533352525147734 0 -50.533352525147734 30.200316750715047 0 0 0 0 -99.328839436813723 -23.455908980288314 0 -23.455908980288314 -28.359174598658683 0 0 0 0 -174.32329448801465 -39.331333763699604 0 -39.331333763699604 -18.547297665408223 0 0 0 0 -170.79919271238032 -21.182646904780768 0 -21.182646904780768 31.056007824415289 0 0 0 0 -174.38450950069819 -50.775343422120045 0 -50.775343422120045 -36.834382634558438 0 0 0 0 -209.71874159390791 -3.8445583941252153 0 -3.8445583941252153 -19.414952262720817 0 0 0 0 -131.160307555484 -26.853405215196233 0 -26.853405215196233 -71.801948404150153 0 0 0 0 -252.13479477146757 -47.188992832343956 0 -47.188992832343956 -58.753196224239332 0 0 0 0 -242.44533798488919 26.372580144602523 0 26.372580144602523 -103.90044055152759 0 0 0 0 -289.58912017782131 7.054976630847591 0 7.054976630847591 -51.980997197570332 0 0 0 0 -194.38679523600149 0.85141556015310016 0 0.85141556015310016 -70.160785456798067 0 0 0 0 -203.16357358360256 -10.804179049319146 0 -10.804179049319146 -2.9574886547623009 0 0 0 0 -266.60897489682975 19.3964587394928 0 19.3964587394928 -31.618984452343277 0 0 0 0 -221.14088147787334 -35.431228984124914 0 -35.431228984124914 -35.227224059845867 0 0 0 0 -213.73363330932625 36.526134765277902 0 36.526134765277902 -117.10669712519689 0 0 0 0 -338.09219347864564 89.132685790561254 0 89.132685790561254 -88.329937755881417 0 0 0 0 -365.78608021848413 239.18996497584732 0 239.18996497584732 -226.61469068816106 0 0 0 0 -200.57294791332242 83.855738121514207 0 83.855738121514207 -167.20275246209917 0 0 0 0 -297.44934478770301 108.03751110057334 0 108.03751110057334 -140.33165673144799 0 0 0 0 -378.63276520163708 215.60616245043366 0 215.60616245043366 -224.61070719346338 0 0 0 0 -437.77145046429359 103.69347188025398 0 103.69347188025398 -70.859243939101873 0 0 0 0 -260.0015150914387 66.762774658055179 0 66.762774658055179 -127.16593365929043 0 0 0 0 -467.68518874634174 226.53100883317728 0 226.53100883317728 -170.02859713407474 0 0 0 0 -593.43090954258241 333.85094469607515 0 333.85094469607515 -222.15174391566677 0 0 0 0 -438.84845816840243 342.39966655071436 0 342.39966655071436 -268.59408393388253 0 0 0 0 -535.98955757697331 354.03339366212089 0 354.03339366212089 -259.2421104654245 0 0 0 0 -562.50842901209398 298.38174606319438 0 298.38174606319438 -199.85080317691239 0 0 0 0 -465.12566740256625 164.05123974828456 0 164.05123974828456 -138.59328126906064 0 0 0 0 -533.04025271132923 308.76074610826015 0 308.76074610826015 -268.71095516552538 0 0 0 0 -518.7987852895676 295.56749192575859 0 295.56749192575859 -217.73096465015061 0 0 0 0 -658.33869795779174 260.69188526839264 0 260.69188526839264 -138.80575563181779 0 0 0 0 -268.83327336095681 -143.13692612082301 0 -143.13692612082301 -81.242365725691513 0 0 0 0 -770.43701246700948 -38.361844946319195 0 -38.361844946319195 -55.285793425446414 0 0 0 0 -63.505675705295289 -27.162719521752479 0 -27.162719521752479 -128.75134797484282 0 0 0 0 -137.593809171678 -94.937931271517073 0 -94.937931271517073 -122.05290854853536 0 0 0 0 -558.25892327807742 129.29210995378827 0 129.29210995378827 -97.751841737039172 0 0 0 0 -336.5163194211309 17.316564116346001 0 17.316564116346001 -65.615078687923301 0 0 0 0 -30.177613562504121 -65.334590968512657 0 -65.334590968512657 -94.623002690135195 0 0 0 0 -69.688686980727653 -17.396720314306378 0 -17.396720314306378 -67.344255816986077 0 0 0 0 -5.3899777818151762 2.7312533760480946 0 2.7312533760480946 -1.2076540284728763 0 0 0 0 0.072846951319661457 -17.727739125908556 0 -17.727739125908556 60.187339219029582 0 0 0 0 -4.6744918655967922 0.30057961274812328 0 0.30057961274812328 -2.3712929594798879 0 0 0 0 -13.105317028737772 -5.0358864764759801 0 -5.0358864764759801 -3.1603266704572661 0 0 0 0 -11.239129301306093 -7.7647973154934675 0 -7.7647973154934675 0.084833527089585914 0 0 0 0 -1.5641821972601195 -3.9149782754790223 0 -3.9149782754790223 -2.2519581149067465 0 0 0 0 -12.606282625012682 -5.469070719829233 0 -5.469070719829233 -0.65698670607665122 0 0 0 0 -0.69355026184547253 -3.8127156502835291 0 -3.8127156502835291 -1.1492974194382315 0 0 0 0 -8.7796279323363251 -7.0921424113006672 0 -7.0921424113006672 -5.7024021350694056 0 0 0 0 -14.506278623077378 0.60289718592616737 0 0.60289718592616737 6.4474431609185672 0 0 0 0 -6.066570741913651 2.349843402957049 0 2.349843402957049 -0.97632199809240072 0 0 0 0 -41.816792572310078 -50.102786866372185 0 -50.102786866372185 -57.99746894089094 0 0 0 0 -18.826894437450392 -59.083881778077966 0 -59.083881778077966 -84.960303331820796 0 0 0 0 -118.94877730163716 -89.656112757342726 0 -89.656112757342726 -71.273023714100304 0 0 0 0 -33.482725402335745 -59.049905932851907 0 -59.049905932851907 -84.053874869724041 0 0 0 0 -0.85160854220832505 -0.45452393050409512 0 -0.45452393050409512 -0.53837918829919573 0 0 0 0 -5.5829693509432445 -10.22871520750553 0 -10.22871520750553 -97.459893639063012 0 0 0 0 -16.059126529322384 -6.0662944915612798 0 -6.0662944915612798 -2.9457098207656145 0 0 0 0 -1.4443699212981889 -0.12886146690676981 0 -0.12886146690676981 -0.3973912412276901 0 0 0 0 -45.020411747718754 -80.546006984521341 0 -80.546006984521341 -82.533395604725229 0 0 0 0 -92.600701512636078 -71.009492824638301 0 -71.009492824638301 -45.330996456516004 0 0 0 0 -50.851376926002558 -53.903725829045925 0 -53.903725829045925 -40.225153465335779 0 0 0 0 -17.37158335847198 -67.801662286898591 0 -67.801662286898591 -80.84156571898302 0 0 0 0 -32.073550120163418 -77.786177638214212 0 -77.786177638214212 -132.40334913972902 0 0 0 0 -68.418028385807702 -20.549441357449439 0 -20.549441357449439 -89.291929761234314 0 0 0 0 -40.931604542915011 -60.617643917199985 0 -60.617643917199985 -43.032732583967118 0 0 0 0 -34.561231459352712 -34.607370601971297 0 -34.607370601971297 -54.513518408005439 0 0 0 0 -25.795084625569871 -61.078428655587828 0 -61.078428655587828 -19.136921580761282 0 0 0 0 -27.24524752943762 -40.846554984830277 0 -40.846554984830277 -6.3164738930790918 0 0 0 0 -24.078826635821315 -39.038111626058708 0 -39.038111626058708 -29.924998490349026 0 0 0 0 -19.703422405305901 -66.039242892694801 0 -66.039242892694801 -51.515254515631568 0 0 0 0 -17.067958606268803 -51.525520046724751 0 -51.525520046724751 -69.758230103966071 0 0 0 0 -19.120999872013272 -57.149176692251046 0 -57.149176692251046 -96.223628977514636 0 0 0 0 -26.816649332366069 -63.661970739991261 0 -63.661970739991261 -81.74739530354509 0 0 0 0 -62.681439170235535 -43.875726112044845 0 -43.875726112044845 -111.66665319253639 0 0 0 0 -59.869085174272186 -61.555842292415718 0 -61.555842292415718 -82.960819907840232 0 0 0 0 -28.929307536967372 -46.118632912458963 0 -46.118632912458963 -87.911344490760712 0 0 0 0 -125.27216226534438 -67.286958304750314 0 -67.286958304750314 -63.561863053887919 0 0 0 0 -51.530014240197488 -36.349113719360957 0 -36.349113719360957 -52.3445838341338 0 0 0 0 -49.459849220067554 -69.677713630319658 0 -69.677713630319658 -62.349674923870907 0 0 0 0 -101.29691447766118 -57.582791241982797 0 -57.582791241982797 -11.251732188839014 0 0 0 0 -77.608770774459117 -62.536647532925599 0 -62.536647532925599 55.501475207171325 0 0 0 0 -45.724412053728884 -15.983060635688389 0 -15.983060635688389 17.666038670028684 0 0 0 0 -39.737253516025248 -64.724142058729754 0 -64.724142058729754 -0.91844844626621125 0 0 0 0 -55.862225165226846 -28.752043428900834 0 -28.752043428900834 117.31556709861434 0 0 0 0 -16.605149418428482 -37.840710160548497 0 -37.840710160548497 43.521486757314051 0 0 0 0 -16.703009791919612 2.6745750199697795 0 2.6745750199697795 115.86570414200912 0 0 0 0 -51.760839489841601 -18.856768812142946 0 -18.856768812142946 123.97294042351723 0 0 0 0 -45.224164352057414 -1.5283162173962523 0 -1.5283162173962523 118.33064824166468 0 0 0 0 -107.55627381309387 -36.35770173529454 0 -36.35770173529454 235.63272550989677 0 0 0 0 -12.386345970910043 -44.740260552302971 0 -44.740260552302971 -5.383889744540852 0 0 0 0 -28.583042504891637 -47.33887182245553 0 -47.33887182245553 42.293260313798783 0 0 0 0 -34.117039500779356 -44.823359975660082 0 -44.823359975660082 50.066438455040952 0 0 0 0 -15.946086202777224 -22.778542987146011 0 -22.778542987146011 35.26488036931778 0 0 0 0 0.01534756003820803 -31.865152521502523 0 -31.865152521502523 44.019192029438273 0 0 0 0 -22.147668787583825 -22.428859478844515 0 -22.428859478844515 105.15520778943755 0 0 0 0 -26.679891907777346 -24.430442741408115 0 -24.430442741408115 92.104584180745405 0 0 0 0 -14.192107600305462 -28.808447905134358 0 -28.808447905134358 41.52324166670769 0 0 0 0 -18.70314455938933 -2.8341066429602506 0 -2.8341066429602506 124.36339295209109 0 0 0 0 10.893009641542449 -20.127390346866378 0 -20.127390346866378 85.362767528559289 0 0 0 0 35.961467074143002 23.39339206601926 0 23.39339206601926 129.55440384315398 0 0 0 0 -13.674492240417749 -3.6217982036446301 0 -3.6217982036446301 142.45495291086991 0 0 0 0 4.0169270939368289 -9.2914360646163914 0 -9.2914360646163914 95.332730068111459 0 0 0 0 27.943258770119428 67.516938502640983 0 67.516938502640983 189.85372562817065 0 0 0 0 20.391215808216657 25.544849784046846 0 25.544849784046846 151.67880372128275 0 0 0 0 103.44436207161925 125.42375910481496 0 125.42375910481496 172.66828004125637 0 0 0 0 143.66761061757279 64.1052922594763 0 64.1052922594763 118.01368592483323 0 0 0 0 46.896360200596973 58.989204748763768 0 58.989204748763768 170.1118316572929 0 0 0 0 72.058252050337614 22.877823335356879 0 22.877823335356879 131.29984985264309 0 0 0 0 65.761931108332647 22.020939354585607 0 22.020939354585607 129.70730553074645 0 0 0 0 10.408762933482649 22.141694151954653 0 22.141694151954653 147.31158094110651 0 0 0 0 11.85911417825082 -10.732571333796187 0 -10.732571333796187 121.0843260059055 0 0 0 0 20.280208706266421 16.010764232105657 0 16.010764232105657 126.18786591307344 0 0 0 0 24.235751879910822 7.9335589669126421 0 7.9335589669126421 142.20369925992327 0 0 0 0 -13.895332883141236 -1.4006044335891374 0 -1.4006044335891374 120.69035710045864 0 0 0 0 -12.296104115681374 6.8188331181863759 0 6.8188331181863759 141.24159014627548 0 0 0 0 -88.040493719352526 125.04524694616566 0 125.04524694616566 383.90447021080104 0 0 0 0 -274.64326806179452 -108.37376885590072 0 -108.37376885590072 185.58669537444598 0 0 0 0 192.14208829065319 36.251019864344926 0 36.251019864344926 -233.79654579984708 0 0 0 0 0.73186705522857665 0.37135545863617381 0 0.37135545863617381 0.74701378103710603 0 0 0 0 -88.012148652174801 34.748206291209954 0 34.748206291209954 298.51910980678622 0 0 0 0 -90.35463427513605 16.966345371155057 0 16.966345371155057 235.94924309991347 0 0 0 0 -49.329738682034076 8.0458262329666468 0 8.0458262329666468 207.26895376756511 0 0 0 0 -23.661734533161507 49.445510020450001 0 49.445510020450001 199.91212082606444 0 0 0 0 -21.67838790112728 13.401407220571855 0 13.401407220571855 165.21868729036578 0 0 0 0 -3.2725271615636302 77.041747197063614 0 77.041747197063614 243.49759558800906 0 0 0 0 -23.08173361212539 34.493131142398852 0 34.493131142398852 199.7223649163916 0 0 0 0 11.678613127005519 27.760612876445521 0 27.760612876445521 149.46586670278066 0 0 0 0 20.595838183697197 154.22182863083117 0 154.22182863083117 272.79429473922988 0 0 0 0 -1.7360604230976975 0.61805204654485024 0 0.61805204654485024 0.057277797374088557 0 0 0 0 -137.61033873523411 -309.11405967714836 0 -309.11405967714836 -308.82092916584406 0 0 0 0 -13.800396421502228 -128.60025005454099 0 -128.60025005454099 -348.55445701201643 0 0 0 0 -70.224773933194228 -176.50268188531845 0 -176.50268188531845 -294.95310247620546 0 0 0 0 -128.27094825469976 -28.443346745295003 0 -28.443346745295003 -14.460061592199963 0 0 0 0 -52.376523478727904 -78.789909156709655 0 -78.789909156709655 -147.27627831325992 0 0 0 0 -41.010399692248029 -31.084109841558075 0 -31.084109841558075 -287.17746294368953 0 0 0 0 -74.671216336108046 -102.61424789916964 0 -102.61424789916964 -140.51055930779376 0 0 0 0 -6.6207289705230608 -2.5962014237277842 0 -2.5962014237277842 -1.3342499386206246 0 0 0 0 -195.41097756535237 -144.51979289054134 0 -144.51979289054134 70.345533983245559 0 0 0 0 -63.430102676089518 -69.393021229622263 0 -69.393021229622263 -59.561335574289387 0 0 0 0 79.123663106438471 4.9011968687718763 0 4.9011968687718763 121.47278021574675 0 0 0 0 98.838251321925782 5.8584402506485276 0 5.8584402506485276 113.75651719164125 0 0 0 0 34.3414710543002 4.3160110448461637 0 4.3160110448461637 123.34977309192163 0 0 0 0 -9.6781950959120877 12.077350574753837 0 12.077350574753837 129.26310741696329 0 0 0 0 -16.108514944316994 18.40616367309417 0 18.40616367309417 130.47191801019835 0 0 0 0 20.280030367546715 3.3118296133970944 0 3.3118296133970944 127.34536660373305 0 0 0 0 20.977623679849785 7.7142840920259914 0 7.7142840920259914 131.54325314641756 0 0 0 0 -88.111635556619149 -27.950253812140318 0 -27.950253812140318 -125.05590501290499 0 0 0 0 -56.892777459524041 -77.8021593716133 0 -77.8021593716133 -59.932169359991349 0 0 0 0 -75.950096532058524 -54.773015016237196 0 -54.773015016237196 -9.6502632275951328 0 0 0 0 -82.806042013027763 -77.968144584175661 0 -77.968144584175661 12.307286702553029 0 0 0 0 -114.74749565897946 46.098386111113086 0 46.098386111113086 236.55322152059807 0 0 0 0 -96.030070753738983 -110.55172365166754 0 -110.55172365166754 -43.329750763181892 0 0 0 0 -40.944420397176145 33.390012424636041 0 33.390012424636041 59.403988398128377 0 0 0 0 -78.490290236777582 -34.763319283961437 0 -34.763319283961437 -22.449944563475583 0 0 0 0 -87.379071362593095 -11.826532654826224 0 -11.826532654826224 65.091903666893927 0 0 0 0 -29.349198829499073 13.380832671925873 0 13.380832671925873 25.345857565981532 0 0 0 0 -74.738931574038617 -2.4821921320824387 0 -2.4821921320824387 11.139286632335875 0 0 0 0 -24.80876745506233 -28.918536018030295 0 -28.918536018030295 -11.452159032456343 0 0 0 0 -62.184996108844643 -33.408205912080007 0 -33.408205912080007 -5.6608251293791909 0 0 0 0 -10.957584708885406 12.041302647313842 0 12.041302647313842 122.07438323002987 0 0 0 0 -10.360428989415595 -5.396339386928048 0 -5.396339386928048 2.6491985181888129 0 0 0 0 -5.8878704758863023 43.299730863583136 0 43.299730863583136 46.246568230124467 0 0 0 0 -4.4187187117040452 -4.4548016951348757 0 -4.4548016951348757 -1.1358564228466399 0 0 0 0 -26.48497695464539 12.363530048705456 0 12.363530048705456 122.21842868820113 0 0 0 0 -31.912909652950475 20.526278999087481 0 20.526278999087481 122.6948671025325 0 0 0 0 -24.471066651349247 8.1689632065636033 0 8.1689632065636033 119.5977289938719 0 0 0 0 -20.027374679921195 21.779774628608948 0 21.779774628608948 100.48468307710436 0 0 0 0 -41.705538768670522 -4.315346570834663 0 -4.315346570834663 92.948850294156614 0 0 0 0 -47.830502170632826 4.0382834311309352 0 4.0382834311309352 115.13012653908254 0 0 0 0 -35.526601951154589 54.281793149327541 0 54.281793149327541 82.818952419564084 0 0 0 0 -46.116480153326847 32.262242737333509 0 32.262242737333509 69.161531612993713 0 0 0 0 -50.025901056003931 15.869685633690096 0 15.869685633690096 83.981584495304105 0 0 0 0 -51.940641773711832 8.4612376710529702 0 8.4612376710529702 55.325641551617537 0 0 0 0 -49.778014763774991 -12.873313573415999 0 -12.873313573415999 51.465851667058814 0 0 0 0 -38.484243214603339 -0.40593174702109991 0 -0.40593174702109991 79.999408868892715 0 0 0 0 -50.020462391112233 -19.368100090770895 0 -19.368100090770895 69.103721283995014 0 0 0 0 -54.499642553681042 -30.33718470228132 0 -30.33718470228132 66.403430893029054 0 0 0 0 -39.791619043768151 -22.84104985846443 0 -22.84104985846443 59.233928733618541 0 0 0 0 -46.631291152683843 -28.637779704361833 0 -28.637779704361833 29.622518383728675 0 0 0 0 -54.183191172051011 -41.068632892326036 0 -41.068632892326036 31.417633305912204 0 0 0 0 -18.143706845476117 6.7145037794896325 0 6.7145037794896325 105.55589983792652 0 0 0 0 -34.101465009574895 -14.867178653633346 0 -14.867178653633346 113.06596062651249 0 0 0 0 -34.770892186745186 7.3792868401083069 0 7.3792868401083069 122.85685490316473 0 0 0 0 -43.282054781826446 -14.236556254654715 0 -14.236556254654715 95.764659436462239 0 0 0 0 -30.801747431160038 4.8071435758239431 0 4.8071435758239431 93.596003624843433 0 0 0 0 -44.372350256482605 -33.379024902010769 0 -33.379024902010769 73.275561201727328 0 0 0 0 -30.942486256310076 -18.501186033487329 0 -18.501186033487329 65.647018416767423 0 0 0 0 -14.41569842102399 -17.500372513246646 0 -17.500372513246646 80.379356569957963 0 0 0 0 -34.025178245661664 -35.253684377443278 0 -35.253684377443278 83.768670692754711 0 0 0 0 -30.012965632980922 -30.89365747540046 0 -30.89365747540046 31.335755928766048 0 0 0 0 -39.534776786789735 -36.516470086274921 0 -36.516470086274921 29.42393773090771 0 0 0 0 -54.704815896009677 -30.841516218543802 0 -30.841516218543802 27.890811961219697 0 0 0 0 -37.882284177718248 -54.671903665025525 0 -54.671903665025525 0.75508862231708918 0 0 0 0 -61.091278211781173 -33.778865210827234 0 -33.778865210827234 -14.7165403376016 0 0 0 0 -46.922226184251485 -45.530711391585328 0 -45.530711391585328 30.668920400493491 0 0 0 0 -24.498887168811052 -36.708782348840941 0 -36.708782348840941 -9.6780013548418538 0 0 0 0 -47.062767262308626 -35.23534176677299 0 -35.23534176677299 7.9600934253708147 0 0 0 0 -51.663227915254538 -52.219247472233747 0 -52.219247472233747 18.758089899465404 0 0 0 0 -52.425390766293276 -41.56440764881836 0 -41.56440764881836 4.6343663858124273 0 0 0 0 -58.030492211594265 -66.433158071552228 0 -66.433158071552228 -13.102244218774104 0 0 0 0 -47.04793013519884 -55.981775497505623 0 -55.981775497505623 -21.340202887650321 0 0 0 0 -55.75975995960107 -63.384714114556004 0 -63.384714114556004 -18.898351310534053 0 0 0 0 -45.831108612008393 -28.130852287577 0 -28.130852287577 -34.888977764445826 0 0 0 0 -50.250900424580323 -43.067971590542584 0 -43.067971590542584 1.6592927428914663 0 0 0 0 -57.681543521408457 -27.746589144868153 0 -27.746589144868153 -29.744274054402695 0 0 0 0 -55.573596004505816 -35.508867079917934 0 -35.508867079917934 -13.407481146272403 0 0 0 0 -51.791324635436467 -22.122030589095857 0 -22.122030589095857 -10.411360659333923 0 0 0 0 -60.861132624097081 -18.366953145838124 0 -18.366953145838124 13.382571478700129 0 0 0 0 -48.944747505207488 -17.842612052276991 0 -17.842612052276991 16.9467775085418 0 0 0 0 -57.496023886978946 -25.5560052856722 0 -25.5560052856722 21.71847752061376 0 0 0 0 -55.244392615273682 -23.03868004757885 0 -23.03868004757885 39.046558672658648 0 0 0 0 -46.795956739093526 5.8027342127072643 0 5.8027342127072643 53.529019764660234 0 0 0 0 -52.167912590195556 -5.3292604210232639 0 -5.3292604210232639 41.768185272903338 0 0 0 0 -46.480712157470407 -3.2412081014488194 0 -3.2412081014488194 25.61955297671625 0 0 0 0 -44.258245377255662 7.7078302875015652 0 7.7078302875015652 27.591429207433066 0 0 0 0 -51.576069446197835 -19.40405479698029 0 -19.40405479698029 10.021184135485782 0 0 0 0 -39.300352037942503 26.189599814133771 0 26.189599814133771 53.572383057194315 0 0 0 0 -39.973810090928964 1.0659386376668749 0 1.0659386376668749 35.609337834460803 0 0 0 0 -38.986345496762546 -0.12839520096312285 0 -0.12839520096312285 3.1485589781425922 0 0 0 0 -32.110040706675434 7.3425277416960242 0 7.3425277416960242 4.525288360852306 0 0 0 0 -25.664847522130003 14.181319982068089 0 14.181319982068089 55.063289072397311 0 0 0 0 -27.179169714741874 19.916847746359281 0 19.916847746359281 38.336670310216391 0 0 0 0 -38.378488115617074 30.19753228701893 0 30.19753228701893 63.185331201998167 0 0 0 0 -78.752578309853561 -18.957694811223064 0 -18.957694811223064 8.8096897096382918 0 0 0 0 -52.951810757964267 -8.8786262691653519 0 -8.8786262691653519 -0.11268649893008842 0 0 0 0 -48.367424389361986 -4.8896140178226233 0 -4.8896140178226233 5.3644601408759627 0 0 0 0 -59.711721770916483 -11.442581351693661 0 -11.442581351693661 19.289337583007622 0 0 0 0 -31.527654845704092 5.9667529560257435 0 5.9667529560257435 20.137912767720081 0 0 0 0 -54.548038006716524 -3.7922107574252095 0 -3.7922107574252095 30.336276633223065 0 0 0 0 -49.010218934345176 -13.701704102206122 0 -13.701704102206122 6.2788420039514676 0 0 0 0 -54.422587408866093 -10.544912972977272 0 -10.544912972977272 4.9490997183461332 0 0 0 0 -75.696736293240974 -29.88339093421132 0 -29.88339093421132 3.7019674373161422 0 0 0 0 -84.870423604224925 -38.186627636311641 0 -38.186627636311641 -6.2710106451235106 0 0 0 0 -70.041767232934944 -21.97132247168247 0 -21.97132247168247 -11.423256587259857 0 0 0 0 -75.42482962457143 -23.065112055139707 0 -23.065112055139707 1.946991240421994 0 0 0 0 -71.973459480280326 -31.693526103444043 0 -31.693526103444043 -30.519574213076339 0 0 0 0 -79.4736013349102 -13.251000941220241 0 -13.251000941220241 -10.747411466142239 0 0 0 0 -80.14774636409129 -44.558291922511103 0 -44.558291922511103 -22.799968799461567 0 0 0 0 -97.83782823377669 -45.127552509553425 0 -45.127552509553425 -8.4632632020388883 0 0 0 0 -95.751371032318275 -28.003769214468775 0 -28.003769214468775 -7.2877324904379748 0 0 0 0 -0.6247382451110397 0.57097568090061657 0 0.57097568090061657 0.11405308057114993 0 0 0 0 12.975781685585389 15.524969624225946 0 15.524969624225946 5.3916232572505578 0 0 0 0 -72.030744661176868 -32.703475844767809 0 -32.703475844767809 -12.210017815521951 0 0 0 0 -75.782573989980847 -25.757278183932215 0 -25.757278183932215 -23.059738123561146 0 0 0 0 -58.953672345828636 -27.32341914946474 0 -27.32341914946474 -13.979166581919799 0 0 0 0 -76.872051458369242 -22.977499358260047 0 -22.977499358260047 -10.78088314940851 0 0 0 0 -102.26422181209637 -38.126017521558651 0 -38.126017521558651 -9.017112604834665 0 0 0 0 -57.696255304796068 -27.625013888060039 0 -27.625013888060039 -21.095054374273559 0 0 0 0 -79.006451230357925 -33.022788360896129 0 -33.022788360896129 -11.26677618837769 0 0 0 0 -77.834376707651245 -35.727756668196434 0 -35.727756668196434 -23.912990349856955 0 0 0 0 25.00881255819786 -3.3862968308764607 0 -3.3862968308764607 -2.006187521706579 0 0 0 0 -0.19601391204962937 0.16108915069676044 0 0.16108915069676044 0.025799033661508375 0 0 0 0 28.726742629920409 15.662323062103582 0 15.662323062103582 1.0379196973794933 0 0 0 0 5.759958895163436 5.7220732824160905 0 5.7220732824160905 9.7655591429283959 0 0 0 0 13.117564018635676 19.381055366967644 0 19.381055366967644 10.047033933256444 0 0 0 0 -1.8418854463567271 5.3088984601715836 0 5.3088984601715836 3.1804796311545407 0 0 0 0 -10.887258454422408 5.3805795617724925 0 5.3805795617724925 0.46476718746259849 0 0 0 0 -41.773836489286623 4.8495948009203858 0 4.8495948009203858 6.551372292195083 0 0 0 0 -36.419607698084292 2.9325723453684986 0 2.9325723453684986 -11.563529734403346 0 0 0 0 -93.056844569626264 -11.410143308627994 0 -11.410143308627994 -9.5781263645103536 0 0 0 0 -34.189972955573467 -14.300625203500999 0 -14.300625203500999 -22.075706434035737 0 0 0 0 -30.548419667371491 -58.638003395334408 0 -58.638003395334408 -59.298140630788566 0 0 0 0 0.073704086131883173 0.10433616618188779 0 0.10433616618188779 -0.24608833329939817 0 0 0 0 -33.76293917476869 -21.159381708289175 0 -21.159381708289175 -12.6061164091102 0 0 0 0 -30.593995439514401 -52.718877240559095 0 -52.718877240559095 -51.169778751176182 0 0 0 0 -16.938490337335679 -15.461268141559799 0 -15.461268141559799 -10.989227809032059 0 0 0 0 -51.633821261644698 -16.690250288170319 0 -16.690250288170319 -1.1808465462177082 0 0 0 0 -35.024900561325012 -15.216421286460161 0 -15.216421286460161 1.9076607619108472 0 0 0 0 -32.837689451524056 -8.4684313375267948 0 -8.4684313375267948 2.288952980844897 0 0 0 0 -28.315182726393687 -11.790167440854702 0 -11.790167440854702 3.4340133231846721 0 0 0 0 -25.306078632162098 -1.7113313002578252 0 -1.7113313002578252 -0.085066450040358177 0 0 0 0 -43.012186410429422 -17.334632414253633 0 -17.334632414253633 1.9206659122670544 0 0 0 0 -29.204576358642953 -11.789026641215742 0 -11.789026641215742 3.9898652052245325 0 0 0 0 -26.88621613162104 -0.95484024473512363 0 -0.95484024473512363 8.1829840414443424 0 0 0 0 -5.9272378622372344 3.2774472960943513 0 3.2774472960943513 -4.0504637448852918 0 0 0 0 6.266403548598646 3.0504979132948051 0 3.0504979132948051 -2.6872934559418127 0 0 0 0 -3.2588568885322786 4.5517260620411832 0 4.5517260620411832 3.4039752270331691 0 0 0 0 -30.435211517993594 -9.8066041011904872 0 -9.8066041011904872 2.9605032737938473 0 0 0 0 -31.3555799171736 -3.4191722735306485 0 -3.4191722735306485 7.488248457663758 0 0 0 0 -23.496288123445993 -6.387338522210257 0 -6.387338522210257 4.2992220091668969 0 0 0 0 -12.852146670303227 -4.1728614356206677 0 -4.1728614356206677 1.0277624282023226 0 0 0 0 -14.048055396531709 -5.3047233649931655 0 -5.3047233649931655 0.072189095567836148 0 0 0 0 5.2426094656520945 -5.4873544774169503 0 -5.4873544774169503 -9.3738764560967809 0 0 0 0 -0.45734650469680105 -2.2336600090189762 0 -2.2336600090189762 -0.81973906633996485 0 0 0 0 1.2083322030527057 0.22231071649984102 0 0.22231071649984102 -0.0051319450700215707 0 0 0 0 -9.1671777753981587 10.829896270948893 0 10.829896270948893 12.154187544652586 0 0 0 0 -11.00024577736113 0.9583927174825817 0 0.9583927174825817 3.345522536618057 0 0 0 0 -5.0567235135604278 -3.385475651716888 0 -3.385475651716888 -26.626037259743043 0 0 0 0 -16.087658440479572 -27.125242441112391 0 -27.125242441112391 -25.319241858984924 0 0 0 0 -1.1913158141400828 -1.7878034006710823 0 -1.7878034006710823 -0.40686830542407448 0 0 0 0 -27.921281465666652 4.3925913827164038 0 4.3925913827164038 -0.91800447653054107 0 0 0 0 -28.568081941888522 -26.706361237664964 0 -26.706361237664964 -12.531768412905876 0 0 0 0 -22.038071490365837 -12.778251588779426 0 -12.778251588779426 15.439373540841189 0 0 0 0 -11.79352873946344 0.44040263213361186 0 0.44040263213361186 2.9280891519055494 0 0 0 0 -40.173603630566504 11.268368023849916 0 11.268368023849916 27.075589661239064 0 0 0 0 -17.290066649647997 1.3821436946480752 0 1.3821436946480752 10.860156283780668 0 0 0 0 -5.7597650526222424 -1.2440099277370962 0 -1.2440099277370962 5.0338501926228219 0 0 0 0 -12.546152014548824 -0.38022205776271534 0 -0.38022205776271534 2.9524056686367315 0 0 0 0 -5.9264507544286289 6.5066973633699874 0 6.5066973633699874 4.9361211911219129 0 0 0 0 3.4656781169360329 21.282977854666825 0 21.282977854666825 -17.224578186638666 0 0 0 0 27.608116908355441 -4.4934929642896151 0 -4.4934929642896151 -6.9844648343028553 0 0 0 0 -6.0375989173480775 9.408486839355362 0 9.408486839355362 -8.2702514784938046 0 0 0 0 -19.455099851746127 -16.386624121086626 0 -16.386624121086626 -11.943677109514567 0 0 0 0 -0.37016410310400261 0.3244590863055592 0 0.3244590863055592 0.29655109911730054 0 0 0 0 -38.273229045538756 -0.55480269490212208 0 -0.55480269490212208 8.988171762080384 0 0 0 0 -0.84961161130178198 -2.0305590123473252 0 -2.0305590123473252 1.4339095964421538 0 0 0 0 -11.077400270136422 -5.4980490999839446 0 -5.4980490999839446 -0.32073224474390827 0 0 0 0 -11.933172914369607 -6.1433894685376043 0 -6.1433894685376043 17.524373684672639 0 0 0 0 -9.1096792793323402 -18.723098733743711 0 -18.723098733743711 -0.93052684380594997 0 0 0 0 -28.360824602412322 0.76731151829207533 0 0.76731151829207533 13.604871508103031 0 0 0 0 -10.268173371765727 1.4360733782510895 0 1.4360733782510895 0.7698990657010274 0 0 0 0 -31.63176124761776 28.41652324347163 0 28.41652324347163 -7.1281408645575652 0 0 0 0 -24.273572671894726 8.498844014370242 0 8.498844014370242 3.985628076679518 0 0 0 0 3.2689359026589955 10.365819862125292 0 10.365819862125292 -6.0256490851896274 0 0 0 0 -2.2081032887581387 6.6239070991170337 0 6.6239070991170337 -6.4564228389928076 0 0 0 0 -2.6917103417505004 3.1392514994629579 0 3.1392514994629579 2.0883039166183819 0 0 0 0 6.8072106664476451 -0.26306817906441893 0 -0.26306817906441893 0.91155631372404855 0 0 0 0 -2.2895027487379771 3.2487435462870451 0 3.2487435462870451 1.4122823051158861 0 0 0 0 -11.105175955268351 2.9260512154694709 0 2.9260512154694709 4.4421327501061114 0 0 0 0 1.7956741465459345 -5.4868475235098515 0 -5.4868475235098515 -3.9553538822898489 0 0 0 0 0.16427857027505866 0.45744782429168396 0 0.45744782429168396 -0.022110856638166226 0 0 0 0 -0.2463006929596645 -0.021859163096408452 0 -0.021859163096408452 0.086371170652970952 0 0 0 0 -8.7085133502059762 15.933920056790374 0 15.933920056790374 -17.813034010695048 0 0 0 0 17.732895057604765 -10.233814377685619 0 -10.233814377685619 -13.906029467619184 0 0 0 0 -93.691354657050397 7.1132387537134747 0 7.1132387537134747 4.4991223525508346 0 0 0 0 -67.881873396188894 -59.053289247856725 0 -59.053289247856725 -13.216743381652819 0 0 0 0 -71.895979471497412 27.802488799820061 0 27.802488799820061 -22.193213536167619 0 0 0 0 -0.41333308438896665 -0.15058908623703315 0 -0.15058908623703315 -0.00092179986140608107 0 0 0 0 0.59723378333001165 23.444375974801034 0 23.444375974801034 -6.8884009141094422 0 0 0 0 -12.580076279220521 14.653390523680073 0 14.653390523680073 29.259540909834335 0 0 0 0 0.8220917186117731 0.50242022358730765 0 0.50242022358730765 -0.46396781370997786 0 0 0 0 21.316430177565053 1.0446050232052704 0 1.0446050232052704 -0.45825295609735406 0 0 0 0 -9.3490209444971697 -2.1817322410840752 0 -2.1817322410840752 0.46583806043579745 0 0 0 0 -0.80016679452450035 0.43811643154686752 0 0.43811643154686752 0.044666640578644161 0 0 0 0 -4.4528625626711928 0.6686502007979982 0 0.6686502007979982 0.60430523632675692 0 0 0 0 -2.0537428682642371 2.8412051556654179 0 2.8412051556654179 -0.055946494095080741 0 0 0 0 0.57090947662072722 2.6303695161928466 0 2.6303695161928466 1.2637554653285292 0 0 0 0 -3.9708320893632276 2.4219824014158036 0 2.4219824014158036 0.54493429404065952 0 0 0 0 -1.6718164951016661 1.0593896661845399 0 1.0593896661845399 11.267089621840988 0 0 0 0 -0.61277936686374801 -0.0062153143359608976 0 -0.0062153143359608976 0.045880141897334283 0 0 0 0 10.520380815447425 2.9635830210205589 0 2.9635830210205589 -16.38855295365051 0 0 0 0 -17.168024530015828 3.6936721672914921 0 3.6936721672914921 -0.056930647231682563 0 0 0 0 -70.191797434071304 -40.87712417631576 0 -40.87712417631576 -35.645764954068213 0 0 0 0 -67.309691628208384 -23.482683754814481 0 -23.482683754814481 -11.988052400774919 0 0 0 0 2.5675645512510528 -4.1375423293956963 0 -4.1375423293956963 -32.436729774039783 0 0 0 0 -0.42512298911435664 -0.23732894429900853 0 -0.23732894429900853 -0.023141586204810827 0 0 0 0 -13.431271338398801 -14.095821786372575 0 -14.095821786372575 -6.7718786029487816 0 0 0 0 -12.010123330095666 9.689978022367864 0 9.689978022367864 -14.151171589203663 0 0 0 0 -18.261090984786279 6.4336767173199254 0 6.4336767173199254 -0.23830480281365962 0 0 0 0 9.578176986949984 -5.8166596754278768 0 -5.8166596754278768 -11.029741502513241 0 0 0 0 -62.099440519843483 32.535151745197354 0 32.535151745197354 -13.237827169358754 0 0 0 0 -1.4313727858389029 4.5558915834396059 0 4.5558915834396059 -0.049512230792110069 0 0 0 0 -10.35668668076687 4.1017915412180637 0 4.1017915412180637 0.6316430996281347 0 0 0 0 -6.2751394277547661 0.094767975894603396 0 0.094767975894603396 0.074969518962184623 0 0 0 0 -0.72966998955781293 0.038891794611089381 0 0.038891794611089381 0.081778859146051042 0 0 0 0 -5.2728351886123903 0.19415663836553732 0 0.19415663836553732 0.27885176888995211 0 0 0 0 -10.830249798149453 0.33623359820987275 0 0.33623359820987275 0.67844886878663324 0 0 0 0 -3.0203838518500561 0.52866102330919773 0 0.52866102330919773 1.297415219712498 0 0 0 0 -3.2348150492734646 0.29297535806300345 0 0.29297535806300345 0.072690385404451913 0 0 0 0 -8.7227838801773032 1.7355081816907614 0 1.7355081816907614 -0.70494966820089644 0 0 0 0 -7.7389408702001674 -9.0276788486240349 0 -9.0276788486240349 -8.7565640447762103 0 0 0 0 -14.806548931868747 -2.4042929026202504 0 -2.4042929026202504 6.4573414895654491 0 0 0 0 -11.980652956721315 -1.0160602252481183 0 -1.0160602252481183 0.054917505237497721 0 0 0 0 -7.8462146247518376 -0.4388061775784724 0 -0.4388061775784724 0.064226971528702395 0 0 0 0 -10.215884276374709 -1.9604988968844523 0 -1.9604988968844523 5.657856683584626 0 0 0 0 -0.35844315511349123 -0.37611569290975311 0 -0.37611569290975311 -4.9679584055921637 0 0 0 0 -5.7543683954475426 -0.74478157452330152 0 -0.74478157452330152 0.1664806567043762 0 0 0 0 -20.56691161247727 -12.906184872628703 0 -12.906184872628703 -0.48737283500721418 0 0 0 0 -11.704934322384361 -1.1659168193312723 0 -1.1659168193312723 -0.28360274257801166 0 0 0 0 -1.7260342582277559 -0.33333985052563264 0 -0.33333985052563264 -0.32148278268038477 0 0 0 0 -11.741260100461659 -1.0137709212607859 0 -1.0137709212607859 -0.74201244264486377 0 0 0 0 -6.0257733006674243 -3.8900460086260509 0 -3.8900460086260509 3.9637049903085995 0 0 0 0 -18.425411954216543 -4.2259648732810717 0 -4.2259648732810717 6.018180450163527 0 0 0 0 -14.628045199904591 3.463457605901624 0 3.463457605901624 6.2963343764668593 0 0 0 0 -10.688792617365834 3.8684550327631086 0 3.8684550327631086 6.3141761191524779 0 0 0 0 -22.887784784627001 13.608991238786722 0 13.608991238786722 -1.4612882642774139 0 0 0 0 11.174394015293728 -10.666856788320736 0 -10.666856788320736 0.48893603603460178 0 0 0 0 -34.693021800318093 -23.411890215581735 0 -23.411890215581735 1.9535039114307722 0 0 0 0 -22.964183866988606 1.6001080751154575 0 1.6001080751154575 4.6070207132437417 0 0 0 0 -0.082382237410428161 -0.31537317661887698 0 -0.31537317661887698 -0.35462322423753778 0 0 0 0 -127.24914012033696 43.052393058058499 0 43.052393058058499 -27.426260331502789 0 0 0 0 -137.8657645185358 2.2033014181619937 0 2.2033014181619937 23.195354245467911 0 0 0 0 -58.631317612627754 -65.792241676287603 0 -65.792241676287603 45.44059046350641 0 0 0 0 -153.17012525981409 58.041107725937437 0 58.041107725937437 75.343554176640708 0 0 0 0 -329.08655106902006 82.017264481665649 0 82.017264481665649 42.033035607888259 0 0 0 0 -158.31814250764728 31.369174547903299 0 31.369174547903299 -31.834506141969655 0 0 0 0 -409.05469261809412 83.083397485758582 0 83.083397485758582 47.025303979668905 0 0 0 0 -11.759466228795645 -0.79597550011857265 0 -0.79597550011857265 -0.98173203694764766 0 0 0 0 -0.76005025410499982 -2.3033236198248943 0 -2.3033236198248943 -1.0544977369440562 0 0 0 0 27.502842888970918 14.639874831462109 0 14.639874831462109 -82.989663146248233 0 0 0 0 -11.929547665418795 -0.851118936631309 0 -0.851118936631309 -0.53240309800609964 0 0 0 0 -11.946919671103387 -0.93098990326584641 0 -0.93098990326584641 -0.10317559132835186 0 0 0 0 -7.1167877993284492 1.6250765812357741 0 1.6250765812357741 7.9895715278518189 0 0 0 0 8.4770543471677229 13.535277842446574 0 13.535277842446574 16.26999547680434 0 0 0 0 -18.200322107542888 0.69004320652013007 0 0.69004320652013007 28.445302776859691 0 0 0 0 -28.190772261354141 -11.800440824542022 0 -11.800440824542022 17.004145545779252 0 0 0 0 -21.227728493249742 124.10683233396333 0 124.10683233396333 -83.742900588115432 0 0 0 0 82.448011096460959 -51.454021841983156 0 -51.454021841983156 -53.406124127021229 0 0 0 0 -1.6328933024485903 -0.18844756851582645 0 -0.18844756851582645 0.30663432331434237 0 0 0 0 -1.7351942195397498 -0.15542366457714696 0 -0.15542366457714696 -0.33966370280870378 0 0 0 0 -127.27694700860593 131.56963238654691 0 131.56963238654691 -212.9981015374116 0 0 0 0 -196.59628080251059 -101.79847484696958 0 -101.79847484696958 16.638255323803506 0 0 0 0 -285.80738016816031 218.63110266685726 0 218.63110266685726 -93.783030444829961 0 0 0 0 -488.27856138599793 127.03833681568821 0 127.03833681568821 29.012457012855762 0 0 0 0 -223.71211209669127 64.298819163673954 0 64.298819163673954 -0.012781847127936001 0 0 0 0 -42.243932381214108 42.261862288480607 0 42.261862288480607 -52.792538703147159 0 0 0 0 71.739942511470872 -35.786335525773758 0 -35.786335525773758 -25.424985629027052 0 0 0 0 -52.127821407419106 46.325312644674902 0 46.325312644674902 -52.510721123429235 0 0 0 0 -251.80854617672776 95.850363120288108 0 95.850363120288108 -29.707403202549401 0 0 0 0 -47.446540083416039 48.654798034820026 0 48.654798034820026 -52.36380466223671 0 0 0 0 -900.49321006638638 241.25295508151865 0 241.25295508151865 -56.985660716003849 0 0 0 0 -487.60375777158663 102.24257419083401 0 102.24257419083401 -99.676903907717133 0 0 0 0 -649.49087146295642 110.80578942357164 0 110.80578942357164 -0.47256375317003041 0 0 0 0 -486.64548438607744 138.72640424165064 0 138.72640424165064 -91.761428413925472 0 0 0 0 -630.8466572606485 153.41381926295679 0 153.41381926295679 -86.616495253128463 0 0 0 0 -631.54458878791775 147.58313959077282 0 147.58313959077282 -103.128187145998 0 0 0 0 -619.34015204753791 249.86413193904644 0 249.86413193904644 -22.35980445360758 0 0 0 0 -617.32681713669444 159.26850040739768 0 159.26850040739768 2.8904794816468495 0 0 0 0 -379.40260696815676 197.31997514845867 0 197.31997514845867 -76.678904590450401 0 0 0 0 -543.52686689751135 198.03816107648589 0 198.03816107648589 -0.16534928373187086 0 0 0 0 -402.30187693462358 136.27426008107949 0 136.27426008107949 8.1258631277685538 0 0 0 0 -316.83691120577896 136.8849177800524 0 136.8849177800524 -22.047299494625648 0 0 0 0 -519.11880910024593 283.29872508374547 0 283.29872508374547 -62.612214752817636 0 0 0 0 -432.17399850265429 322.9524204787412 0 322.9524204787412 -126.31813977862106 0 0 0 0 -291.20047663213336 162.6813711718217 0 162.6813711718217 -32.21350380079258 0 0 0 0 -488.70351909814053 255.37725412383222 0 255.37725412383222 -74.255650094607859 0 0 0 0 -111.53552301302261 100.7348782500531 0 100.7348782500531 -139.11850285717117 0 0 0 0 -43.878360163493198 -24.211625242833634 0 -24.211625242833634 -58.575941847485637 0 0 0 0 -300.65093012156285 137.42623436526927 0 137.42623436526927 -39.89533424798006 0 0 0 0 -202.69895934178874 125.66797038246474 0 125.66797038246474 -68.925226076333161 0 0 0 0 -202.37301445509993 57.965270113463447 0 57.965270113463447 -3.8333237149227557 0 0 0 0 -8.5328376105608186 24.163326126651185 0 24.163326126651185 -56.723827402875713 0 0 0 0 -47.719786967660184 -2.405638706108391 0 -2.405638706108391 -26.607693644676317 0 0 0 0 -0.37368710164901131 25.105482492778926 0 25.105482492778926 -26.965703487753217 0 0 0 0 -60.408310766375507 53.457967476084548 0 53.457967476084548 -81.430469142719176 0 0 0 0 -2.1987002156484889 -3.3623093316117547 0 -3.3623093316117547 -0.079729109509237284 0 0 0 0 -61.142641746220761 -4.0531617296751676 0 -4.0531617296751676 12.035331627866526 0 0 0 0 -13.683314959896961 -10.542053034619684 0 -10.542053034619684 -9.6806316738723126 0 0 0 0 72.430806547381508 -1.844651436300154 0 -1.844651436300154 -57.261746596167995 0 0 0 0 27.885735347896116 -59.662334731314104 0 -59.662334731314104 -28.279581581044283 0 0 0 0 -0.087979234425681341 -0.13739919882442564 0 -0.13739919882442564 -0.14997409694033326 0 0 0 0 -20.666240428494348 8.7817822149625613 0 8.7817822149625613 -9.4092647871869417 0 0 0 0 -23.314716208493337 -9.6302456471739788 0 -9.6302456471739788 14.509782654339688 0 0 0 0 -36.580598858679878 14.590090420898832 0 14.590090420898832 8.6343000570693675 0 0 0 0 -42.001809188972402 -40.576012675325131 0 -40.576012675325131 28.739261616558679 0 0 0 0 -20.954461367509793 -19.705861213319395 0 -19.705861213319395 42.618952242124521 0 0 0 0 0.3230569861625554 32.366102128419357 0 32.366102128419357 25.708036506107192 0 0 0 0 -61.485583474925079 -15.758411947661784 0 -15.758411947661784 -27.210990176178427 0 0 0 0 -24.226591409940738 -31.540694870783682 0 -31.540694870783682 2.9624735067801566 0 0 0 0 -2.1092409310804214 -46.841247169371172 0 -46.841247169371172 6.9331795397270071 0 0 0 0 -4.7583488827513065 -21.000988005028603 0 -21.000988005028603 -17.506895842824179 0 0 0 0 -52.122672710149345 -1.0533821994052914 0 -1.0533821994052914 -4.3570013884307173 0 0 0 0 -12.480547738723544 -17.390157528087173 0 -17.390157528087173 45.945551102878881 0 0 0 0 -30.801923002727563 -43.048456875384773 0 -43.048456875384773 17.169539855610537 0 0 0 0 13.254191252231976 -34.427877422720599 0 -34.427877422720599 4.8269615374736077 0 0 0 0 -11.286414347890968 -10.500163497504786 0 -10.500163497504786 1.9240322390671736 0 0 0 0 -15.985258839800736 -20.246957021010132 0 -20.246957021010132 -18.15439288275229 0 0 0 0 -2.2256737708533461 -9.5627695857698569 0 -9.5627695857698569 -2.5541169982997598 0 0 0 0 -11.163419430322932 1.0508577242232757 0 1.0508577242232757 -0.7988552792580017 0 0 0 0 -13.280740759408218 -10.570917727198776 0 -10.570917727198776 -11.288854638240423 0 0 0 0 -19.752403914266324 -2.2324971927739625 0 -2.2324971927739625 0.80952127499256221 0 0 0 0 47.641212144684687 6.9384800582415096 0 6.9384800582415096 -26.753531728665052 0 0 0 0 43.299809665939392 -76.008970036610378 0 -76.008970036610378 -66.472206292861074 0 0 0 0 72.073466959154757 12.510083154206825 0 12.510083154206825 -127.1469199783462 0 0 0 0 9.6078576510117273 199.20301056744415 0 199.20301056744415 -368.01632600438006 0 0 0 0 -98.400503965887765 -7.2045349505679326 0 -7.2045349505679326 33.29847854261152 0 0 0 0 -78.149166963434254 43.198644559984928 0 43.198644559984928 86.874039923619875 0 0 0 0 -12.778190702563734 35.150614741675213 0 35.150614741675213 -1.961591804292425 0 0 0 0 -8.1475962329484162 3.0488243069178598 0 3.0488243069178598 -0.8134566716577839 0 0 0 0 -690.52715714868827 296.5146932239295 0 296.5146932239295 -344.29718975938363 0 0 0 0 -696.45101521957258 181.02307379609456 0 181.02307379609456 -303.52965539254018 0 0 0 0 -925.74844092968488 278.40932821282814 0 278.40932821282814 -307.35806732801768 0 0 0 0 -244.1336820867873 383.36812872575319 0 383.36812872575319 -408.10900101213429 0 0 0 0 -3.4200222331865859 1.585202349699891 0 1.585202349699891 -0.65714594518425584 0 0 0 0 -247.14098302135972 -39.157705237665596 0 -39.157705237665596 19.474414501768877 0 0 0 0 -992.40285256820425 370.98746522040221 0 370.98746522040221 -166.54792137559741 0 0 0 0 -2.6968034334325637 1.2569903497902786 0 1.2569903497902786 -0.70507534295604213 0 0 0 0 -900.2976903177987 369.97609103765274 0 369.97609103765274 -41.004855439305288 0 0 0 0 -115.98592934403132 167.69476426978531 0 167.69476426978531 -46.580463583632763 0 0 0 0 -687.67406846340418 315.52554886562331 0 315.52554886562331 -228.77602673760657 0 0 0 0 -616.30966620762774 275.63138831789485 0 275.63138831789485 -341.70303996750283 0 0 0 0 -628.65175642897429 318.24960854719671 0 318.24960854719671 -269.36784577745232 0 0 0 0 -565.6094305991428 315.74741171178243 0 315.74741171178243 -319.15077116247181 0 0 0 0 -621.95415437571137 333.24336824013085 0 333.24336824013085 -256.11765394352386 0 0 0 0 -571.70784217534947 322.81183006671239 0 322.81183006671239 -259.65762484801257 0 0 0 0 -572.26340673344748 301.47333185382155 0 301.47333185382155 -272.79714256265567 0 0 0 0 -680.71086200368882 269.97946551919625 0 269.97946551919625 -277.62788931732405 0 0 0 0 -717.73010793054186 317.46495514819031 0 317.46495514819031 -229.53726694292499 0 0 0 0 -722.73444145617009 252.10505061375358 0 252.10505061375358 -205.92161760864269 0 0 0 0 -540.81551267047871 226.80676236511451 0 226.80676236511451 -189.14648062394571 0 0 0 0 -0.76296572439374488 1.5991913326764404 0 1.5991913326764404 -0.55020965758259155 0 0 0 0 -1175.3317786180014 264.85575523666773 0 264.85575523666773 -11.655192713868502 0 0 0 0 -834.06439893641073 380.35482935393043 0 380.35482935393043 -209.09925249257148 0 0 0 0 -795.85066380464559 293.67970836684782 0 293.67970836684782 -86.994874749711443 0 0 0 0 -721.81688800150005 298.59227408949079 0 298.59227408949079 -104.39441348627247 0 0 0 0 -734.83653232337383 342.79363389041066 0 342.79363389041066 -0.77235002653924312 0 0 0 0 -746.87245232023997 243.37171187606506 0 243.37171187606506 -191.28416660874325 0 0 0 0 -772.61685404893888 327.80471783992971 0 327.80471783992971 -72.12015293467482 0 0 0 0 -534.25549044764921 331.35553844660382 0 331.35553844660382 -178.26202279240059 0 0 0 0 -600.0327172948746 271.93910740890215 0 271.93910740890215 -10.889473587832171 0 0 0 0 -620.57592339962866 334.32839207866419 0 334.32839207866419 -97.048799652936637 0 0 0 0 -517.56219780502943 289.44857677524186 0 289.44857677524186 -38.344352430067396 0 0 0 0 -664.43997645285708 292.37317425666379 0 292.37317425666379 28.378283389821306 0 0 0 0 -703.8853103088768 365.29094928936172 0 365.29094928936172 -13.740771043452291 0 0 0 0 -727.26523977018951 359.68897224758024 0 359.68897224758024 13.338380856145676 0 0 0 0 -775.8433368277947 419.15245355054913 0 419.15245355054913 -25.522404402842994 0 0 0 0 -630.39880809906026 336.13703744814313 0 336.13703744814313 10.376115381262977 0 0 0 0 -760.25973649071966 322.21267537592712 0 322.21267537592712 19.477544326241926 0 0 0 0 -745.54413639519043 324.49250446356268 0 324.49250446356268 -5.4710562923439738 0 0 0 0 -912.89899286776927 224.61524536548899 0 224.61524536548899 -14.598682194486088 0 0 0 0 -866.62518584298323 361.50293854934029 0 361.50293854934029 -88.886750928806123 0 0 0 0 -870.27508897314692 393.74466779701277 0 393.74466779701277 -43.627768679768678 0 0 0 0 -546.91293182327354 429.88113654690233 0 429.88113654690233 -107.59968885841613 0 0 0 0 -917.76357071081293 600.72658760709373 0 600.72658760709373 -184.10089076967057 0 0 0 0 -683.63794849431724 828.28747229047542 0 828.28747229047542 -836.32999972376717 0 0 0 0 -89.820152350890567 19.094831837119372 0 19.094831837119372 122.4948729361018 0 0 0 0 -4.9292230508583259 1.1668683556308714 0 1.1668683556308714 -0.11212610248239412 0 0 0 0 -274.00761324931955 454.7301077362365 0 454.7301077362365 -563.30879370428033 0 0 0 0 -1403.4109921456547 855.28503560551735 0 855.28503560551735 0.31036060903415735 0 0 0 0 -970.68496591388976 149.91555637150779 0 149.91555637150779 -133.02325992854614 0 0 0 0 -1369.587439397561 589.1244545759738 0 589.1244545759738 -146.83407191769862 0 0 0 0 -18.269385895097344 0.98659581803957264 0 0.98659581803957264 1.3595005936114533 0 0 0 0 -9.8502070391589882 -0.06120088597346296 0 -0.06120088597346296 0.084169257987289192 0 0 0 0 35.213465366570745 -3.3006035989364446 0 -3.3006035989364446 0.31779581672573071 0 0 0 0 -204.68472789177758 70.536367354076845 0 70.536367354076845 0.072136414416732464 0 0 0 0 -68.625632008344837 137.45235229829936 0 137.45235229829936 -289.68192348364732 0 0 0 0 -11.889434224727353 1.9017138972374212 0 1.9017138972374212 1.5002987596907067 0 0 0 0 -545.02233948753428 381.3508810060062 0 381.3508810060062 -109.07131012380603 0 0 0 0 -78.094390867816401 115.94005835809249 0 115.94005835809249 -167.04714306431541 0 0 0 0 204.3618268555955 60.142445314479637 0 60.142445314479637 -146.45106837825085 0 0 0 0 -4.4625933869880692 5.2450224389513096 0 5.2450224389513096 5.2089231467588561 0 0 0 0 -0.12119718896049658 4.4455678837143964 0 4.4455678837143964 0.23104758259481856 0 0 0 0 -526.31224651792218 213.97088310826243 0 213.97088310826243 -40.317629183265979 0 0 0 0 157.51102845522746 -44.998616095932164 0 -44.998616095932164 -13.705255820955358 0 0 0 0 -414.5740959753748 99.489707401337895 0 99.489707401337895 48.257053834902663 0 0 0 0 -518.81161285888811 372.78535561364566 0 372.78535561364566 -109.12840842490232 0 0 0 0 -719.03123628565027 162.171769831033 0 162.171769831033 4.1180980364117943 0 0 0 0 -685.33636753160681 365.42938071959816 0 365.42938071959816 -38.920708751266076 0 0 0 0 -272.6013432344771 -9.2135206223562438 0 -9.2135206223562438 -0.22233914313556094 0 0 0 0 -184.49099429477064 129.32547394927718 0 129.32547394927718 55.824886299739894 0 0 0 0 -359.93680622498869 -71.070729484484403 0 -71.070729484484403 -76.734332415374666 0 0 0 0 -421.55397207220449 -0.04171086477447794 0 -0.04171086477447794 173.5524231242606 0 0 0 0 -524.65351210381777 -4.8944036648861129 0 -4.8944036648861129 173.87430652922481 0 0 0 0 -127.98943960573524 35.231025241212365 0 35.231025241212365 62.194457762755775 0 0 0 0 -222.86056682845447 12.319359416351972 0 12.319359416351972 287.48993151729974 0 0 0 0 -201.02250781577095 -204.35773363992979 0 -204.35773363992979 -185.19921280634276 0 0 0 0 -5.4978957431208073 -2.871008936201493 0 -2.871008936201493 -0.86733856703765599 0 0 0 0 49.464342098874113 -472.39537912244441 0 -472.39537912244441 -334.34217259526895 0 0 0 0 -449.48196377690329 84.08621652117688 0 84.08621652117688 264.33000984695434 0 0 0 0 -625.61886734425207 492.12597779879025 0 492.12597779879025 -188.70080143790543 0 0 0 0 -20.883339252335816 -4.6583168584328245 0 -4.6583168584328245 0.12307003574528284 0 0 0 0 -33.549292625950443 20.958849185339488 0 20.958849185339488 -41.536458812133525 0 0 0 0 -1164.7832238566989 79.928984566577498 0 79.928984566577498 54.688587855168798 0 0 0 0 -1494.4933171933662 402.37349092823496 0 402.37349092823496 -188.65542050722868 0 0 0 0 667.70029309308302 -439.47133182933834 0 -439.47133182933834 -629.54296981574112 0 0 0 0 -8.1234210208116622 -3.202736049537183 0 -3.202736049537183 -1.3520718326200898 0 0 0 0 -5.7673859536341467 -2.2524497552030365 0 -2.2524497552030365 -0.63945542143310408 0 0 0 0 -1988.6299545997244 509.26070773430564 0 509.26070773430564 463.7296458022974 0 0 0 0 -382.26729713069653 -722.57309445858129 0 -722.57309445858129 -440.89824463527441 0 0 0 0 -162.42539179186861 106.26586814455166 0 106.26586814455166 67.256495013476751 0 0 0 0 -868.15383405142711 -184.37423798184506 0 -184.37423798184506 67.730935874313133 0 0 0 0 -1497.0400858382818 -614.0850323910455 0 -614.0850323910455 117.16238448230898 0 0 0 0 -825.19802698173953 -360.89481947694128 0 -360.89481947694128 179.74783013286194 0 0 0 0 -1500.187017180599 -182.17838898583844 0 -182.17838898583844 254.05676279701262 0 0 0 0 -1087.7843219985807 -103.61144509034486 0 -103.61144509034486 227.87506559407259 0 0 0 0 -963.42734676455439 100.32791484007043 0 100.32791484007043 25.011019183343763 0 0 0 0 -459.99548386490642 18.536796007012654 0 18.536796007012654 9.1015035743342878 0 0 0 0 -442.05379423862541 -22.878404342241907 0 -22.878404342241907 87.219396452047476 0 0 0 0 237.41987270034997 128.36692546993964 0 128.36692546993964 -139.44636199696498 0 0 0 0 -571.78250914401724 248.38125512239691 0 248.38125512239691 -144.38801734716134 0 0 0 0 -759.94833925349303 -58.828567311663392 0 -58.828567311663392 19.245190961335879 0 0 0 0 -513.51810966609992 202.33770359339371 0 202.33770359339371 -183.21841156087325 0 0 0 0 -580.9774163241018 202.90029771278171 0 202.90029771278171 -173.86842804352409 0 0 0 0 -618.63991386639827 311.65547859144556 0 311.65547859144556 -259.43186234697941 0 0 0 0 -622.06052358514046 336.1706666822007 0 336.1706666822007 -212.50241368262635 0 0 0 0 -796.11144303166748 274.05816235179935 0 274.05816235179935 -94.164393991593727 0 0 0 0 -795.96422230497774 281.42501886605237 0 281.42501886605237 -193.08318277377035 0 0 0 0 -1135.6002463269033 206.41485490460747 0 206.41485490460747 121.86293576942518 0 0 0 0 -1499.7418237809163 76.174011829324883 0 76.174011829324883 188.80905273245682 0 0 0 0 -1092.8542615586521 128.62521297705075 0 128.62521297705075 25.184178204092859 0 0 0 0 -6.6257231075033189 2.0960018520114332 0 2.0960018520114332 0.34266108625669767 0 0 0 0 -40.841045281802508 34.70448579694164 0 34.70448579694164 141.97888434515892 0 0 0 0 -116.39138141209332 -87.010915267377129 0 -87.010915267377129 -56.018155524347378 0 0 0 0 -68.605960944714752 -46.292173439060775 0 -46.292173439060775 -26.988935173837689 0 0 0 0 -148.30040203445969 -58.40768699297746 0 -58.40768699297746 9.8777462095874 0 0 0 0 -93.371390270407574 -27.804412792107428 0 -27.804412792107428 -3.7630164810895508 0 0 0 0 -14.382232350340928 2.6544497715449324 0 2.6544497715449324 8.9674528889722751 0 0 0 0 -77.489691623442923 -7.0065422348729953 0 -7.0065422348729953 7.5777597603314462 0 0 0 0 -2.6776191349345027 15.92296327841575 0 15.92296327841575 9.3999926086567029 0 0 0 0 -105.11229418340008 -31.320827128060898 0 -31.320827128060898 -83.603550598453694 0 0 0 0 -1.2319858371820089 2.0167983044846665 0 2.0167983044846665 2.9014218491060006 0 0 0 0 -20.967739879073633 -1.5217042409175292 0 -1.5217042409175292 14.446894408424555 0 0 0 0 -119.07248846582661 -57.328662844168718 0 -57.328662844168718 -41.592017383101165 0 0 0 0 -53.514154633463477 191.8472684383903 0 191.8472684383903 157.14691499178537 0 0 0 0 -209.80076443124926 -239.89127723980627 0 -239.89127723980627 -193.02462766130225 0 0 0 0 -2.5860825429364809 0.66410786339238115 0 0.66410786339238115 0.226129095526729 0 0 0 0 -85.031361948011181 77.106921701986039 0 77.106921701986039 -232.89258119836018 0 0 0 0 -1.5093916291878742 1.6897300526868975 0 1.6897300526868975 2.0611512578606712 0 0 0 0 -325.75193798407417 -136.7605984449624 0 -136.7605984449624 186.06934293989434 0 0 0 0 -9.1880699981593352 -14.024099036435302 0 -14.024099036435302 -0.056996052846898237 0 0 0 0 -209.62410005687707 -13.103701206274721 0 -13.103701206274721 95.348908845503274 0 0 0 0 -140.7443783304625 -26.371099206794042 0 -26.371099206794042 97.461406425164398 0 0 0 0 -0.41235251940986473 -0.90712630803716365 0 -0.90712630803716365 -0.26779905123905534 0 0 0 0 -211.21804985924973 -26.170957847443105 0 -26.170957847443105 -11.978024691791347 0 0 0 0 -50.21482910568011 40.810466026895426 0 40.810466026895426 -42.468888237880037 0 0 0 0 -192.73338872885779 65.947878370018543 0 65.947878370018543 100.55299680530266 0 0 0 0 -111.94257362381904 74.805717563980352 0 74.805717563980352 76.588006770994753 0 0 0 0 -151.26554375718115 28.20560156444003 0 28.20560156444003 31.214507617206436 0 0 0 0 -164.70130385433367 39.040378417755335 0 39.040378417755335 43.933008763502585 0 0 0 0 63.160226600541137 27.985492335347089 0 27.985492335347089 30.31847363668021 0 0 0 0 -6.1545628659860085 -15.09498437291839 0 -15.09498437291839 5.6548419910016037 0 0 0 0 -33.206913857000472 -85.106885150241709 0 -85.106885150241709 -119.3651947961215 0 0 0 0 -23.536300314495747 -35.414601079716647 0 -35.414601079716647 12.440858592922609 0 0 0 0 -27.418592631864158 -24.089564152449839 0 -24.089564152449839 -6.1463763345020652 0 0 0 0 -21.073073873048997 -16.66487890125245 0 -16.66487890125245 0.89572776140460064 0 0 0 0 -5.7668348549414077 -9.7859205953785704 0 -9.7859205953785704 -9.4638691767426053 0 0 0 0 -73.063549274433171 -1.7413809841517036 0 -1.7413809841517036 13.182989614729081 0 0 0 0 29.762129623470173 -29.009031558827644 0 -29.009031558827644 0.27242568384428978 0 0 0 0 0.1788768380210044 -0.075371473509974862 0 -0.075371473509974862 -0.55892447207932783 0 0 0 0 -4.8087314046188112 -9.7268928872750848 0 -9.7268928872750848 3.3638713624536649 0 0 0 0 -10.74385709253329 -0.64820995975745177 0 -0.64820995975745177 2.5672657376746884 0 0 0 0 -1.3503580385882188 -0.68633397563704079 0 -0.68633397563704079 -0.73051702431310162 0 0 0 0 -9.5611911334344768 -9.6585758522546712 0 -9.6585758522546712 14.644449125659548 0 0 0 0 4.0202148382923042 -15.361463219410552 0 -15.361463219410552 6.6056591465005567 0 0 0 0 9.8124658148590242 -2.6100833380392032 0 -2.6100833380392032 3.9454476203673039 0 0 0 0 -30.367453161034064 -3.9004246336680808 0 -3.9004246336680808 11.8430071563306 0 0 0 0 -39.1684301107598 1.3974196536098304 0 1.3974196536098304 10.200954117730589 0 0 0 0 -17.694209100668445 1.5366066789668373 0 1.5366066789668373 -4.117516403876607 0 0 0 0 -5.4797439571884752 -8.7965123460038797 0 -8.7965123460038797 -0.022468535357234032 0 0 0 0 -17.405366618193398 -9.5807869720737866 0 -9.5807869720737866 11.343030779875107 0 0 0 0 -27.534442580319592 -9.168602168031498 0 -9.168602168031498 6.2276656551579777 0 0 0 0 -26.792641016034395 -7.6279107527879688 0 -7.6279107527879688 0.4562835876099598 0 0 0 0 -2.3635905243139419 -4.9148161937280577 0 -4.9148161937280577 5.0507863053562234 0 0 0 0 -4.7279338511442859 -2.8256688359193021 0 -2.8256688359193021 3.2565412953556137 0 0 0 0 -7.3321082921393099 -10.304967537285108 0 -10.304967537285108 -2.4716135561993724 0 0 0 0 -29.588241681129148 -37.600863937930654 0 -37.600863937930654 18.176923338073607 0 0 0 0 -12.816781654477381 -27.134465672955926 0 -27.134465672955926 9.4648733517618666 0 0 0 0 -37.145682425270934 -18.574082534622136 0 -18.574082534622136 12.14902661915562 0 0 0 0 -8.957554102223142 3.4920708840281947 0 3.4920708840281947 -0.21134111433451974 0 0 0 0 -17.669271480641328 35.161603874577054 0 35.161603874577054 46.262382704634973 0 0 0 0 -79.688267866542446 -23.309075612833254 0 -23.309075612833254 -8.9523142215572022 0 0 0 0 -18.355158503887651 -7.6809508454207318 0 -7.6809508454207318 -17.604829504275415 0 0 0 0 -11.568352071986851 3.8995253615819294 0 3.8995253615819294 -0.8149859427490862 0 0 0 0 -27.262804637231966 4.7598486442344807 0 4.7598486442344807 -2.4637218024018921 0 0 0 0 -21.791716579176864 -3.5116234348925701 0 -3.5116234348925701 21.54721965423785 0 0 0 0 -8.6186227812650031 -12.926937462940145 0 -12.926937462940145 -21.435149678643256 0 0 0 0 -13.452532760624308 -51.694383201456162 0 -51.694383201456162 -88.664231919825852 0 0 0 0 -2.8312923412819657 0.17026340888487113 0 0.17026340888487113 -1.4524035230933459 0 0 0 0 0.019641176031839791 -1.0408827199332649 0 -1.0408827199332649 -1.0093490560085425 0 0 0 0 -140.54402397909871 -2.1538774992239098 0 -2.1538774992239098 6.8128294925323871 0 0 0 0 -10.160175872505413 -5.0263613498964617 0 -5.0263613498964617 -0.96206573915860649 0 0 0 0 128.83577420959409 -238.31704535212424 0 -238.31704535212424 110.72224267517345 0 0 0 0 -21.838403475715253 -7.0226885145817732 0 -7.0226885145817732 8.6088526483014327 0 0 0 0 -25.449357048564707 -5.6820279003482028 0 -5.6820279003482028 -3.4626670132216191 0 0 0 0 -18.394624649881592 -8.5683078045931715 0 -8.5683078045931715 1.226870861093625 0 0 0 0 -39.628677882021293 -3.907241892218849 0 -3.907241892218849 0.40331660371526823 0 0 0 0 -11.354224895874722 -6.7973159213026157 0 -6.7973159213026157 2.5023288383303566 0 0 0 0 -12.1354191674276 -7.026567808758827 0 -7.026567808758827 3.0210131755894691 0 0 0 0 -25.071410541372643 -7.035163436628153 0 -7.035163436628153 -2.0869753230248307 0 0 0 0 -21.543195194157306 -4.047839187061669 0 -4.047839187061669 -0.37380987856145964 0 0 0 0 -15.404924371515534 -5.6703949183598148 0 -5.6703949183598148 0.1165693963301937 0 0 0 0 -13.299973517583567 -8.4201078117207544 0 -8.4201078117207544 2.1595437727183935 0 0 0 0 -8.5838092543572202 -11.84398180587667 0 -11.84398180587667 3.9687296893340545 0 0 0 0 -5.8677696500632948 -5.7302362169200123 0 -5.7302362169200123 3.708393087851519 0 0 0 0 -19.080573372579238 -19.619048679420075 0 -19.619048679420075 -8.679293502120224 0 0 0 0 -13.960787744712434 -5.844346866823571 0 -5.844346866823571 2.0209501378908499 0 0 0 0 -16.39400046915398 -4.5255444171430099 0 -4.5255444171430099 -6.933541707949189 0 0 0 0 -5.4814678481647476 -4.9564088083326254 0 -4.9564088083326254 -2.4535854440653799 0 0 0 0 -12.498425504221814 -7.2271742363254816 0 -7.2271742363254816 -8.5101860574486636 0 0 0 0 -16.284059889032505 -4.9668053427780023 0 -4.9668053427780023 -8.7517569576685492 0 0 0 0 -2.5596731901712424 -0.33482239023943094 0 -0.33482239023943094 0.2118149101488056 0 0 0 0 -27.930265143508223 2.5775484251748821 0 2.5775484251748821 7.8462113506193418 0 0 0 0 -7.0458537076378818 -11.164558813521374 0 -11.164558813521374 5.8369745305088241 0 0 0 0 -34.049450779051767 10.139059231768329 0 10.139059231768329 4.9466988603471691 0 0 0 0 -9.9632503083442003 1.7654926250733034 0 1.7654926250733034 -0.072739004871761992 0 0 0 0 -12.829335208018165 -16.803583965939765 0 -16.803583965939765 5.5250809815831872 0 0 0 0 -7.0309626596899761 -19.669705867390689 0 -19.669705867390689 -1.2928492199365564 0 0 0 0 -6.8723239104889799 -11.321924355829218 0 -11.321924355829218 5.5393054291263137 0 0 0 0 -51.12197768403712 3.416972418368232 0 3.416972418368232 11.56007390060563 0 0 0 0 -32.280882305087289 -14.534745940462358 0 -14.534745940462358 17.529443469582475 0 0 0 0 -37.496318991310545 -8.7424507553591866 0 -8.7424507553591866 6.3054942841599768 0 0 0 0 -24.207510356747662 1.0014443431741711 0 1.0014443431741711 -2.6747140875950208 0 0 0 0 -24.837152389518451 1.6165403035338386 0 1.6165403035338386 8.5149585587887486 0 0 0 0 -24.33118286107856 1.6850144916219278 0 1.6850144916219278 9.7955487141625781 0 0 0 0 -115.41310295652102 -60.011238239781093 0 -60.011238239781093 39.742289153914953 0 0 0 0 -117.06769068439166 43.728365965851353 0 43.728365965851353 85.442869899599827 0 0 0 0 -17.038833205697301 -22.423769339165233 0 -22.423769339165233 -1.5474619469337085 0 0 0 0 -32.22476433700831 -18.113952767822582 0 -18.113952767822582 33.661703197864881 0 0 0 0 -30.132406002470816 -21.549556947772771 0 -21.549556947772771 8.3895870691897017 0 0 0 0 -13.253658789624751 -10.409529442468283 0 -10.409529442468283 32.626261096620965 0 0 0 0 5.8229816178845795 93.012917217404137 0 93.012917217404137 74.824774318061827 0 0 0 0 -1.2310604925457937 0.11476196791591775 0 0.11476196791591775 1.5545164752091223 0 0 0 0 -163.98831836262616 -38.03821310485921 0 -38.03821310485921 28.247240192439222 0 0 0 0 -173.55749884508987 -78.924486854648762 0 -78.924486854648762 -36.032595775834295 0 0 0 0 -48.385226711307041 -22.041830240230297 0 -22.041830240230297 -6.890376070931552 0 0 0 0 -89.085228214680683 -62.487321056414885 0 -62.487321056414885 -25.92043508752235 0 0 0 0 -96.590291984298801 -22.95865510808764 0 -22.95865510808764 10.69179053994435 0 0 0 0 -97.755937603062193 -12.60867397685854 0 -12.60867397685854 37.948397053706344 0 0 0 0 -64.316509983376932 2.8239484173239511 0 2.8239484173239511 -1.6210769717361018 0 0 0 0 -75.668933168359217 -46.440573204877978 0 -46.440573204877978 -14.215242266613132 0 0 0 0 -79.845818776309898 -60.50217138887902 0 -60.50217138887902 -54.307537148505098 0 0 0 0 -63.900016390143719 -9.0623797667259396 0 -9.0623797667259396 -64.312856372973556 0 0 0 0 -83.952257635093702 -35.196746811744788 0 -35.196746811744788 -27.60065684888832 0 0 0 0 -79.957283317371548 -22.372801483162974 0 -22.372801483162974 -3.7592784889428685 0 0 0 0 -92.013027006250923 -49.198454379335949 0 -49.198454379335949 -14.324530712958222 0 0 0 0 -103.40644450878426 -33.400667982117042 0 -33.400667982117042 -1.6813991887656243 0 0 0 0 -78.522333048946166 10.817621979070623 0 10.817621979070623 2.257547659467825 0 0 0 0 -11.923501850951652 2.7511332969747855 0 2.7511332969747855 -13.288032541308667 0 0 0 0 -1.0497610272547888 1.2721388303260284 0 1.2721388303260284 5.028515834808525 0 0 0 0 -0.61499411442089524 0.34743373121226284 0 0.34743373121226284 7.7446864985000188 0 0 0 0 -10.791322456501803 -20.947286481112201 0 -20.947286481112201 14.49527950166771 0 0 0 0 -77.507989772580913 -26.755370127739184 0 -26.755370127739184 1.956211625564265 0 0 0 0 -40.973423090785218 -16.171408702863914 0 -16.171408702863914 3.5767849965650811 0 0 0 0 -1.5793875406379811 -13.509035471767561 0 -13.509035471767561 -12.698996453782684 0 0 0 0 -57.070084283952383 38.279875973639491 0 38.279875973639491 -16.625161776904406 0 0 0 0 -4.8082090672359072 1.6145126137177286 0 1.6145126137177286 -0.35810461517338843 0 0 0 0 -31.54476983629138 -32.66651261525783 0 -32.66651261525783 63.811491506768789 0 0 0 0 -3.4586629860782523 32.089197333026846 0 32.089197333026846 83.343038275348817 0 0 0 0 -75.1262503159669 -44.448631526613326 0 -44.448631526613326 -35.097517290348065 0 0 0 0 1.1709197467935155 2.7570033954594919 0 2.7570033954594919 3.1887747771654631 0 0 0 0 -5.7906979593004451 3.346056307064373 0 3.346056307064373 2.3411706825745897 0 0 0 0 -28.070206851582043 -11.06694763199414 0 -11.06694763199414 -1.5932455167143402 0 0 0 0 -22.220923108898205 6.3485011473014197 0 6.3485011473014197 30.942159614862248 0 0 0 0 -1.6808483165619705 -0.32225330838728894 0 -0.32225330838728894 10.813201112224863 0 0 0 0 -90.613560101679468 -40.514296730348008 0 -40.514296730348008 -4.5429533219146094 0 0 0 0 -50.284069235287461 -48.246429854744434 0 -48.246429854744434 -37.771689906111533 0 0 0 0 -153.74497621026603 -30.524049265649069 0 -30.524049265649069 12.736835368290258 0 0 0 0 -119.76751453840552 -72.406643569312166 0 -72.406643569312166 -32.278648361360752 0 0 0 0 -2.0965107304766946 0.63069706888155963 0 0.63069706888155963 -0.032521270281844039 0 0 0 0 -290.4134204016882 -176.70904443309996 0 -176.70904443309996 -105.13107808069577 0 0 0 0 -74.312474239457515 -45.03091822941542 0 -45.03091822941542 -41.780390873689441 0 0 0 0 -151.0772290950772 -119.13938503010871 0 -119.13938503010871 -97.623035922302961 0 0 0 0 -382.37024114923406 -3.5871229508603619 0 -3.5871229508603619 -26.794025318827153 0 0 0 0 -253.54449430353998 -35.431832654491018 0 -35.431832654491018 1.9613533067697517 0 0 0 0 -195.53067428207214 3.9663772076170858 0 3.9663772076170858 -38.263889191640487 0 0 0 0 -178.77986111541873 11.083828426138844 0 11.083828426138844 7.9285046717963041 0 0 0 0 -175.41903690960316 -46.210320639659983 0 -46.210320639659983 2.333057366660114 0 0 0 0 -141.59721565512882 -4.9413973786168413 0 -4.9413973786168413 14.793913391828539 0 0 0 0 -126.93880879207063 30.378019992632673 0 30.378019992632673 7.5101107192305108 0 0 0 0 -131.39736820258258 10.806995308084993 0 10.806995308084993 -2.2772817775164071 0 0 0 0 -75.847957071822748 18.636940284217815 0 18.636940284217815 -1.5544172379370025 0 0 0 0 -104.32735735246388 43.320446436823261 0 43.320446436823261 -16.572912634210866 0 0 0 0 -110.45606260807108 10.640435795032317 0 10.640435795032317 -21.421244686550722 0 0 0 0 -78.404421328079479 22.120970127483417 0 22.120970127483417 -36.790958867725749 0 0 0 0 -173.85301999101648 42.770466397057021 0 42.770466397057021 -19.647568254759108 0 0 0 0 -186.49871606395027 -10.604627453288629 0 -10.604627453288629 -15.611167992923356 0 0 0 0 -119.3357818338045 32.366977640900899 0 32.366977640900899 -74.085789867246149 0 0 0 0 -177.9286078077057 -12.110257380909218 0 -12.110257380909218 -28.998889127013854 0 0 0 0 -141.84302793515963 -22.854686569362798 0 -22.854686569362798 -60.403022863644026 0 0 0 0 -142.45554917699337 -6.7284640971674889 0 -6.7284640971674889 -47.711787538304407 0 0 0 0 -71.133312383157318 9.6332209108896905 0 9.6332209108896905 -22.06093029871181 0 0 0 0 -102.80880589917069 -9.6471074263602077 0 -9.6471074263602077 -20.732637147756463 0 0 0 0 -112.83112035095837 6.6689588357763228 0 6.6689588357763228 -36.141562442308441 0 0 0 0 -136.6496970163862 -24.356515654663667 0 -24.356515654663667 -22.483006746426895 0 0 0 0 -106.72138752608771 -8.2574809860402922 0 -8.2574809860402922 -19.656149643078834 0 0 0 0 -104.9294116091678 -14.943074630017662 0 -14.943074630017662 -2.3838036566098708 0 0 0 0 -78.15114558456844 -14.608041905301093 0 -14.608041905301093 -13.026144430276531 0 0 0 0 -130.93747542699566 -34.135794475918658 0 -34.135794475918658 -10.207227673840407 0 0 0 0 -112.29240074938207 -12.887507730064442 0 -12.887507730064442 8.3492425204617575 0 0 0 0 -198.5366898741413 -19.457688080451533 0 -19.457688080451533 32.562243447989658 0 0 0 0 -172.24580219901691 -50.095459737509145 0 -50.095459737509145 -25.162948862163944 0 0 0 0 -145.20468509593411 -20.372649575711591 0 -20.372649575711591 7.4796715528345885 0 0 0 0 -177.65528278693819 -16.836120550906344 0 -16.836120550906344 25.421663449622656 0 0 0 0 -100.74782957711432 27.521798368095688 0 27.521798368095688 19.042483957355103 0 0 0 0 -176.98421778994816 -0.14768899534692537 0 -0.14768899534692537 47.795335898407757 0 0 0 0 -78.31522967174169 -24.237793946433754 0 -24.237793946433754 14.169193582196385 0 0 0 0 -125.66778280603467 -26.077449752355733 0 -26.077449752355733 39.522816762623961 0 0 0 0 -0.29488338574457629 0.46265454289090258 0 0.46265454289090258 -0.60064409755769077 0 0 0 0 -226.94420705569792 18.27461610031861 0 18.27461610031861 48.198796987719561 0 0 0 0 6.9697857781611674 83.831952497739451 0 83.831952497739451 -46.31067000145049 0 0 0 0 -77.567752110524452 8.5672479152948426 0 8.5672479152948426 2.9439217223934975 0 0 0 0 -138.98240894460469 -40.650111775568575 0 -40.650111775568575 29.383134901850667 0 0 0 0 -173.83091036687256 -29.853195864815007 0 -29.853195864815007 39.342683364039658 0 0 0 0 -167.3294130700524 45.099439873967867 0 45.099439873967867 1.3408234761113818 0 0 0 0 -58.481419351432123 159.72618671094563 0 159.72618671094563 42.329460674292022 0 0 0 0 -152.28867726385215 98.749036267551674 0 98.749036267551674 -34.894978343294952 0 0 0 0 104.89445685572719 14.749219266439013 0 14.749219266439013 -66.79872935198523 0 0 0 0 -177.55478304874248 4.0714737824811138 0 4.0714737824811138 -178.24183420410282 0 0 0 0 -247.1071429700969 -69.641194700516849 0 -69.641194700516849 -8.7147294385844134 0 0 0 0 -276.20669395796722 26.186958674879179 0 26.186958674879179 45.605669935351102 0 0 0 0 -142.80777009949816 179.09002778708896 0 179.09002778708896 38.213529593789417 0 0 0 0 -4.0301219013804825 4.3063463059111768 0 4.3063463059111768 3.2656761636655594 0 0 0 0 2.9277979955986666 9.0846471485722304 0 9.0846471485722304 5.3230059414472635 0 0 0 0 -0.56317886732010436 1.1498444026823904 0 1.1498444026823904 -0.012126334556675111 0 0 0 0 -94.314720768088591 -28.110224862940527 0 -28.110224862940527 8.2410074135700597 0 0 0 0 -74.693600597332988 -30.590548063579035 0 -30.590548063579035 -0.38514031556036343 0 0 0 0 -127.98883961638421 -23.863814963806817 0 -23.863814963806817 8.0684393475150102 0 0 0 0 -83.323253396047221 6.0951951307107635 0 6.0951951307107635 -6.1343478666640294 0 0 0 0 0.99606733447393125 1.9807263848233703 0 1.9807263848233703 1.8409696334902113 0 0 0 0 -143.87350294848511 -30.065155631702567 0 -30.065155631702567 12.127466249123955 0 0 0 0 -17.225360451004235 9.9110749455679183 0 9.9110749455679183 15.87103180252825 0 0 0 0 -19.587005400651833 8.1752707979015327 0 8.1752707979015327 5.1361869891890706 0 0 0 0 16.138740801389758 34.377583698009992 0 34.377583698009992 -4.0216804851548886 0 0 0 0 -59.625117409173981 39.488192975741583 0 39.488192975741583 -0.28150090989277032 0 0 0 0 -23.478119191346195 24.399160893240946 0 24.399160893240946 -2.8003222322981856 0 0 0 0 -40.182598827348556 12.923444167571347 0 12.923444167571347 -8.7712433745729186 0 0 0 0 -16.72717516827106 21.258847312682576 0 21.258847312682576 -17.88572329639635 0 0 0 0 -42.712993757391814 28.268231879308075 0 28.268231879308075 -5.7628397722553473 0 0 0 0 -78.053516466920883 17.89713324169324 0 17.89713324169324 -0.30693644140978904 0 0 0 0 -62.72926372130496 -5.4650144018519882 0 -5.4650144018519882 -2.6111155426738151 0 0 0 0 -18.21461322542018 6.4277122990135922 0 6.4277122990135922 -13.611504002987317 0 0 0 0 -76.164265305259505 -3.7003902859206903 0 -3.7003902859206903 16.749936305561505 0 0 0 0 -55.732286541751819 -16.083138580284867 0 -16.083138580284867 1.5033538262088086 0 0 0 0 21.870751786562323 -7.0797133202867144 0 -7.0797133202867144 8.3477237051364455 0 0 0 0 -42.446002981159836 13.845714952667379 0 13.845714952667379 34.148504190204221 0 0 0 0 -16.836154538823848 16.36371082578512 0 16.36371082578512 23.094138673680163 0 0 0 0 60.125254705413681 21.240493246351377 0 21.240493246351377 -10.638817222426667 0 0 0 0 -0.63202367340728927 0.89296752050024963 0 0.89296752050024963 1.0263856749786822 0 0 0 0 103.3802104287588 53.756347313215514 0 53.756347313215514 0.67134223946868588 0 0 0 0 -0.13872098176307901 0.34015048405096593 0 0.34015048405096593 0.35677322982149562 0 0 0 0 -160.72119096789538 -35.173798899898316 0 -35.173798899898316 18.874155270851389 0 0 0 0 -73.694838685772993 8.8520096322511677 0 8.8520096322511677 -13.55062525420044 0 0 0 0 -1.7166893510148924 5.1408154116585294 0 5.1408154116585294 2.9549558470921928 0 0 0 0 12.752662341434188 1.7911741367878449 0 1.7911741367878449 2.2929872303649859 0 0 0 0 -25.451144546292198 14.77423797211577 0 14.77423797211577 7.9832428655469698 0 0 0 0 -61.849105783661798 20.698653047501097 0 20.698653047501097 8.364853700452727 0 0 0 0 -2.080479827104476 5.150185174044978 0 5.150185174044978 2.9099661020189762 0 0 0 0 -39.683261366986699 34.898071373796142 0 34.898071373796142 55.075413627154148 0 0 0 0 -30.583682944554312 21.569201416323807 0 21.569201416323807 9.7785673848075021 0 0 0 0 -71.735675761774473 4.54613283794788 0 4.54613283794788 20.978626009131062 0 0 0 0 -20.426292152438691 4.2466710439621238 0 4.2466710439621238 6.1627304445655682 0 0 0 0 -49.327878944401164 -21.368430569009092 0 -21.368430569009092 20.959855141070193 0 0 0 0 -65.888354111593799 -8.5039624592918699 0 -8.5039624592918699 15.419417957414908 0 0 0 0 -92.163019168016035 -9.6116681754789397 0 -9.6116681754789397 16.524730572767453 0 0 0 0 -78.225078972725896 -28.769132603742179 0 -28.769132603742179 4.17841071338853 0 0 0 0 -80.679466223202326 -24.641302568412755 0 -24.641302568412755 -1.0111324417971446 0 0 0 0 -98.846242183702998 -28.96775348565734 0 -28.96775348565734 14.093442247451435 0 0 0 0 -80.66344943146396 -29.148589978184191 0 -29.148589978184191 12.079222094962461 0 0 0 0 -99.518259510572534 -48.665854725757583 0 -48.665854725757583 11.091222598963554 0 0 0 0 -148.68782100380122 -71.603128538445162 0 -71.603128538445162 5.406388996061537 0 0 0 0 -32.602479784436582 -74.240307797821572 0 -74.240307797821572 -19.036411086366471 0 0 0 0 -92.718448824482039 -100.52126109857062 0 -100.52126109857062 -17.892577630947358 0 0 0 0 -109.61642346522422 10.083733655132392 0 10.083733655132392 20.430317632734045 0 0 0 0 -307.72121713127126 63.397116861418453 0 63.397116861418453 6.7099295112456048 0 0 0 0 -136.06867888491433 6.1700697475845914 0 6.1700697475845914 27.394724334118791 0 0 0 0 -59.866975714314322 -0.88981018623786667 0 -0.88981018623786667 8.6827942252414232 0 0 0 0 3.3538997205359919 35.359986402363006 0 35.359986402363006 -12.467233090177274 0 0 0 0 -68.924654827366794 34.799266811415606 0 34.799266811415606 7.1669167002660288 0 0 0 0 -91.301100883746585 82.779148418333236 0 82.779148418333236 -4.1505633332660636 0 0 0 0 -6.7578464140988217 19.564822281682041 0 19.564822281682041 -8.7121017565989405 0 0 0 0 4.2441246433372726 6.039997026393678 0 6.039997026393678 4.1887016912838817 0 0 0 0 -162.2599632198544 5.7238918560108232 0 5.7238918560108232 -21.493607563604144 0 0 0 0 -164.64047600180857 3.4020544964654391 0 3.4020544964654391 9.1914567039227677 0 0 0 0 -169.08244250749703 -15.385133433152987 0 -15.385133433152987 -26.480286497627986 0 0 0 0 -0.45876581429861574 -0.49227045880553533 0 -0.49227045880553533 -0.49440965332938891 0 0 0 0 27.726586596487323 -34.153083372659694 0 -34.153083372659694 -7.0034759092297918 0 0 0 0 -336.38147958358422 114.59340549959779 0 114.59340549959779 86.773792111778221 0 0 0 0 -0.64384006824066731 0.99143208969834973 0 0.99143208969834973 -1.3788939746083182 0 0 0 0 -227.15566334879259 -65.233874501382047 0 -65.233874501382047 -97.95323076333807 0 0 0 0 -43.123587419289834 -64.443366173451409 0 -64.443366173451409 -0.0676810668219332 0 0 0 0 -63.042714295194855 -71.297852735260221 0 -71.297852735260221 -2.1992599574018641 0 0 0 0 -225.3973720100912 -42.258764438849994 0 -42.258764438849994 29.870183301662621 0 0 0 0 -177.74685958804366 5.2494743688496612 0 5.2494743688496612 17.337026172844389 0 0 0 0 -168.1940071155841 -9.8619016106765685 0 -9.8619016106765685 37.779647099549493 0 0 0 0 -170.93245247448067 4.9765788231243988 0 4.9765788231243988 23.782304897645645 0 0 0 0 -169.06540272272832 -5.0848374761449122 0 -5.0848374761449122 33.916494086833609 0 0 0 0 -169.16331068216095 -7.9802035415645491 0 -7.9802035415645491 19.311109057873864 0 0 0 0 -149.04778100420663 -27.132495068656453 0 -27.132495068656453 11.173029913353673 0 0 0 0 -137.82289639648661 -5.4440337151780227 0 -5.4440337151780227 -6.5537888735768774 0 0 0 0 -159.31001219488098 2.3221584806033206 0 2.3221584806033206 9.2619938798932253 0 0 0 0 -153.35555494030996 -7.4755858725575308 0 -7.4755858725575308 17.569298928353533 0 0 0 0 -102.99318973284971 -26.210493887307621 0 -26.210493887307621 3.3827266008730135 0 0 0 0 -131.7709007024132 -12.258442016421611 0 -12.258442016421611 9.5709492959147155 0 0 0 0 -123.69205504222191 -23.844688088572184 0 -23.844688088572184 10.208254390903072 0 0 0 0 -114.616070904136 -12.276728108296766 0 -12.276728108296766 -17.484452938710206 0 0 0 0 -100.14919088320312 -21.970660021458855 0 -21.970660021458855 -11.000517457824913 0 0 0 0 -119.02156386854767 -13.801641965231738 0 -13.801641965231738 -4.1316024531749349 0 0 0 0 -134.6290989464178 8.3638273487238735 0 8.3638273487238735 -22.257547642982445 0 0 0 0 -89.212691611923219 10.519977804432642 0 10.519977804432642 -53.834378270498064 0 0 0 0 -169.5289056890033 13.076220775644629 0 13.076220775644629 -20.665966471511979 0 0 0 0 -100.69001174048208 -13.69848484894132 0 -13.69848484894132 -41.454109563748943 0 0 0 0 -31.854344181730994 -34.617960985324999 0 -34.617960985324999 -47.271375597542857 0 0 0 0 -138.53789636996225 1.8224771982328321 0 1.8224771982328321 -36.614526071765113 0 0 0 0 -73.39081554357108 -35.300536244743739 0 -35.300536244743739 -27.570960203280777 0 0 0 0 -87.465254038172134 -48.843901817793778 0 -48.843901817793778 -30.301310311596808 0 0 0 0 -44.0002854948616 -57.958314623848196 0 -57.958314623848196 -30.5261984905015 0 0 0 0 -14.209459760990285 -65.565243916340478 0 -65.565243916340478 -24.231574448826564 0 0 0 0 -60.720612556575361 -45.676487549947524 0 -45.676487549947524 -27.324715757640092 0 0 0 0 -1.6402625066184555 -66.007603904135067 0 -66.007603904135067 -14.41073138255905 0 0 0 0 -52.694764622923685 -52.842370092207645 0 -52.842370092207645 112.71290753325445 0 0 0 0 -74.542669149836001 28.044286141083603 0 28.044286141083603 -44.9876142605533 0 0 0 0 14.006886930998007 47.167255041110081 0 47.167255041110081 -106.38668494323673 0 0 0 0 -169.0189480453846 117.22682420686465 0 117.22682420686465 -51.527505472820394 0 0 0 0 -0.34042361929259357 0.34003903051213058 0 0.34003903051213058 -0.82940447216746183 0 0 0 0 -320.10927202154926 20.80428531992537 0 20.80428531992537 13.509139015280425 0 0 0 0 -1.5237296535165683 -2.1334301604758252 0 -2.1334301604758252 -2.115690457491497 0 0 0 0 -146.28713320207316 -70.317878614283131 0 -70.317878614283131 -83.470785374057698 0 0 0 0 -215.82967397521861 61.129056254930958 0 61.129056254930958 39.954200377914276 0 0 0 0 -16.513862331723431 86.779089177233359 0 86.779089177233359 -39.131838544980155 0 0 0 0 -258.94814923901868 72.290012155936097 0 72.290012155936097 15.751237974571694 0 0 0 0 -209.45246128835424 86.784929773263116 0 86.784929773263116 19.995013277656199 0 0 0 0 -203.22652294612999 46.763535963243854 0 46.763535963243854 13.023999575222206 0 0 0 0 -283.72589348640759 26.882180716412506 0 26.882180716412506 8.1916673731443268 0 0 0 0 -212.77869594885851 25.201285684204777 0 25.201285684204777 -33.920023922165228 0 0 0 0 -276.5718263179042 -0.27507581582540297 0 -0.27507581582540297 52.649189377719722 0 0 0 0 -299.62224567972589 -23.93738230034289 0 -23.93738230034289 20.239148986633609 0 0 0 0 -117.02862018869928 -23.73964644735878 0 -23.73964644735878 9.8343095614654032 0 0 0 0 -55.457396277110092 -53.746994276053215 0 -53.746994276053215 -24.815945037944061 0 0 0 0 35.419913999510754 -25.589352441717722 0 -25.589352441717722 -44.082992186048841 0 0 0 0 3.3756353328062687 -46.349178255913785 0 -46.349178255913785 -33.395255494542198 0 0 0 0 -112.19018983483693 -17.750400076995675 0 -17.750400076995675 -0.23100915841621372 0 0 0 0 -101.31369066702609 -79.322068665357307 0 -79.322068665357307 -32.545840259434328 0 0 0 0 -180.54127733816131 140.08089598726244 0 140.08089598726244 71.780763744895012 0 0 0 0 -2.3609769061056056 0.095150821632724369 0 0.095150821632724369 0.058237661894388851 0 0 0 0 -5.0266139146411604 -0.2033555842183441 0 -0.2033555842183441 0.22659836966124314 0 0 0 0 -67.168222034815699 -18.372000006614599 0 -18.372000006614599 149.40397768606016 0 0 0 0 26.092141693392477 -75.606850110943071 0 -75.606850110943071 114.74535508578614 0 0 0 0 1.0143500011108699 -3.1155331072117178 0 -3.1155331072117178 45.595403950952459 0 0 0 0 152.00183726460818 -61.487416034385433 0 -61.487416034385433 -137.00827655090018 0 0 0 0 -220.4730036965193 -52.072705336183105 0 -52.072705336183105 -138.88563895937665 0 0 0 0 -1.1892246021560737 -0.72370135643086542 0 -0.72370135643086542 -0.51222965149828215 0 0 0 0 46.978535562763682 53.571148801499632 0 53.571148801499632 -102.15978957739765 0 0 0 0 20.085444443080632 6.2698191721421495 0 6.2698191721421495 -1.7180359241418728 0 0 0 0 27.303179197355348 -27.435042143727742 0 -27.435042143727742 -11.361739426359591 0 0 0 0 13.117356788425241 -24.257672725153498 0 -24.257672725153498 -1.8838117906806247 0 0 0 0 -2.2154826592831114 -1.8191743526370772 0 -1.8191743526370772 -1.4514353733955674 0 0 0 0 15.249301412804925 -60.049982443263843 0 -60.049982443263843 -6.6384881836723935 0 0 0 0 -125.66276020193254 185.19217387041195 0 185.19217387041195 -74.99291239054628 0 0 0 0 -35.964621375700517 204.4905755883857 0 204.4905755883857 5.9849037620584795 0 0 0 0 -53.537129111202375 126.67243868485919 0 126.67243868485919 -29.954663616113123 0 0 0 0 -1.0516455084041922 0.58865928375256971 0 0.58865928375256971 -0.15936002874694205 0 0 0 0 -114.66792548872945 -25.604171156491365 0 -25.604171156491365 -55.079247259889826 0 0 0 0 -117.64452780999272 117.61513502179267 0 117.61513502179267 -31.928715764453923 0 0 0 0 -78.986911170533858 -21.470247456727975 0 -21.470247456727975 37.515044512702964 0 0 0 0 20.363280062352715 6.4872301624236002 0 6.4872301624236002 -7.0808440329591349 0 0 0 0 -171.52586511379923 4.7348466402117992 0 4.7348466402117992 30.311824167146597 0 0 0 0 -75.268170170820667 -5.0357254979909527 0 -5.0357254979909527 -0.87537862438769309 0 0 0 0 -190.52368384004876 6.7132547348033214 0 6.7132547348033214 13.902880461456789 0 0 0 0 -90.627084706640744 4.2338801718557306 0 4.2338801718557306 -5.9476746792644235 0 0 0 0 -48.83339048934431 -11.734135217031849 0 -11.734135217031849 -7.4971849288311887 0 0 0 0 -88.9907063074088 -21.738027814324536 0 -21.738027814324536 2.5469858897606628 0 0 0 0 31.063604532413592 9.1321368515348524 0 9.1321368515348524 -1.6002761534544732 0 0 0 0 34.377452439473473 -4.2467867889906259 0 -4.2467867889906259 -73.261465381090829 0 0 0 0 -55.163308145500196 -16.030326693227323 0 -16.030326693227323 -2.7959329015221432 0 0 0 0 -27.147164610421896 -73.818315366678775 0 -73.818315366678775 2.3021685288425005 0 0 0 0 -266.21169899333472 -54.478138355735894 0 -54.478138355735894 -54.379281754451767 0 0 0 0 14.68531675655322 48.475366791406259 0 48.475366791406259 -27.058326768733636 0 0 0 0 -72.29260259698367 60.807249512121004 0 60.807249512121004 -189.80869305546594 0 0 0 0 -196.73501655071595 -148.82698889376195 0 -148.82698889376195 -38.498092214295752 0 0 0 0 -2.6538559402215469 0.093363561370285453 0 0.093363561370285453 0.072367437612053803 0 0 0 0 -302.3712793194718 168.05163336466379 0 168.05163336466379 99.264515061684307 0 0 0 0 -231.47531904933294 115.59927520054555 0 115.59927520054555 22.227180105726745 0 0 0 0 -290.06741181613324 76.938510659308463 0 76.938510659308463 54.503453566882385 0 0 0 0 -325.56328100520477 8.7746264624567729 0 8.7746264624567729 15.696726594824526 0 0 0 0 16.582423646294046 -19.527889987489232 0 -19.527889987489232 -5.8439881150641213 0 0 0 0 -52.62587922705643 -50.404063674429679 0 -50.404063674429679 -19.813006775842069 0 0 0 0 -2.8361522083050943 0.40454556296607791 0 0.40454556296607791 -0.10921740215131782 0 0 0 0 -119.66856335691045 -164.13843412425268 0 -164.13843412425268 -185.83053863621541 0 0 0 0 -195.24266478456047 133.45396511749419 0 133.45396511749419 87.046937332902871 0 0 0 0 -7.4638029436836177 0.6146940755254775 0 0.6146940755254775 0.0081490993762865505 0 0 0 0 -52.111044598190347 -50.452774444783593 0 -50.452774444783593 -26.678559134676341 0 0 0 0 -39.658357370835802 -35.425311371618761 0 -35.425311371618761 -9.7489057688097205 0 0 0 0 -29.97079846197812 4.0999098312619253 0 4.0999098312619253 7.2676786734214147 0 0 0 0 -10.872469750785967 -12.75020335968297 0 -12.75020335968297 75.889051221282301 0 0 0 0 -125.31228625981021 37.398236417048253 0 37.398236417048253 9.4872111213069701 0 0 0 0 -157.55935119943751 -40.14146596076327 0 -40.14146596076327 2.8821004023772283 0 0 0 0 -67.463180672762974 -35.034575143199781 0 -35.034575143199781 3.0421794828809254 0 0 0 0 -86.78645691595375 -14.781575964059499 0 -14.781575964059499 3.7267705983954897 0 0 0 0 -69.74936145229367 -61.737123805183522 0 -61.737123805183522 3.9076047983520823 0 0 0 0 -80.45536357970559 -46.133091528186732 0 -46.133091528186732 -1.4906695546850415 0 0 0 0 -83.285523188214938 -63.160800898463677 0 -63.160800898463677 -45.368171812344862 0 0 0 0 -65.549475815321784 -31.180439183427342 0 -31.180439183427342 7.9307314021727944 0 0 0 0 -2.0258551436456287 0.7657242434084921 0 0.7657242434084921 0.047303288084936126 0 0 0 0 -59.030656626029668 -62.854342359296552 0 -62.854342359296552 -10.972715804399481 0 0 0 0 -75.20355110856508 19.798204902009861 0 19.798204902009861 111.26887025043879 0 0 0 0 -2.329873508129495 1.0553813090059734 0 1.0553813090059734 -0.091906474039834429 0 0 0 0 -45.362305625876616 6.3923703798777556 0 6.3923703798777556 22.736915976255876 0 0 0 0 -4.430055266567706 5.531820771953238 0 5.531820771953238 -0.96241777815754759 0 0 0 0 -19.044459330788413 -10.562685950688756 0 -10.562685950688756 7.9240002222897168 0 0 0 0 -13.822310019721044 2.1549810363654194 0 2.1549810363654194 11.114120736535844 0 0 0 0 4.4530981031857664 0.13954730050536648 0 0.13954730050536648 -0.036907694231079674 0 0 0 0 -2.3853631707647764 22.755236632200194 0 22.755236632200194 32.297686009903664 0 0 0 0 -14.579145155737933 -3.3230009687321655 0 -3.3230009687321655 18.439334179294598 0 0 0 0 23.227916005645966 36.936119013996191 0 36.936119013996191 21.733026865886011 0 0 0 0 -0.89077942182427705 0.23741615803704263 0 0.23741615803704263 0.047436878971641283 0 0 0 0 -55.820203870836849 25.256220701553545 0 25.256220701553545 22.660297616619172 0 0 0 0 -152.5281481124548 -25.297118592504681 0 -25.297118592504681 0.06673592784964924 0 0 0 0 -185.87551499595429 -4.2656816396795918 0 -4.2656816396795918 -3.5419522954548484 0 0 0 0 -204.49293874713476 -87.617948941634381 0 -87.617948941634381 -47.830470469846027 0 0 0 0 -76.289084568881663 35.867185937908602 0 35.867185937908602 6.5973550196414745 0 0 0 0 -29.695785410309327 -30.366472573686636 0 -30.366472573686636 -37.84466756782102 0 0 0 0 -1.1569684019029722 -0.65146501009260049 0 -0.65146501009260049 -0.42200041653933618 0 0 0 0 -145.01486907055005 47.97889872122758 0 47.97889872122758 10.529865011388466 0 0 0 0 -10.95374842081219 25.073453390836647 0 25.073453390836647 -11.330987519819757 0 0 0 0 -2.320994245112729 -1.74205299579409 0 -1.74205299579409 -1.2403889738376241 0 0 0 0 -106.337418564377 46.254590044482313 0 46.254590044482313 3.4968963136076994 0 0 0 0 -100.92701663306798 -4.738723292257859 0 -4.738723292257859 17.347514590071711 0 0 0 0 -256.31449929417977 -12.524791302608062 0 -12.524791302608062 19.099695223232033 0 0 0 0 -45.544259888018132 4.5482597880801752 0 4.5482597880801752 4.4834277181430995 0 0 0 0 -84.568992599047817 18.253415435371156 0 18.253415435371156 -14.568528010102327 0 0 0 0 -84.372723697138156 9.3245645893900271 0 9.3245645893900271 15.448460568497158 0 0 0 0 -42.043782973738416 10.401395126706058 0 10.401395126706058 0.027419821603054312 0 0 0 0 -60.830240185779985 -9.102863946869709 0 -9.102863946869709 1.0384990562322409 0 0 0 0 -80.803987337458238 10.92900148611165 0 10.92900148611165 -0.033276885394983642 0 0 0 0 -102.38850866255962 2.1220759182540974 0 2.1220759182540974 3.8422542031242877 0 0 0 0 -180.97425420975924 -45.226861028119018 0 -45.226861028119018 -16.794951520166215 0 0 0 0 -182.71280494365419 0.80488310164049925 0 0.80488310164049925 0.024817680134328231 0 0 0 0 -102.89378886222306 -26.518581811747051 0 -26.518581811747051 -23.442478252488861 0 0 0 0 -179.51512921399626 4.1140486170322896 0 4.1140486170322896 2.8684502117065449 0 0 0 0 -175.6548258279945 3.0635448562952821 0 3.0635448562952821 0.011932663904404922 0 0 0 0 -251.33067781897262 22.271967017720375 0 22.271967017720375 -1.0821502051401968 0 0 0 0 -96.470095862856397 -2.4803612303981795 0 -2.4803612303981795 -0.019188007750469423 0 0 0 0 -149.83849404941429 28.352762887139967 0 28.352762887139967 -7.6187934319781734 0 0 0 0 -88.74378551254631 11.634527977952615 0 11.634527977952615 -22.1770873610499 0 0 0 0 -82.880732257675845 -5.8188805941852095 0 -5.8188805941852095 -5.1207821979797963 0 0 0 0 -154.95882949056977 12.081898068976017 0 12.081898068976017 -7.5288486303598887 0 0 0 0 -63.698160394379556 12.868433757096557 0 12.868433757096557 -20.175415175841437 0 0 0 0 -173.95307706169115 5.5720865468840941 0 5.5720865468840941 17.437356137553067 0 0 0 0 -244.62076782470831 -43.54500762837263 0 -43.54500762837263 -12.015492788417802 0 0 0 0 -152.07474326621377 4.3584154960900321 0 4.3584154960900321 -66.291848675954142 0 0 0 0 -173.1457394528552 -8.2569490521057389 0 -8.2569490521057389 2.613823854107892 0 0 0 0 -299.81965285765909 63.57960171352039 0 63.57960171352039 9.4319511285354452 0 0 0 0 -226.4031432005504 7.8627503063193274 0 7.8627503063193274 36.473293775324009 0 0 0 0 -172.32283122431136 23.827990621403796 0 23.827990621403796 17.374107998603165 0 0 0 0 -224.51073659219401 2.2270638713995368 0 2.2270638713995368 12.21390620365537 0 0 0 0 -179.11905637738164 40.85577732275042 0 40.85577732275042 -38.397728605633347 0 0 0 0 -151.05656258294039 -7.0516526664287085 0 -7.0516526664287085 -30.862392214341071 0 0 0 0 -219.71555775069919 23.830173520041843 0 23.830173520041843 8.9067686505539427 0 0 0 0 -214.53856953949435 12.08899086611936 0 12.08899086611936 19.935768328423876 0 0 0 0 -222.54263641563739 0.12449832960638929 0 0.12449832960638929 6.0578009013238443 0 0 0 0 -202.07097392753349 -43.327070337992069 0 -43.327070337992069 -8.2729980287094236 0 0 0 0 -0.43776319719945889 0.15873081960413771 0 0.15873081960413771 -0.062579197524620045 0 0 0 0 -17.638664950653038 45.730742245671337 0 45.730742245671337 27.427529352542123 0 0 0 0 -35.592710479604648 -24.704891518388582 0 -24.704891518388582 17.806963695074899 0 0 0 0 -33.474326318434578 19.674895006842238 0 19.674895006842238 13.689588279245299 0 0 0 0 -0.66377100487916607 0.20155819028193633 0 0.20155819028193633 0.050810884370683373 0 0 0 0 -24.326283746981062 -35.837758848818481 0 -35.837758848818481 -13.388754655206014 0 0 0 0 -150.9250740484274 -10.575228235230153 0 -10.575228235230153 28.394989221791434 0 0 0 0 -1.2597272554469612 -0.3275924426670862 0 -0.3275924426670862 -0.10928545376283516 0 0 0 0 -10.753039375045773 -27.386450683642181 0 -27.386450683642181 28.800572115331533 0 0 0 0 -68.986834654828272 29.52737373015637 0 29.52737373015637 41.364004036478491 0 0 0 0 -148.97783703648747 -41.249924698655519 0 -41.249924698655519 -8.11857849950934 0 0 0 0 -145.48706282605235 -52.015765222100555 0 -52.015765222100555 23.503207999519645 0 0 0 0 -109.61433966081677 -33.310476869898139 0 -33.310476869898139 -38.024296282070566 0 0 0 0 -122.29120577745925 3.4497289459717422 0 3.4497289459717422 46.367622121981185 0 0 0 0 -1.2028224506609035 -0.6423561055528495 0 -0.6423561055528495 -0.99027222392494618 0 0 0 0 -93.943303964111692 38.905514504101859 0 38.905514504101859 -21.552834440446986 0 0 0 0 -66.632603821759403 -39.993618904396385 0 -39.993618904396385 40.622661201474443 0 0 0 0 -112.7355547798652 -9.3184118313448607 0 -9.3184118313448607 -143.26720708882624 0 0 0 0 -260.74598118272297 107.33736104407103 0 107.33736104407103 -6.0214864738444476 0 0 0 0 -103.39331913975184 2.3527770185025361 0 2.3527770185025361 5.5321418867854391 0 0 0 0 -0.27474789945457445 -0.16663331910220336 0 -0.16663331910220336 -0.51461856703812758 0 0 0 0 -173.10996433161927 69.379607416397562 0 69.379607416397562 -7.4514637752722024 0 0 0 0 -191.37222531709631 9.4430815435902105 0 9.4430815435902105 5.0320058977547433 0 0 0 0 -152.14781251666136 -36.084610089386956 0 -36.084610089386956 1.784527082797922 0 0 0 0 38.943608746638347 -28.714717118657859 0 -28.714717118657859 1.8650892113384998 0 0 0 0 -21.890111360182345 -2.9555905114057737 0 -2.9555905114057737 61.452944812472197 0 0 0 0 -10.021815850115672 -5.0281564398098766 0 -5.0281564398098766 6.7874388208082337 0 0 0 0 -2.0146195041658501 -0.96149630496898908 0 -0.96149630496898908 0.64200283032799721 0 0 0 0 -13.703886960283853 1.7503770289488898 0 1.7503770289488898 6.2588169164371124 0 0 0 0 -9.864190926127776 -9.5588503831128833 0 -9.5588503831128833 6.0870845794272554 0 0 0 0 -2.3438649459676526 -5.5036589348912344 0 -5.5036589348912344 4.2208622828952684 0 0 0 0 -6.1057053971671849 -5.8630402282904015 0 -5.8630402282904015 6.7374486391213395 0 0 0 0 -6.1611817333705687 -2.9807542762723145 0 -2.9807542762723145 -1.0337415672285339 0 0 0 0 -24.986983827198856 -43.997275336340863 0 -43.997275336340863 52.104262719406961 0 0 0 0 -5.0637407656474807 -1.8469075235426775 0 -1.8469075235426775 -0.51924053365864875 0 0 0 0 -15.360778735172062 -0.35500507061192366 0 -0.35500507061192366 3.2705314048641867 0 0 0 0 -8.5427660417481093 -14.561485930730555 0 -14.561485930730555 73.197321218255524 0 0 0 0 -3.4316727976916468 -1.0056964001835222 0 -1.0056964001835222 -0.22965442973932959 0 0 0 0 -12.41731439166324 -19.398013646162326 0 -19.398013646162326 -20.556278542741211 0 0 0 0 14.489488940620504 11.489020129608775 0 11.489020129608775 43.116180037118738 0 0 0 0 12.602992697444279 -0.16704368403316039 0 -0.16704368403316039 -1.0951472557423472 0 0 0 0 -0.11600963577436119 0.060869601595264555 0 0.060869601595264555 -0.045084269152333434 0 0 0 0 -0.19415577675681561 -34.315709820301265 0 -34.315709820301265 -22.628490109586835 0 0 0 0 -40.939043332406982 -66.202616882836452 0 -66.202616882836452 -9.0180458093146285 0 0 0 0 8.8271483731950866 7.6324956017739396 0 7.6324956017739396 81.191999540157127 0 0 0 0 -15.200975356863637 -11.024097659204926 0 -11.024097659204926 -11.079403521658662 0 0 0 0 0.10943864779255819 -23.941873081598601 0 -23.941873081598601 -0.20930893048750931 0 0 0 0 -33.786796647764277 -13.251076554943864 0 -13.251076554943864 8.4092305499075337 0 0 0 0 -33.854300758321187 -14.400727012445643 0 -14.400727012445643 24.633304493768975 0 0 0 0 -21.341561754703434 -24.378160473146082 0 -24.378160473146082 18.356344788246702 0 0 0 0 -26.204310217075545 -14.102755050458669 0 -14.102755050458669 19.877894631941256 0 0 0 0 1.7549850423038151 -14.338196168150073 0 -14.338196168150073 21.311927134590007 0 0 0 0 -0.36190656304734148 -36.713462188341353 0 -36.713462188341353 12.873409814097158 0 0 0 0 -38.969716561376117 0.75034818104589363 0 0.75034818104589363 -0.15138482863625313 0 0 0 0 50.249534202826908 -32.469335701665173 0 -32.469335701665173 9.7339428195494548 0 0 0 0 -0.3816227323058925 -0.62165357899718288 0 -0.62165357899718288 0.045675366114755978 0 0 0 0 74.88405501388479 -37.479268408544002 0 -37.479268408544002 5.1204420370411441 0 0 0 0 9.6406089898282517 -17.901150701054021 0 -17.901150701054021 19.980559226536684 0 0 0 0 -0.15475818387858453 -30.347062208673414 0 -30.347062208673414 8.7942607933178323 0 0 0 0 5.5369794060243294 -6.0832553884231082 0 -6.0832553884231082 2.6451303459133735 0 0 0 0 9.4924226794882998 -36.473400353828573 0 -36.473400353828573 14.319522029692408 0 0 0 0 -24.575612103709318 -19.742491917392474 0 -19.742491917392474 -0.91726470407242999 0 0 0 0 -26.03916927813043 -16.874378439226618 0 -16.874378439226618 -1.1793041672258155 0 0 0 0 -61.113123043221776 -15.674129546192205 0 -15.674129546192205 4.8300680630747195 0 0 0 0 -35.341472673637327 1.7207918427911473 0 1.7207918427911473 -15.390224529122319 0 0 0 0 -18.307370900969545 -1.2853485361395602 0 -1.2853485361395602 -9.1624057039875666 0 0 0 0 -62.280697440815857 8.2353477799116703 0 8.2353477799116703 -13.499533069182208 0 0 0 0 -43.638173287476093 -12.762285445289248 0 -12.762285445289248 -0.00050412699800358139 0 0 0 0 -0.61019500300426444 -19.214650608426545 0 -19.214650608426545 -0.020407502965579902 0 0 0 0 -0.24479476798114774 -18.196770556815345 0 -18.196770556815345 2.7284032433569401 0 0 0 0 0.46774288346568937 -17.507830830448462 0 -17.507830830448462 0.01262771397606585 0 0 0 0 -2.5694506658910541 -19.920067009415149 0 -19.920067009415149 1.7546774444397144 0 0 0 0 -3.50027012449209 -14.546728977948774 0 -14.546728977948774 3.9196297365408088 0 0 0 0 12.155448887517196 -5.78576145653353 0 -5.78576145653353 3.1474163071751633 0 0 0 0 9.4162564171856502 -10.01836833358678 0 -10.01836833358678 4.3763015038528117 0 0 0 0 31.064588040753733 -7.866712053020315 0 -7.866712053020315 2.5491126427507993 0 0 0 0 26.708111069456208 -8.7633417604094319 0 -8.7633417604094319 0.0028409453010956633 0 0 0 0 14.663724696656573 -14.107175650450197 0 -14.107175650450197 2.6351070277791702 0 0 0 0 -94.098359805044311 24.553045201100176 0 24.553045201100176 81.406997953103371 0 0 0 0 -4.0275723167169417 0.99409865716796508 0 0.99409865716796508 0.87697601212546128 0 0 0 0 -3.1296094526359397 0.61654506106025053 0 0.61654506106025053 -0.091813345083478812 0 0 0 0 13.083868883375544 -13.48524979952218 0 -13.48524979952218 10.393192248720137 0 0 0 0 -0.21427963183793963 -0.68720626671535001 0 -0.68720626671535001 0.2066415877898905 0 0 0 0 64.887275765355298 -39.547612423230248 0 -39.547612423230248 -74.240950605241096 0 0 0 0 -1.7586537602822787 -2.1597441458700786 0 -2.1597441458700786 1.5336565521736052 0 0 0 0 23.081595343792287 -13.93778645712338 0 -13.93778645712338 -1.9614113199918748 0 0 0 0 -0.75477161574371365 -1.8740983762249925 0 -1.8740983762249925 2.3643282939151229 0 0 0 0 -105.78453219580479 44.825471474658571 0 44.825471474658571 28.730104848042259 0 0 0 0 13.316181530000904 7.6713174231385608 0 7.6713174231385608 -12.470009605551184 0 0 0 0 -29.369964315999823 19.871593091923273 0 19.871593091923273 1.3003981606260595 0 0 0 0 -66.210160731738142 -2.5254998283672379 0 -2.5254998283672379 19.00517652576001 0 0 0 0 -0.29021988318291392 -0.30768050696920568 0 -0.30768050696920568 0.094431376923857169 0 0 0 0 -76.957604074879782 27.351060251658552 0 27.351060251658552 5.3386678621889416 0 0 0 0 3.9084561706631575 -20.098203680182174 0 -20.098203680182174 -3.8114221088181139 0 0 0 0 74.470840430338285 21.610268860232331 0 21.610268860232331 -253.0215102802436 0 0 0 0 70.738081391871674 101.31398046476525 0 101.31398046476525 -70.680566086482685 0 0 0 0 -1.0932167664559529 0.47161259188457194 0 0.47161259188457194 -0.32493796799447899 0 0 0 0 117.05555119338715 -27.860570618071989 0 -27.860570618071989 -101.37027957759847 0 0 0 0 142.63107511699491 52.520967647951693 0 52.520967647951693 -144.49121678260752 0 0 0 0 36.133189783402486 -24.265031469363123 0 -24.265031469363123 -157.29264938436447 0 0 0 0 -39.136236329220992 -48.914627370023368 0 -48.914627370023368 -41.554074048958469 0 0 0 0 -129.95544241304742 -31.460054669144927 0 -31.460054669144927 -27.165712639498139 0 0 0 0 -93.161408890962775 -30.54957203459794 0 -30.54957203459794 -0.036224590587794987 0 0 0 0 -183.02648181591212 -45.76120675751406 0 -45.76120675751406 1.9042254572655337 0 0 0 0 30.135814728397236 -21.085487036932648 0 -21.085487036932648 -41.214841609057167 0 0 0 0 21.71186976307672 11.867726022224396 0 11.867726022224396 4.062960498165733 0 0 0 0 -36.090768368318095 42.273300520182772 0 42.273300520182772 -10.085870561024876 0 0 0 0 -22.041913824199582 34.230034381323861 0 34.230034381323861 -57.32137107992952 0 0 0 0 -100.51145115299732 -12.454773626402812 0 -12.454773626402812 -33.545035314589569 0 0 0 0 -84.696799875193392 65.907723810232625 0 65.907723810232625 -21.020949211651896 0 0 0 0 57.84809355023026 15.493695196397937 0 15.493695196397937 -32.079611173401531 0 0 0 0 -3.1544694135563702 1.3114729803887535 0 1.3114729803887535 -0.37456327778503717 0 0 0 0 -1.9908536741568241 1.9170869639909478 0 1.9170869639909478 -0.014697253228836339 0 0 0 0 -37.405067958759901 44.556777385890769 0 44.556777385890769 -7.9828633998187399 0 0 0 0 -1.9898078463302227 1.8707947390144029 0 1.8707947390144029 0.0069225129881597906 0 0 0 0 -4.7856597074324725 1.1560169832889642 0 1.1560169832889642 0.01272162373311243 0 0 0 0 55.555530516467115 28.347894425955701 0 28.347894425955701 -12.631937708480152 0 0 0 0 151.78161771266605 124.82900953584158 0 124.82900953584158 -28.380565408929982 0 0 0 0 -122.15916518692575 -67.881378220566319 0 -67.881378220566319 -34.050280076543118 0 0 0 0 -1.1736579937645928 0.73153733892079487 0 0.73153733892079487 -0.24421836088202664 0 0 0 0 -37.755612163746264 -8.477317794143346 0 -8.477317794143346 -4.1160569684975599 0 0 0 0 -60.840462539941655 -13.697696705884908 0 -13.697696705884908 4.034917195780821 0 0 0 0 -2.9067033184036859 1.399823395706477 0 1.399823395706477 0.20218442186971952 0 0 0 0 -58.303040933766852 -39.525266614995829 0 -39.525266614995829 -18.517815930359689 0 0 0 0 146.12923301415572 0.30721104614543293 0 0.30721104614543293 -175.07312854901971 0 0 0 0 -82.103291433708364 143.91553601132478 0 143.91553601132478 179.43236421333989 0 0 0 0 -2.5496257053192153 0.55657525278437348 0 0.55657525278437348 -0.048781302935378551 0 0 0 0 13.302664984439616 -7.2680586513608461 0 -7.2680586513608461 19.678880024037198 0 0 0 0 -12.410607535857707 96.995490728069825 0 96.995490728069825 -15.728251958334482 0 0 0 0 -14.596575420004228 -3.1397986452547073 0 -3.1397986452547073 46.694755881204287 0 0 0 0 -11.286391250076122 12.981405150384944 0 12.981405150384944 72.143998059661584 0 0 0 0 -2.8485742040157476 0.78122505022932387 0 0.78122505022932387 1.9067183739365361 0 0 0 0 -15.998465543316343 -0.29995067747987036 0 -0.29995067747987036 3.9722469878163338 0 0 0 0 -14.994195147299251 -3.1375983651224146 0 -3.1375983651224146 2.8914789572636437 0 0 0 0 -23.644406220133533 -2.7069038577919855 0 -2.7069038577919855 8.0879063429051712 0 0 0 0 4.0142813748952904 20.695382567016736 0 20.695382567016736 38.634710199970186 0 0 0 0 -3.213504416435967 1.0456576993162159 0 1.0456576993162159 0.98050022669100301 0 0 0 0 8.0803637276621885 39.455739521080545 0 39.455739521080545 70.889855852894243 0 0 0 0 -30.265953256694047 -17.295226414376828 0 -17.295226414376828 -4.0046204715166596 0 0 0 0 -19.281387574683322 -8.4783540008629643 0 -8.4783540008629643 -2.7223358179886645 0 0 0 0 -28.572716791910352 -12.244228748177079 0 -12.244228748177079 4.7058435263570573 0 0 0 0 -23.02470148415523 -5.6578699427758465 0 -5.6578699427758465 10.986869188557648 0 0 0 0 -33.046087440190604 -9.6109396330679147 0 -9.6109396330679147 14.519412944603573 0 0 0 0 -24.822804054387234 -3.0891529775786921 0 -3.0891529775786921 7.4731253369618003 0 0 0 0 -49.176712983662583 -10.108363355851395 0 -10.108363355851395 10.258841250847922 0 0 0 0 -28.588161137580755 -13.772598114246762 0 -13.772598114246762 -15.788761629940048 0 0 0 0 -38.289287964846153 2.5991622627485071 0 2.5991622627485071 30.657561692819058 0 0 0 0 -25.672810901765956 0.37882458446065925 0 0.37882458446065925 0.81292870231028047 0 0 0 0 -22.832927402743735 -0.77014402610355503 0 -0.77014402610355503 1.5989262683419625 0 0 0 0 -22.418076682748506 -0.56583671570136573 0 -0.56583671570136573 1.4956846871029832 0 0 0 0 -23.31732151496908 2.8108502725250517 0 2.8108502725250517 -3.7879117739597632 0 0 0 0 -42.828625291840581 -1.8624926404975213 0 -1.8624926404975213 8.9917833291574425 0 0 0 0 -31.365284593004617 -3.9873278983627642 0 -3.9873278983627642 18.698076911149201 0 0 0 0 -26.359135801984266 -0.70731459939223029 0 -0.70731459939223029 1.1374973526022933 0 0 0 0 -25.536009450283018 -2.9517070318479455 0 -2.9517070318479455 9.9017233071728015 0 0 0 0 -4.5675191021589967 3.3222510550176025 0 3.3222510550176025 2.7836304674470771 0 0 0 0 -23.432562942631193 -7.6072957325401376 0 -7.6072957325401376 -10.717493835046696 0 0 0 0 -38.609631995474047 3.4583647343894768 0 3.4583647343894768 2.2425669926468572 0 0 0 0 -37.904198734989677 -6.8818226336111721 0 -6.8818226336111721 -2.0760196316678048 0 0 0 0 -26.989513817147781 0.97753349106068299 0 0.97753349106068299 -2.1216146611038198 0 0 0 0 -31.666946950139391 -1.5153314505986373 0 -1.5153314505986373 -2.7589940253474481 0 0 0 0 -10.670009071173553 1.0522873344109982 0 1.0522873344109982 2.5544248259567883 0 0 0 0 -16.283937623666972 1.5261385690593663 0 1.5261385690593663 2.808485190107465 0 0 0 0 -8.5906187452201266 4.1368140115621372 0 4.1368140115621372 9.0502025229045557 0 0 0 0 -27.669406102504581 -1.9459882390642633 0 -1.9459882390642633 6.0057569021614654 0 0 0 0 -14.625020490631769 2.0076667361134923 0 2.0076667361134923 2.761583957123058 0 0 0 0 -26.568045429943595 -0.33061221031334753 0 -0.33061221031334753 8.2825990668764149 0 0 0 0 -2.1493496967712531 0.10160525213048999 0 0.10160525213048999 1.643241186545815 0 0 0 0 -3.7571951993522816 2.676259618477161 0 2.676259618477161 4.2507428832345795 0 0 0 0 -14.367850759874273 2.3157166368875153 0 2.3157166368875153 9.4597296426015305 0 0 0 0 -1.9234291145860425 -4.0744730646449803 0 -4.0744730646449803 1.2762379312109817 0 0 0 0 -25.997214763323427 3.1599280095990707 0 3.1599280095990707 18.20033949010633 0 0 0 0 -39.270221174738253 -0.88278017422558719 0 -0.88278017422558719 0.68548836491510201 0 0 0 0 -24.582878524262924 -15.030019204973001 0 -15.030019204973001 -5.0728398133002059 0 0 0 0 2.4698671586374985 -56.067768671271551 0 -56.067768671271551 -26.802032176881028 0 0 0 0 -71.226166600172292 -21.638602845774926 0 -21.638602845774926 38.171887543453181 0 0 0 0 -20.734552044683369 9.2727676978215641 0 9.2727676978215641 -4.4315604787138625 0 0 0 0 -40.791899666590325 -5.7749540233203334 0 -5.7749540233203334 -9.4204348450251842 0 0 0 0 -41.659365963430901 -5.0672260381524836 0 -5.0672260381524836 16.831369613322352 0 0 0 0 -24.231759874368436 -6.7299619698483752 0 -6.7299619698483752 8.7626779864105515 0 0 0 0 -42.451240243677603 4.4295546512830697 0 4.4295546512830697 -4.0349695594528612 0 0 0 0 -51.531773501286807 -0.46030321193570956 0 -0.46030321193570956 11.730611846082581 0 0 0 0 -25.095601125532994 -21.916255568370929 0 -21.916255568370929 14.401682508382692 0 0 0 0 -2.7334480610916216 -18.180397159343869 0 -18.180397159343869 2.231429068327202 0 0 0 0 -4.3711970365801633 -1.2800214503960348 0 -1.2800214503960348 4.5808989418098847 0 0 0 0 -8.5463265839607629 7.215553649589225 0 7.215553649589225 7.7716612675594661 0 0 0 0 -50.032726875917433 2.2641341177212269 0 2.2641341177212269 12.068399814723421 0 0 0 0 -21.524871064211766 6.3921112251911154 0 6.3921112251911154 11.874044014443488 0 0 0 0 -25.403182999558339 11.688739911882124 0 11.688739911882124 20.037460597756763 0 0 0 0 -35.051899327532738 -2.9378030602765364 0 -2.9378030602765364 1.0740131348071884 0 0 0 0 -25.817912661229926 -1.3287852005421392 0 -1.3287852005421392 1.8898110941330031 0 0 0 0 -37.480514474096708 -2.5615675930411612 0 -2.5615675930411612 0.95373239014827504 0 0 0 0 -33.23436271983519 -1.6652540394428286 0 -1.6652540394428286 -0.37182541661150026 0 0 0 0 -29.294907627358043 -4.7502409899007034 0 -4.7502409899007034 -0.86320009623247529 0 0 0 0 -35.925756831886247 -3.8529061365193229 0 -3.8529061365193229 -0.65659607459087965 0 0 0 0 -25.308075164521142 1.5124462119578368 0 1.5124462119578368 1.0463769659710351 0 0 0 0 -34.107428891191375 -1.4474205121900923 0 -1.4474205121900923 2.1085067647021276 0 0 0 0 -31.929366506348742 -4.1152383429080146 0 -4.1152383429080146 1.3531589997372748 0 0 0 0 -32.681373748513579 -5.003666300736711 0 -5.003666300736711 0.39239472928176156 0 0 0 0 -36.385247103116853 0.48370282170247947 0 0.48370282170247947 -0.76475502239725301 0 0 0 0 -41.666850182522467 -1.5790430648900156 0 -1.5790430648900156 1.4546372442375173 0 0 0 0 -5.8001309003169368 -4.7393932371271958 0 -4.7393932371271958 2.5938525519059747 0 0 0 0 -35.997329664932295 -2.2036738076556874 0 -2.2036738076556874 -2.4638003756513172 0 0 0 0 -11.456459780636365 -12.938725097130472 0 -12.938725097130472 1.8624757354309645 0 0 0 0 -40.092237537835899 0.52531605772225021 0 0.52531605772225021 -0.3204141631379116 0 0 0 0 -38.160934180908953 -0.31913791496629074 0 -0.31913791496629074 -2.3028029958854397 0 0 0 0 -7.2032656339018786 -3.8264180833097363 0 -3.8264180833097363 -0.33962907211008586 0 0 0 0 -14.14919286557415 -6.8127665754298619 0 -6.8127665754298619 10.823473268467637 0 0 0 0 -39.230851305408578 -2.6984132769253222 0 -2.6984132769253222 6.978429071213327 0 0 0 0 -3.725605723451956 -0.41269832797561889 0 -0.41269832797561889 0.53930563992072589 0 0 0 0 8.8431900111099822 -23.225464000393117 0 -23.225464000393117 12.556716921170903 0 0 0 0 -13.640987843065886 -6.9720563874459227 0 -6.9720563874459227 3.3375718342692093 0 0 0 0 -22.009786696601168 -8.849162758839622 0 -8.849162758839622 -2.7407906702428591 0 0 0 0 -4.0106870686940574 -3.2775310208500343 0 -3.2775310208500343 5.2246512411418911 0 0 0 0 -16.164590302672877 -3.2467661079194841 0 -3.2467661079194841 8.7537925285223821 0 0 0 0 -22.641022135230742 -0.36612302255785067 0 -0.36612302255785067 3.7791019083602464 0 0 0 0 -32.886451838257926 12.074692668636633 0 12.074692668636633 7.4428516266239058 0 0 0 0 -24.551560211750257 -2.0542499690704972 0 -2.0542499690704972 -0.964832399302054 0 0 0 0 -37.561162545678599 8.8117876098269221 0 8.8117876098269221 -1.5957812919248227 0 0 0 0 -2.8371850772916147 -4.6392451697342025 0 -4.6392451697342025 4.0175478728013037 0 0 0 0 -0.77292589461381667 -3.6097210790948679 0 -3.6097210790948679 4.3043010082445958 0 0 0 0 -35.352118738297577 -4.3785693717403156 0 -4.3785693717403156 -4.6515712825713535 0 0 0 0 5.2300011301413178 7.8023774989794674 0 7.8023774989794674 -15.85589901755452 0 0 0 0 -53.829615715469117 16.427679742117903 0 16.427679742117903 5.8788940702917216 0 0 0 0 -29.478607732293312 -38.606623805817094 0 -38.606623805817094 55.795668952748883 0 0 0 0 52.755373926382163 -32.992727599863201 0 -32.992727599863201 -4.6755900176476644 0 0 0 0 -24.776082834498084 -20.821078891354489 0 -20.821078891354489 22.857997451842493 0 0 0 0 3.7837987091770628 26.02185064938476 0 26.02185064938476 31.567828045289843 0 0 0 0 -14.31540859254892 -0.97675196313707602 0 -0.97675196313707602 19.475330466541834 0 0 0 0 -30.409072980288329 -5.1928665220094246 0 -5.1928665220094246 26.045641297007023 0 0 0 0 -19.666974935717008 0.26629345206902144 0 0.26629345206902144 72.777382166387724 0 0 0 0 7.647933582906262 12.956657545137659 0 12.956657545137659 16.287695444452766 0 0 0 0 -4.3841353810501715 -1.8469998750599288 0 -1.8469998750599288 0.12356408019996934 0 0 0 0 6.0494044374499936 13.705515402657511 0 13.705515402657511 17.284556804349222 0 0 0 0 -16.943922964033845 -8.6633949392221439 0 -8.6633949392221439 14.273485687326684 0 0 0 0 4.8641799236356746 13.466956128354923 0 13.466956128354923 17.522637643667622 0 0 0 0 6.0543089394705021 10.828793022289346 0 10.828793022289346 16.099636019494937 0 0 0 0 4.1007828759611584 3.1176478522975231 0 3.1176478522975231 10.862304241604306 0 0 0 0 -3.2998367579364754 3.1513885033879028 0 3.1513885033879028 3.1012573590492307 0 0 0 0 -8.9779634533151693 -10.331341967430831 0 -10.331341967430831 -0.15846637495997129 0 0 0 0 -13.067387735005468 -11.938339614084953 0 -11.938339614084953 0.47941704434492749 0 0 0 0 -40.202218983678904 -6.7277049411947587 0 -6.7277049411947587 17.907051555350336 0 0 0 0 -17.952326246251602 -9.1528385126592298 0 -9.1528385126592298 -2.3315201308496158 0 0 0 0 -10.593525653550387 3.6340502169138773 0 3.6340502169138773 1.4419160720601667 0 0 0 0 -0.042750425147616511 0.3157864430597499 0 0.3157864430597499 -0.049412002191522753 0 0 0 0 -2.3418763071822468 37.535292389256711 0 37.535292389256711 22.951108797341931 0 0 0 0 -127.98207626683143 -33.315964159481382 0 -33.315964159481382 5.8241668990435755 0 0 0 0 -56.625232631500694 1.0524417621882094 0 1.0524417621882094 22.251706881995233 0 0 0 0 -52.038254997503827 17.160273084639471 0 17.160273084639471 4.3138193137287999 0 0 0 0 -72.507901237040642 21.90678010905674 0 21.90678010905674 19.550986530864066 0 0 0 0 -56.175139994396886 -11.461950973301384 0 -11.461950973301384 17.717741387270507 0 0 0 0 -30.685278160378402 -8.6216696239230899 0 -8.6216696239230899 1.2202703415423457 0 0 0 0 -50.872677271087014 10.866947630933737 0 10.866947630933737 8.9990506620176802 0 0 0 0 -29.040162690391298 2.7314237831128025 0 2.7314237831128025 3.8396176667894224 0 0 0 0 -33.354062105194316 -6.0016958199339001 0 -6.0016958199339001 5.8929202248008643 0 0 0 0 -32.374059768953884 -8.9680406720478913 0 -8.9680406720478913 6.0118576480126649 0 0 0 0 -34.828817313471518 -3.3963895425096382 0 -3.3963895425096382 1.3321662215655579 0 0 0 0 -34.604501909532701 -3.134538477020385 0 -3.134538477020385 1.2826662009631491 0 0 0 0 -13.271472707216162 6.728340222601048 0 6.728340222601048 -0.50279574011902639 0 0 0 0 -37.297630180135457 -2.9167220783135122 0 -2.9167220783135122 2.3109708741444592 0 0 0 0 -0.14306732807515488 0.37249051507298958 0 0.37249051507298958 0.15263368343524064 0 0 0 0 -21.925924671173561 -0.010485963501849938 0 -0.010485963501849938 0.72600634743514547 0 0 0 0 -25.997613664170785 4.2647438047716832 0 4.2647438047716832 0.53296133239047094 0 0 0 0 -25.239263439510978 2.4019728206828859 0 2.4019728206828859 1.4015812432734265 0 0 0 0 -26.91200975447282 1.7721534279061188 0 1.7721534279061188 2.556632787933097 0 0 0 0 -0.1791261895323828 0.44723703812891813 0 0.44723703812891813 0.26491969399652948 0 0 0 0 -29.630439969364488 -2.409593656292671 0 -2.409593656292671 -2.4863301533966933 0 0 0 0 -30.418778980732895 -0.45328863738416203 0 -0.45328863738416203 0.14848897887867452 0 0 0 0 -29.550227996256581 -1.9301503700337435 0 -1.9301503700337435 -0.26221415590509878 0 0 0 0 -33.184422720492876 -0.21178461798069748 0 -0.21178461798069748 1.9674629432488473 0 0 0 0 -29.604634590141359 1.0005393787891421 0 1.0005393787891421 3.3554509211223831 0 0 0 0 -26.79881927976021 1.300477236901088 0 1.300477236901088 1.0942090997785954 0 0 0 0 -28.55705695488723 0.38200986341610133 0 0.38200986341610133 -0.70508919551957661 0 0 0 0 -33.273927226066462 5.976695798179378 0 5.976695798179378 11.42976603477382 0 0 0 0 -34.40700867970736 0.94919138773002487 0 0.94919138773002487 8.9438243886422697 0 0 0 0 -28.660424974004854 -0.10182711865695637 0 -0.10182711865695637 3.7375955719365948 0 0 0 0 -26.128028821665794 -1.8122916024257165 0 -1.8122916024257165 3.3151754305488339 0 0 0 0 -25.170676417699724 -5.0052009823774597 0 -5.0052009823774597 2.4604672186414973 0 0 0 0 -36.023108522422262 -8.9809735508410995 0 -8.9809735508410995 12.81707665471464 0 0 0 0 -31.830413295570906 -8.5695867441748987 0 -8.5695867441748987 12.712156589733695 0 0 0 0 -37.63323396555279 -1.8591941984041114 0 -1.8591941984041114 10.93760432190993 0 0 0 0 -58.849786952967406 0.47816451999187848 0 0.47816451999187848 20.35402778046614 0 0 0 0 -38.96934674995282 0.47701676321412378 0 0.47701676321412378 19.347765767525971 0 0 0 0 -30.252805939893733 2.82132365639103 0 2.82132365639103 6.6210510850460196 0 0 0 0 -23.764176739110553 1.5793969557473702 0 1.5793969557473702 -0.1988694416315866 0 0 0 0 -25.234464938454039 4.2357663161133132 0 4.2357663161133132 16.6946990942497 0 0 0 0 -33.221327407132776 -5.9779596556348906 0 -5.9779596556348906 5.5637497348135412 0 0 0 0 -23.480304181917745 -8.6766313286782406 0 -8.6766313286782406 7.7780527329691722 0 0 0 0 -7.9029896843421739 15.460541540558324 0 15.460541540558324 21.557084833483714 0 0 0 0 -0.14030623655467345 0.38889086453571764 0 0.38889086453571764 0.19870804242502871 0 0 0 0 -21.843579393906111 10.449076554793692 0 10.449076554793692 26.179707602415647 0 0 0 0 -9.0124361295820563 13.799090533475464 0 13.799090533475464 23.569689958835625 0 0 0 0 -12.98388558651429 1.5845361272986329 0 1.5845361272986329 0.29134259341141128 0 0 0 0 -16.703130518455509 -3.9903983969905426 0 -3.9903983969905426 12.217615759801447 0 0 0 0 -12.906141435014433 11.835464969353779 0 11.835464969353779 21.253920634771021 0 0 0 0 3.8688510494648654 2.6327508340534678 0 2.6327508340534678 13.081408637930508 0 0 0 0 -6.9979209599696333 15.571208611601378 0 15.571208611601378 21.098726404052428 0 0 0 0 -18.933226838395058 2.0199139598756801 0 2.0199139598756801 6.6848452416561486 0 0 0 0 -53.834190407902497 77.193217304661943 0 77.193217304661943 24.200121728657223 0 0 0 0 -16.558948726760718 2.4401854059290145 0 2.4401854059290145 4.7563803502191178 0 0 0 0 -14.873492107457366 2.5182817921764347 0 2.5182817921764347 0.28894462290680678 0 0 0 0 -8.2342758748854976 3.1484686745116051 0 3.1484686745116051 -0.77637014149729566 0 0 0 0 6.6931141982568079 20.279353882280589 0 20.279353882280589 -13.098331609708112 0 0 0 0 -11.634264719482871 2.1656292042767475 0 2.1656292042767475 2.4130800611702039 0 0 0 0 22.999888052636379 3.9498874173805234 0 3.9498874173805234 16.184669146201486 0 0 0 0 -38.457209671642595 -0.97630170677654604 0 -0.97630170677654604 3.200124308581028 0 0 0 0 148.37037726229755 254.87789590445936 0 254.87789590445936 -80.009376560586134 0 0 0 0 -320.82881175596776 -515.18617189944871 0 -515.18617189944871 -269.56235793515771 0 0 0 0 -75.503673205043015 21.353944867530799 0 21.353944867530799 2.0776093783269971 0 0 0 0 -50.681537822027167 22.33038023008362 0 22.33038023008362 -60.521909248186603 0 0 0 0 -54.642089636156015 0.51744706499493986 0 0.51744706499493986 16.271615000160637 0 0 0 0 -66.180687865478831 0.37448631368806673 0 0.37448631368806673 19.053836028660044 0 0 0 0 -42.317526114777138 -12.006133101186379 0 -12.006133101186379 19.854767937387805 0 0 0 0 -48.483597692633339 -9.8222628967218952 0 -9.8222628967218952 23.572997835726255 0 0 0 0 -26.122855091613019 -16.749486853455437 0 -16.749486853455437 25.684931468746697 0 0 0 0 -4.0476535111261995 -0.018581056761599157 0 -0.018581056761599157 -0.062184554910177714 0 0 0 0 -22.386003313447873 -18.04684937962702 0 -18.04684937962702 15.298968131969104 0 0 0 0 -17.829113650303043 -3.370137249220079 0 -3.370137249220079 11.975606525908916 0 0 0 0 -20.135626370606886 1.1991480638286598 0 1.1991480638286598 0.11675724601656523 0 0 0 0 -13.186407750719809 -0.22590256749026594 0 -0.22590256749026594 5.0996920515103739 0 0 0 0 -1.9515936999227961 -75.962233588016346 0 -75.962233588016346 -19.340079161503581 0 0 0 0 -30.87330363052024 0.050062065857900961 0 0.050062065857900961 17.046631742100544 0 0 0 0 -18.73546921492219 0.063120488113067807 0 0.063120488113067807 0.95027714826841336 0 0 0 0 4.2893347826920944 -9.6595936416811128 0 -9.6595936416811128 56.649327502188726 0 0 0 0 -115.76142831182096 -21.519019628148953 0 -21.519019628148953 230.0621636239207 0 0 0 0 -13.30136908435361 -113.87186179319133 0 -113.87186179319133 162.10473910397741 0 0 0 0 -31.657406500842626 55.518547601614955 0 55.518547601614955 -209.82098277802015 0 0 0 0 -327.10205953601508 9.6472576902601759 0 9.6472576902601759 167.99378971599026 0 0 0 0 -32.486177852275432 57.113024477060208 0 57.113024477060208 1.8981334135296493 0 0 0 0 -66.161403304315172 33.303264630239028 0 33.303264630239028 -14.584850378731062 0 0 0 0 -0.80832790652800668 -0.25694923443747797 0 -0.25694923443747797 0.12751738095734266 0 0 0 0 -47.079172957230185 -46.156264774324427 0 -46.156264774324427 19.506620512890095 0 0 0 0 -51.772108802964794 34.815928443334997 0 34.815928443334997 -15.004944592133597 0 0 0 0 8.3951613180906861 49.744515968452333 0 49.744515968452333 182.09586610434371 0 0 0 0 78.080876586391241 -94.508385563280626 0 -94.508385563280626 92.361912433682846 0 0 0 0 -16.988246721632265 0.33783839578378938 0 0.33783839578378938 1.247817262595071 0 0 0 0 -2.9339994477852329 -1.2594159271937002 0 -1.2594159271937002 2.9353515999478486 0 0 0 0 75.097023006564996 65.069509060123892 0 65.069509060123892 -282.39447568467426 0 0 0 0 272.5831339298129 -163.44936518193026 0 -163.44936518193026 -188.02505431069949 0 0 0 0 -82.794460053104558 -128.25411029343377 0 -128.25411029343377 195.33784645174683 0 0 0 0 -24.963622766495973 -94.441391589874456 0 -94.441391589874456 25.424105314486042 0 0 0 0 -79.888266268570078 -89.843921439454903 0 -89.843921439454903 79.745516044235501 0 0 0 0 -61.631247847322811 -78.935823171157608 0 -78.935823171157608 37.738681089674174 0 0 0 0 -0.24802636887761764 -94.152130216437399 0 -94.152130216437399 55.388335658228925 0 0 0 0 28.079721462305315 67.350781689366158 0 67.350781689366158 -7.0551574221290139 0 0 0 0 -66.306540317265899 32.854221823948137 0 32.854221823948137 76.126270478563583 0 0 0 0 -0.63606889820935208 0.38934574069572037 0 0.38934574069572037 1.8736040629892994 0 0 0 0 -57.234488041762233 26.798085799053069 0 26.798085799053069 -52.192752394264971 0 0 0 0 -147.93597032158868 -2.440872906313416 0 -2.440872906313416 4.7768090677127475 0 0 0 0 -55.046016427775612 8.4647961821401623 0 8.4647961821401623 -1.9255603276651527 0 0 0 0 -109.92404794161121 -31.824909157289767 0 -31.824909157289767 -8.7412914817650744 0 0 0 0 27.489033371378525 -35.583226002912482 0 -35.583226002912482 -19.877152956569262 0 0 0 0 -75.592129443692102 -93.213113857353164 0 -93.213113857353164 -12.628398949383296 0 0 0 0 -146.92545058876203 -1.2371288848535187 0 -1.2371288848535187 19.549374501195416 0 0 0 0 -45.06649865604777 -10.897616375681764 0 -10.897616375681764 -16.547626254970965 0 0 0 0 -64.134038859661814 -29.516883730248992 0 -29.516883730248992 2.5140115356794013 0 0 0 0 -61.081626362371026 -11.485506694912601 0 -11.485506694912601 51.649111720621477 0 0 0 0 -42.808555053008604 -61.558340626802419 0 -61.558340626802419 33.497510564686308 0 0 0 0 -75.184783491131384 -63.06770920407962 0 -63.06770920407962 2.1028879956793389 0 0 0 0 -58.384286683663959 -38.253821335503744 0 -38.253821335503744 -0.67267191847167851 0 0 0 0 -44.798700047820603 -54.214047576179155 0 -54.214047576179155 -83.332765931932954 0 0 0 0 -12.802130455958832 18.334668868344579 0 18.334668868344579 -50.646567437143176 0 0 0 0 -130.23919918244064 -74.166883149351634 0 -74.166883149351634 5.1341577226967274 0 0 0 0 -2.4383304511969328 0.18283815315780316 0 0.18283815315780316 0.92189846823363553 0 0 0 0 -105.91177462315136 -126.51231565888054 0 -126.51231565888054 -56.443968972783296 0 0 0 0 -2.2166108317996418 -0.12708699937016732 0 -0.12708699937016732 1.5389662089065297 0 0 0 0 -159.45546733614901 -66.229939762150934 0 -66.229939762150934 12.629338942299 0 0 0 0 -74.530362848890945 -81.211813502040059 0 -81.211813502040059 -15.293440888633995 0 0 0 0 8.7035591657913756 18.196189059541894 0 18.196189059541894 27.76941067770349 0 0 0 0 -4.3346424708045248 1.8274213631511174 0 1.8274213631511174 -0.15058611954812839 0 0 0 0 -1.847965524510073 11.962837960192246 0 11.962837960192246 14.876169538740498 0 0 0 0 6.754988023210899 13.6891567879793 0 13.6891567879793 20.154011308611643 0 0 0 0 -0.27666526784014422 7.7294327042109217 0 7.7294327042109217 15.121898772499662 0 0 0 0 -14.668009515618905 1.9633634525007437 0 1.9633634525007437 18.201389534228838 0 0 0 0 -19.072505675576394 -4.5339145302914403 0 -4.5339145302914403 10.956972028296605 0 0 0 0 -8.3203645914691151 2.2610474546349906 0 2.2610474546349906 11.837555376482669 0 0 0 0 -7.3080723102320917 7.0242335942148202 0 7.0242335942148202 22.864566444197408 0 0 0 0 1.6259795586956898 9.3238148605091737 0 9.3238148605091737 5.5766179149077288 0 0 0 0 -11.589064174018858 3.7677598473765102 0 3.7677598473765102 13.545053593609282 0 0 0 0 -10.126170630916022 2.2789258778511794 0 2.2789258778511794 5.7449919984219378 0 0 0 0 -7.0112457364521106 12.821772946708734 0 12.821772946708734 -23.678321922408259 0 0 0 0 -6.9832997836347204 -1.4294919614922037 0 -1.4294919614922037 4.0222583634572402 0 0 0 0 -24.982910907128826 -22.144435521757714 0 -22.144435521757714 12.022071394905652 0 0 0 0 -3.0384045587227604 0.47704877356256858 0 0.47704877356256858 1.535927557570961 0 0 0 0 -13.461579128481389 -41.365048771638612 0 -41.365048771638612 -0.88325929431994155 0 0 0 0 -62.238443356448101 -34.392187416065397 0 -34.392187416065397 10.325181464765137 0 0 0 0 -61.338784694693459 -18.610126176065933 0 -18.610126176065933 -28.708206815763333 0 0 0 0 -41.354389633466781 -40.934910650025358 0 -40.934910650025358 -27.493370403154188 0 0 0 0 -39.910711555527087 -55.981075634244348 0 -55.981075634244348 12.077720793468643 0 0 0 0 -4.5557346684393991 -0.15067791291497867 0 -0.15067791291497867 1.0243355993733727 0 0 0 0 -264.67917898620362 145.29914941673951 0 145.29914941673951 -166.55040673097892 0 0 0 0 -17.781188375018246 -3.8534900802037555 0 -3.8534900802037555 0.10421080394689852 0 0 0 0 97.684156185619941 -52.218311004353211 0 -52.218311004353211 -201.499996282849 0 0 0 0 -5.1336367922073407 -0.91146917596204347 0 -0.91146917596204347 1.3249237260835094 0 0 0 0 -1.2833829735168223 -1.9148781498661345 0 -1.9148781498661345 -0.26754010698654718 0 0 0 0 -142.24512696065358 55.364857392075237 0 55.364857392075237 2.1943627547273081 0 0 0 0 -33.393439626859617 -10.423704295182745 0 -10.423704295182745 41.058799150599896 0 0 0 0 -27.604124453061559 14.006586790229022 0 14.006586790229022 3.9386727734470242 0 0 0 0 -16.969342737910821 6.0573989688007117 0 6.0573989688007117 7.5783114462155918 0 0 0 0 -40.082994785378105 22.076687153728699 0 22.076687153728699 4.7235622821444281 0 0 0 0 -35.485547445514385 -10.485463197771196 0 -10.485463197771196 -6.806356324226897 0 0 0 0 -7.066393616626172 -1.3139001897983249 0 -1.3139001897983249 0.13116759472325956 0 0 0 0 -51.115414486474037 -10.308446448705126 0 -10.308446448705126 10.090870677924613 0 0 0 0 -94.212153550171934 -1.9069451412833587 0 -1.9069451412833587 22.16932067623361 0 0 0 0 -24.09759084289999 6.21754233999593 0 6.21754233999593 -0.8981764574891713 0 0 0 0 -77.079564171032644 13.024524229618635 0 13.024524229618635 17.662338080569725 0 0 0 0 -34.400347710691932 -1.5021789457112584 0 -1.5021789457112584 1.5674781961027673 0 0 0 0 -0.45301933582092602 4.4161315827290775 0 4.4161315827290775 1.6700874562951453 0 0 0 0 -68.914847024676419 -24.579308951433291 0 -24.579308951433291 22.794966842538088 0 0 0 0 -81.135191539950029 -21.7770459838639 0 -21.7770459838639 27.564058025613576 0 0 0 0 -74.366113258363839 -24.453453553217457 0 -24.453453553217457 26.354069310368686 0 0 0 0 -4.7678329640400108 -1.8952748137813984 0 -1.8952748137813984 4.5072013522112844 0 0 0 0 -23.811416285487212 14.463490275768436 0 14.463490275768436 14.191463760124122 0 0 0 0 -20.907827316663315 -17.955245944583226 0 -17.955245944583226 -2.7062216316265619 0 0 0 0 -7.1384388111753481 -2.8210935020051089 0 -2.8210935020051089 1.773344531387604 0 0 0 0 -9.3095051692071138 113.27784827015671 0 113.27784827015671 139.96202708003466 0 0 0 0 -90.67343773648463 34.530425053477074 0 34.530425053477074 210.12745630636255 0 0 0 0 -23.959732349603655 18.214698103102137 0 18.214698103102137 82.874776441220092 0 0 0 0 -39.239889127049537 -9.3532609375755555 0 -9.3532609375755555 20.35143675202761 0 0 0 0 -32.262765826631735 3.5097511489587241 0 3.5097511489587241 3.1281110941808645 0 0 0 0 -82.639490072684566 -42.59201841124991 0 -42.59201841124991 21.592708969153364 0 0 0 0 -50.691570396589512 -2.6844088650704379 0 -2.6844088650704379 3.0618212181057265 0 0 0 0 -58.244949811734841 5.0332362607691721 0 5.0332362607691721 24.523751986082061 0 0 0 0 -42.197143907269492 10.39107455318549 0 10.39107455318549 20.084372733685086 0 0 0 0 -47.461953374910081 4.8752908748538175 0 4.8752908748538175 25.850277260751227 0 0 0 0 -41.62550342143831 -2.4480710970157133 0 -2.4480710970157133 0.63462766141882643 0 0 0 0 -66.291105128045274 40.824411197855568 0 40.824411197855568 33.679681321492353 0 0 0 0 -63.64337045969296 29.221420298702242 0 29.221420298702242 76.004676223677052 0 0 0 0 -68.479319065716481 4.8592548136803089 0 4.8592548136803089 48.824611751592784 0 0 0 0 -46.415357877594943 79.083249100946205 0 79.083249100946205 36.109001397643624 0 0 0 0 -11.645637638963308 68.475060566972957 0 68.475060566972957 -26.828026250746461 0 0 0 0 -55.131103887219069 28.77275153693563 0 28.77275153693563 -22.345283152376851 0 0 0 0 -53.710124022435821 57.60927052332481 0 57.60927052332481 -9.3272188367709532 0 0 0 0 -104.09237969567766 -33.628847813722587 0 -33.628847813722587 -72.22583279175069 0 0 0 0 -2.7623053577117389 56.770715103850307 0 56.770715103850307 -138.76229419316724 0 0 0 0 -25.990013862081469 49.801463701002007 0 49.801463701002007 -166.61952228064547 0 0 0 0 -1.5018855556918425 55.0453002058116 0 55.0453002058116 -170.25924362701289 0 0 0 0 -29.345294885449221 68.054718815754541 0 68.054718815754541 -26.322315070110108 0 0 0 0 -25.623247390165488 86.304255563103652 0 86.304255563103652 -87.271363987381619 0 0 0 0 -82.017802429818403 133.15078546233065 0 133.15078546233065 -96.321331654384949 0 0 0 0 -182.29720093419382 42.462654634653745 0 42.462654634653745 16.919854201135649 0 0 0 0 -69.424597348988755 47.360987753662585 0 47.360987753662585 13.409134094054934 0 0 0 0 -73.375285838041236 11.341225962102271 0 11.341225962102271 100.28176826781237 0 0 0 0 -98.075829650927517 -21.218732948977276 0 -21.218732948977276 28.516833953724017 0 0 0 0 -77.190237499937211 37.245879631887874 0 37.245879631887874 83.020536398346849 0 0 0 0 -113.38086113806276 -0.68575432290901972 0 -0.68575432290901972 5.5658781575837111 0 0 0 0 -115.08955995532961 -6.1202278741851615 0 -6.1202278741851615 13.045693101907545 0 0 0 0 -1.1852700361671964 -1.2312061496200783 0 -1.2312061496200783 -0.87807304412485543 0 0 0 0 -13.366866668366129 -9.3903138947206344 0 -9.3903138947206344 64.233169470161556 0 0 0 0 -3.01373085238356 -25.237533297962841 0 -25.237533297962841 48.876523187619568 0 0 0 0 -163.70434441559337 8.4623348550412629 0 8.4623348550412629 33.813831233661858 0 0 0 0 -106.33565233782338 -36.327171480034963 0 -36.327171480034963 13.797006068571136 0 0 0 0 24.264284078832134 12.79684037753168 0 12.79684037753168 -7.9906240777308994 0 0 0 0 -0.3108577034145128 8.2619423258574898 0 8.2619423258574898 -8.0216982739705145 0 0 0 0 26.858781110404379 -10.717580923842888 0 -10.717580923842888 -10.771116878963085 0 0 0 0 18.036704542329971 -15.370789755789247 0 -15.370789755789247 53.368870831765207 0 0 0 0 0.64760298742476152 21.185061475038765 0 21.185061475038765 66.383866037539974 0 0 0 0 -21.309971087566552 1.0520827156823129 0 1.0520827156823129 0.09489012265825103 0 0 0 0 -8.1388020921767747 -5.1362474599270627 0 -5.1362474599270627 13.847684873855997 0 0 0 0 -12.744010390713811 -5.3979076767363949 0 -5.3979076767363949 27.358855239055174 0 0 0 0 -29.038719034651876 0.42240754336717146 0 0.42240754336717146 25.382062577920351 0 0 0 0 -19.579194465998739 0.2245048941024077 0 0.2245048941024077 1.0042825344061503 0 0 0 0 -8.8346681796501798 -39.663612844542058 0 -39.663612844542058 178.44369765462579 0 0 0 0 -18.634205326585587 -1.2490515455377644 0 -1.2490515455377644 0.92880927914498712 0 0 0 0 19.32783028387712 24.371887070853518 0 24.371887070853518 16.706872176803245 0 0 0 0 10.448666555843374 -13.25314963188498 0 -13.25314963188498 20.766375352513023 0 0 0 0 -14.781038455401358 1.1898624201991197 0 1.1898624201991197 12.770209020359744 0 0 0 0 -123.46523749598418 -92.017564859906997 0 -92.017564859906997 131.70027381008765 0 0 0 0 -27.066372591616528 29.217649439257002 0 29.217649439257002 62.137056619986197 0 0 0 0 -61.311258105824891 20.689989871348416 0 20.689989871348416 22.860839570384996 0 0 0 0 -47.592506052213139 -3.8510674154476874 0 -3.8510674154476874 9.0362956500007385 0 0 0 0 -129.52804641945113 -112.82267825457302 0 -112.82267825457302 353.56767114037484 0 0 0 0 -80.293193367928325 95.90894995640565 0 95.90894995640565 62.998514146303478 0 0 0 0 2.1299458358953416 -1.7225830555165658 0 -1.7225830555165658 67.882526305713327 0 0 0 0 -13.129154609836405 -133.70722845059026 0 -133.70722845059026 172.73915948394142 0 0 0 0 -21.246785811145827 4.7251531409710488 0 4.7251531409710488 0.41603928334781282 0 0 0 0 -32.192723911219218 -0.27990157700492091 0 -0.27990157700492091 30.541210906560082 0 0 0 0 -20.306347297024331 -11.627096661424275 0 -11.627096661424275 41.108282014235371 0 0 0 0 -16.706573120958637 -10.491521698283805 0 -10.491521698283805 17.785852163019626 0 0 0 0 -33.977892460741714 1.8608368111125628 0 1.8608368111125628 16.298615765007753 0 0 0 0 -32.089274554314329 -4.4909891741846124 0 -4.4909891741846124 29.861662024227371 0 0 0 0 -34.77646704811599 -1.6631598815149289 0 -1.6631598815149289 2.1481456385435918 0 0 0 0 -25.689848388821702 -7.364684557120313 0 -7.364684557120313 -5.7486010895802337 0 0 0 0 -27.916686116137498 -3.7370701737682452 0 -3.7370701737682452 13.921370758440389 0 0 0 0 -16.954258228899562 -1.8769657162623616 0 -1.8769657162623616 -0.9279439783658745 0 0 0 0 -35.051107591483742 -3.9909539516735322 0 -3.9909539516735322 0.081797480044969006 0 0 0 0 -35.983778335106763 -17.844282055168946 0 -17.844282055168946 -3.6116003827980876 0 0 0 0 -16.998257475863142 7.5470541510311122 0 7.5470541510311122 8.3116548268350794 0 0 0 0 -16.000185530745512 27.323205408872127 0 27.323205408872127 15.959653528810577 0 0 0 0 -24.810387063003873 10.881147196561869 0 10.881147196561869 13.210823479558258 0 0 0 0 -42.979259449142774 7.6191228326576379 0 7.6191228326576379 11.210365981160976 0 0 0 0 -23.602604804662406 17.097069450595882 0 17.097069450595882 13.625547323156297 0 0 0 0 -11.290023590245255 9.6626602488034905 0 9.6626602488034905 4.064242095134432 0 0 0 0 -18.565374345293094 -3.8298213686407507 0 -3.8298213686407507 10.260061659528787 0 0 0 0 -27.487956564138585 2.9552632498149478 0 2.9552632498149478 1.3012969235047649 0 0 0 0 -23.509502937155048 -0.22821643580846285 0 -0.22821643580846285 -6.0169165040758799 0 0 0 0 -25.401716585100075 5.4695695781894074 0 5.4695695781894074 1.7425839565997876 0 0 0 0 -29.992624475271441 -0.76689765815444844 0 -0.76689765815444844 -0.61640632121202543 0 0 0 0 -29.707144878837425 -0.33929674813754218 0 -0.33929674813754218 -1.4566205989206082 0 0 0 0 -31.926227671256129 -8.0095939145808615 0 -8.0095939145808615 -8.0535764139633557 0 0 0 0 -29.883624547270301 -1.8367115172492845 0 -1.8367115172492845 -3.8951059592326374 0 0 0 0 -37.139286511601313 -5.6173149648230947 0 -5.6173149648230947 22.30860637004298 0 0 0 0 2.3778982709172851 16.036423324685074 0 16.036423324685074 4.5589626637615766 0 0 0 0 -9.1946292461798294 57.621088404903503 0 57.621088404903503 19.868477247508054 0 0 0 0 -18.251359448169268 7.891225140126167 0 7.891225140126167 7.8144214148707212 0 0 0 0 -53.8479422434757 -6.0859871702905366 0 -6.0859871702905366 14.988816616526947 0 0 0 0 -43.906726248027553 5.968189101295593 0 5.968189101295593 3.5270119241026805 0 0 0 0 -60.784376700190478 -23.652877427728299 0 -23.652877427728299 -0.55313521251454745 0 0 0 0 -66.189479635999305 -21.420662576427958 0 -21.420662576427958 -9.5593675153986624 0 0 0 0 -73.12176463475771 6.8558987608896587 0 6.8558987608896587 11.02187550267854 0 0 0 0 -47.856749463036977 -13.029652942726898 0 -13.029652942726898 -25.797156518498014 0 0 0 0 -49.260654250871085 2.0856077735621739 0 2.0856077735621739 23.520837136614773 0 0 0 0 -54.880548560504394 11.956392792367751 0 11.956392792367751 6.2558880416886495 0 0 0 0 -53.623512670077616 10.016006033588837 0 10.016006033588837 21.209262805596154 0 0 0 0 -23.858930506966146 4.3583254111513909 0 4.3583254111513909 10.064836802757565 0 0 0 0 -32.118965273333743 -15.823013709195948 0 -15.823013709195948 9.2401522621394179 0 0 0 0 -58.83595471263834 -9.4889234253123504 0 -9.4889234253123504 38.944283478757598 0 0 0 0 -47.94803356272314 0.42536602689006031 0 0.42536602689006031 23.268360914687491 0 0 0 0 -81.295177826868894 8.7992564198384571 0 8.7992564198384571 12.348162146785853 0 0 0 0 -70.501003558672892 -3.0594368921251771 0 -3.0594368921251771 23.223588578706767 0 0 0 0 -40.786307445690909 -20.846510075356946 0 -20.846510075356946 8.89174880772498 0 0 0 0 -67.476935512262571 -38.406588696009749 0 -38.406588696009749 6.5131062736645617 0 0 0 0 -16.997060854595475 -55.318625404769818 0 -55.318625404769818 -126.84073490247511 0 0 0 0 -129.52845472365152 -28.988861738837159 0 -28.988861738837159 5.3710517251422516 0 0 0 0 -71.180394266849817 -7.0709026842326921 0 -7.0709026842326921 -11.409918313504932 0 0 0 0 -103.69422053510789 27.135145501296392 0 27.135145501296392 -45.608350485904339 0 0 0 0 -75.149176893588447 -42.148748471360705 0 -42.148748471360705 -81.001589229843376 0 0 0 0 -64.798732746217865 -21.562543462314807 0 -21.562543462314807 -41.842006861223581 0 0 0 0 -128.56917934431112 -45.354583092477924 0 -45.354583092477924 -24.967999728994982 0 0 0 0 -64.763900887010095 8.4153444166504414 0 8.4153444166504414 16.051177633094539 0 0 0 0 -1.0738015462180499 -0.81766290011066722 0 -0.81766290011066722 -0.02855863293753963 0 0 0 0 -119.90236134091538 -3.5591051955552757 0 -3.5591051955552757 15.751179254483986 0 0 0 0 -71.270550304235257 4.3260501894112053 0 4.3260501894112053 3.212846420095957 0 0 0 0 -22.857085164803721 8.0928795452816757 0 8.0928795452816757 -5.1561304585275138 0 0 0 0 -56.991010442396146 -3.2054741928195085 0 -3.2054741928195085 -3.8889489634789243 0 0 0 0 -63.687289831737871 -23.306037127339891 0 -23.306037127339891 -9.1776813356486855 0 0 0 0 -50.585562328968081 -16.105820326073172 0 -16.105820326073172 -6.2568605227631906 0 0 0 0 -73.924666194252495 -19.097143941106424 0 -19.097143941106424 -0.24473824618598883 0 0 0 0 -72.075277527193066 -35.388469961651595 0 -35.388469961651595 -11.698518020838037 0 0 0 0 -78.846590889918843 -26.960785265215804 0 -26.960785265215804 -7.9267962846879527 0 0 0 0 -88.102290114249627 -21.514934668693968 0 -21.514934668693968 -11.075877854347937 0 0 0 0 -86.673955241577005 -45.498828775771116 0 -45.498828775771116 -20.135743904581432 0 0 0 0 -71.298863124553463 -34.820367262061154 0 -34.820367262061154 -12.745983610787107 0 0 0 0 -62.844774680197588 -33.043237065004405 0 -33.043237065004405 -23.059706371553602 0 0 0 0 -71.119023188941355 -36.850194202971124 0 -36.850194202971124 -10.277940861342358 0 0 0 0 -58.933482241680395 -22.527393372937922 0 -22.527393372937922 -8.8203580200938632 0 0 0 0 -75.076351618074114 -31.110773806848556 0 -31.110773806848556 -8.7320784427448288 0 0 0 0 -69.195256371647702 -24.212353219031229 0 -24.212353219031229 -1.3644612420948761 0 0 0 0 -108.19126478280668 -35.548141670705036 0 -35.548141670705036 -4.5614621335380434 0 0 0 0 -66.000307677466481 -37.87536511941812 0 -37.87536511941812 -14.2263060373391 0 0 0 0 -73.397284486795797 -37.36942500797602 0 -37.36942500797602 -9.6815904521818084 0 0 0 0 -59.964452883054037 -27.562131800149928 0 -27.562131800149928 -7.0224460736665151 0 0 0 0 -70.852466696029296 -37.172097008645324 0 -37.172097008645324 -12.889655926179103 0 0 0 0 -44.985522293412942 -34.550695485057417 0 -34.550695485057417 -29.263314242032266 0 0 0 0 -72.041257953736931 -45.75029648705106 0 -45.75029648705106 -21.581154008589237 0 0 0 0 -93.876338358182693 -55.823584809604313 0 -55.823584809604313 -22.150294411576169 0 0 0 0 -89.425971887296328 -51.742374261337091 0 -51.742374261337091 -22.342796592473405 0 0 0 0 -53.125923412801058 -58.090523584141124 0 -58.090523584141124 -58.055439805209744 0 0 0 0 -22.439428246521857 -24.575104375167371 0 -24.575104375167371 -29.127061379884026 0 0 0 0 -42.671493628015014 -24.302244714077816 0 -24.302244714077816 -23.102507565176211 0 0 0 0 -17.859109989366971 6.0020754822017963 0 6.0020754822017963 -1.6952485664118058 0 0 0 0 -20.952804568863939 7.4026463784219914 0 7.4026463784219914 -9.1736036820923772 0 0 0 0 -41.847436812633532 -7.292489997889561 0 -7.292489997889561 -12.010592515591668 0 0 0 0 -32.971693002582469 -16.797353137581371 0 -16.797353137581371 126.37620481298109 0 0 0 0 -9.8999060427595396 1.7966831302294395 0 1.7966831302294395 2.6951889833333098 0 0 0 0 -15.077010550757905 1.0728574416040288 0 1.0728574416040288 -0.563883277119547 0 0 0 0 -15.162606578232953 7.9308605378761285 0 7.9308605378761285 6.7930140600692539 0 0 0 0 -12.519768473770782 0.42249938530838804 0 0.42249938530838804 2.153388070951423 0 0 0 0 -3.3879180476519934 2.5319200208443604 0 2.5319200208443604 -0.90509935972523525 0 0 0 0 -22.557204369568353 -10.602350858036914 0 -10.602350858036914 -4.8405409058559599 0 0 0 0 -46.166459707601462 -10.164774114177817 0 -10.164774114177817 -3.729530573903503 0 0 0 0 -27.963931094705913 -0.15677390258417745 0 -0.15677390258417745 -8.793176486865832 0 0 0 0 -24.199904615670675 -4.1637757464551441 0 -4.1637757464551441 -9.2228973708447484 0 0 0 0 -45.440242142409261 -13.507128636036896 0 -13.507128636036896 -13.62033191070816 0 0 0 0 -37.106908433576791 -9.0932019715246781 0 -9.0932019715246781 -11.502697373711271 0 0 0 0 0.38634059450401992 2.8485265762900305 0 2.8485265762900305 1.0952059338556794 0 0 0 0 -28.388274009492307 24.301038902154687 0 24.301038902154687 31.508249635064203 0 0 0 0 -0.13768515828806471 3.0334377187471731 0 3.0334377187471731 1.4542569520731634 0 0 0 0 9.3396896701306105 13.19403070913404 0 13.19403070913404 0.88907124392221704 0 0 0 0 2.0775315837963717 6.3767407454324712 0 6.3767407454324712 2.9397815429043703 0 0 0 0 -0.69284400952165015 -1.3306739451845715 0 -1.3306739451845715 -5.0204108446005762 0 0 0 0 -0.79527707748677301 0.15476676054731087 0 0.15476676054731087 0.95059941875746823 0 0 0 0 6.4220384823711356 5.7922620464987631 0 5.7922620464987631 -6.021308075146635 0 0 0 0 -31.983662331709638 -4.1606235949769257 0 -4.1606235949769257 -3.8100851014077914 0 0 0 0 -19.426892948508424 7.2510817790952444 0 7.2510817790952444 6.5982323443709845 0 0 0 0 7.7264069779630518 -4.6511440571466665 0 -4.6511440571466665 19.507455496861674 0 0 0 0 11.490122074756073 34.926976520101334 0 34.926976520101334 1.3538160230391441 0 0 0 0 20.080613226731657 9.9031394528877854 0 9.9031394528877854 -10.275563031291767 0 0 0 0 -35.104435025048588 -6.5445712534343556 0 -6.5445712534343556 37.257479424874873 0 0 0 0 -64.581167756539799 25.090595307182639 0 25.090595307182639 7.6298612597627198 0 0 0 0 -18.78888865277986 38.081472703201143 0 38.081472703201143 -46.175270653776806 0 0 0 0 -0.66318500095269428 -0.94357752002217676 0 -0.94357752002217676 0.29549992805886194 0 0 0 0 -74.413786284101661 -6.7765460420334875 0 -6.7765460420334875 -11.983610309924003 0 0 0 0 -40.801149433282262 -7.0367175534310036 0 -7.0367175534310036 -11.981632058527339 0 0 0 0 -78.899911682921811 -1.9718845129175406 0 -1.9718845129175406 -2.1606969263618794 0 0 0 0 -166.52569603542361 -27.152141481072931 0 -27.152141481072931 7.5005271809036458 0 0 0 0 -90.298695932979172 -9.1849529059132351 0 -9.1849529059132351 11.69266410476348 0 0 0 0 -206.82926879805291 47.170419456270864 0 47.170419456270864 -17.838774158680963 0 0 0 0 -170.53487457492156 -112.7734749779388 0 -112.7734749779388 -42.232615339859876 0 0 0 0 -0.240058648546011 -0.365878149420098 0 -0.365878149420098 -0.33649081117604673 0 0 0 0 -24.884465361537877 -69.169100706343329 0 -69.169100706343329 72.01736073382483 0 0 0 0 -80.880264919254842 32.263207380545566 0 32.263207380545566 -18.633386143089638 0 0 0 0 -15.6738937753762 5.7106687780716356 0 5.7106687780716356 -17.041770267180937 0 0 0 0 -15.841655725518649 8.3427236644112099 0 8.3427236644112099 -10.342998579814775 0 0 0 0 -1.048493275824697 -0.33740862649007397 0 -0.33740862649007397 0.067463143909725076 0 0 0 0 -14.114212360924284 10.665796426946372 0 10.665796426946372 -7.2322044218308292 0 0 0 0 -2.6292132241505897 13.359411939947563 0 13.359411939947563 41.882038669992312 0 0 0 0 -2.6754407168737089 16.943478962098936 0 16.943478962098936 30.371273654962806 0 0 0 0 -2.0304802235768875 5.2563858335485065 0 5.2563858335485065 29.334258909778839 0 0 0 0 -2.0221779589846847 5.8920249220840333 0 5.8920249220840333 47.31789384394358 0 0 0 0 -134.46991311592865 -21.760935265327547 0 -21.760935265327547 141.87734579968563 0 0 0 0 -6.1430239613373487 0.63828474804401303 0 0.63828474804401303 0.2868432102106766 0 0 0 0 -165.31242230381031 146.53566070902764 0 146.53566070902764 236.7799879690524 0 0 0 0 -3.5800750460221025 -3.0745248918597099 0 -3.0745248918597099 31.753098063386687 0 0 0 0 -6.2083447667610017 12.510013609874363 0 12.510013609874363 54.522260451400371 0 0 0 0 -5.7241898223091994 8.0754879354361648 0 8.0754879354361648 35.827253026304788 0 0 0 0 1.2650833170773694 3.9989230086148382 0 3.9989230086148382 37.914372746760478 0 0 0 0 1.9420325032651817 5.9397026609846506 0 5.9397026609846506 31.005806681501781 0 0 0 0 198.63434604078793 55.946533312309725 0 55.946533312309725 -97.037482030831072 0 0 0 0 73.815586639573667 -302.20266394789638 0 -302.20266394789638 -339.11890696862883 0 0 0 0 -151.71853655157611 -271.13441575744048 0 -271.13441575744048 -237.23806626226803 0 0 0 0 -436.77869546040893 -264.02698999975973 0 -264.02698999975973 -203.81210512504228 0 0 0 0 -3.2652211483364226 15.32020882738135 0 15.32020882738135 -36.153940095189029 0 0 0 0 -391.59571688316646 -268.61773491935611 0 -268.61773491935611 -64.044493182697977 0 0 0 0 -2.3584473947509252 -1.1481624755183457 0 -1.1481624755183457 0.34020360442303565 0 0 0 0 -22.863161941986618 5.3313687825175862 0 5.3313687825175862 67.196548909455373 0 0 0 0 -3.8643044247518219 -0.5057700040608033 0 -0.5057700040608033 0.36936308993916245 0 0 0 0 -113.57728593586216 110.57735047075211 0 110.57735047075211 -100.40203367481067 0 0 0 0 -339.32040217743634 -52.232032774041954 0 -52.232032774041954 78.681373891567375 0 0 0 0 -114.41439406598511 -80.467410770037986 0 -80.467410770037986 -52.720265385062817 0 0 0 0 -166.46612849180383 -186.55988698527381 0 -186.55988698527381 -138.5390150164194 0 0 0 0 -58.409918367795854 -36.615843115706703 0 -36.615843115706703 -49.791435043426418 0 0 0 0 -59.994184714261792 -67.328528297409093 0 -67.328528297409093 -265.66604907334488 0 0 0 0 -5.645106689655222 1.2883773555678033 0 1.2883773555678033 2.1559697962575228 0 0 0 0 -4.2620784753875682 0.38801185614472011 0 0.38801185614472011 0.19567852000340472 0 0 0 0 -3.8268076181580852 -0.097753683789981949 0 -0.097753683789981949 0.51215164519664247 0 0 0 0 5.4974255338747753 2.3952630136002995 0 2.3952630136002995 -17.493954346629142 0 0 0 0 -115.34433065836492 37.837398891685353 0 37.837398891685353 46.430217891140444 0 0 0 0 -6.1439147104501899 -6.2707814834226205 0 -6.2707814834226205 9.1471006326725046 0 0 0 0 -4.5578816994493536 -4.4534428238465162 0 -4.4534428238465162 7.0387483422178292 0 0 0 0 -3.3877598802682769 -15.821612476826887 0 -15.821612476826887 -0.021426764648554489 0 0 0 0 -3.4369757141139416 -9.5997319031598174 0 -9.5997319031598174 13.053527835529067 0 0 0 0 -28.476753800234292 -11.679293508039867 0 -11.679293508039867 13.327829630370033 0 0 0 0 -42.467583964971709 30.319045430674908 0 30.319045430674908 -2.4136239525120189 0 0 0 0 -1.7019905668070692 -0.35729400428257563 0 -0.35729400428257563 0.29260070563923612 0 0 0 0 -8.8301633320425026 -4.6499083605623674 0 -4.6499083605623674 45.055155594411701 0 0 0 0 -66.314761607980472 -42.988008233572259 0 -42.988008233572259 -21.888963794058171 0 0 0 0 1.1298266707526636 -24.408120107140036 0 -24.408120107140036 15.114951968304535 0 0 0 0 -4.3771383655446243 0.56474671494092377 0 0.56474671494092377 0.16292328278778762 0 0 0 0 22.045250755320012 12.263881842829852 0 12.263881842829852 0.48594550018980698 0 0 0 0 49.584279607821372 -11.535778929119658 0 -11.535778929119658 -167.15471127166941 0 0 0 0 -1.715087104060018 0.10587468721714899 0 0.10587468721714899 0.074006009925286803 0 0 0 0 -49.720785491390416 56.768950615056809 0 56.768950615056809 75.09933121201793 0 0 0 0 -225.55679689150566 -317.21153956117735 0 -317.21153956117735 -202.29481981579585 0 0 0 0 -418.07055574416881 -276.33950527792433 0 -276.33950527792433 -20.028605664527078 0 0 0 0 -273.43533401373134 -169.66243404692858 0 -169.66243404692858 -151.18569320361445 0 0 0 0 -374.60787549458473 -145.11247556550524 0 -145.11247556550524 -141.21010138162353 0 0 0 0 -295.931724310969 -166.53436597237038 0 -166.53436597237038 -275.90757823311395 0 0 0 0 -362.59597035576007 -164.58579167827665 0 -164.58579167827665 -275.8989735664619 0 0 0 0 -110.06905044650557 -20.830720434858641 0 -20.830720434858641 0.048201351935506252 0 0 0 0 -346.16228036754183 -8.0801319993040863 0 -8.0801319993040863 63.411201856014308 0 0 0 0 -155.54382749111392 21.761079338094561 0 21.761079338094561 -277.90844333853693 0 0 0 0 -231.75935793271765 -103.96074931193684 0 -103.96074931193684 -86.148002539276945 0 0 0 0 -229.67949218550348 -86.151514586560211 0 -86.151514586560211 -28.825947946800611 0 0 0 0 -192.99618015166197 4.0397045639894014 0 4.0397045639894014 -44.944195606881756 0 0 0 0 -109.81988198914041 113.90003666395333 0 113.90003666395333 -160.67609856321383 0 0 0 0 -383.40997018362395 -86.28639867750384 0 -86.28639867750384 -282.94801859720525 0 0 0 0 -277.31765872128017 -98.526618626476264 0 -98.526618626476264 -282.58143083511436 0 0 0 0 -373.36229255648504 -50.105593021239962 0 -50.105593021239962 -118.55934677764417 0 0 0 0 -123.30212661950281 100.28647368415812 0 100.28647368415812 -70.035532246864662 0 0 0 0 -6.5608795355219627 -12.543760392396649 0 -12.543760392396649 -7.2289034918398158 0 0 0 0 9.4560610775370151 -2.139888971732077 0 -2.139888971732077 -10.008563771772288 0 0 0 0 -23.430756833207852 1.516383044097033 0 1.516383044097033 -8.9911112941805698 0 0 0 0 -18.195466889977979 8.5156419296350876 0 8.5156419296350876 -0.87866195579036344 0 0 0 0 -22.342694150007446 -13.971824689921103 0 -13.971824689921103 -6.4409772340991207 0 0 0 0 -46.603768331715401 -1.7831194196277949 0 -1.7831194196277949 14.369423838469871 0 0 0 0 -26.630050719853898 20.446585957579678 0 20.446585957579678 23.489259944265342 0 0 0 0 0.28612909469318559 -0.015983740270456792 0 -0.015983740270456792 -0.4124104828684827 0 0 0 0 -57.372279472625451 16.905926883852576 0 16.905926883852576 90.98766332055385 0 0 0 0 -52.942656457506018 -3.5544856458935978 0 -3.5544856458935978 24.802404714712964 0 0 0 0 -4.6536789553210482 0.27537434011642858 0 0.27537434011642858 -0.12121564291882497 0 0 0 0 -43.432073585667013 77.420647241365955 0 77.420647241365955 5.1481142776225202 0 0 0 0 5.4241767179009912 -1.1975325972135096 0 -1.1975325972135096 -192.08017238856036 0 0 0 0 -79.23583773856808 -72.217326253487357 0 -72.217326253487357 40.935953014775038 0 0 0 0 -91.063069179770537 -56.992381986362133 0 -56.992381986362133 79.687455197097165 0 0 0 0 10.527071774893557 -26.78183767729459 0 -26.78183767729459 -26.895334622116188 0 0 0 0 -1.4736478727049587 0.099308758872561853 0 0.099308758872561853 -0.094927312156653856 0 0 0 0 -34.070199695263 -54.685778106809543 0 -54.685778106809543 -37.85486405710833 0 0 0 0 -28.712022707579308 0.59413985764544464 0 0.59413985764544464 -13.487539327898673 0 0 0 0 -3.6679897568288027 2.4020275174162862 0 2.4020275174162862 -0.29982550856069073 0 0 0 0 6.39120132974017 33.428609508472498 0 33.428609508472498 1.3937392711985694 0 0 0 0 -12.390959645215503 3.5960874997795784 0 3.5960874997795784 -0.63364535044505643 0 0 0 0 -9.0415985661966261 -16.129313716837544 0 -16.129313716837544 -54.127387335600929 0 0 0 0 -43.292367931455374 -111.48892058424951 0 -111.48892058424951 -91.812927345012895 0 0 0 0 -24.131572367841727 -22.701474702194332 0 -22.701474702194332 -41.494748698016735 0 0 0 0 -4.2455660816207228 1.3574308747031196 0 1.3574308747031196 -0.14618929727479824 0 0 0 0 26.360724985453999 -43.71940993722194 0 -43.71940993722194 -50.089107929346881 0 0 0 0 49.756024884551152 -42.14793649558419 0 -42.14793649558419 -55.526597820859934 0 0 0 0 35.284258027764736 -16.310243111234627 0 -16.310243111234627 -93.745761518270982 0 0 0 0 -4.8064562094077701 -1.5524971613275937 0 -1.5524971613275937 9.6046467446428316 0 0 0 0 -5.9693478741993431 1.6297614542137318 0 1.6297614542137318 0.30257888290196433 0 0 0 0 -10.702679966721917 -0.25313905692760841 0 -0.25313905692760841 -0.8288514238378184 0 0 0 0 91.30021301866509 28.786415722573224 0 28.786415722573224 22.662056598188883 0 0 0 0 -7.1696527125269114 5.1208230463869597 0 5.1208230463869597 -0.44543811143319578 0 0 0 0 -7.9471264852578258 3.6622958299871389 0 3.6622958299871389 -0.49902441081836957 0 0 0 0 -5.3651165786286583 2.5409027396379997 0 2.5409027396379997 0.13583389875614671 0 0 0 0 -13.03626148924377 0.60026722039899028 0 0.60026722039899028 -2.1322329136765639 0 0 0 0 -32.276529969472904 14.39580931866891 0 14.39580931866891 6.9367472427576473 0 0 0 0 1.768933973107778 22.129033515867938 0 22.129033515867938 -10.36590573579835 0 0 0 0 -28.454385342847672 15.92870083930832 0 15.92870083930832 -5.9515083929309327 0 0 0 0 0.69871654715521458 0.89757384498585679 0 0.89757384498585679 -0.63304127721731041 0 0 0 0 3.8648842365473683 0.69121533400436874 0 0.69121533400436874 7.2114543675332783 0 0 0 0 -27.802800369128818 -0.19395483521889645 0 -0.19395483521889645 0.060270105565777499 0 0 0 0 -1.1783901821133327 0.52868919224734157 0 0.52868919224734157 0.10970142865214139 0 0 0 0 -18.399202143882576 8.5846081284520679 0 8.5846081284520679 -0.81405140815985533 0 0 0 0 -4.4648449125888874 -1.5008648430205298 0 -1.5008648430205298 7.3964805672937857 0 0 0 0 -2.0639418015998672 -7.1129828965933743 0 -7.1129828965933743 8.8616989576608773 0 0 0 0 -2.2789234179035702 -6.0220983789550582 0 -6.0220983789550582 3.3401822498065914 0 0 0 0 4.495965061152674 -7.8542699640764422 0 -7.8542699640764422 0.01973842205976397 0 0 0 0 0.067861972836318785 -0.0078654882957636119 0 -0.0078654882957636119 0.095612751915031352 0 0 0 0 -13.43685314528193 6.1076135916049612 0 6.1076135916049612 -3.684763881552243 0 0 0 0 -25.549438116744568 15.545911852902979 0 15.545911852902979 -0.00040492166350108235 0 0 0 0 -37.123484504747466 4.6481669963412688 0 4.6481669963412688 -2.9959965051854169 0 0 0 0 -27.119910125730712 12.905296588388117 0 12.905296588388117 -1.8052851800277345 0 0 0 0 -26.461282259202562 9.4485181953926798 0 9.4485181953926798 0.76155493069308378 0 0 0 0 -38.383163986167347 9.0528728417225484 0 9.0528728417225484 9.1873005225350717 0 0 0 0 -35.718790400118451 1.9830687869914412 0 1.9830687869914412 -11.90940339210303 0 0 0 0 -65.914169557120204 4.6194018787400966 0 4.6194018787400966 8.1273879418811958 0 0 0 0 -46.781053035170771 13.949076710797481 0 13.949076710797481 -0.012965450234033782 0 0 0 0 -0.12778873948770375 0.062916686350149575 0 0.062916686350149575 -0.095480654166353152 0 0 0 0 -34.900469907741353 -3.7958610859239545 0 -3.7958610859239545 0.011269579558717834 0 0 0 0 -39.31518512651769 -2.5510720093867469 0 -2.5510720093867469 2.0604831324219521 0 0 0 0 -32.908311918816253 -3.5640271454116559 0 -3.5640271454116559 -0.042904500976828866 0 0 0 0 -33.819086343930394 -2.6064413305721561 0 -2.6064413305721561 0.67139977927177252 0 0 0 0 -7.3859792838157219 -1.8035211418894335 0 -1.8035211418894335 -0.03736598110403988 0 0 0 0 -33.846171734661766 -10.68940483476749 0 -10.68940483476749 -1.6349198404543195 0 0 0 0 -31.17135633428552 -7.0980036768058596 0 -7.0980036768058596 3.1863359436590555 0 0 0 0 -32.712919764293474 -2.7068636282504439 0 -2.7068636282504439 -1.3676377990735897 0 0 0 0 -33.451315981911421 -3.1949072609679288 0 -3.1949072609679288 -0.46226488422647094 0 0 0 0 -24.896881496380956 -0.69390787222252825 0 -0.69390787222252825 -1.7088523419198332 0 0 0 0 -21.807397162351663 -11.986719391828903 0 -11.986719391828903 -2.162427148239022 0 0 0 0 -17.046957434532146 -8.592052490986049 0 -8.592052490986049 -1.5329952459306235 0 0 0 0 -27.301549479860114 -1.8619479598763959 0 -1.8619479598763959 -0.082432553676323295 0 0 0 0 -15.411693127243979 -5.4833296908759905 0 -5.4833296908759905 0.13395282081255666 0 0 0 0 -38.950806203276443 -30.589894183714762 0 -30.589894183714762 -11.252614576339624 0 0 0 0 -64.025093891370489 1.0257754698908315 0 1.0257754698908315 21.966879725398144 0 0 0 0 -74.80448994048129 -19.630464626305965 0 -19.630464626305965 1.8869735310933038 0 0 0 0 -2.9602830799853237 -5.0534452859341172 0 -5.0534452859341172 1.6050770195051087 0 0 0 0 -21.247577806243498 -6.7996718093147592 0 -6.7996718093147592 2.5430634058292299 0 0 0 0 -29.069653778630752 -11.074701539371191 0 -11.074701539371191 -1.0355809609259972 0 0 0 0 -50.719450222597516 -7.739098912043346 0 -7.739098912043346 -0.22740759384990383 0 0 0 0 -38.971224769782566 -3.7484300467362033 0 -3.7484300467362033 -5.0742767679218055 0 0 0 0 -27.631503767326784 12.637848195376122 0 12.637848195376122 3.6890546524506242 0 0 0 0 -49.483844657057489 -5.6636937263044018 0 -5.6636937263044018 -5.2528912541735053 0 0 0 0 -5.7626286548017589 3.2249438744815251 0 3.2249438744815251 2.6726169453697786 0 0 0 0 -30.97293512554279 -6.3360600411151973 0 -6.3360600411151973 0.038286741398812607 0 0 0 0 -53.036491658262094 -15.898995125059173 0 -15.898995125059173 4.3048272323122854 0 0 0 0 91.365800177845813 166.46655163701314 0 166.46655163701314 -0.31962628443159524 0 0 0 0 -3.3370050006770953 -1.2506045420635203 0 -1.2506045420635203 0.27643158003871843 0 0 0 0 22.345584693241108 72.812482219885524 0 72.812482219885524 126.76486729356301 0 0 0 0 91.431744767219129 152.21794540164439 0 152.21794540164439 200.22823020507838 0 0 0 0 67.861845150873705 244.93457931372481 0 244.93457931372481 1.5492299469782718 0 0 0 0 -19.496433531112416 136.92975284044931 0 136.92975284044931 285.07470082873999 0 0 0 0 -15.063551202183589 -11.775759362774693 0 -11.775759362774693 18.362600171603759 0 0 0 0 42.511900166777195 188.00863867858561 0 188.00863867858561 183.20507225122344 0 0 0 0 -13.254546692398435 81.800950183494024 0 81.800950183494024 120.0148169172972 0 0 0 0 82.865417704364518 98.499030492554027 0 98.499030492554027 -5.8376099638326195 0 0 0 0 -759.5443256572762 644.4241934570482 0 644.4241934570482 573.22422805381348 0 0 0 0 2.9765394626519992 294.27411539194196 0 294.27411539194196 363.40116977397429 0 0 0 0 -104.50875243866176 536.56093741005895 0 536.56093741005895 -4.4549793803691298 0 0 0 0 39.756745015620254 128.96285608841481 0 128.96285608841481 246.0356282647374 0 0 0 0 -406.6046190265879 85.53194185182889 0 85.53194185182889 1253.3965553418625 0 0 0 0 -36.558682484514833 -7.637257833149377 0 -7.637257833149377 -0.010178891319826078 0 0 0 0 -133.99346381349596 -130.50106496402711 0 -130.50106496402711 170.29453516404465 0 0 0 0 -84.005506167941348 -7.6212217720141382 0 -7.6212217720141382 24.519724564590376 0 0 0 0 -485.48079600412166 -4.9906186428980845 0 -4.9906186428980845 73.859952002578012 0 0 0 0 -437.11896570535191 105.02932726434476 0 105.02932726434476 -55.709639560279413 0 0 0 0 -39.683265896056383 -6.0293976374477438 0 -6.0293976374477438 0.78767833182804259 0 0 0 0 50.403925295257068 -94.56445374078902 0 -94.56445374078902 52.972244688127574 0 0 0 0 -3.9584931420649809 -148.10925106663768 0 -148.10925106663768 37.055751609612457 0 0 0 0 -66.733134364596481 -8.0409862903533735 0 -8.0409862903533735 75.821283398637803 0 0 0 0 83.18637935834704 -128.89290200563715 0 -128.89290200563715 -8.8761518206950427 0 0 0 0 123.45700483141991 -62.572463335404848 0 -62.572463335404848 24.610066592248955 0 0 0 0 -28.301125308389601 -64.053964199201289 0 -64.053964199201289 91.274805911027642 0 0 0 0 -6.429712129766699 -3.0636854018860262 0 -3.0636854018860262 1.8252823081531979 0 0 0 0 -36.920101512820111 10.067316663898438 0 10.067316663898438 56.221338871076966 0 0 0 0 85.33217623382734 -88.046568459246942 0 -88.046568459246942 -7.4638316240981339 0 0 0 0 102.79534596822305 13.262399958825029 0 13.262399958825029 -97.042472179282299 0 0 0 0 -12.448261403540528 17.566081751168099 0 17.566081751168099 -39.344324219871396 0 0 0 0 -11.199126227815213 -29.133223053009885 0 -29.133223053009885 -40.869497144706997 0 0 0 0 7.9794645044312347 -31.527832099331306 0 -31.527832099331306 -41.264360163125275 0 0 0 0 -111.39026815163379 -138.88556919119054 0 -138.88556919119054 -141.19235020276591 0 0 0 0 -1.8639854725550293 -1.5770312548483787 0 -1.5770312548483787 -1.8518080312767666 0 0 0 0 -15.477286180775991 39.500404188150128 0 39.500404188150128 -148.24412186442021 0 0 0 0 -576.56561539300765 -93.494657667887196 0 -93.494657667887196 -3.9112817800314659 0 0 0 0 -621.14076384320651 83.486866827946699 0 83.486866827946699 -15.631970860830492 0 0 0 0 -324.76119987787024 -14.039624116907845 0 -14.039624116907845 46.369431375119518 0 0 0 0 -442.4037324029232 -53.522598081490429 0 -53.522598081490429 36.255272057627678 0 0 0 0 -137.63291208420742 -44.169328929947312 0 -44.169328929947312 -11.123499802237916 0 0 0 0 -4.4974023837555919 -4.6777417345705743 0 -4.6777417345705743 -4.8835420343390288 0 0 0 0 -197.7743246232385 108.09259214683453 0 108.09259214683453 -18.826369256799524 0 0 0 0 -192.63070530667574 -44.321797353659235 0 -44.321797353659235 3.3371219174835005 0 0 0 0 -128.04157954430775 34.912937291507973 0 34.912937291507973 21.129209726136537 0 0 0 0 -249.74092285458755 -33.305090288927659 0 -33.305090288927659 11.505667102407415 0 0 0 0 0.8415011822944507 4.3963800153308057 0 4.3963800153308057 -31.433617486873118 0 0 0 0 6.8288927108533244 -6.8347328561349059 0 -6.8347328561349059 -17.290684321940489 0 0 0 0 15.166716542367794 -10.647267107834637 0 -10.647267107834637 -52.212664825940692 0 0 0 0 -3.0264934258655671 -6.5831055471458626 0 -6.5831055471458626 -9.2493027840726558 0 0 0 0 13.923263939235767 -34.866404265854726 0 -34.866404265854726 -25.551450969132702 0 0 0 0 -6.4063188851214363 -28.262365178809262 0 -28.262365178809262 -3.8136153180284964 0 0 0 0 1.2602833330361207 -3.1186313024931209 0 -3.1186313024931209 -4.5169243926829088 0 0 0 0 -1.2492135515858536 -9.9157818540408016 0 -9.9157818540408016 -16.226007804499005 0 0 0 0 -28.797658978168329 -27.067054562668091 0 -27.067054562668091 8.0708989418590136 0 0 0 0 -12.560132643266115 -31.29556356215744 0 -31.29556356215744 1.9288403453174396 0 0 0 0 -3.0603810985703603 -10.428474838613965 0 -10.428474838613965 -2.5725837853267421 0 0 0 0 -32.894308149563585 -16.098802637437302 0 -16.098802637437302 1.47990565425971 0 0 0 0 -13.039569791857502 -4.442845873087208 0 -4.442845873087208 4.2001229454979239 0 0 0 0 -14.855235468710816 -43.979003244534056 0 -43.979003244534056 27.629573392756356 0 0 0 0 -50.692306637014553 41.331151606809954 0 41.331151606809954 -100.12906251850427 0 0 0 0 -8.6220727489198907 6.0239110514737604 0 6.0239110514737604 -33.377441075221668 0 0 0 0 -1.2815576804359665 -0.22962579369061231 0 -0.22962579369061231 0.41053502997991176 0 0 0 0 2.5219738460865671 -2.2191925342505456 0 -2.2191925342505456 -2.2909501098362064 0 0 0 0 -96.315227111357672 -9.3022113362508208 0 -9.3022113362508208 64.976894562285679 0 0 0 0 -18.942332182043174 1.4284401684872137 0 1.4284401684872137 4.9008650379691971 0 0 0 0 -47.649185249421862 28.596627256197621 0 28.596627256197621 -20.782675762844974 0 0 0 0 -1.0547104913493968 -5.5192487742608591 0 -5.5192487742608591 -16.972788891548362 0 0 0 0 -7.2764720454797498 6.8452474415153119 0 6.8452474415153119 -21.298604330609351 0 0 0 0 -0.063099919607338961 -3.3631140848590348 0 -3.3631140848590348 -6.9912247105430652 0 0 0 0 -1.4040012389450567 0.1368284589070754 0 0.1368284589070754 -7.2495267285712544 0 0 0 0 -0.11798392452328699 4.4003053235542211 0 4.4003053235542211 1.9233298297718306 0 0 0 0 -13.448515760563168 -3.0700922706835172 0 -3.0700922706835172 0.76271867007380934 0 0 0 0 2.1608992844121531 -11.080099638004867 0 -11.080099638004867 6.5476517653910378 0 0 0 0 -1.6875346989254467 -1.1438569415295206 0 -1.1438569415295206 0.64993124737725338 0 0 0 0 5.7405320367324748 -5.9217124234396579 0 -5.9217124234396579 -7.4411339311807296 0 0 0 0 -0.4155896541748092 -0.50970899032993255 0 -0.50970899032993255 0.17896847152461426 0 0 0 0 -21.084714268607058 16.663098077187897 0 16.663098077187897 2.8887130345974583 0 0 0 0 1.3141877480520634 4.6945989310095229 0 4.6945989310095229 -12.465607477708659 0 0 0 0 14.166453491925495 -3.9377952996069325 0 -3.9377952996069325 -9.0554900602717225 0 0 0 0 -18.017598438504137 0.49498814452624629 0 0.49498814452624629 -10.155623437268787 0 0 0 0 -2.0285978524261736 0.8565536386063286 0 0.8565536386063286 -12.678817385267678 0 0 0 0 -2.0593987503816606 0.5555293973377502 0 0.5555293973377502 -12.05920207855587 0 0 0 0 1.7771154441379622 -0.32909010691065532 0 -0.32909010691065532 -12.805854452593394 0 0 0 0 -2.7789821117071938 0.41966031776318502 0 0.41966031776318502 0.23922469059102713 0 0 0 0 -19.889740218211955 -24.502755107283633 0 -24.502755107283633 -26.562242678344546 0 0 0 0 -2.0765348217792052 -2.0840018445283022 0 -2.0840018445283022 -4.025350972263368 0 0 0 0 -14.681500287340896 2.2218718990696402 0 2.2218718990696402 -0.078831523341250431 0 0 0 0 -2.5569477196413191 0.68993228859314115 0 0.68993228859314115 0.032557993622866377 0 0 0 0 -14.829080300341957 -11.377353598348577 0 -11.377353598348577 -0.32320333256348022 0 0 0 0 -5.1494507943423997 0.36443882549118101 0 0.36443882549118101 -0.074899868152578097 0 0 0 0 -12.846626635931898 -9.6462816998279095 0 -9.6462816998279095 -6.6229882739584127 0 0 0 0 -6.9895005977887195 -1.8325457763085069 0 -1.8325457763085069 -3.4734064144746526 0 0 0 0 -15.666261018476836 0.485862548031335 0 0.485862548031335 1.0755365019443579 0 0 0 0 -14.405617882464867 -7.867111823518826 0 -7.867111823518826 -7.3133722512739041 0 0 0 0 -14.636618629281656 -11.606246934693772 0 -11.606246934693772 -5.3594204732484059 0 0 0 0 -7.5225153535393474 -4.7309703205652909 0 -4.7309703205652909 -6.07492449561596 0 0 0 0 -25.353894569620024 -6.884556693507534 0 -6.884556693507534 3.036805001259836 0 0 0 0 -79.105727314883552 -64.387531019522896 0 -64.387531019522896 18.275053082928821 0 0 0 0 3.3808787397153708 -3.0381335423888416 0 -3.0381335423888416 -0.53203867034625496 0 0 0 0 4.7124341523231124 -80.244372882400455 0 -80.244372882400455 -61.299350036781334 0 0 0 0 -41.872649494922371 -5.6366298703271696 0 -5.6366298703271696 2.67863010425026 0 0 0 0 -1232.7309520307717 -721.36145018610648 0 -721.36145018610648 -105.66201693233157 0 0 0 0 -7.740068091154015 2.2706894121774894 0 2.2706894121774894 -2.4526180778746989 0 0 0 0 -485.10111115079781 -829.30090048341685 0 -829.30090048341685 -926.64520676669918 0 0 0 0 -105.1373774239255 143.33401235791871 0 143.33401235791871 -90.000018972248427 0 0 0 0 -261.48532235122548 129.8141503227402 0 129.8141503227402 -61.452172134788213 0 0 0 0 -524.25286600989057 -301.90986588719579 0 -301.90986588719579 -228.17727438768316 0 0 0 0 -18.963740782969495 7.7525604689134155 0 7.7525604689134155 -2.5488748271214039 0 0 0 0 -504.44629673543386 -173.51650247861198 0 -173.51650247861198 -109.14100182127132 0 0 0 0 -666.4591220991133 -226.97551702764864 0 -226.97551702764864 -112.8296611305913 0 0 0 0 -642.93281127583032 -406.1877811045581 0 -406.1877811045581 7.1817596654243303 0 0 0 0 -8.8847858813606067 2.1295695427427006 0 2.1295695427427006 0.10099547095975325 0 0 0 0 -248.47926893187105 -234.31429799811434 0 -234.31429799811434 -213.31365770486531 0 0 0 0 -1497.847993002455 -332.61978690226425 0 -332.61978690226425 188.04300467277216 0 0 0 0 -1077.9542005446674 -58.93563439316835 0 -58.93563439316835 -0.84332811352388681 0 0 0 0 -931.12906815509814 4.6081317001784363 0 4.6081317001784363 61.134476806061372 0 0 0 0 -852.99197479741997 -195.17201098740139 0 -195.17201098740139 1.6975976403514039 0 0 0 0 -409.2715333488668 75.560811571547475 0 75.560811571547475 -24.276763321128072 0 0 0 0 -948.00090666751385 -83.214434157102431 0 -83.214434157102431 85.154801966822816 0 0 0 0 -9.9153501502399948 -0.027047181309043822 0 -0.027047181309043822 -0.67515958890501748 0 0 0 0 -44.899224824475823 9.5663695929746133 0 9.5663695929746133 -2.4557194543013603 0 0 0 0 -40.635972412599585 7.1380417926550361 0 7.1380417926550361 -0.010844465642758178 0 0 0 0 -0.56762192186947402 -0.9134621181422915 0 -0.9134621181422915 -0.38906185827485323 0 0 0 0 -38.625620184068339 6.5414945325293541 0 6.5414945325293541 -0.83191033402717274 0 0 0 0 -38.744033425231464 7.2705682213463154 0 7.2705682213463154 -2.497745631876569 0 0 0 0 -40.444683029949374 5.606473046033484 0 5.606473046033484 -3.6100763477243731 0 0 0 0 -33.863664369368792 9.3452371855192347 0 9.3452371855192347 -1.1133412528581279 0 0 0 0 -68.45535373472012 32.263349786260562 0 32.263349786260562 9.1896213102231172 0 0 0 0 -252.70764631375278 -85.793246360191858 0 -85.793246360191858 -41.218134755553677 0 0 0 0 -36.539422485060641 11.646122225906709 0 11.646122225906709 -15.631120661969 0 0 0 0 -29.801383167931462 9.2052580285307144 0 9.2052580285307144 -1.1531367934642338 0 0 0 0 -64.096048818908457 14.95853269880763 0 14.95853269880763 3.6753243583478934 0 0 0 0 -35.21363245829707 28.147345235962135 0 28.147345235962135 -129.62181510784728 0 0 0 0 -60.689525997720921 3.6434702251350473 0 3.6434702251350473 6.0203639140807468 0 0 0 0 -48.18305447333023 15.435645970562319 0 15.435645970562319 -3.4462305057663798 0 0 0 0 -4.9056394606584917 3.331225503234073 0 3.331225503234073 1.8332356009191422 0 0 0 0 -45.170601099789565 5.1374488064390817 0 5.1374488064390817 -2.3270404808115472 0 0 0 0 -28.618272153602447 -3.3188864611900897 0 -3.3188864611900897 -35.481772214918124 0 0 0 0 -169.05133828315593 9.9046359769156993 0 9.9046359769156993 26.80080725364445 0 0 0 0 -9.0289434340204693 1.0682896782842306 0 1.0682896782842306 1.5755694284933042 0 0 0 0 -167.22456345749379 -36.293059779779782 0 -36.293059779779782 -6.8393783622559567 0 0 0 0 -290.5248955682946 -106.37949754866816 0 -106.37949754866816 -2.1121596166264567 0 0 0 0 -316.01299048367582 -66.706761957217765 0 -66.706761957217765 19.384671675821551 0 0 0 0 -255.42854282592634 -131.11940730591536 0 -131.11940730591536 -48.847418608019439 0 0 0 0 -100.69916110132908 -340.63506412843122 0 -340.63506412843122 9.3878890114217484 0 0 0 0 -71.856884331664332 -64.626226154706615 0 -64.626226154706615 -64.726281655889636 0 0 0 0 -35.023924729212013 8.649978458744588 0 8.649978458744588 0.0005838942340411369 0 0 0 0 -34.983160237996344 9.111002041800015 0 9.111002041800015 -0.48757286295406033 0 0 0 0 -34.178026490109914 8.7014293422883338 0 8.7014293422883338 -3.0831436957022653 0 0 0 0 -34.086332412372485 9.6598593437104441 0 9.6598593437104441 -1.4440485059202031 0 0 0 0 -31.870192767015396 8.8757486145247704 0 8.8757486145247704 -1.2357997557997134 0 0 0 0 184.52815242966608 -7.6433035960263851 0 -7.6433035960263851 -26.962529386416861 0 0 0 0 96.048332035762087 -638.37720463759115 0 -638.37720463759115 -279.36096046442958 0 0 0 0 -1104.4797700412892 -840.01067525501855 0 -840.01067525501855 -219.39050431219653 0 0 0 0 -854.54979099320917 -405.06736220912069 0 -405.06736220912069 11.149049525927239 0 0 0 0 -904.58380515583849 -437.75610937775559 0 -437.75610937775559 146.59437350137529 0 0 0 0 -1587.4470771634951 150.11101992210229 0 150.11101992210229 168.57662094728113 0 0 0 0 -1979.7861000622288 193.10958357959618 0 193.10958357959618 212.73370421304503 0 0 0 0 -2059.7248160550662 -312.14660780535985 0 -312.14660780535985 134.11873634696207 0 0 0 0 -30.177988818233061 7.1348734900397339 0 7.1348734900397339 -0.82406923685782374 0 0 0 0 -28.660865390782419 4.7840229420709246 0 4.7840229420709246 3.1860144642313717 0 0 0 0 -2329.8071906310506 852.23117724344092 0 852.23117724344092 -1152.06239240426 0 0 0 0 -21.690409076327342 7.0023808440877975 0 7.0023808440877975 0.010987888225590976 0 0 0 0 -1070.4496803892878 -2043.0426749706064 0 -2043.0426749706064 -473.16740304161334 0 0 0 0 -14.645613304351002 0.78855208503161123 0 0.78855208503161123 0.14599779458612955 0 0 0 0 -1069.9927519592893 529.55565775502589 0 529.55565775502589 -189.66407727766705 0 0 0 0 267.12668277180637 -1322.416045572448 0 -1322.416045572448 -86.849666267968587 0 0 0 0 -16.410974807430321 -4.974575077337807 0 -4.974575077337807 -1.230724128324385 0 0 0 0 -799.51611910645443 114.50166375833697 0 114.50166375833697 132.02205838813182 0 0 0 0 -189.21607768731883 407.78832057622344 0 407.78832057622344 -181.06730224845342 0 0 0 0 -762.87069467176843 -166.55727810550525 0 -166.55727810550525 89.345301553492504 0 0 0 0 -678.43426982953315 -35.991454988098951 0 -35.991454988098951 165.17063919276467 0 0 0 0 -439.93448003886806 -150.6077906517485 0 -150.6077906517485 87.374740570054996 0 0 0 0 -608.16065056611842 -11.526948250674593 0 -11.526948250674593 52.896645695963571 0 0 0 0 -536.0191960371958 99.715866233648626 0 99.715866233648626 132.31079151949163 0 0 0 0 -456.04313218633251 -61.825958875128777 0 -61.825958875128777 -126.34111317070597 0 0 0 0 -437.00256105107474 -78.429471733875317 0 -78.429471733875317 32.770725071263996 0 0 0 0 -458.00058714871193 -62.908011785262637 0 -62.908011785262637 21.454140903429106 0 0 0 0 -424.76409798033274 -94.144842682596988 0 -94.144842682596988 5.408577649997838 0 0 0 0 -416.29138091040659 -65.542453777495581 0 -65.542453777495581 0.026054256333416959 0 0 0 0 -458.79709478859513 -95.102640806354373 0 -95.102640806354373 41.093997751817369 0 0 0 0 -425.07499229847053 -96.475158695955741 0 -96.475158695955741 44.015089376175638 0 0 0 0 -436.07252532532948 -87.154184412702818 0 -87.154184412702818 37.640745320626706 0 0 0 0 -381.83989459737495 -66.861391242864329 0 -66.861391242864329 34.014913918134596 0 0 0 0 -440.26415953414153 -105.75757401504008 0 -105.75757401504008 36.160602875930635 0 0 0 0 -466.43291582821257 -103.78751609931794 0 -103.78751609931794 36.060257180450549 0 0 0 0 -469.24979546529357 -96.853145429824679 0 -96.853145429824679 44.984762346093802 0 0 0 0 -448.30164794195662 -105.2265052019801 0 -105.2265052019801 23.104000887671816 0 0 0 0 -436.08248505372103 -88.299618702381025 0 -88.299618702381025 43.34237111902263 0 0 0 0 -435.9675898745445 -80.242871404369396 0 -80.242871404369396 25.52046196593799 0 0 0 0 -455.53070856531849 -78.699017741148964 0 -78.699017741148964 45.766112204537194 0 0 0 0 -411.33689722725831 -41.038662048980484 0 -41.038662048980484 41.41954861894726 0 0 0 0 -494.2192661030931 -46.138429706564892 0 -46.138429706564892 68.993803701041656 0 0 0 0 -377.39675689429259 91.385647532795758 0 91.385647532795758 108.82461210478482 0 0 0 0 -0.92544622163062229 -0.72215748925084711 0 -0.72215748925084711 0.31934380370432458 0 0 0 0 -403.24973367247003 -39.68695156660408 0 -39.68695156660408 41.644402839873571 0 0 0 0 -314.62346489882657 9.8547835710243135 0 9.8547835710243135 14.159143149868925 0 0 0 0 -446.79066391817105 -1.828775407528461 0 -1.828775407528461 20.017233492312656 0 0 0 0 -421.24403976088752 -78.835962386548402 0 -78.835962386548402 24.482933739474724 0 0 0 0 -377.13442583206779 -79.744868695356445 0 -79.744868695356445 17.294724944758684 0 0 0 0 -382.35412342473137 -75.868269082260682 0 -75.868269082260682 28.005144097695506 0 0 0 0 -437.03877687011999 -80.941468514956142 0 -80.941468514956142 41.806800361750447 0 0 0 0 -368.632013722392 -101.11911251338759 0 -101.11911251338759 17.592007973378941 0 0 0 0 -180.38193299720297 4.6075011204867309 0 4.6075011204867309 -11.505764305945718 0 0 0 0 -295.97848555434757 -52.096097472249681 0 -52.096097472249681 12.24473388108369 0 0 0 0 -298.64762244899248 -48.580778002498192 0 -48.580778002498192 17.915389858316757 0 0 0 0 -0.36511324237898179 -1.1884034365380387 0 -1.1884034365380387 0.65644211333314884 0 0 0 0 -34.706365530219045 11.116427227326014 0 11.116427227326014 -14.837254931907495 0 0 0 0 -152.95504589704069 -30.956802100594494 0 -30.956802100594494 -9.7086228497284637 0 0 0 0 -348.20231295425219 313.89464934138726 0 313.89464934138726 -130.92611817287309 0 0 0 0 0.90949351962063218 1.2354442169808593 0 1.2354442169808593 0.82457219343341936 0 0 0 0 -255.73827247181725 211.0542979774844 0 211.0542979774844 -175.80486023984369 0 0 0 0 -415.10435834187956 234.73732683847686 0 234.73732683847686 -75.569805276721283 0 0 0 0 -100.38081934530237 13.010381123713088 0 13.010381123713088 19.393746723737905 0 0 0 0 -542.1981959115692 230.48406177864123 0 230.48406177864123 37.11368818249889 0 0 0 0 -4.9782349107190385 4.744641518765718 0 4.744641518765718 -33.821971418834963 0 0 0 0 -149.398771645956 10.93623246610764 0 10.93623246610764 29.178505249315435 0 0 0 0 -0.45643429666449009 0.44891607334385952 0 0.44891607334385952 0.5528672680281862 0 0 0 0 -568.86434523910066 215.96645929491325 0 215.96645929491325 29.517099294547734 0 0 0 0 -550.45653559169659 24.844130678057354 0 24.844130678057354 100.83250421889407 0 0 0 0 -570.16476955480175 216.4925534068322 0 216.4925534068322 116.84378486401232 0 0 0 0 -596.75118963950808 221.1801468082075 0 221.1801468082075 138.8096399412309 0 0 0 0 -550.35018848531763 277.58885208102117 0 277.58885208102117 42.37030178601178 0 0 0 0 -534.98551392302761 233.38774240203026 0 233.38774240203026 -58.83306312169023 0 0 0 0 -649.34887614027684 406.72438371494036 0 406.72438371494036 -32.991309029495916 0 0 0 0 -547.57477164652846 262.38229370056501 0 262.38229370056501 75.495372618391627 0 0 0 0 -620.24867109107436 356.52523206312077 0 356.52523206312077 1.9943442461517904 0 0 0 0 -655.05634988239035 304.3511376445465 0 304.3511376445465 181.33214356020773 0 0 0 0 -599.95294412506337 161.84847625554494 0 161.84847625554494 331.67982436195024 0 0 0 0 -575.83990927213563 28.153786959191546 0 28.153786959191546 266.57172825789769 0 0 0 0 -1496.8912857816867 -364.95803635305407 0 -364.95803635305407 504.63078695259327 0 0 0 0 -1111.8689762737195 154.17853511391365 0 154.17853511391365 249.93689000738485 0 0 0 0 -1500.8306600258729 392.66973954853268 0 392.66973954853268 239.3961905286865 0 0 0 0 -1003.0630359259085 502.28943206627656 0 502.28943206627656 -50.277630425001369 0 0 0 0 -1001.6518156763777 538.4207451798286 0 538.4207451798286 102.37822372933579 0 0 0 0 -420.24884083835786 269.51819958295061 0 269.51819958295061 -132.45597378959872 0 0 0 0 -395.20560700320766 589.63079759764776 0 589.63079759764776 -505.20911194519465 0 0 0 0 -424.75344904921712 359.2578432277304 0 359.2578432277304 -212.2455576120438 0 0 0 0 -145.08605109796554 201.89225981814016 0 201.89225981814016 -318.19895878577097 0 0 0 0 -157.89019113219547 7.4576934142941695 0 7.4576934142941695 -87.793955415330458 0 0 0 0 -477.41014894617547 948.8864595310032 0 948.8864595310032 -1302.4972207224721 0 0 0 0 -1496.8468428244184 851.8642505502861 0 851.8642505502861 -41.436030237910572 0 0 0 0 -1500.0694917013807 34.253474275896231 0 34.253474275896231 101.12711888704474 0 0 0 0 -99.579624184043496 44.16254888973458 0 44.16254888973458 34.242232087729121 0 0 0 0 -16.367364050620331 -12.809072499825003 0 -12.809072499825003 -6.778101695099684 0 0 0 0 -72.474598407480244 -35.052099874668265 0 -35.052099874668265 92.779834827086233 0 0 0 0 -5.2195656868030467 6.1597888673551253 0 6.1597888673551253 18.452481416892727 0 0 0 0 -1079.5349336729123 216.3716937753868 0 216.3716937753868 -9.2008231679032946 0 0 0 0 -1498.5256404069332 426.0114045043531 0 426.0114045043531 -84.920517049577313 0 0 0 0 -6.0633387460305386 -2.6879579190144938 0 -2.6879579190144938 0.30533247555521137 0 0 0 0 -5.4859722053740967 -1.2932727832027311 0 -1.2932727832027311 4.9149052964439992 0 0 0 0 -31.613818152032536 -6.7211787954175062 0 -6.7211787954175062 81.170752174260869 0 0 0 0 -259.33857929605756 35.706907955260114 0 35.706907955260114 20.337824725161681 0 0 0 0 -445.52409142538454 7.852984781788507 0 7.852984781788507 252.77380829105766 0 0 0 0 -463.95973877391953 148.62304870796493 0 148.62304870796493 -57.058393065335508 0 0 0 0 -387.1597240602714 137.91350419256219 0 137.91350419256219 -60.733678713311065 0 0 0 0 -462.97780342487749 133.84725300660875 0 133.84725300660875 -64.998185951112418 0 0 0 0 -564.04836661019363 187.94594067909406 0 187.94594067909406 -43.265557159193122 0 0 0 0 -481.32285335987399 100.70397145553522 0 100.70397145553522 48.709160728545157 0 0 0 0 -536.15757831805968 146.23244567294046 0 146.23244567294046 59.8709975405379 0 0 0 0 -608.47251184340894 148.17962187294552 0 148.17962187294552 172.56423260501811 0 0 0 0 -471.57134867083732 142.19382116231941 0 142.19382116231941 85.252068133655371 0 0 0 0 -582.95167549640337 102.30685600875839 0 102.30685600875839 75.64949876041419 0 0 0 0 -608.89690183231505 19.978234346797763 0 19.978234346797763 31.82728571757616 0 0 0 0 -743.76492569598486 110.36916656572953 0 110.36916656572953 85.492764528078055 0 0 0 0 -975.3384491998022 -61.156396321560635 0 -61.156396321560635 17.693454532945452 0 0 0 0 -744.54933657268703 299.4119590297085 0 299.4119590297085 -140.19595816193601 0 0 0 0 -1446.4546874884181 385.07850880118053 0 385.07850880118053 -139.146346602318 0 0 0 0 -5.6483475752251735 -4.0379269775311393 0 -4.0379269775311393 -4.0755144368271807 0 0 0 0 -18.210739864296556 -268.37685063144443 0 -268.37685063144443 -247.97770854966257 0 0 0 0 -1175.1093835808051 -263.86157491543366 0 -263.86157491543366 -237.10014549687639 0 0 0 0 -648.65650913572972 -180.46151902973099 0 -180.46151902973099 -489.33872404786621 0 0 0 0 -534.26060121672344 -179.558096333349 0 -179.558096333349 -310.67752978715248 0 0 0 0 -564.21103342324932 -18.806747463833062 0 -18.806747463833062 -218.43950111584775 0 0 0 0 -446.18606638147685 -63.749313347516818 0 -63.749313347516818 -159.18966296463742 0 0 0 0 -701.82648848916506 -117.47286680040088 0 -117.47286680040088 -75.804168046859104 0 0 0 0 -693.69704011425711 -113.69151772621194 0 -113.69151772621194 -208.32824958000253 0 0 0 0 -570.86735008155665 -72.949470784984328 0 -72.949470784984328 -73.230834320989516 0 0 0 0 -673.47539304150996 -99.096654301298855 0 -99.096654301298855 14.540608060020531 0 0 0 0 -511.39815362652735 -41.043989487952445 0 -41.043989487952445 35.314016680170084 0 0 0 0 -475.4476797420175 -56.753767062933548 0 -56.753767062933548 41.345896388949768 0 0 0 0 -545.10977820847984 -84.375294163336434 0 -84.375294163336434 52.542017862768887 0 0 0 0 -501.6375316189733 -137.44128329718876 0 -137.44128329718876 5.3616439958632327 0 0 0 0 -528.7403420923938 -177.98179003123627 0 -177.98179003123627 -130.59802154444696 0 0 0 0 -478.37174577963742 -109.65868725932478 0 -109.65868725932478 -42.573979473802524 0 0 0 0 -439.57904118778242 -114.41172601916912 0 -114.41172601916912 -48.402674819383435 0 0 0 0 -426.82302742840693 -110.96883937901976 0 -110.96883937901976 -1.5830320591742293 0 0 0 0 -422.49049131008178 -84.938598367379257 0 -84.938598367379257 1.337225868105179 0 0 0 0 -341.04469005607461 -60.962504810065639 0 -60.962504810065639 -0.9187140023457232 0 0 0 0 -317.96084514815448 -63.306846810666798 0 -63.306846810666798 -76.182080527771006 0 0 0 0 -380.49340969686455 -108.31996893072625 0 -108.31996893072625 -48.423203755277655 0 0 0 0 -357.64196664735937 -81.553897978073167 0 -81.553897978073167 -84.266342060344641 0 0 0 0 -273.68611483559653 -77.421979026093368 0 -77.421979026093368 -118.58416845202032 0 0 0 0 -443.10953807840997 -90.555575416150418 0 -90.555575416150418 -105.95531659929384 0 0 0 0 -363.17205815426314 -102.85103693194671 0 -102.85103693194671 -142.54928753201239 0 0 0 0 -318.77884587739027 -59.010675247762833 0 -59.010675247762833 -204.60660596357002 0 0 0 0 -295.11951429368673 8.6295666524155195 0 8.6295666524155195 -65.411301250946508 0 0 0 0 -257.56284675133065 51.296793547156426 0 51.296793547156426 -189.24608687505599 0 0 0 0 -381.61355548494612 10.752815209037863 0 10.752815209037863 -134.81214888344141 0 0 0 0 -362.06736818215177 -6.2061495055169189 0 -6.2061495055169189 -158.90540491541947 0 0 0 0 -260.4443570866124 50.060168975025903 0 50.060168975025903 -99.99259216073915 0 0 0 0 -211.83166680192971 110.00304934659668 0 110.00304934659668 -121.15226723581577 0 0 0 0 -253.16656875969056 54.825327484200216 0 54.825327484200216 -115.53429982682349 0 0 0 0 -244.96062995213197 13.43461066602967 0 13.43461066602967 -135.38068339307506 0 0 0 0 -376.1722798824776 68.59876259790974 0 68.59876259790974 -136.1221840968235 0 0 0 0 -444.06850106016645 -76.194402494134692 0 -76.194402494134692 -65.856768644441445 0 0 0 0 -327.71254674504598 -137.10048381773038 0 -137.10048381773038 -84.980495142320365 0 0 0 0 -524.31248490180587 -68.983914152444413 0 -68.983914152444413 -54.148860498915582 0 0 0 0 -531.76457377981205 -199.34205942073726 0 -199.34205942073726 13.905182029143134 0 0 0 0 -642.24028995744811 43.411869823800942 0 43.411869823800942 -131.08360411997455 0 0 0 0 -568.23551593231241 -54.116191565845384 0 -54.116191565845384 -182.18147052219842 0 0 0 0 -412.25662527955319 -51.655025491251479 0 -51.655025491251479 -249.94258032360585 0 0 0 0 -462.76680152932749 57.683855553642275 0 57.683855553642275 -190.14940758612283 0 0 0 0 -689.16786187394246 100.78694150937281 0 100.78694150937281 -372.03773367076406 0 0 0 0 -1045.4548047630706 -0.42466396460378064 0 -0.42466396460378064 -64.745754125932535 0 0 0 0 -766.91050072103099 -488.41981471630265 0 -488.41981471630265 -109.74094072431444 0 0 0 0 -567.1432740955679 -288.01778415189278 0 -288.01778415189278 -89.24770402962622 0 0 0 0 -424.8981490186743 -197.12120435259135 0 -197.12120435259135 -83.128996315767353 0 0 0 0 -708.67456620376697 -160.80319810731316 0 -160.80319810731316 7.505691244286254 0 0 0 0 -637.95499077459681 -156.9729949307432 0 -156.9729949307432 -2.9300562998560054 0 0 0 0 -642.76079725187174 -234.54381765779766 0 -234.54381765779766 54.136014841364158 0 0 0 0 -654.43868488872249 -86.896855352336161 0 -86.896855352336161 221.64111932146676 0 0 0 0 -652.36795657168341 -195.48069786618362 0 -195.48069786618362 117.51595302642545 0 0 0 0 -575.62154418435603 -155.87109573343048 0 -155.87109573343048 44.760371472412544 0 0 0 0 -702.75490968576923 -237.63795704873814 0 -237.63795704873814 1.390665737881136 0 0 0 0 -577.46787446205849 -176.65284830549589 0 -176.65284830549589 -95.049226120135017 0 0 0 0 -466.03233193582491 -203.30053589065346 0 -203.30053589065346 -89.688993181030128 0 0 0 0 -1047.1237512603136 -468.19241434287471 0 -468.19241434287471 203.10959937622954 0 0 0 0 -600.66809733021 -79.156682784332759 0 -79.156682784332759 36.05024311863184 0 0 0 0 -839.7086028022095 -529.04581364495959 0 -529.04581364495959 269.16811496663007 0 0 0 0 -1.5595916452076122 0.026795553442937603 0 0.026795553442937603 2.9725075858189687 0 0 0 0 -1499.9595979896258 -71.24825764425978 0 -71.24825764425978 73.943969505773268 0 0 0 0 -1457.7427567099749 -63.601785817279769 0 -63.601785817279769 44.534680305882645 0 0 0 0 -2.056326187006329 0.86197088209119954 0 0.86197088209119954 7.5102220218665163 0 0 0 0 -472.91643139320877 -207.31073814165495 0 -207.31073814165495 -68.082971978023579 0 0 0 0 -460.89005081575397 -121.18994205680724 0 -121.18994205680724 89.964046475839496 0 0 0 0 -77.887741868611556 -31.282702608193063 0 -31.282702608193063 -167.79372382249744 0 0 0 0 -1499.8837846324825 -27.649385922388767 0 -27.649385922388767 14.689928843836126 0 0 0 0 -1.2366467969450743 4.537021522216456 0 4.537021522216456 12.088302420067675 0 0 0 0 -1436.2103794672876 28.623983254777809 0 28.623983254777809 62.191485328237675 0 0 0 0 -21.141549838073843 -3.42134830983764 0 -3.42134830983764 -3.6606197430260181 0 0 0 0 -6.6410832714718708 0.19361800352385217 0 0.19361800352385217 -9.6375516252583111 0 0 0 0 -5.7279607345644763 -1.6857166790446172 0 -1.6857166790446172 -5.8942844016796698 0 0 0 0 1.8389702609856613 -6.2146395158915766 0 -6.2146395158915766 -10.957791877315003 0 0 0 0 -5.6591918630911096 -0.47130055321713371 0 -0.47130055321713371 -8.8264966276819905 0 0 0 0 -8.0942886183911469 -4.7314385147910798 0 -4.7314385147910798 -12.407033358380659 0 0 0 0 -8.5359852362598758 -3.1244076406014756 0 -3.1244076406014756 -9.4849496172450785 0 0 0 0 -16.176826551665727 0.6537716423299571 0 0.6537716423299571 -10.268288348377155 0 0 0 0 -28.228867164689291 -7.1351840675206404 0 -7.1351840675206404 -10.843878915935193 0 0 0 0 0.30626878205056585 -0.62325847015575775 0 -0.62325847015575775 -2.0291845233599126 0 0 0 0 -16.590784510812227 2.7424145787802559 0 2.7424145787802559 -17.968739145514519 0 0 0 0 -32.814373273837717 -0.93721053064914628 0 -0.93721053064914628 -0.40337426536319398 0 0 0 0 -35.742501451190037 -19.76181752060711 0 -19.76181752060711 16.911404570162858 0 0 0 0 -28.517161031017167 -33.69020318746675 0 -33.69020318746675 -27.467153939134278 0 0 0 0 -17.427616670687712 -16.138962862184371 0 -16.138962862184371 -2.8949922867723217 0 0 0 0 -3.4441906752632185 -7.5764063953551073 0 -7.5764063953551073 -4.6419977444600686 0 0 0 0 -30.288377175005735 1.123732609100216 0 1.123732609100216 -4.4832893930829414 0 0 0 0 22.280236512302508 -25.662718746532164 0 -25.662718746532164 -67.114354440288935 0 0 0 0 -6.9287975434299369 -7.0481800525783669 0 -7.0481800525783669 -37.961794146644024 0 0 0 0 -2.6773395313587045 -0.72928251909632991 0 -0.72928251909632991 0.038585283623232769 0 0 0 0 -36.400039159692824 -29.805253965690099 0 -29.805253965690099 -2.8828819669126915 0 0 0 0 0.10774953227407025 -2.5715145304360996 0 -2.5715145304360996 -1.1437031771068638 0 0 0 0 -3.8496316245436901 -8.5813384433627107 0 -8.5813384433627107 8.799990795818303 0 0 0 0 -39.357272287365049 -9.5678688283417159 0 -9.5678688283417159 -15.683238433809947 0 0 0 0 29.471790477189643 -0.80307978567543614 0 -0.80307978567543614 -15.249036498459645 0 0 0 0 -3.1441475854746557 -1.2335756186784712 0 -1.2335756186784712 -0.013530996924795591 0 0 0 0 10.808317688730313 -7.5707534816727957 0 -7.5707534816727957 5.7764661979990706 0 0 0 0 -0.67973896927850319 -0.59804320496968266 0 -0.59804320496968266 0.23975625125252042 0 0 0 0 -13.749900739458099 -0.7634972691398616 0 -0.7634972691398616 7.6119012302906413 0 0 0 0 -5.3456791285428835 -1.0040798585191961 0 -1.0040798585191961 0.27518501392780681 0 0 0 0 18.607217841963575 1.0135151735685213 0 1.0135151735685213 1.3572154637936364 0 0 0 0 -7.8690875259708264 1.3524009768159431 0 1.3524009768159431 17.055659586133515 0 0 0 0 -8.3807219626869482 -6.6152906225815968 0 -6.6152906225815968 -31.438821304167504 0 0 0 0 -13.317264964951235 -2.170617437273568 0 -2.170617437273568 0.75540171275823331 0 0 0 0 -17.038459392839286 -5.7457994628341567 0 -5.7457994628341567 -21.495366493429856 0 0 0 0 -5.4401070531530422 -2.1884967844173389 0 -2.1884967844173389 -25.627695703765312 0 0 0 0 -11.78317812098976 -21.339064950866941 0 -21.339064950866941 -15.220243970012234 0 0 0 0 -10.266093708713015 -24.297470521870764 0 -24.297470521870764 -17.329082411100671 0 0 0 0 -0.42675155453257219 -0.55624658022960993 0 -0.55624658022960993 0.19621873572456661 0 0 0 0 -14.026592677626468 0.61813477299983788 0 0.61813477299983788 14.060042643372071 0 0 0 0 -7.8361751099349419 -2.3741140522405502 0 -2.3741140522405502 -2.4058441408495463 0 0 0 0 -47.342463405395392 -10.088728171524053 0 -10.088728171524053 -15.863389675928374 0 0 0 0 -23.869148331286851 -13.904193791135185 0 -13.904193791135185 -19.056284238868102 0 0 0 0 -28.834019906411413 -7.0852258644372341 0 -7.0852258644372341 12.542432862398982 0 0 0 0 -10.701191949078293 -20.941982576743982 0 -20.941982576743982 -12.854310005527623 0 0 0 0 17.605115627942723 16.498537999237215 0 16.498537999237215 -18.677943413864341 0 0 0 0 4.2258269983774639 -3.8523078593211224 0 -3.8523078593211224 -14.856562095541756 0 0 0 0 2.685132977210742 -27.920409271735025 0 -27.920409271735025 -21.800492818380917 0 0 0 0 5.9254136470202923 1.6658154407527874 0 1.6658154407527874 -5.294044360578642 0 0 0 0 2.0603134786839092 1.0646852202875121 0 1.0646852202875121 -5.9266199078180719 0 0 0 0 17.025191283988534 6.8630743039550453 0 6.8630743039550453 -13.857917052470498 0 0 0 0 -8.7830825531709706 6.0840662025950678 0 6.0840662025950678 -11.10521058059112 0 0 0 0 -2.8833805054673576 5.1092330195886007 0 5.1092330195886007 -40.275155931042264 0 0 0 0 4.5429066131728177 -5.8857760452099797 0 -5.8857760452099797 -24.560165244110749 0 0 0 0 -2.5958890517613327 -3.5309515314872897 0 -3.5309515314872897 -10.319786683168278 0 0 0 0 -1.3456103620483191 -1.8729716880545766 0 -1.8729716880545766 -8.4707897434891493 0 0 0 0 -0.7922197106581379 0.086315026438668951 0 0.086315026438668951 -10.744556295099772 0 0 0 0 -3.3966185330359622 6.1788679817548307 0 6.1788679817548307 -30.898894177116745 0 0 0 0 -3.5551788799834867 -11.583657975722488 0 -11.583657975722488 -24.718975804989896 0 0 0 0 -16.318338754921569 -12.263484349333567 0 -12.263484349333567 3.0270868521229204 0 0 0 0 -2.1584782741521167 -1.6734134976689887 0 -1.6734134976689887 1.7302950111770503 0 0 0 0 -6.8519045585489948 -4.6616762134735836 0 -4.6616762134735836 -27.095451741041643 0 0 0 0 -8.6406447779372684 2.8060077340460339 0 2.8060077340460339 -52.475812197440973 0 0 0 0 -4.4553747430800286 -5.2822472081356864 0 -5.2822472081356864 -29.118448636450012 0 0 0 0 -8.8503118685039226 -7.8448563061001551 0 -7.8448563061001551 -17.896737695621312 0 0 0 0 -6.1793220298277447 -13.792844499273997 0 -13.792844499273997 -24.561640047420042 0 0 0 0 -315.78370536148577 -84.019475087437968 0 -84.019475087437968 -2.9754162443796304 0 0 0 0 -316.63385569206457 -72.614116012914423 0 -72.614116012914423 28.035743891336097 0 0 0 0 -300.38993343118636 -87.952509403103704 0 -87.952509403103704 -20.768040198019207 0 0 0 0 -250.35536330538162 -76.300449424433282 0 -76.300449424433282 -13.950287621764573 0 0 0 0 -269.87134993063228 -67.41893483197714 0 -67.41893483197714 -11.348109149999459 0 0 0 0 -148.69014336303371 -118.23119881158709 0 -118.23119881158709 -128.31860955161824 0 0 0 0 -16.366706654662266 -30.795752820110465 0 -30.795752820110465 -70.653840230439641 0 0 0 0 -90.609144590482174 -98.882552940281585 0 -98.882552940281585 -79.256748325741228 0 0 0 0 -117.00348342108191 -34.058691435316177 0 -34.058691435316177 -13.414167863448711 0 0 0 0 -224.21753838168661 -49.094389574178649 0 -49.094389574178649 -11.461653360341188 0 0 0 0 -58.729906619744725 -12.225783412153078 0 -12.225783412153078 -30.318633699147995 0 0 0 0 -88.504730775406642 -59.144707514439574 0 -59.144707514439574 -47.676563489083946 0 0 0 0 -21.508918199164327 -27.145857782764324 0 -27.145857782764324 -48.738858077859206 0 0 0 0 -39.630289536566124 -13.837048023416628 0 -13.837048023416628 -34.409134115835059 0 0 0 0 -0.14218407868192173 0.85718968837925757 0 0.85718968837925757 -0.48722651376219428 0 0 0 0 18.823104921772028 3.9062711195938391 0 3.9062711195938391 -38.618626060976567 0 0 0 0 -89.812488915024005 -82.814042981623061 0 -82.814042981623061 -99.37248012691964 0 0 0 0 52.716932868755976 -22.618885152145253 0 -22.618885152145253 -80.284644302165589 0 0 0 0 -0.067564191986271283 -1.3841967099907251 0 -1.3841967099907251 -8.0828983492596294 0 0 0 0 -0.32482900648010116 0.2807885135748851 0 0.2807885135748851 -1.2869197432252737 0 0 0 0 -132.39626802440762 23.848863060142776 0 23.848863060142776 80.125357437125103 0 0 0 0 -261.03990611562767 -106.21941387200775 0 -106.21941387200775 -3.6403329478473552 0 0 0 0 -312.73376143096175 -48.624139211405804 0 -48.624139211405804 -40.075110771084496 0 0 0 0 -250.32784315622121 1.0859683783014589 0 1.0859683783014589 10.108101111595715 0 0 0 0 -89.413327599781041 28.647533895576089 0 28.647533895576089 -0.075962274259723017 0 0 0 0 -0.96066117448476973 -0.40540739033684225 0 -0.40540739033684225 -2.5808695961088324 0 0 0 0 -82.763833740136761 38.888285626904235 0 38.888285626904235 -17.415357609801276 0 0 0 0 48.536366742438986 -10.942674128424642 0 -10.942674128424642 -8.4384095545665332 0 0 0 0 5.227682525277487 43.134474210747612 0 43.134474210747612 -30.935334517486581 0 0 0 0 55.428727226899355 2.1973812472601821 0 2.1973812472601821 -40.616261486218718 0 0 0 0 41.083726035343716 26.805346438719425 0 26.805346438719425 -51.942602557190639 0 0 0 0 14.172127955564974 10.738638061347046 0 10.738638061347046 -55.890687561592586 0 0 0 0 -6.7168517078607692 0.58335792502566619 0 0.58335792502566619 -48.561798906823242 0 0 0 0 8.9262583725030709 -11.031843656457113 0 -11.031843656457113 -44.887616496947885 0 0 0 0 -60.080514358625805 21.510813105861644 0 21.510813105861644 -36.197158192445386 0 0 0 0 3.5851934455859009 -11.854156141788508 0 -11.854156141788508 -38.52143521957214 0 0 0 0 -71.323701019409782 3.241035767404469 0 3.241035767404469 -58.146269138755997 0 0 0 0 -93.230052507332402 10.156696458767811 0 10.156696458767811 -56.315943575571509 0 0 0 0 -225.49154539815208 -20.167351999900347 0 -20.167351999900347 -90.454927849722424 0 0 0 0 -147.05661524800598 54.53041276328338 0 54.53041276328338 -48.762820411995335 0 0 0 0 -6.0750702275535389 -1.8856104806263856 0 -1.8856104806263856 -1.0863046232740183 0 0 0 0 -0.49750466123441583 -2.512986051762482 0 -2.512986051762482 -8.4715557604945388 0 0 0 0 -2.1392406483846571 -20.91298763079061 0 -20.91298763079061 4.028812808186558 0 0 0 0 -2.7519522575222695 -4.2453917413751441 0 -4.2453917413751441 -7.0597138781987683 0 0 0 0 -4.7274025178339798 -3.6036294422924584 0 -3.6036294422924584 -4.0773748640846748 0 0 0 0 -5.2624092073130697 -6.3459470100942195 0 -6.3459470100942195 -5.0469881144096158 0 0 0 0 -5.3633240448325523 -2.0834799863098397 0 -2.0834799863098397 -6.5271659406660092 0 0 0 0 -5.5229097543196985 -2.6797387480401085 0 -2.6797387480401085 -4.801771768517483 0 0 0 0 1.5049016356933862 -3.0935528928857821 0 -3.0935528928857821 -6.0346752909418626 0 0 0 0 -0.13125001498541167 -3.0001435292171199 0 -3.0001435292171199 -15.253882217906899 0 0 0 0 -1.4374753136871732 -2.2894650517187074 0 -2.2894650517187074 -7.3131282088770604 0 0 0 0 -2.5365766054173662 -3.9722581582232408 0 -3.9722581582232408 -6.2530529135599675 0 0 0 0 -3.8688051890057977 -0.87316448387446144 0 -0.87316448387446144 -7.9330257239480488 0 0 0 0 93.055473726883065 -75.855163029896175 0 -75.855163029896175 80.794253528626541 0 0 0 0 -0.51866105855338418 -2.8429578505930806 0 -2.8429578505930806 -8.6135865429770977 0 0 0 0 92.361282615005621 10.4349573837344 0 10.4349573837344 -39.231652907784337 0 0 0 0 -5.2378498559264699 -0.57204527484191203 0 -0.57204527484191203 -7.3462140021576943 0 0 0 0 58.759992241866712 17.965416301607206 0 17.965416301607206 20.005976285449833 0 0 0 0 -5.2559372348932811 -2.578036730650183 0 -2.578036730650183 -9.105512918176828 0 0 0 0 -5.7155323343467899 -1.474022464007021 0 -1.474022464007021 -7.0092148034581214 0 0 0 0 -3.6732861154068814 -2.3633415843154353 0 -2.3633415843154353 -6.7553356782063929 0 0 0 0 63.452280113302095 -56.598539310307196 0 -56.598539310307196 -34.838547245351037 0 0 0 0 -7.6021304857895302 -4.0059208235060737 0 -4.0059208235060737 -9.924181243775422 0 0 0 0 -7.1823005925107282 -2.4807813365964648 0 -2.4807813365964648 -8.9399933449869877 0 0 0 0 88.211798047241246 -34.690073130095669 0 -34.690073130095669 -54.453346349929234 0 0 0 0 -14.913826875636005 21.644705163517216 0 21.644705163517216 -58.214457020895225 0 0 0 0 -1.3106353409207969 -3.282266981971425 0 -3.282266981971425 -9.450433976498303 0 0 0 0 65.641212198621361 -17.234433657029285 0 -17.234433657029285 -65.571976776537667 0 0 0 0 57.018846283186576 -10.919389407832568 0 -10.919389407832568 -50.944429084330295 0 0 0 0 44.978236804861808 0.12788545015519048 0 0.12788545015519048 -57.063953479314932 0 0 0 0 41.441992892650887 -31.871151975491102 0 -31.871151975491102 -48.215866115866447 0 0 0 0 19.455457980031497 -56.138074892452266 0 -56.138074892452266 19.442809893733738 0 0 0 0 2.496710331281065 -11.802818661743913 0 -11.802818661743913 -33.520935103563488 0 0 0 0 -36.03036591133241 -18.289725523967775 0 -18.289725523967775 15.225733640681483 0 0 0 0 20.950621690470143 2.2299139071024001 0 2.2299139071024001 -42.482118749955418 0 0 0 0 -26.047109273029491 -4.7897072660531137 0 -4.7897072660531137 7.6450628200825577 0 0 0 0 -27.233979831673423 -5.0755911579530846 0 -5.0755911579530846 7.6385351063493658 0 0 0 0 -2.2865745553622219 -4.132144540576185 0 -4.132144540576185 -8.2983416441334157 0 0 0 0 0.29731097989711941 0.20933039877015602 0 0.20933039877015602 -1.8188234686183606 0 0 0 0 -24.96368035084015 10.295487588895583 0 10.295487588895583 -33.483582528888292 0 0 0 0 -30.458840757477446 8.4835065084344023 0 8.4835065084344023 63.964741812724924 0 0 0 0 -19.092310096901201 60.738667601020097 0 60.738667601020097 -0.73083762346936965 0 0 0 0 -10.415055606310489 66.976965302511928 0 66.976965302511928 -55.40126564251841 0 0 0 0 15.948103586937577 15.174622796992367 0 15.174622796992367 -58.700148597678435 0 0 0 0 -60.637259410861589 85.072384359418038 0 85.072384359418038 -93.773044898575904 0 0 0 0 -55.991914634971181 10.696234933549249 0 10.696234933549249 -6.8138231088119028 0 0 0 0 -0.44522781553856916 -1.7813613095978695 0 -1.7813613095978695 -6.8610477807220125 0 0 0 0 -160.73926242638845 69.368460263147995 0 69.368460263147995 -126.63254059517033 0 0 0 0 -150.07072171433174 40.144078528463524 0 40.144078528463524 -53.248617713132035 0 0 0 0 -64.418728301250667 55.689134994522192 0 55.689134994522192 -76.061233640838566 0 0 0 0 -70.046837712761771 31.021998328750669 0 31.021998328750669 -17.748658096343206 0 0 0 0 -82.725955631326542 83.638948162987759 0 83.638948162987759 -108.57700997604479 0 0 0 0 -79.532775639767351 49.002760744617717 0 49.002760744617717 -47.300965565518254 0 0 0 0 -154.79698149610704 92.641347429077086 0 92.641347429077086 -84.308286883424785 0 0 0 0 -155.48923960034517 80.330832633961677 0 80.330832633961677 -154.2210063963397 0 0 0 0 -133.38764090525729 114.78213618573301 0 114.78213618573301 -115.6582736927391 0 0 0 0 -94.024890928219975 100.39002493132398 0 100.39002493132398 -130.50249822373974 0 0 0 0 -97.401110325840818 95.958220515002381 0 95.958220515002381 -66.885611001467623 0 0 0 0 -97.70095685132037 89.515071160686801 0 89.515071160686801 -99.990428964054445 0 0 0 0 -142.86600940557764 92.346012707308489 0 92.346012707308489 -136.1813932773191 0 0 0 0 -100.22501237594406 128.79221374069215 0 128.79221374069215 -120.6095863907023 0 0 0 0 -0.27340235367065091 -0.47550420319544173 0 -0.47550420319544173 -2.4940455762756932 0 0 0 0 -66.860276388195416 -13.101585420855578 0 -13.101585420855578 -25.746123579379855 0 0 0 0 -143.56001633331653 135.36441012054865 0 135.36441012054865 -147.74753300736819 0 0 0 0 -82.730615874825162 117.67758347425695 0 117.67758347425695 -137.93092953366437 0 0 0 0 -131.12112402052844 98.061781924087029 0 98.061781924087029 -37.476266637369235 0 0 0 0 -93.489174576094229 81.683029307033678 0 81.683029307033678 -151.64099920915282 0 0 0 0 -84.35615360167867 92.939111491727644 0 92.939111491727644 -230.14352925564856 0 0 0 0 -4.1348086441539635 56.609684588455821 0 56.609684588455821 -24.609289198506417 0 0 0 0 6.1386529011942912 85.786315938003554 0 85.786315938003554 -336.23672242225382 0 0 0 0 -65.884823826549109 -1.8473028628961288 0 -1.8473028628961288 23.9141277284441 0 0 0 0 100.08100088889478 -31.800665884632508 0 -31.800665884632508 -108.70701306539729 0 0 0 0 -0.44803137954868077 -0.78992080357846817 0 -0.78992080357846817 -1.6372555332711651 0 0 0 0 -7.9128788283865106 12.99328521951351 0 12.99328521951351 19.573569821162437 0 0 0 0 1.0637494535258156 -13.611668174786814 0 -13.611668174786814 -8.9614771008432399 0 0 0 0 38.261328781485645 -42.203156684271164 0 -42.203156684271164 -142.412998623297 0 0 0 0 -0.63666148710986192 -1.7827276086158648 0 -1.7827276086158648 -4.5865879706013777 0 0 0 0 -18.646607909464365 32.585163543953612 0 32.585163543953612 17.522048861243267 0 0 0 0 -1.6705022920253541 -2.7671946637261087 0 -2.7671946637261087 -5.7701290816072124 0 0 0 0 -3.2894581668939367 -2.6441245572977223 0 -2.6441245572977223 -3.2503948125317796 0 0 0 0 1.8130858773401997 8.1665628082755575 0 8.1665628082755575 -14.142786590426795 0 0 0 0 8.9495657425068202 -23.921045213309128 0 -23.921045213309128 -0.37864187337046928 0 0 0 0 -5.2959185960244213 -9.9454288595492244 0 -9.9454288595492244 -7.718427241966765 0 0 0 0 -8.7066988343103731 -1.4180011252799432 0 -1.4180011252799432 -10.20478913428019 0 0 0 0 -16.950640743683834 -3.1903833977703471 0 -3.1903833977703471 -9.9403121725736128 0 0 0 0 -4.2617313127302623 -0.84973867642042933 0 -0.84973867642042933 -12.548625890045059 0 0 0 0 -30.818814005913737 7.8388445309492454 0 7.8388445309492454 -6.0669831756315489 0 0 0 0 -27.711505951276195 14.991104676576697 0 14.991104676576697 7.6220609134934421 0 0 0 0 -3.1666453349580479 5.1288011704622107 0 5.1288011704622107 -10.148469754971536 0 0 0 0 -35.665187017260905 -2.3931616517361363 0 -2.3931616517361363 -6.3377568509297362 0 0 0 0 -17.878859934411594 -6.1895239479877091 0 -6.1895239479877091 -16.788020676729445 0 0 0 0 -40.991260183029226 4.1057958957005667 0 4.1057958957005667 -13.406783794222633 0 0 0 0 -14.711595920998661 6.5378985724117342 0 6.5378985724117342 -9.6008799256296697 0 0 0 0 -33.812310683628311 29.74452249726437 0 29.74452249726437 31.258999801598293 0 0 0 0 -33.706489172298461 22.31277357764111 0 22.31277357764111 1.3849811576969842 0 0 0 0 -30.79173872532192 85.140137465735506 0 85.140137465735506 36.072415352591634 0 0 0 0 58.052260111726355 50.294765930040285 0 50.294765930040285 -0.86862319645751995 0 0 0 0 -34.834289233393065 32.277037248023134 0 32.277037248023134 16.827068070506812 0 0 0 0 -0.52415750028516239 4.3541315169080832 0 4.3541315169080832 -4.5905248002009653 0 0 0 0 -21.331605253668386 -4.9251129167475938 0 -4.9251129167475938 0.37782934208814822 0 0 0 0 -6.6163374556213626 -3.8738745151890726 0 -3.8738745151890726 -3.7813294430497231 0 0 0 0 105.14691304038024 21.095002103989664 0 21.095002103989664 -3.4615031226417727 0 0 0 0 -1.5928087068524235 1.5658824238464462 0 1.5658824238464462 -0.22174879197492636 0 0 0 0 -69.625632380026218 58.01174045760763 0 58.01174045760763 43.119276746412652 0 0 0 0 466.52356197357585 274.96650189815773 0 274.96650189815773 167.30485075750403 0 0 0 0 -25.667501189454924 30.340986134914601 0 30.340986134914601 51.492346771634402 0 0 0 0 -210.55421052259044 -124.61630333564517 0 -124.61630333564517 152.5895914274758 0 0 0 0 -21.072156105641625 74.806547059392415 0 74.806547059392415 -473.76323492559732 0 0 0 0 -216.56013600802521 -227.39417172797351 0 -227.39417172797351 -178.58921911952893 0 0 0 0 191.73111446404619 -217.60624378564665 0 -217.60624378564665 -41.406242693184481 0 0 0 0 -161.60414725793089 194.42977615224549 0 194.42977615224549 -204.17554298194523 0 0 0 0 -0.46440105329419268 -1.5013648665889647 0 -1.5013648665889647 -1.803854848868232 0 0 0 0 -113.07498953204777 109.5047568749568 0 109.5047568749568 -56.749944922902614 0 0 0 0 -0.96638366105272677 -1.1474147412349041 0 -1.1474147412349041 -4.8530192111270161 0 0 0 0 1.8759116209657805 136.6486837047749 0 136.6486837047749 -385.79012990346087 0 0 0 0 170.77640978132331 -124.1617399581491 0 -124.1617399581491 -304.76207632577979 0 0 0 0 -128.80832548291801 88.6490450648989 0 88.6490450648989 -103.7909899317425 0 0 0 0 95.527157595748577 256.98776598443584 0 256.98776598443584 -287.22623773001311 0 0 0 0 -312.36303232300634 122.39122080183063 0 122.39122080183063 221.04721719535581 0 0 0 0 -0.7767034753705957 -14.314077768113606 0 -14.314077768113606 14.749868215726252 0 0 0 0 0.98313387624513382 3.350029860981409 0 3.350029860981409 -0.43403654031347061 0 0 0 0 339.52636976916983 19.382677427919248 0 19.382677427919248 -181.93706942136288 0 0 0 0 0.053676604550673801 18.350381440865561 0 18.350381440865561 -54.325175185345415 0 0 0 0 1.2117073750623959 -1.2150006700066243 0 -1.2150006700066243 -5.6845910691713613 0 0 0 0 13.407845972149516 -2.8762669375061307 0 -2.8762669375061307 -1.2749292748839025 0 0 0 0 1.6960972249995621 1.924093771362692 0 1.924093771362692 1.9813792224531805 0 0 0 0 7.4943928621978557 6.4044445798802769 0 6.4044445798802769 -6.5371769101183759 0 0 0 0 1.5252994891488925 6.2412989103603422 0 6.2412989103603422 -0.28664542547014094 0 0 0 0 6.9210189356617775 10.159868344503735 0 10.159868344503735 -43.136959654628527 0 0 0 0 -0.67080904799513519 1.1346374312851992 0 1.1346374312851992 -5.179683663489584 0 0 0 0 4.5543267157336231 0.32994321829119144 0 0.32994321829119144 -17.972704539990559 0 0 0 0 -1.3071394406506442 25.408035022174943 0 25.408035022174943 -23.455138290142045 0 0 0 0 0.64098326939347317 17.487030712387579 0 17.487030712387579 -2.6754979251870168 0 0 0 0 -5.9835760485402716 26.394210401875199 0 26.394210401875199 -12.459588786993351 0 0 0 0 -121.4318731182284 43.591888734212851 0 43.591888734212851 -24.039462585457031 0 0 0 0 -20.484541077663607 -1.0772884629737121 0 -1.0772884629737121 -74.140026096496854 0 0 0 0 -18.922091132451897 14.920116861891373 0 14.920116861891373 -24.53232108012304 0 0 0 0 6.9989791142143076 -6.0060174064697378 0 -6.0060174064697378 -17.41489875693685 0 0 0 0 -15.764280793671787 30.493816886589059 0 30.493816886589059 -19.23767847888746 0 0 0 0 -29.670733264836599 25.626907035014654 0 25.626907035014654 -20.54691111328917 0 0 0 0 -3.8403479895956423 1.6820405240281957 0 1.6820405240281957 0.56955812229430047 0 0 0 0 -57.506880535107484 15.894860477768319 0 15.894860477768319 9.9927417697443843 0 0 0 0 -44.170501672884711 -134.99437554986625 0 -134.99437554986625 171.63003810325307 0 0 0 0 -77.546153201956258 160.18089134289721 0 160.18089134289721 -170.70608783999501 0 0 0 0 6.9734960154164582 162.98672216091234 0 162.98672216091234 -177.05480913967773 0 0 0 0 124.09211508792032 0.46409331825294942 0 0.46409331825294942 -92.794839537141229 0 0 0 0 -28.90453278516361 -53.424309764228838 0 -53.424309764228838 -164.57535074716458 0 0 0 0 -186.2547179256544 113.33929012358786 0 113.33929012358786 -130.26142824891602 0 0 0 0 -185.35902427709152 51.893474818565302 0 51.893474818565302 17.418249066171267 0 0 0 0 -133.78592838640725 -101.49095245112136 0 -101.49095245112136 212.17342162388775 0 0 0 0 -126.98840418652981 196.14234625678296 0 196.14234625678296 -258.07822197946786 0 0 0 0 -2.167843934142752 0.60182271746053217 0 0.60182271746053217 0.042430896987381068 0 0 0 0 -139.46932461178494 135.64116296029678 0 135.64116296029678 -90.147784852131565 0 0 0 0 -200.87749603164775 122.79330220979415 0 122.79330220979415 -95.976998102519531 0 0 0 0 -162.72342583917271 104.99912595666785 0 104.99912595666785 -89.897036894365741 0 0 0 0 -149.42660051169878 105.47436099897038 0 105.47436099897038 -161.94996410189128 0 0 0 0 -268.43282756036206 58.47324152501934 0 58.47324152501934 -109.25465150845281 0 0 0 0 -148.172265622532 95.603579744367096 0 95.603579744367096 -85.590144932069961 0 0 0 0 -1.0695089621302287 -0.14972432074391762 0 -0.14972432074391762 0.098869676409534063 0 0 0 0 -70.621801172623236 150.03160810645699 0 150.03160810645699 -48.091458001255738 0 0 0 0 -98.273182634977275 -26.972821948331998 0 -26.972821948331998 84.879668646251559 0 0 0 0 -4.3980553998662799 -3.3446610361269791 0 -3.3446610361269791 -32.29021104231694 0 0 0 0 -133.95087502353272 128.7040913192032 0 128.7040913192032 -72.638636848440512 0 0 0 0 -175.92703073584744 101.65380082328853 0 101.65380082328853 52.080778926204971 0 0 0 0 -102.44863508188786 139.75967927864863 0 139.75967927864863 56.145955578547785 0 0 0 0 -31.427848730178084 24.699572940907956 0 24.699572940907956 153.62906444437476 0 0 0 0 -17.013054566457868 -64.145410280755414 0 -64.145410280755414 231.33782749706279 0 0 0 0 -100.07167749906131 -5.2550882350780972 0 -5.2550882350780972 140.67487538031287 0 0 0 0 -55.681502712184738 -50.997025747385067 0 -50.997025747385067 242.43754741567238 0 0 0 0 6.7282565318237175 20.422821737231118 0 20.422821737231118 103.74078656750606 0 0 0 0 -127.73120005307283 105.48982047691963 0 105.48982047691963 -69.575532568206 0 0 0 0 5.8568888070767571 32.735452131406632 0 32.735452131406632 -71.239568061326452 0 0 0 0 -293.12123980746765 221.90614401284188 0 221.90614401284188 -45.348795573151335 0 0 0 0 -197.55721323264152 187.91865351772515 0 187.91865351772515 -49.174566621169362 0 0 0 0 -232.99121779346024 112.44228718962262 0 112.44228718962262 54.276486224497148 0 0 0 0 -194.89917935462654 111.70222648374295 0 111.70222648374295 159.72047367001383 0 0 0 0 -181.07054616744063 146.12653782425861 0 146.12653782425861 55.534966167686434 0 0 0 0 -216.57860601261564 138.18221411492502 0 138.18221411492502 57.535514670547968 0 0 0 0 -217.57145749641495 109.18628605442615 0 109.18628605442615 2.9364180289827573 0 0 0 0 -133.86862752050001 50.667862160189244 0 50.667862160189244 42.650689002716291 0 0 0 0 -277.12556738600324 106.22884648908851 0 106.22884648908851 199.60948517645744 0 0 0 0 -337.40526243306158 -55.278644766862847 0 -55.278644766862847 -5.8466792216352133 0 0 0 0 -192.37781496694151 125.57954308788089 0 125.57954308788089 192.89521264027672 0 0 0 0 24.425736797304126 -85.881330391028143 0 -85.881330391028143 -333.21490882643536 0 0 0 0 -4.3101580397307089 -1.2904482460259454 0 -1.2904482460259454 -0.17685638221655817 0 0 0 0 -106.50688744710715 -80.675932606618233 0 -80.675932606618233 71.872043489704083 0 0 0 0 -107.33140854630255 -219.34463868757518 0 -219.34463868757518 -167.43233323115578 0 0 0 0 -365.42806692390604 132.23925913662879 0 132.23925913662879 3.993551487177939 0 0 0 0 -26.486448055515211 41.265210169009606 0 41.265210169009606 307.12501018183394 0 0 0 0 -9.2882578335238577 -65.743122380960799 0 -65.743122380960799 16.138257515057774 0 0 0 0 -11.520222838206806 -3.4319966356397309 0 -3.4319966356397309 0.074079502891917309 0 0 0 0 -73.39052344301308 -62.33275615564628 0 -62.33275615564628 408.15631957940349 0 0 0 0 98.459694609620783 -101.83092620708794 0 -101.83092620708794 213.44393895930241 0 0 0 0 133.60848517232807 21.682369069290701 0 21.682369069290701 183.30901715412338 0 0 0 0 -14.179766028202721 151.05710867965445 0 151.05710867965445 148.81527540257059 0 0 0 0 53.940308334575093 112.63863651483246 0 112.63863651483246 147.12522169385119 0 0 0 0 -81.756706001506245 71.989346758576318 0 71.989346758576318 188.91131536151283 0 0 0 0 -4.8724732661903545 -70.063252181218161 0 -70.063252181218161 -122.19605804332426 0 0 0 0 -54.932562338530261 -121.44740503612911 0 -121.44740503612911 44.417546546010271 0 0 0 0 -62.816942031822691 20.360247974911218 0 20.360247974911218 -80.561405688663612 0 0 0 0 9.5451450580949313 -89.047282785489216 0 -89.047282785489216 -112.09129527496519 0 0 0 0 -10.314122930351004 23.469355778998391 0 23.469355778998391 73.573084111643979 0 0 0 0 -0.5082005574088555 -1.4227791448953768 0 -1.4227791448953768 0.34236686490302276 0 0 0 0 -34.842072709419881 -20.810537672043097 0 -20.810537672043097 72.626521860503317 0 0 0 0 -9.0832046612385966 -67.015359435840509 0 -67.015359435840509 29.454487833128269 0 0 0 0 -77.218359745376802 -125.52223958230149 0 -125.52223958230149 240.25199310076391 0 0 0 0 -5.3818796587547695 10.779164522802176 0 10.779164522802176 -13.714721855650509 0 0 0 0 -51.320324832458226 -5.1794523692349133 0 -5.1794523692349133 0.19179840528109951 0 0 0 0 -3.5627053815223917 -75.391862665616259 0 -75.391862665616259 117.32438937363743 0 0 0 0 117.85587073744409 -48.940084876665551 0 -48.940084876665551 -134.10166515976343 0 0 0 0 3.0440651064418489 19.023502736330016 0 19.023502736330016 38.600444340217791 0 0 0 0 17.876829579094192 -41.59854195170692 0 -41.59854195170692 60.911057836945304 0 0 0 0 -231.2872955954972 -43.060490133967733 0 -43.060490133967733 406.17345563876927 0 0 0 0 -52.028545305599785 -4.4566008222196585 0 -4.4566008222196585 0.29271211739491138 0 0 0 0 -88.028104998502386 -40.470208940717086 0 -40.470208940717086 54.296779449758532 0 0 0 0 -4.3387601307695149 6.825224356645208 0 6.825224356645208 -27.992590556012033 0 0 0 0 -25.823524869720131 -45.642691425834073 0 -45.642691425834073 13.900067266608403 0 0 0 0 -105.93545777846521 -18.386687228477342 0 -18.386687228477342 86.609924917910902 0 0 0 0 -17.550342063521384 -29.602698846923715 0 -29.602698846923715 -17.631663403937672 0 0 0 0 -49.253159453405409 -3.2703499353315397 0 -3.2703499353315397 0.14459483745467244 0 0 0 0 -102.24308221202955 35.460904988693514 0 35.460904988693514 249.42259508600239 0 0 0 0 -39.396045355442766 93.268074677500437 0 93.268074677500437 4.1965348269936271 0 0 0 0 -44.625199927427659 -2.8920461661051435 0 -2.8920461661051435 -0.12625509920367672 0 0 0 0 -25.425049724333803 -7.0928017302255739 0 -7.0928017302255739 -56.101586870874236 0 0 0 0 -26.694583296422024 38.52638340127438 0 38.52638340127438 8.6206573465361771 0 0 0 0 -26.057080707823843 36.540388353788131 0 36.540388353788131 12.996685388764092 0 0 0 0 -44.934169267493417 51.921548720516824 0 51.921548720516824 142.19254808411574 0 0 0 0 -4.9709500119497534 55.541667794809371 0 55.541667794809371 -11.376134878885637 0 0 0 0 -16.97130357867718 50.412001470123755 0 50.412001470123755 15.360849811746142 0 0 0 0 -24.234297977325696 37.161467699762341 0 37.161467699762341 -8.5269690752784868 0 0 0 0 -12.168183151319681 40.276876165446765 0 40.276876165446765 -9.2513148893238508 0 0 0 0 -2.4937155717587984 33.848344272508761 0 33.848344272508761 -5.5284987468701274 0 0 0 0 2.5508044064933983 27.217306553371181 0 27.217306553371181 -58.535468546112156 0 0 0 0 2.6397239392608753 29.086294669504753 0 29.086294669504753 -20.027214122996156 0 0 0 0 -2.2167085783804623 40.027777408854689 0 40.027777408854689 -33.526554890921147 0 0 0 0 -19.312819802107697 50.241781454393262 0 50.241781454393262 -25.428167472120379 0 0 0 0 -19.540034116467723 63.63627630845906 0 63.63627630845906 -74.362110258967448 0 0 0 0 -56.283721983996656 -15.281361983960124 0 -15.281361983960124 -159.35857380140351 0 0 0 0 -5.2497055346560728 43.684184310062527 0 43.684184310062527 -22.413778090266788 0 0 0 0 -358.181604571344 -899.44802640395221 0 -899.44802640395221 -1470.5142447736487 0 0 0 0 -1498.0493829001189 -1045.9433488069535 0 -1045.9433488069535 -471.43276839352649 0 0 0 0 -36.7002976203039 -400.98535597405453 0 -400.98535597405453 -804.10221180582312 0 0 0 0 -549.72598381266289 -910.90838470697088 0 -910.90838470697088 -561.19939792241064 0 0 0 0 -282.59192282861841 -653.05347493933709 0 -653.05347493933709 -315.48368073280443 0 0 0 0 -192.51706540759733 -660.56485104713011 0 -660.56485104713011 -315.49448868482636 0 0 0 0 -740.73339526063182 -485.6329248409744 0 -485.6329248409744 -75.542476963801207 0 0 0 0 -1496.596024665625 -705.19717686634192 0 -705.19717686634192 144.51728096023703 0 0 0 0 -639.86411917062833 10.493116216922715 0 10.493116216922715 742.23257974971716 0 0 0 0 -678.11124029747407 -956.10925568996288 0 -956.10925568996288 -391.2269629997221 0 0 0 0 -5.0003766868637456 -2.690422823707558 0 -2.690422823707558 0.9890669573550438 0 0 0 0 -1497.6562690428764 -767.82930877341619 0 -767.82930877341619 446.16204502688817 0 0 0 0 -105.08914790691051 -381.40452266193347 0 -381.40452266193347 176.24237725518273 0 0 0 0 -4.8850670985963802 -2.3534493877977534 0 -2.3534493877977534 0.94650291278010312 0 0 0 0 -403.80868591554827 -818.51714807160999 0 -818.51714807160999 -374.05546277832985 0 0 0 0 -382.82981784344702 175.38974340238667 0 175.38974340238667 755.62777975900633 0 0 0 0 -728.86617762143942 -316.82861159726076 0 -316.82861159726076 352.7919420178705 0 0 0 0 -718.62966696518515 -358.28437246859863 0 -358.28437246859863 29.661334994177309 0 0 0 0 -343.50179415213097 -150.18964876451486 0 -150.18964876451486 -88.842587431005597 0 0 0 0 -697.4726761208176 -479.35663696193524 0 -479.35663696193524 -102.20244811058518 0 0 0 0 -166.4814634876866 -264.41387729785805 0 -264.41387729785805 -33.643685971900538 0 0 0 0 -25.900340267930005 -97.802185694430591 0 -97.802185694430591 -135.82074394413542 0 0 0 0 -372.1936598868524 -583.37100489424211 0 -583.37100489424211 -347.1589478819684 0 0 0 0 -42.503468273269391 -274.027955505612 0 -274.027955505612 -65.032202538506226 0 0 0 0 -131.78715003830075 66.354624939002861 0 66.354624939002861 308.01052529743015 0 0 0 0 -30.449506112439849 -22.082604771902709 0 -22.082604771902709 216.3422138560453 0 0 0 0 44.324322009171738 -62.401669474686969 0 -62.401669474686969 231.67669628481934 0 0 0 0 -11.566660306081758 25.82654125798831 0 25.82654125798831 54.026295190045971 0 0 0 0 -288.82304823848608 -209.85503788201305 0 -209.85503788201305 -39.571504181124482 0 0 0 0 -1.422517934921359 -0.98248926303759276 0 -0.98248926303759276 0.40188564343384953 0 0 0 0 -409.69852713660657 -313.1863683401142 0 -313.1863683401142 -155.42225225249123 0 0 0 0 -273.32912875653619 -95.790660702218631 0 -95.790660702218631 -81.440581112925429 0 0 0 0 -192.0154822634795 -142.48859605772725 0 -142.48859605772725 -68.644761739220669 0 0 0 0 33.497585352675742 -17.844304322531414 0 -17.844304322531414 -67.227576191049423 0 0 0 0 -87.591943188487676 65.816943907465998 0 65.816943907465998 -92.963202096836767 0 0 0 0 -155.17008109182643 20.886534974436131 0 20.886534974436131 -115.73267083032238 0 0 0 0 30.064343446130806 -27.877188091938429 0 -27.877188091938429 -32.476135727138768 0 0 0 0 -29.380640327053698 -3.9685374106757365 0 -3.9685374106757365 124.42112850700954 0 0 0 0 -129.58754219950606 40.269051410975848 0 40.269051410975848 147.25669819558323 0 0 0 0 -2.2529499591905591 -0.51705894007312381 0 -0.51705894007312381 0.39890616648719951 0 0 0 0 41.101504066467896 -8.4869258210111411 0 -8.4869258210111411 6.2070614673620526 0 0 0 0 -32.117830416508696 54.936974348744045 0 54.936974348744045 176.94112719149189 0 0 0 0 44.470500320396241 14.183439534145577 0 14.183439534145577 192.3545057793732 0 0 0 0 -26.276576726329949 23.840238976544413 0 23.840238976544413 298.33590015230482 0 0 0 0 39.614229119724769 -21.748767968203339 0 -21.748767968203339 128.74383124929489 0 0 0 0 -28.075959758687532 -14.462514370373526 0 -14.462514370373526 217.12280008014136 0 0 0 0 60.58967561647296 -20.063981544361809 0 -20.063981544361809 217.47619703445122 0 0 0 0 -16.6143889318612 -4.959397356286714 0 -4.959397356286714 -0.00078765791391119389 0 0 0 0 -29.549361972289262 -48.556211326160394 0 -48.556211326160394 365.8579524178183 0 0 0 0 -14.207226459577214 -32.834412534245871 0 -32.834412534245871 49.282746882883259 0 0 0 0 -32.588582923388458 -35.940095476467945 0 -35.940095476467945 62.329304998795124 0 0 0 0 -11.439845937358768 -31.60409064652606 0 -31.60409064652606 40.618195287170039 0 0 0 0 -5.9748834269485087 -35.999222473004409 0 -35.999222473004409 44.013226785141114 0 0 0 0 -0.83657887875872916 -1.8160544451421501 0 -1.8160544451421501 0.54796976946174747 0 0 0 0 -19.967249280576198 -38.193062452274425 0 -38.193062452274425 54.375379150065783 0 0 0 0 -21.400901030250679 -26.949335086607789 0 -26.949335086607789 44.787863777459393 0 0 0 0 -22.024148755699571 -22.339452851992291 0 -22.339452851992291 1.0503176843826623 0 0 0 0 -33.24741440157959 -45.122309102821418 0 -45.122309102821418 51.177158077829631 0 0 0 0 -33.630478001694428 -61.178901276151805 0 -61.178901276151805 73.987612661509274 0 0 0 0 -418.50626753094366 20.525689355922566 0 20.525689355922566 290.26281134600424 0 0 0 0 -46.250188599492233 -4.6774250322729571 0 -4.6774250322729571 0.15966365222667886 0 0 0 0 100.74088224535626 11.54117930792998 0 11.54117930792998 -113.80337193916272 0 0 0 0 7.9625256936033111 24.36852094873916 0 24.36852094873916 43.563940501654997 0 0 0 0 -38.594438349702614 -39.992667576967477 0 -39.992667576967477 59.644269501627605 0 0 0 0 -0.52723823118503788 -31.088428576062483 0 -31.088428576062483 -27.709497596722485 0 0 0 0 -37.303795675368178 -3.6935683110643858 0 -3.6935683110643858 -0.068683635164327045 0 0 0 0 -37.025410346135686 51.924634425080441 0 51.924634425080441 80.780831858676621 0 0 0 0 -32.315048600272803 29.218346675257045 0 29.218346675257045 19.872705042887503 0 0 0 0 -0.18256743545316567 24.448834135700935 0 24.448834135700935 -40.711314755001126 0 0 0 0 -27.227645605793441 11.405421796354119 0 11.405421796354119 -2.5198791781235172 0 0 0 0 -55.032922372451139 -33.868534012174024 0 -33.868534012174024 102.81519162911343 0 0 0 0 -22.541013319354079 -9.2345086327440526 0 -9.2345086327440526 -36.836251837287136 0 0 0 0 13.621050518264383 -21.438495794713333 0 -21.438495794713333 -41.950788005805535 0 0 0 0 -0.57123693479582016 -1.3342637422744681 0 -1.3342637422744681 0.42730068003513644 0 0 0 0 -65.045684233235079 7.2683059700694912 0 7.2683059700694912 145.70870741123508 0 0 0 0 -66.785967693180282 -53.191201228333483 0 -53.191201228333483 100.54102271079665 0 0 0 0 -19.403550831962065 -6.200712999789884 0 -6.200712999789884 -0.020348997593868767 0 0 0 0 -128.28276889516565 -21.289870787620202 0 -21.289870787620202 429.48595220262951 0 0 0 0 -19.253748875027668 -29.994204080684383 0 -29.994204080684383 164.60020943019484 0 0 0 0 -17.393040399389065 -6.9847602308069536 0 -6.9847602308069536 -0.33667138304196398 0 0 0 0 -223.35492428629368 -220.40799202530354 0 -220.40799202530354 230.76196309087209 0 0 0 0 62.999537454532401 -52.154072205645946 0 -52.154072205645946 39.869235863239595 0 0 0 0 -0.69371800297449226 4.3336980150298814 0 4.3336980150298814 40.083896687654715 0 0 0 0 -19.308597299163011 -41.283984110012966 0 -41.283984110012966 19.615577801589495 0 0 0 0 -27.602104173656393 -3.2436989916717121 0 -3.2436989916717121 -0.18179013288439394 0 0 0 0 -51.624952305528495 6.3290515666075908 0 6.3290515666075908 25.905326375821744 0 0 0 0 -31.489418025365012 39.139385580249154 0 39.139385580249154 -2.1749482693767277 0 0 0 0 11.747344213054021 -1.2512774359179701 0 -1.2512774359179701 -83.90608433695246 0 0 0 0 16.80079377193033 11.811948964877601 0 11.811948964877601 -94.393336951144875 0 0 0 0 -10.526478046456759 32.479410779383187 0 32.479410779383187 10.612875573993904 0 0 0 0 -19.997937970547355 21.075965530375527 0 21.075965530375527 22.374092667412924 0 0 0 0 -18.397458719486167 -21.805865011400563 0 -21.805865011400563 -28.682171440961525 0 0 0 0 -11.635179809266106 22.952396389774901 0 22.952396389774901 7.1327744094770651 0 0 0 0 -19.451354564473895 -3.328358822010657 0 -3.328358822010657 -0.41412992203587939 0 0 0 0 3.4694053055209224 1.3892242333917011 0 1.3892242333917011 -53.136982601732349 0 0 0 0 -41.278665089248534 41.263121345435025 0 41.263121345435025 15.738950665351922 0 0 0 0 -6.5957270018325467 -5.0883635510192953 0 -5.0883635510192953 -4.3157582676524893 0 0 0 0 -10.68041575359166 -8.106295377220647 0 -8.106295377220647 -103.39862622260489 0 0 0 0 -4.4774879072256226 -22.200247686030245 0 -22.200247686030245 -154.14736901489724 0 0 0 0 5.6544499411575089 57.619945898105499 0 57.619945898105499 -72.706108434129519 0 0 0 0 8.6338334793058493 39.346492196064325 0 39.346492196064325 -190.53631369097576 0 0 0 0 -9.4675693742610747 39.041006294111355 0 39.041006294111355 -12.469575373104625 0 0 0 0 -7.5896169957159145 29.546598629038296 0 29.546598629038296 -10.35418180678208 0 0 0 0 -4.5844749375610263 34.056159758101629 0 34.056159758101629 -40.680846947740456 0 0 0 0 -24.901746611642011 75.640771834033359 0 75.640771834033359 -29.759670475936403 0 0 0 0 -189.86364186284482 101.99571921572482 0 101.99571921572482 -218.94439054508803 0 0 0 0 -3.0567336206463089 -1.1461965006034767 0 -1.1461965006034767 -0.09949423711568478 0 0 0 0 -25.516274061365039 -329.01203241814869 0 -329.01203241814869 44.133454853793928 0 0 0 0 -58.920063976733218 140.6520660183391 0 140.6520660183391 -14.172505876415475 0 0 0 0 -1321.5862482436096 -321.24877492285401 0 -321.24877492285401 45.882412235253867 0 0 0 0 -1497.2052914229698 -136.50501903683556 0 -136.50501903683556 3.2284473873400836 0 0 0 0 -443.53515560126107 -244.17714752666765 0 -244.17714752666765 -143.94336595532783 0 0 0 0 -1.879530830886587 -2.0150736876748421 0 -2.0150736876748421 -1.7297698259103584 0 0 0 0 -755.74743675501668 -261.17734394265085 0 -261.17734394265085 -38.459317397326053 0 0 0 0 -1314.7740130088605 142.52861031774003 0 142.52861031774003 120.60963310161239 0 0 0 0 -618.96303338544749 300.21326824176509 0 300.21326824176509 61.485391039762277 0 0 0 0 -30.12240277491037 -56.585856060313539 0 -56.585856060313539 89.109454918631855 0 0 0 0 -3.4695494536200719 -1.9143649942543099 0 -1.9143649942543099 -1.5623469458563106 0 0 0 0 -1499.7060412470546 506.87681406977316 0 506.87681406977316 38.841752187719564 0 0 0 0 -68.393143155997677 14.757519066275236 0 14.757519066275236 18.969481624511541 0 0 0 0 62.825882944074692 86.222087774805658 0 86.222087774805658 29.187418082730005 0 0 0 0 -7.3149408918144587 -4.5569032215381187 0 -4.5569032215381187 -1.4595580004292863 0 0 0 0 -284.02025297101864 -3.5704090828049631 0 -3.5704090828049631 236.89796255879367 0 0 0 0 -1473.1858933282856 -602.1236322312858 0 -602.1236322312858 -56.397150798619975 0 0 0 0 -823.84515108069672 531.83199899555007 0 531.83199899555007 -74.499078782677699 0 0 0 0 -1497.7507884189031 80.923826048599494 0 80.923826048599494 321.83559663786292 0 0 0 0 -425.01070077954228 -109.85896148851045 0 -109.85896148851045 114.47441192713167 0 0 0 0 -282.84974908909317 162.65410879011384 0 162.65410879011384 17.265581670233519 0 0 0 0 69.787913710301837 -67.818528811550777 0 -67.818528811550777 -166.15482266628769 0 0 0 0 96.446932708600798 5.2651476288831702 0 5.2651476288831702 -37.35258005112712 0 0 0 0 -158.71935060196756 -95.319543899975656 0 -95.319543899975656 58.840532422284468 0 0 0 0 -34.034548418797385 283.38597278473742 0 283.38597278473742 -253.19089380771163 0 0 0 0 -1492.2905421762944 -46.568049673303747 0 -46.568049673303747 105.86316265897466 0 0 0 0 -2.7274421137736482 1.624435383007353 0 1.624435383007353 -1.4131400243313772 0 0 0 0 -3.9889860520100626 0.32860206975044015 0 0.32860206975044015 -0.66377282524799996 0 0 0 0 -24.717932056353675 48.955115889476076 0 48.955115889476076 -106.54641247148356 0 0 0 0 -440.11884700097926 -298.60513855855538 0 -298.60513855855538 -210.83746433762741 0 0 0 0 -1499.4420583795629 305.851761277778 0 305.851761277778 208.28488527443497 0 0 0 0 -1495.8011603270543 306.72479215619308 0 306.72479215619308 207.7589755828968 0 0 0 0 -39.122590491941082 34.634815524870135 0 34.634815524870135 66.822399017785472 0 0 0 0 -41.005410373218183 33.868589388339643 0 33.868589388339643 80.552773433595576 0 0 0 0 -35.52070315180481 33.507273680172538 0 33.507273680172538 65.44055319108503 0 0 0 0 -34.48365844588443 37.146612629028454 0 37.146612629028454 40.560868812642752 0 0 0 0 -23.563405034197785 61.985760922292712 0 61.985760922292712 41.701778132441007 0 0 0 0 -78.066378925439494 94.403149003612896 0 94.403149003612896 121.95947868623971 0 0 0 0 -75.657660076682077 22.315775582492222 0 22.315775582492222 162.74281527683169 0 0 0 0 -7.338017304743893 -0.076277288767601092 0 -0.076277288767601092 -0.12450698739507504 0 0 0 0 -8.4394457454473013 -46.58328925413241 0 -46.58328925413241 129.30690713075606 0 0 0 0 -24.745707149865666 9.6864012185880171 0 9.6864012185880171 27.733187150822232 0 0 0 0 -2.5449483112242888 5.0060832424126716 0 5.0060832424126716 5.7514072633642854 0 0 0 0 -14.784563388602692 -0.78008223370557062 0 -0.78008223370557062 38.088237385079879 0 0 0 0 -28.253043009772227 3.3521787942713672 0 3.3521787942713672 126.46332853523472 0 0 0 0 -12.11054402603741 7.2241859296414113 0 7.2241859296414113 -0.0003271936533035813 0 0 0 0 -14.210111282279968 -37.527061995667736 0 -37.527061995667736 37.251447591559668 0 0 0 0 -7.908548503056668 2.9831777840520677 0 2.9831777840520677 -1.3261421470415926 0 0 0 0 -16.548069277200213 8.6637266556891159 0 8.6637266556891159 1.0570043765818951 0 0 0 0 -12.650401121594768 -7.2766715371010378 0 -7.2766715371010378 -9.8486151823940418 0 0 0 0 -6.2808449795145549 3.2773014385787729 0 3.2773014385787729 -1.7525987720692155 0 0 0 0 -3.0846269590488919 2.7297575024755076 0 2.7297575024755076 -0.62196963956523454 0 0 0 0 -35.649882058387448 106.59985383108392 0 106.59985383108392 72.628893296529355 0 0 0 0 -53.148573729856253 10.859313484329277 0 10.859313484329277 5.9641664268807517 0 0 0 0 -0.064048517394767579 -0.35418756735858814 0 -0.35418756735858814 -0.066094908158691901 0 0 0 0 117.33974735675156 1.2786312008983032 0 1.2786312008983032 -27.604759299936632 0 0 0 0 -21.812101576228088 35.866233570834765 0 35.866233570834765 42.026872459350329 0 0 0 0 52.587775966241679 10.011581019690084 0 10.011581019690084 51.009363026001324 0 0 0 0 24.326195502861083 0.50330271250004444 0 0.50330271250004444 -0.3296537241913029 0 0 0 0 -0.055493121984000027 -16.500352083535915 0 -16.500352083535915 37.874435689680467 0 0 0 0 10.795358146740909 1.9041141665438204 0 1.9041141665438204 1.9358530566016157 0 0 0 0 -20.582501524161636 3.0218748641045625 0 3.0218748641045625 0.61797870712566105 0 0 0 0 -32.317846285969608 49.646650826565633 0 49.646650826565633 8.8979001700266735 0 0 0 0 -4.1431785438868438 2.36762000872874 0 2.36762000872874 -0.39102475197969599 0 0 0 0 1.2843048979777905 3.7760172792389173 0 3.7760172792389173 -1.0967660238012371 0 0 0 0 -34.77699448948988 6.4155838292624594 0 6.4155838292624594 83.285847715783461 0 0 0 0 -39.498889248177875 20.970707272750076 0 20.970707272750076 93.09237606929176 0 0 0 0 -57.691395691395883 20.668703511716274 0 20.668703511716274 93.625614083745177 0 0 0 0 -9.0342293555877404 13.117115596083067 0 13.117115596083067 79.025499347844004 0 0 0 0 -8.9941994519031141 50.429385830681753 0 50.429385830681753 123.88225672505888 0 0 0 0 -3.4721381452775333 -1.7745689316610882 0 -1.7745689316610882 1.9836518453012282 0 0 0 0 -8.1510683809019611 -3.8864143898763786 0 -3.8864143898763786 77.475705984298543 0 0 0 0 0.11066390007908922 29.161776078449293 0 29.161776078449293 25.367055856579206 0 0 0 0 -4.4005149675576831 11.775755206666759 0 11.775755206666759 23.16624192615896 0 0 0 0 -24.997504629209288 21.223573198065708 0 21.223573198065708 37.393270758437467 0 0 0 0 -21.837553821238544 21.121814093739417 0 21.121814093739417 37.396547530769283 0 0 0 0 -30.799243068089709 19.448464535944993 0 19.448464535944993 69.046530109526771 0 0 0 0 -37.560623828387179 25.620667245370257 0 25.620667245370257 84.690671868502022 0 0 0 0 -21.156811608372664 6.0392947050028454 0 6.0392947050028454 79.122511376427155 0 0 0 0 -15.006545677028484 2.9753597025098104 0 2.9753597025098104 -0.44298417898959547 0 0 0 0 -95.076563202012039 9.0158694177092116 0 9.0158694177092116 1.7567093538060901 0 0 0 0 -18.358342076227927 7.9380894380084044 0 7.9380894380084044 78.907757839169705 0 0 0 0 -35.753065462669838 17.659995517670239 0 17.659995517670239 78.210873556136647 0 0 0 0 0.0076738043571822345 -2.849375922459302 0 -2.849375922459302 29.982326854642395 0 0 0 0 -0.16919348082422658 -1.2197932560821467 0 -1.2197932560821467 -2.6373215629053259 0 0 0 0 -168.05308345725155 6.3458652675847418 0 6.3458652675847418 9.7307828731451309 0 0 0 0 -39.928912678217216 -203.11324576768962 0 -203.11324576768962 -10.12036569176405 0 0 0 0 -34.371702151791396 -11.659728091684656 0 -11.659728091684656 -134.58272629153555 0 0 0 0 -9.6666066788202443 243.90542354055253 0 243.90542354055253 -130.03149777869112 0 0 0 0 -150.25107590062453 -60.103251150817641 0 -60.103251150817641 -11.274954584689681 0 0 0 0 -0.39441440321480492 -0.26108645219916582 0 -0.26108645219916582 -0.41029159784341562 0 0 0 0 -106.05480723016353 -10.288308868153649 0 -10.288308868153649 -0.6775386320860548 0 0 0 0 -91.842414446139173 18.085744407581302 0 18.085744407581302 2.5966187110234387 0 0 0 0 0.084541551051714237 1.158006649652318 0 1.158006649652318 -2.0447527154221299 0 0 0 0 -3.4627856173644886 -7.5193654340029354 0 -7.5193654340029354 -21.189727479965086 0 0 0 0 3.7687834194925927 5.3224525738332034 0 5.3224525738332034 -16.688080076694632 0 0 0 0 -15.172523893238576 -4.3670365480476221 0 -4.3670365480476221 -1.6167493235768688 0 0 0 0 -97.232412587167346 -13.607888851557675 0 -13.607888851557675 3.5514962550729479 0 0 0 0 -30.100077377880098 -28.002279428796641 0 -28.002279428796641 -26.030834842094464 0 0 0 0 -28.43936103022952 -1.2520052036178413 0 -1.2520052036178413 -8.5879585154127653 0 0 0 0 -34.210865098205431 22.018285809645988 0 22.018285809645988 -51.933183422485513 0 0 0 0 -5.0224370337794033 -3.197588771674015 0 -3.197588771674015 -6.0208777374628033 0 0 0 0 1.4916555851598332 136.97167055396199 0 136.97167055396199 26.059738371550338 0 0 0 0 -4.540593367978504 -2.0970315364223691 0 -2.0970315364223691 0.43231022424416476 0 0 0 0 -21.507864113867981 -6.5726321861791348 0 -6.5726321861791348 36.740837486717908 0 0 0 0 -21.761014830311979 -17.087384309740855 0 -17.087384309740855 22.2696696059852 0 0 0 0 17.099405821936671 -12.127535562824391 0 -12.127535562824391 8.5112352566867457 0 0 0 0 26.279461500492289 -33.948723925249737 0 -33.948723925249737 -50.12903075746226 0 0 0 0 23.833613779652296 -61.709542379174877 0 -61.709542379174877 -69.259008843099195 0 0 0 0 23.695912549436343 -54.307234532301948 0 -54.307234532301948 -24.770170852788851 0 0 0 0 156.37156049602709 -13.58409524688642 0 -13.58409524688642 -36.648163356356292 0 0 0 0 -9.6324079086155265 1.4397204627751958 0 1.4397204627751958 -0.24359425120322864 0 0 0 0 -4.2387909706882034 -0.28185558527159138 0 -0.28185558527159138 0.26189382821054102 0 0 0 0 -34.457837238291177 -57.584026592205305 0 -57.584026592205305 74.516027344694947 0 0 0 0 -24.028791152757549 37.171443388209539 0 37.171443388209539 24.025175274009626 0 0 0 0 -8.3089244310085633 -22.137367814942081 0 -22.137367814942081 -6.8013025438269779 0 0 0 0 6.5295145365635108 30.141982676977079 0 30.141982676977079 5.1240913112407043 0 0 0 0 393.20788589874428 -16.875701570044868 0 -16.875701570044868 -110.12448600526892 0 0 0 0 -73.705137023211137 -91.858197202072944 0 -91.858197202072944 -114.08994351611412 0 0 0 0 -241.21168456605665 -4.3289374865385071 0 -4.3289374865385071 -36.822624989550349 0 0 0 0 -1.4925483394246299 -0.51863304559019818 0 -0.51863304559019818 0.11989694333980508 0 0 0 0 -7.7955829811569401 -23.090537280453773 0 -23.090537280453773 -47.820510420345045 0 0 0 0 -83.460606191871193 -40.909924394686755 0 -40.909924394686755 27.17712657069842 0 0 0 0 -17.75807339418418 -58.454385145473715 0 -58.454385145473715 -43.688291518221604 0 0 0 0 -15.722413269571916 -44.271016536298475 0 -44.271016536298475 -22.963962352538601 0 0 0 0 -140.81831046490879 -35.078809454683324 0 -35.078809454683324 0.65407035499436006 0 0 0 0 -68.178426560825756 20.871850712256332 0 20.871850712256332 37.039553739853659 0 0 0 0 -3.2513812494789391 0.42944026841826632 0 0.42944026841826632 -0.21520445850937772 0 0 0 0 -216.21220661989264 9.3714934942808839 0 9.3714934942808839 -21.715017760593128 0 0 0 0 -442.6857491703413 -32.698893062299362 0 -32.698893062299362 -105.0412016743369 0 0 0 0 -134.64516771266744 3.9920821065961434 0 3.9920821065961434 -48.428974138051331 0 0 0 0 -120.5185687381454 12.685007259167833 0 12.685007259167833 -155.00599046077855 0 0 0 0 -110.67862089312803 53.293366605038543 0 53.293366605038543 -24.690760443945578 0 0 0 0 -111.56278861314169 -8.3838845433642675 0 -8.3838845433642675 31.882707650628163 0 0 0 0 -111.9221723716106 -33.549479768930858 0 -33.549479768930858 106.04482874072687 0 0 0 0 -98.700327264958105 -71.508768372533268 0 -71.508768372533268 62.520416536218363 0 0 0 0 -92.394005942021977 -58.948584976754773 0 -58.948584976754773 44.667922636761432 0 0 0 0 -310.70185787104447 169.60519763322026 0 169.60519763322026 61.357077321215911 0 0 0 0 -236.06832772817324 -154.55238506754949 0 -154.55238506754949 -18.218330729815079 0 0 0 0 -83.261791415720381 -70.562678893261534 0 -70.562678893261534 -15.943702059931638 0 0 0 0 -39.055949456292183 -22.722292687932224 0 -22.722292687932224 32.780215820683679 0 0 0 0 -16.582926432454769 -12.019173478417088 0 -12.019173478417088 18.934292448454016 0 0 0 0 -7.1962068067717908 -3.6584600370950007 0 -3.6584600370950007 0.33506927119012353 0 0 0 0 1.1935123682542326 -8.1756741828476152 0 -8.1756741828476152 -21.957519541151868 0 0 0 0 -35.679768586226146 -93.668739567844568 0 -93.668739567844568 -128.83396075948622 0 0 0 0 -2.4748860004590867 -1.0656582793514122 0 -1.0656582793514122 -0.64999177818037879 0 0 0 0 -117.83291813145661 176.68530037286837 0 176.68530037286837 -212.47361903331739 0 0 0 0 -156.81142376187154 213.4047838535713 0 213.4047838535713 34.13970837200668 0 0 0 0 -228.12846456851821 27.459937621792051 0 27.459937621792051 37.55031767149967 0 0 0 0 -95.057027782493833 108.8476590233646 0 108.8476590233646 -10.803558819959562 0 0 0 0 -3.7035167981436707 -0.19781145212185258 0 -0.19781145212185258 -0.25586733198765721 0 0 0 0 -143.24940150648399 39.329951150914837 0 39.329951150914837 67.179243219947011 0 0 0 0 -33.062494293519194 7.0746400798086597 0 7.0746400798086597 -166.43171257289555 0 0 0 0 -101.96975537107392 110.97083032576438 0 110.97083032576438 -51.060515940867845 0 0 0 0 2.103938454101808 -34.050886706661544 0 -34.050886706661544 -20.960650879759854 0 0 0 0 -18.600930798031087 -12.416740315011118 0 -12.416740315011118 -0.19888858050534086 0 0 0 0 -43.405315805501345 -25.949955333563224 0 -25.949955333563224 42.70876569676966 0 0 0 0 -35.38948827941158 6.6075585210873555 0 6.6075585210873555 -13.70269075010313 0 0 0 0 -36.970073783006683 10.608362387286306 0 10.608362387286306 -1.587103469570593 0 0 0 0 -38.143203284951596 -98.246973227648027 0 -98.246973227648027 64.745768881645006 0 0 0 0 -7.5144725379898318 -30.808936205717245 0 -30.808936205717245 -13.48939686761787 0 0 0 0 -41.108610778286675 -14.965339232957859 0 -14.965339232957859 9.0750756003255617 0 0 0 0 -17.391831356202268 -16.401940299376655 0 -16.401940299376655 -4.9082826181210262 0 0 0 0 -36.518251938380217 -18.244973098386751 0 -18.244973098386751 -46.096076751010287 0 0 0 0 -98.598861704672345 -23.674412632645272 0 -23.674412632645272 -2.3599307584341886 0 0 0 0 -61.358855742693777 15.831205909951649 0 15.831205909951649 -20.510282171551012 0 0 0 0 -31.94700487903981 -2.9180447523232687 0 -2.9180447523232687 -8.8557829252732745 0 0 0 0 -94.107649789674724 -23.103129878468735 0 -23.103129878468735 3.9084070427552504 0 0 0 0 -57.957861026517776 -54.545378120786005 0 -54.545378120786005 -20.994576610005652 0 0 0 0 -49.132915033142126 -34.848471495938881 0 -34.848471495938881 13.045165488486191 0 0 0 0 -3.4972749151230502 2.8028620986461075 0 2.8028620986461075 0.61936863829147792 0 0 0 0 -23.147933358399314 -19.674971365618418 0 -19.674971365618418 -49.52014106984582 0 0 0 0 -91.629865376847988 21.8295731865853 0 21.8295731865853 -0.98884580960412904 0 0 0 0 -58.351037770506537 -17.100572625015559 0 -17.100572625015559 -1.6181684060813168 0 0 0 0 -14.300287186862585 10.057199720634049 0 10.057199720634049 2.0130269334891175 0 0 0 0 -49.713396697097835 19.865849067184215 0 19.865849067184215 -4.210845860263305 0 0 0 0 -37.777948395018029 -3.8785394930087023 0 -3.8785394930087023 3.4050557906245444 0 0 0 0 -51.768017522383388 -10.934622203203162 0 -10.934622203203162 4.0111534703362679 0 0 0 0 -48.10217950373908 -19.078180701642907 0 -19.078180701642907 1.1350413982242742 0 0 0 0 -19.975440645947607 -16.971696625904784 0 -16.971696625904784 -7.3857268146038848 0 0 0 0 -19.046393509151244 -285.1467699240095 0 -285.1467699240095 -134.1626800168965 0 0 0 0 -30.199026058064192 18.173188786531199 0 18.173188786531199 -10.013648108929033 0 0 0 0 -16.344192280953671 8.8861169786303531 0 8.8861169786303531 1.0028426785049607 0 0 0 0 -47.583583489522653 -4.0667952049611245 0 -4.0667952049611245 5.1349859387511287 0 0 0 0 -39.758822259213957 -6.0810931137961006 0 -6.0810931137961006 4.4657341382287541 0 0 0 0 -20.109815469421847 -19.298812094666687 0 -19.298812094666687 -9.3529415431702319 0 0 0 0 -43.262698428142812 -10.67948355426671 0 -10.67948355426671 1.506159077180655 0 0 0 0 -39.108543130638736 0.61967280446105022 0 0.61967280446105022 -0.5033064214198717 0 0 0 0 -26.375903335348994 -12.00679118151379 0 -12.00679118151379 1.5227925290458639 0 0 0 0 -25.670227265170297 -10.440286425531042 0 -10.440286425531042 2.49216721025266 0 0 0 0 -25.652950045540628 -6.4046453792922158 0 -6.4046453792922158 -1.5079556825569784 0 0 0 0 -37.164396629914336 -3.4580174922198239 0 -3.4580174922198239 3.0912134056585501 0 0 0 0 -37.551984114361403 -3.4323202493534382 0 -3.4323202493534382 3.8108670084092751 0 0 0 0 -36.897452323926245 -3.0103269765136815 0 -3.0103269765136815 3.4837375283275378 0 0 0 0 -18.551214864335407 -17.377787526711742 0 -17.377787526711742 10.806283394153695 0 0 0 0 -25.138081616485877 -6.6751635362811381 0 -6.6751635362811381 -0.71434039714961783 0 0 0 0 -26.978142892562573 -9.137412407136253 0 -9.137412407136253 6.2331389499167642 0 0 0 0 -5.5430661091014457 -0.92868211640271081 0 -0.92868211640271081 0.76704493884821745 0 0 0 0 -12.926866779522697 2.4342416607688904 0 2.4342416607688904 -9.9794393194733289 0 0 0 0 -29.220760393628083 -32.871474319075283 0 -32.871474319075283 19.265332117248022 0 0 0 0 -28.870240113499676 -41.728611390546092 0 -41.728611390546092 -2.043561300832323 0 0 0 0 -44.790816039972015 -22.990267720531847 0 -22.990267720531847 12.99988917476648 0 0 0 0 -66.404159340900151 -16.860858680707111 0 -16.860858680707111 43.251259783753994 0 0 0 0 -47.693573873069454 -11.314272864581341 0 -11.314272864581341 40.863002817329175 0 0 0 0 -35.938908572093169 3.1786338924000006 0 3.1786338924000006 15.470973850550791 0 0 0 0 -26.227543697340479 -6.6934182418925516 0 -6.6934182418925516 3.277904663434299 0 0 0 0 -46.455375525442378 -6.5742159689552135 0 -6.5742159689552135 4.5120224976348879 0 0 0 0 -37.112039726722855 -1.2883858633080152 0 -1.2883858633080152 -0.42658684665542523 0 0 0 0 -15.465173486072672 43.067110770677658 0 43.067110770677658 38.822144495556074 0 0 0 0 -66.297223875772943 4.357293564611382 0 4.357293564611382 91.859227675388695 0 0 0 0 -79.858950885161448 -7.5369735020397428 0 -7.5369735020397428 82.119468449553096 0 0 0 0 -1295.8788169266445 -307.35538943811019 0 -307.35538943811019 -73.074355504670734 0 0 0 0 -5.2792268408479277 7.7128324664620909 0 7.7128324664620909 -1.5641216867178753 0 0 0 0 -3.7294740791926415 72.882713516693499 0 72.882713516693499 103.57416137089746 0 0 0 0 -1499.0483136345586 -240.00116626735556 0 -240.00116626735556 148.78726528834048 0 0 0 0 -956.81321010985857 -135.43816137076303 0 -135.43816137076303 124.16730118487577 0 0 0 0 -1215.7766515735584 431.74061215593645 0 431.74061215593645 -122.01167757593473 0 0 0 0 -1500.556935579631 72.409519157389354 0 72.409519157389354 -261.23938555427509 0 0 0 0 -1515.9701610122656 97.770510921426435 0 97.770510921426435 128.86554808627142 0 0 0 0 -681.22568138780343 267.31118000425073 0 267.31118000425073 -136.93962622451744 0 0 0 0 -9.8723449192374559 8.6972850354515501 0 8.6972850354515501 -0.7232397068918307 0 0 0 0 -10.659971216259692 -8.3678703511773165 0 -8.3678703511773165 -5.7817484176445078 0 0 0 0 130.02174257894467 106.96117514094861 0 106.96117514094861 -207.19165066093808 0 0 0 0 -4.9616817107810434 1.482990294576453 0 1.482990294576453 -2.7098679553685798 0 0 0 0 -207.33324158019104 -310.24630333055813 0 -310.24630333055813 -61.529204680787977 0 0 0 0 -914.8038818904447 -303.5766399296291 0 -303.5766399296291 56.912055786751644 0 0 0 0 -6.5324580192381205 0.83559446951320737 0 0.83559446951320737 -0.6265353247482186 0 0 0 0 -1490.2860096495515 231.74139707337486 0 231.74139707337486 39.047563234630374 0 0 0 0 -25.839292374370189 19.047849735352386 0 19.047849735352386 -22.425358410885906 0 0 0 0 -29.03518944328971 10.762805004853305 0 10.762805004853305 2.2996736979119987 0 0 0 0 -34.552057863123991 27.216272336979273 0 27.216272336979273 -35.595408476423984 0 0 0 0 -58.912716283914051 5.6267996995774183 0 5.6267996995774183 10.424135736070571 0 0 0 0 -69.159988594532479 -1.4102154602068708 0 -1.4102154602068708 10.110665027521918 0 0 0 0 -11.994804169989948 -3.7269094083932259 0 -3.7269094083932259 -1.9076123907272517 0 0 0 0 -23.299574681876038 2.9372230093086387 0 2.9372230093086387 -4.9662672102813872 0 0 0 0 -29.343566372019268 -7.611298592947719 0 -7.611298592947719 13.232070331656132 0 0 0 0 -13.936670414947752 -5.2725192155811751 0 -5.2725192155811751 -2.8561638735819255 0 0 0 0 -23.776913133668131 4.4492326582092119 0 4.4492326582092119 -6.429412062874178 0 0 0 0 -23.037385264568002 6.0446898123745996 0 6.0446898123745996 8.6325565690685835 0 0 0 0 -18.177079570205251 1.1599631838462088 0 1.1599631838462088 13.269045567362809 0 0 0 0 -8.7753220105654748 -4.9712048313708976 0 -4.9712048313708976 -2.6833092291634144 0 0 0 0 -19.895692357587905 -14.810135720768756 0 -14.810135720768756 44.948437538371877 0 0 0 0 -28.097445092747876 17.769284455579452 0 17.769284455579452 27.237966063721046 0 0 0 0 -10.065785083411356 33.526386006392727 0 33.526386006392727 -10.560967890120708 0 0 0 0 -36.91328313521808 17.36921630524958 0 17.36921630524958 30.833794705929932 0 0 0 0 -53.676070362613245 -12.2985241394436 0 -12.2985241394436 13.801595779420666 0 0 0 0 -42.834824724780901 -12.812096333141724 0 -12.812096333141724 23.39390477897507 0 0 0 0 -40.791334191084388 12.964762631265501 0 12.964762631265501 0.84770048798964126 0 0 0 0 -12.813524141066409 -42.233195164972422 0 -42.233195164972422 63.793955409888213 0 0 0 0 -9.029386066555162 -2.6392856789863117 0 -2.6392856789863117 24.829598218330034 0 0 0 0 -5.6787248909442312 -2.995371144232676 0 -2.995371144232676 -1.5763417855941093 0 0 0 0 -68.074004084348417 34.11558722032396 0 34.11558722032396 -36.995330486576876 0 0 0 0 19.207024578490746 -5.6849511236864885 0 -5.6849511236864885 13.409124489170551 0 0 0 0 -33.330782253193775 -35.781549967192156 0 -35.781549967192156 -0.72058515732925343 0 0 0 0 80.883649986411911 184.92735313431331 0 184.92735313431331 -29.92688183741393 0 0 0 0 -6.9972426509198158 -83.779608152640108 0 -83.779608152640108 7.9975270551296944 0 0 0 0 -115.18852955373768 -71.894173138210135 0 -71.894173138210135 12.730239652354328 0 0 0 0 -192.51135026186603 16.939125007723874 0 16.939125007723874 37.264378258766243 0 0 0 0 -521.97509956362228 -5.5544560831403373 0 -5.5544560831403373 84.867334546491861 0 0 0 0 -90.739716926304027 68.915900840088511 0 68.915900840088511 -68.730858024243162 0 0 0 0 17.199908479342412 -9.0355523032351357 0 -9.0355523032351357 -132.91931267136255 0 0 0 0 31.566638892945775 104.82401214530546 0 104.82401214530546 27.335214674651695 0 0 0 0 -0.26244102606870712 -0.36821831950082995 0 -0.36821831950082995 1.4808252534175117 0 0 0 0 -137.55538840181271 -2.3067701901817301 0 -2.3067701901817301 -13.858147771612721 0 0 0 0 -118.90688883901385 63.255698991166184 0 63.255698991166184 -101.34569630484975 0 0 0 0 -72.055275786652714 3.8706856166783012 0 3.8706856166783012 -32.751185488277315 0 0 0 0 -1.6656571851886497 -1.1841067780194656 0 -1.1841067780194656 -0.88862035784242122 0 0 0 0 42.50595548480851 -10.669149416983601 0 -10.669149416983601 -55.202890821732808 0 0 0 0 -30.959482086424032 69.288103909640199 0 69.288103909640199 -107.34875413028409 0 0 0 0 21.684816287003741 -30.984471819603428 0 -30.984471819603428 -37.072049538052852 0 0 0 0 2.7106254509271821 -19.791118579519775 0 -19.791118579519775 -42.925102971163852 0 0 0 0 5.9199860484677629 -41.988176905957062 0 -41.988176905957062 -14.430963554034633 0 0 0 0 10.154156593336666 -21.385770116846288 0 -21.385770116846288 -44.643485987285999 0 0 0 0 -54.826763989841311 0.30898960836555034 0 0.30898960836555034 22.596111516252904 0 0 0 0 15.276944465447741 -3.2726199831923708 0 -3.2726199831923708 -57.198294523840218 0 0 0 0 -47.1033440975134 17.25310987624141 0 17.25310987624141 -10.960691457644316 0 0 0 0 6.1484295539239611 21.967907886317903 0 21.967907886317903 29.279166540455662 0 0 0 0 -27.03864362787499 -16.233003507160333 0 -16.233003507160333 36.967033505891322 0 0 0 0 0.86776930827536347 -1.7164568743091966 0 -1.7164568743091966 3.9953554704791294 0 0 0 0 -37.901823977123513 -20.545704318367029 0 -20.545704318367029 17.276104655340077 0 0 0 0 -28.87892627403744 -12.672878657054014 0 -12.672878657054014 -3.9330304541136911 0 0 0 0 -32.340480141459921 -17.427499647644424 0 -17.427499647644424 -1.6438455931317435 0 0 0 0 -79.062564295121774 -33.971758640394 0 -33.971758640394 -1.7282249791732056 0 0 0 0 -87.808807733897993 21.072639929002037 0 21.072639929002037 -15.970399761535987 0 0 0 0 -54.879632672660591 7.6330297229401651 0 7.6330297229401651 4.2248948957251287 0 0 0 0 -48.630134532253578 -4.6672426456024709 0 -4.6672426456024709 12.840029240579156 0 0 0 0 -27.270214941440827 -20.522691477104786 0 -20.522691477104786 30.910306286350419 0 0 0 0 -21.130853993554183 -4.683200712784199 0 -4.683200712784199 4.6897765226416368 0 0 0 0 -18.32302358999209 -15.148409572636687 0 -15.148409572636687 12.065503179988468 0 0 0 0 -0.67817978878105833 -4.6191350736293852 0 -4.6191350736293852 7.1644322080127427 0 0 0 0 -9.0100395152494457 5.2806757558280424 0 5.2806757558280424 13.990734353525227 0 0 0 0 -16.518288424216735 -7.186454065179646 0 -7.186454065179646 4.5188265607669109 0 0 0 0 -8.9722059630003059 -13.412302252583572 0 -13.412302252583572 4.4347158552161421 0 0 0 0 -12.854219393969743 -21.380407487945007 0 -21.380407487945007 14.852621222842913 0 0 0 0 -22.063675367844553 -19.476543212671913 0 -19.476543212671913 -21.508152560371286 0 0 0 0 -18.625471117870205 -1.3157520313820026 0 -1.3157520313820026 3.9444274408369804 0 0 0 0 -5.2353891329876205 18.80310970032815 0 18.80310970032815 -100.83234360705842 0 0 0 0 -41.31781352895996 36.145501601361502 0 36.145501601361502 -25.88168884792114 0 0 0 0 -45.678413376277604 87.245154664304664 0 87.245154664304664 -124.43610285539285 0 0 0 0 -40.16407397601688 49.676481175292793 0 49.676481175292793 -42.415509835081934 0 0 0 0 -24.355802361352971 20.129196517145488 0 20.129196517145488 -33.908747851517091 0 0 0 0 -50.315824415528141 36.999287364846879 0 36.999287364846879 -24.277010086086648 0 0 0 0 -56.727126717820283 28.251117239735976 0 28.251117239735976 -14.525469511828192 0 0 0 0 -115.04635320830494 51.678258911560079 0 51.678258911560079 -17.719549246285283 0 0 0 0 -0.46861796894577878 -0.78402279045043066 0 -0.78402279045043066 0.16432184181491305 0 0 0 0 -32.803742478686218 32.087042312804613 0 32.087042312804613 36.918313841362533 0 0 0 0 -39.656611101182762 1.861403544238506 0 1.861403544238506 -8.1454246299858823 0 0 0 0 -28.268184796983103 -5.3654709570337928 0 -5.3654709570337928 1.4953019135326504 0 0 0 0 -39.128421848921789 -16.003241998430951 0 -16.003241998430951 32.147567139489411 0 0 0 0 -40.060663892993034 13.600979705330587 0 13.600979705330587 13.08974453720424 0 0 0 0 -23.673528372996287 -3.3691254633925602 0 -3.3691254633925602 2.3927670132466412 0 0 0 0 -44.633272335939409 32.597633983679344 0 32.597633983679344 -26.555632595914915 0 0 0 0 -35.392308340767613 33.942812525159894 0 33.942812525159894 -31.877148412509968 0 0 0 0 -69.239257059604711 51.106814248239289 0 51.106814248239289 -17.793609533406993 0 0 0 0 -48.1245419489452 -4.3008807231314954 0 -4.3008807231314954 45.755478441622813 0 0 0 0 -30.811398744343798 -8.4878508121513558 0 -8.4878508121513558 0.77746788388022181 0 0 0 0 -6.7463171697973978 0.032156449762538841 0 0.032156449762538841 0.87470103698228785 0 0 0 0 -31.448375429312364 -2.8196919167747865 0 -2.8196919167747865 -2.8126334119789362 0 0 0 0 -53.700056058145492 -1.9466913518780302 0 -1.9466913518780302 17.853476404590651 0 0 0 0 -30.782444468586618 -3.610559916551324 0 -3.610559916551324 -2.9864862630154221 0 0 0 0 -17.788338615553478 -42.081901750305207 0 -42.081901750305207 65.686950093987207 0 0 0 0 -17.115799536012098 -5.4549348337241623 0 -5.4549348337241623 0.57629749361880123 0 0 0 0 -29.028069601718926 0.65932688939045647 0 0.65932688939045647 3.7847445522780845 0 0 0 0 -32.232177349776066 3.8681585318978478 0 3.8681585318978478 -5.5966492731503195 0 0 0 0 -72.50693342161685 9.6439690007993022 0 9.6439690007993022 11.646056193314791 0 0 0 0 -18.225568099598604 0.36635582592165861 0 0.36635582592165861 -2.1183669231023714 0 0 0 0 0.4769279233447925 -0.07746250711961622 0 -0.07746250711961622 0.50750356198097002 0 0 0 0 -25.218909429966516 1.0955354579984942 0 1.0955354579984942 2.6296841771654726 0 0 0 0 -21.208732126078758 5.5491315279999469 0 5.5491315279999469 -2.0273625467722241 0 0 0 0 -0.18543032935443904 -0.09558752084204869 0 -0.09558752084204869 0.24133924105659865 0 0 0 0 -46.352625771907697 9.6032458256155451 0 9.6032458256155451 -8.0326459798536689 0 0 0 0 -75.219562768189462 19.41892645099017 0 19.41892645099017 4.5190640319875683 0 0 0 0 -28.575555364684988 1.080544027679025 0 1.080544027679025 -1.1755772820281436 0 0 0 0 -23.230600303793835 1.2739322626736111 0 1.2739322626736111 -4.1308832977218799 0 0 0 0 -8.5566281690620674 5.5546212917366447 0 5.5546212917366447 -2.1245736796516734 0 0 0 0 -24.647717747403476 0.61268165608812808 0 0.61268165608812808 -3.9364261671619261 0 0 0 0 -31.210241864535419 -3.0337931780521785 0 -3.0337931780521785 0.68439385130926667 0 0 0 0 -3.8971866954757761 5.9832931385986292 0 5.9832931385986292 -0.6272187391433266 0 0 0 0 -20.50201364494751 3.6391304181208568 0 3.6391304181208568 -0.75447759162676675 0 0 0 0 -19.403182390795337 4.139766675942667 0 4.139766675942667 -2.1761825549399418 0 0 0 0 -17.180663778801318 2.862170515205122 0 2.862170515205122 -0.74027396496626352 0 0 0 0 -27.794892481950683 -2.5451380059488713 0 -2.5451380059488713 -5.3186167639371433 0 0 0 0 -32.677536562451223 -5.5497113721880567 0 -5.5497113721880567 -1.8740189398475877 0 0 0 0 -7.107332193850457 4.7057669112449059 0 4.7057669112449059 0.71218650783307935 0 0 0 0 -11.967957151599876 3.579081237716764 0 3.579081237716764 -1.470314438318951 0 0 0 0 -12.988489380217288 2.2743248631772417 0 2.2743248631772417 -1.8134868479656348 0 0 0 0 -16.342076784998426 4.160770889376991 0 4.160770889376991 -1.2607114018046559 0 0 0 0 -16.3078930612146 5.0383875876914885 0 5.0383875876914885 -7.2415988303766312 0 0 0 0 -16.669052470589122 4.1637686903532654 0 4.1637686903532654 -1.6659551208138055 0 0 0 0 -16.447300083871141 3.9534572949572322 0 3.9534572949572322 -1.5585084857950733 0 0 0 0 -14.565346676841727 2.1152099809272897 0 2.1152099809272897 -3.441555426737466 0 0 0 0 -17.591268729260264 13.016539299941734 0 13.016539299941734 -2.6404651131252876 0 0 0 0 -10.15448473229155 5.9176290065410422 0 5.9176290065410422 -2.7718242116875045 0 0 0 0 -10.133741721838305 1.1550373071125932 0 1.1550373071125932 -3.4088462545233256 0 0 0 0 -2.0430666145028127 2.7696669755220178 0 2.7696669755220178 -0.061740875859741751 0 0 0 0 -20.361411476592139 8.7928265841957227 0 8.7928265841957227 -2.378051725838418 0 0 0 0 -21.208747786715776 4.3322038718182938 0 4.3322038718182938 0.28452360696849155 0 0 0 0 -13.550089978994038 3.1205066877142258 0 3.1205066877142258 0.11680661557579697 0 0 0 0 -19.786765009913324 5.9892418826268567 0 5.9892418826268567 0.62903004022246023 0 0 0 0 -18.615784324021661 6.4149271625274764 0 6.4149271625274764 -0.49289826338485909 0 0 0 0 -18.576394179484851 6.3910953951095735 0 6.3910953951095735 -0.67056622502002483 0 0 0 0 -18.612112348685969 5.8603565619117575 0 5.8603565619117575 -1.8884895615030928 0 0 0 0 -7.9399929753720926 3.0532441469304672 0 3.0532441469304672 -1.8959590199012837 0 0 0 0 -6.6298609421164656 4.591223282633905 0 4.591223282633905 -2.2684946882373538 0 0 0 0 -6.1182228072928071 2.0218590520378128 0 2.0218590520378128 -0.28704080339090643 0 0 0 0 -6.0922953429089297 3.2675325294965774 0 3.2675325294965774 -2.0510517957156633 0 0 0 0 -10.232188355342416 5.3457893739660962 0 5.3457893739660962 -0.3120603679881242 0 0 0 0 -10.801430286521281 4.8942408133189019 0 4.8942408133189019 -0.39255689372862435 0 0 0 0 -9.9577261922349862 3.563433708899197 0 3.563433708899197 -0.87278976961079024 0 0 0 0 -5.6149252985342173 2.7447671727143188 0 2.7447671727143188 -1.4400221912605957 0 0 0 0 -8.2714073584834296 3.1738939045376355 0 3.1738939045376355 -1.7099593999188301 0 0 0 0 -5.1041287411547387 6.6228485610747612 0 6.6228485610747612 -1.3524888073834518 0 0 0 0 -6.1366786504497846 4.0014109962922184 0 4.0014109962922184 -2.2725977921751497 0 0 0 0 -0.63176033911440754 10.342391912457458 0 10.342391912457458 -15.543799188166417 0 0 0 0 -12.467790382600697 18.512977581451807 0 18.512977581451807 -19.977690656118057 0 0 0 0 -7.4699894665129989 3.7643789028564414 0 3.7643789028564414 1.5388652109472332 0 0 0 0 -7.2396320773696061 5.9230332990217676 0 5.9230332990217676 -1.0822597400560312 0 0 0 0 -7.9021525555908738 6.3983447737253982 0 6.3983447737253982 -3.7234278136982084 0 0 0 0 -5.3753779261447789 1.7382295573927484 0 1.7382295573927484 3.4460653728894672 0 0 0 0 -6.8267064825679427 3.9029095342914104 0 3.9029095342914104 -1.2228219541282215 0 0 0 0 -2.148299555613546 1.1518619982638878 0 1.1518619982638878 -0.38658897606902576 0 0 0 0 -10.768563364286365 3.6131930126613838 0 3.6131930126613838 -0.38596530789936878 0 0 0 0 -13.129536886261121 18.050456340191602 0 18.050456340191602 -14.879024123796967 0 0 0 0 -31.584485749768646 12.683168944491158 0 12.683168944491158 13.540857344799491 0 0 0 0 -1.4876421945323983 2.4366341366335451 0 2.4366341366335451 1.2781487274590053 0 0 0 0 -16.958533939325662 18.559266965499333 0 18.559266965499333 18.155152064623394 0 0 0 0 -5.052179044472723 -13.409375624432428 0 -13.409375624432428 20.495538368889623 0 0 0 0 0.25720683358456853 0.041643025781972653 0 0.041643025781972653 0.05974107481889146 0 0 0 0 -20.676516062790142 4.9210940957333378 0 4.9210940957333378 -0.094359612970009721 0 0 0 0 -19.419158905914628 6.4846590463801022 0 6.4846590463801022 0.53319216596037222 0 0 0 0 -14.063911012775861 4.8244432027174753 0 4.8244432027174753 0.063993753516967899 0 0 0 0 -14.638563246600825 4.1761039370974231 0 4.1761039370974231 0.99158807883418376 0 0 0 0 -16.058225153285093 4.5110231113901023 0 4.5110231113901023 1.5685467375814426 0 0 0 0 -9.1356402556211833 1.0019779536251008 0 1.0019779536251008 2.1525543558884124 0 0 0 0 -13.528628617114236 5.1092624676250011 0 5.1092624676250011 -1.919720387800453 0 0 0 0 -14.319675150828516 3.7526730597272717 0 3.7526730597272717 1.752572762367663 0 0 0 0 -7.9159867932454979 0.27089006679976357 0 0.27089006679976357 3.0778291375532207 0 0 0 0 -9.953938131295061 2.002705578849663 0 2.002705578849663 2.7180383920097606 0 0 0 0 -23.695691569980227 6.5904038079881957 0 6.5904038079881957 -4.9319870580675342 0 0 0 0 -23.705229490650709 6.6732854700222788 0 6.6732854700222788 -0.27961356192963649 0 0 0 0 -9.6030591622220101 3.7918368128835347 0 3.7918368128835347 4.4476053999942504 0 0 0 0 -19.485555666569773 -2.3509093454149834 0 -2.3509093454149834 3.8690102335562631 0 0 0 0 -15.523372583189257 1.2881712823182028 0 1.2881712823182028 2.1918243851805528 0 0 0 0 -16.071379150605935 -2.6768773683729705 0 -2.6768773683729705 3.0027370287261874 0 0 0 0 -20.598295268537186 -1.5266140905674774 0 -1.5266140905674774 3.7716245734545737 0 0 0 0 -20.073123486376062 -2.0381987424642602 0 -2.0381987424642602 0.58716490749498007 0 0 0 0 -6.7168830664697996 5.607477587513312 0 5.607477587513312 2.2108929247089559 0 0 0 0 -19.348579521195461 2.2126963174539753 0 2.2126963174539753 3.0454699593046826 0 0 0 0 -18.972593336535283 0.72805213598519458 0 0.72805213598519458 3.2583800217942098 0 0 0 0 -21.435171350314704 3.1467775585070399 0 3.1467775585070399 2.0688870528081225 0 0 0 0 -12.584180295664737 -4.3196076668018613 0 -4.3196076668018613 1.0940563744555005 0 0 0 0 -8.7547641778583056 -1.5451167971752966 0 -1.5451167971752966 3.0796569731928685 0 0 0 0 -15.295429033418216 2.3409506730430678 0 2.3409506730430678 4.7568901135078239 0 0 0 0 -15.298491458786884 2.9818091070587229 0 2.9818091070587229 4.5833945238435945 0 0 0 0 -18.663906175331732 3.6623404719471626 0 3.6623404719471626 8.0000871968494387 0 0 0 0 -9.5219558164579183 7.2930848223879003 0 7.2930848223879003 4.3050895461265837 0 0 0 0 -9.3723320217359252 2.502440176922839 0 2.502440176922839 2.3524519040890861 0 0 0 0 -12.72072614404351 3.9616859204550963 0 3.9616859204550963 1.9258361463493259 0 0 0 0 -4.2536746502923579 1.7052284230004329 0 1.7052284230004329 1.9185081422993266 0 0 0 0 -16.73071614201217 2.3744929865792415 0 2.3744929865792415 3.2025668856203993 0 0 0 0 -29.573392124443217 1.8074846006762151 0 1.8074846006762151 8.7512334456600627 0 0 0 0 -5.7401019304816145 11.466606873509789 0 11.466606873509789 -3.9323186080331141 0 0 0 0 -4.2385056190223747 2.3856510169869036 0 2.3856510169869036 0.72690375722481915 0 0 0 0 -16.336332082567424 1.0994641388175879 0 1.0994641388175879 0.097376074762081544 0 0 0 0 -13.886243216217736 21.74837758216043 0 21.74837758216043 -12.194903221400068 0 0 0 0 -10.977378240964754 10.70962432488691 0 10.70962432488691 -9.896704301435884 0 0 0 0 -12.729540708623063 12.104351070897451 0 12.104351070897451 -1.4129125848958353 0 0 0 0 -13.533877617946018 10.652606266350777 0 10.652606266350777 2.8351280726903525 0 0 0 0 -10.741410117999294 10.744981973365938 0 10.744981973365938 -1.5787930536026096 0 0 0 0 -9.3104101157878176 15.139760355007084 0 15.139760355007084 -1.3536940630106762 0 0 0 0 -17.584800982506749 14.00236674977225 0 14.00236674977225 -1.3450111583654092 0 0 0 0 -24.560677713969199 18.726863782522059 0 18.726863782522059 14.529986289267754 0 0 0 0 -14.974825304840323 9.008485022975993 0 9.008485022975993 -2.7213037223445529 0 0 0 0 -29.659022840030957 11.455379672411993 0 11.455379672411993 13.318213790647405 0 0 0 0 -9.9113681735334467 13.759165380402067 0 13.759165380402067 3.449694503744702 0 0 0 0 -13.706500263037704 7.8139907891115197 0 7.8139907891115197 -3.1223526726792246 0 0 0 0 -5.7221189784413582 20.180843677387827 0 20.180843677387827 12.696510226845248 0 0 0 0 -3.5192811785618687 13.225118044005569 0 13.225118044005569 0.5165274914110114 0 0 0 0 -4.9109541386478668 11.902273787602041 0 11.902273787602041 2.4754037310913759 0 0 0 0 -5.9709054222626037 22.370310073617507 0 22.370310073617507 -6.0885963885290266 0 0 0 0 -31.911185398582347 12.045549910560638 0 12.045549910560638 -1.6900640138524636 0 0 0 0 -73.758450041617834 48.487744462433653 0 48.487744462433653 17.99662650171166 0 0 0 0 -4.1356359758028916 4.8633903902961038 0 4.8633903902961038 0.95901765488037971 0 0 0 0 -37.600231733726105 19.976840105536148 0 19.976840105536148 -5.5044600371465329 0 0 0 0 38.751360807320452 61.955728822577953 0 61.955728822577953 -83.680078022230191 0 0 0 0 -37.889807469488005 -14.797457830933695 0 -14.797457830933695 57.054913308102869 0 0 0 0 -28.843692111501696 22.368672222348721 0 22.368672222348721 0.020796010937374376 0 0 0 0 -0.17253193684882717 -17.193366249085443 0 -17.193366249085443 50.706746709820663 0 0 0 0 -28.408082821837525 1.6220655579270442 0 1.6220655579270442 5.5540146567550437 0 0 0 0 -2.84228394922917 0.51077842986844857 0 0.51077842986844857 1.1831432920556004 0 0 0 0 -0.89247569327823584 1.0183620125918331 0 1.0183620125918331 -0.4073091157141806 0 0 0 0 -1.0255992042860633 5.4892921053708044 0 5.4892921053708044 7.0184131289384792 0 0 0 0 -28.869763133368906 9.3026802266239201 0 9.3026802266239201 0.025466865060138844 0 0 0 0 -30.300887913201223 13.2892789159975 0 13.2892789159975 12.368450315015252 0 0 0 0 -77.095249989929471 -4.9679037473133292 0 -4.9679037473133292 24.294125244019824 0 0 0 0 16.272228794783587 -81.231067685258267 0 -81.231067685258267 66.274019337134632 0 0 0 0 -30.75152520033771 49.000278580256236 0 49.000278580256236 -25.709522319814653 0 0 0 0 -33.301575817972434 44.013483024226019 0 44.013483024226019 22.357411908961694 0 0 0 0 -10.181099786803316 38.745257426898775 0 38.745257426898775 -30.105798586921537 0 0 0 0 -4.2510821907744685 -41.023642725772334 0 -41.023642725772334 81.079750789027798 0 0 0 0 -105.92238030599128 54.679696920083643 0 54.679696920083643 100.91795737871735 0 0 0 0 -39.973526349075655 19.140466375700271 0 19.140466375700271 27.419317805775108 0 0 0 0 -19.601521776286972 10.730934799088118 0 10.730934799088118 19.619486544158235 0 0 0 0 -0.15349893733514008 5.3693596249642424 0 5.3693596249642424 7.0703163568006264 0 0 0 0 -11.575536129877037 11.798078865794963 0 11.798078865794963 0.62948043025438949 0 0 0 0 -37.358230422336248 35.724355674911834 0 35.724355674911834 7.5160943218211287 0 0 0 0 -11.493696245216597 10.642813728008036 0 10.642813728008036 2.1520394450918161 0 0 0 0 -6.9122755090338615 18.050968771239297 0 18.050968771239297 11.022282043497796 0 0 0 0 -11.754112222398504 8.4416784432394856 0 8.4416784432394856 -0.027993311890364581 0 0 0 0 -10.048870391710921 10.622526006620683 0 10.622526006620683 1.2779932217173382 0 0 0 0 -9.2229498528367913 10.974469597415137 0 10.974469597415137 0.84639149463176722 0 0 0 0 -11.704651335016933 10.602231302465796 0 10.602231302465796 1.4801860892390835 0 0 0 0 -10.916357008764862 9.7835130587720549 0 9.7835130587720549 0.57851041505792011 0 0 0 0 -11.881886092976856 11.74748307964694 0 11.74748307964694 0.33617078815427703 0 0 0 0 -11.064170445343734 11.858549650501686 0 11.858549650501686 -3.0343940738916899 0 0 0 0 -13.126406991255408 18.162252744132182 0 18.162252744132182 0.23689364154574832 0 0 0 0 -9.4405254015991886 10.077646934160057 0 10.077646934160057 0.84444950616557435 0 0 0 0 -10.207174235881276 5.384493058211044 0 5.384493058211044 -1.1057200445405921 0 0 0 0 -8.7581959011004074 10.809178651960966 0 10.809178651960966 1.3811554128391208 0 0 0 0 -7.6713637912125705 8.9580835264982692 0 8.9580835264982692 1.2855320779162938 0 0 0 0 -0.51006793883398416 3.1265544952596596 0 3.1265544952596596 4.5365192996162982 0 0 0 0 -13.402621967628875 16.45659626923063 0 16.45659626923063 -134.53433169965092 0 0 0 0 85.457335218127952 -508.42432347707489 0 -508.42432347707489 307.39267013869994 0 0 0 0 28.634528745259558 359.45934219177133 0 359.45934219177133 59.029263495431678 0 0 0 0 -2.0436145937507408 0.51427254863008542 0 0.51427254863008542 -0.84854797866643028 0 0 0 0 -379.24356337281188 494.48398257007898 0 494.48398257007898 15.977663276303588 0 0 0 0 -856.9856755826147 -403.34898747430339 0 -403.34898747430339 316.70354017676073 0 0 0 0 -110.36409707930579 -227.71538719279465 0 -227.71538719279465 -291.43399524343852 0 0 0 0 -645.1583174329586 194.12552164534719 0 194.12552164534719 87.932251879954492 0 0 0 0 -207.44155637907716 -90.329438486462095 0 -90.329438486462095 4.7353390198989018 0 0 0 0 -679.11142120584543 -202.41319243360209 0 -202.41319243360209 -16.24317792153488 0 0 0 0 243.82211646208737 65.992858306123821 0 65.992858306123821 -103.88843675020189 0 0 0 0 -13.605683032585375 -105.39244022006301 0 -105.39244022006301 -39.425538478290491 0 0 0 0 5.8356575945840632 -32.078072429558347 0 -32.078072429558347 10.440788758585768 0 0 0 0 0.27332186680942261 -0.33525755739833296 0 -0.33525755739833296 0.2160431639398217 0 0 0 0 -39.214156134618861 -48.269372063938818 0 -48.269372063938818 92.156673251321081 0 0 0 0 -44.44676532372705 -29.549504399930356 0 -29.549504399930356 56.400815025023348 0 0 0 0 -355.31892638688805 145.8202204749839 0 145.8202204749839 83.95421393913179 0 0 0 0 -491.2760854516514 123.8747635710788 0 123.8747635710788 86.104829422291004 0 0 0 0 -102.69908845009513 21.351004727539362 0 21.351004727539362 77.253116075534763 0 0 0 0 -14.417033430612719 13.504142700413581 0 13.504142700413581 6.2226755262416873 0 0 0 0 -9.2265689310936523 -1.7750195736881125 0 -1.7750195736881125 -3.4540741827536863 0 0 0 0 -16.029776960449453 10.034131350567577 0 10.034131350567577 0.86045789733853439 0 0 0 0 -11.404794489904315 8.2597948098007272 0 8.2597948098007272 -5.3823872190906723 0 0 0 0 -8.3853503341256328 -29.159668550096512 0 -29.159668550096512 9.1827597503906873 0 0 0 0 35.623097430386736 -7.207996058822161 0 -7.207996058822161 -18.068943492096423 0 0 0 0 -16.938821880040905 4.2485540954309258 0 4.2485540954309258 -5.7806980080471817 0 0 0 0 -12.92030789062173 9.7501723752684732 0 9.7501723752684732 -6.2043762349894624 0 0 0 0 30.862849296964669 23.477039045265656 0 23.477039045265656 -10.515820714976144 0 0 0 0 7.0834055215550507 16.439199770836012 0 16.439199770836012 -8.7954825231816471 0 0 0 0 -0.81195779974184212 1.6772529424749827 0 1.6772529424749827 -2.2961770639017525 0 0 0 0 -7.0325625460964147 4.9090889087726737 0 4.9090889087726737 -3.2489435552653276 0 0 0 0 -7.391332314857209 -8.4290550596909952 0 -8.4290550596909952 1.0070996532153913 0 0 0 0 -3.6763810417430705 -21.159051752870369 0 -21.159051752870369 -22.34181619977835 0 0 0 0 -0.60884314186577981 -1.8593782287677885 0 -1.8593782287677885 0.26199041198101192 0 0 0 0 -17.490209371976221 20.394219401003738 0 20.394219401003738 26.758685332823688 0 0 0 0 -8.2277995902586447 -2.7705305081627536 0 -2.7705305081627536 -0.59725362882681221 0 0 0 0 -11.213324669447889 -2.8760270667434753 0 -2.8760270667434753 32.1862792244508 0 0 0 0 -7.1573671656675799 9.1884355112961771 0 9.1884355112961771 5.0389038733592315 0 0 0 0 -6.1236424533866494 2.8872093496373563 0 2.8872093496373563 -2.014745700076789 0 0 0 0 -10.413957873674205 7.7708927437930342 0 7.7708927437930342 4.6151422827429087 0 0 0 0 -6.7611771637864013 4.0386782157578862 0 4.0386782157578862 -1.8432733082575221 0 0 0 0 -327.82223948412297 130.6927210949043 0 130.6927210949043 45.900725554435212 0 0 0 0 -60.963676843783446 15.905702043425833 0 15.905702043425833 17.769976611390575 0 0 0 0 0.14812647804717649 0.54437191467580881 0 0.54437191467580881 -0.0086827266843112483 0 0 0 0 -13.784394706513524 8.7993973579061446 0 8.7993973579061446 -17.142861727565105 0 0 0 0 -16.136534537613898 -1.1651724873590865 0 -1.1651724873590865 -2.9432424229526077 0 0 0 0 -3.8352649335720344 -3.8638798515383996 0 -3.8638798515383996 -5.6806547613639395 0 0 0 0 -16.762561254009142 0.84548122601700015 0 0.84548122601700015 3.0601320327527901 0 0 0 0 -44.115807277835529 -87.024068029364116 0 -87.024068029364116 2.1958270889827816 0 0 0 0 13.456977626783328 32.53881432631897 0 32.53881432631897 -28.658694497804447 0 0 0 0 -8.1714934162863369 -3.0947039664890506 0 -3.0947039664890506 -0.66582366557395556 0 0 0 0 -7.2385298634668516 -8.1918302694907652 0 -8.1918302694907652 -9.5065750283179113 0 0 0 0 -12.988801575863363 -14.475663737084005 0 -14.475663737084005 8.1895222491029926 0 0 0 0 -0.067293378454098995 1.294376307079613 0 1.294376307079613 -0.67486503785425267 0 0 0 0 -229.62823829276317 142.27246562855476 0 142.27246562855476 -82.040828504840647 0 0 0 0 -283.04877628058603 148.1072211586976 0 148.1072211586976 -54.773716773714114 0 0 0 0 -313.24932421784274 97.880086556401466 0 97.880086556401466 -36.229613894873864 0 0 0 0 -192.35086868742451 164.6361051005 0 164.6361051005 -2.2142731341537001 0 0 0 0 -167.96816773677392 84.47138435310103 0 84.47138435310103 -34.126083392422288 0 0 0 0 -169.1315830021249 112.64676589621001 0 112.64676589621001 -56.84904502526615 0 0 0 0 -254.52366936176293 120.53621535313727 0 120.53621535313727 -57.373050442226941 0 0 0 0 -217.17870484488537 92.947926675787272 0 92.947926675787272 -49.559530013624226 0 0 0 0 -143.07773032168029 47.707939145086584 0 47.707939145086584 -57.808204433623189 0 0 0 0 -214.4000045070577 62.582142449009666 0 62.582142449009666 -54.190116247419155 0 0 0 0 -111.63067003701951 -16.895213454213263 0 -16.895213454213263 -51.865223874905951 0 0 0 0 -188.60994878509143 -6.3148522580048052 0 -6.3148522580048052 -48.703927511599886 0 0 0 0 -159.41488216018979 18.286610831333974 0 18.286610831333974 -49.320021384523443 0 0 0 0 -122.19656320663194 49.850210957000627 0 49.850210957000627 -41.062275077135155 0 0 0 0 -71.137723994522503 11.9156932973724 0 11.9156932973724 -49.501183574513064 0 0 0 0 -144.52383497627943 38.846091207774975 0 38.846091207774975 -42.80712732043412 0 0 0 0 -83.447000555662669 121.53204631953635 0 121.53204631953635 -30.196380682589279 0 0 0 0 -80.3061983257397 18.960626305416014 0 18.960626305416014 -27.64185047180149 0 0 0 0 -50.896940101446489 45.133087056937711 0 45.133087056937711 -7.9928234821726392 0 0 0 0 7.3677879569736433 58.490451274156158 0 58.490451274156158 57.385870706653122 0 0 0 0 -2.2866932211391031 -0.16578804504092659 0 -0.16578804504092659 18.748417802504491 0 0 0 0 -34.555427738443768 7.6150672632356873 0 7.6150672632356873 82.187540626599912 0 0 0 0 -41.858180939123258 222.6176748979301 0 222.6176748979301 -29.408762722576512 0 0 0 0 -23.286825738972766 103.24523250597576 0 103.24523250597576 3.6753063393123284 0 0 0 0 -383.85783489165942 292.73144491233438 0 292.73144491233438 6.0809463413420417 0 0 0 0 -310.61361954326776 192.24603737846519 0 192.24603737846519 54.665838447022452 0 0 0 0 -307.99743390425482 184.82618253045925 0 184.82618253045925 7.3556207829474261 0 0 0 0 -381.65410014981262 208.14847493130492 0 208.14847493130492 88.588182222751357 0 0 0 0 -83.475356472620206 74.981018550277668 0 74.981018550277668 -6.3217481845574639 0 0 0 0 -113.18694748299595 -75.715758323756631 0 -75.715758323756631 -34.72616722141958 0 0 0 0 -82.979655398087743 -75.470079344520968 0 -75.470079344520968 -40.23175047281984 0 0 0 0 -72.247520841019195 -65.278548375946912 0 -65.278548375946912 -34.967260172551406 0 0 0 0 -74.529127126396816 -80.735353208049105 0 -80.735353208049105 -51.213981468721613 0 0 0 0 -77.506232508551875 -82.377417723694634 0 -82.377417723694634 -49.46082320212281 0 0 0 0 -71.313955497167171 -82.825155458504696 0 -82.825155458504696 -54.31973067571289 0 0 0 0 -69.095922823978526 -86.031064359085121 0 -86.031064359085121 -50.1091678551104 0 0 0 0 -87.910545892617847 -64.101406741192477 0 -64.101406741192477 -52.588497277843317 0 0 0 0 -53.659286947560759 -63.091617928489541 0 -63.091617928489541 -54.008808833469288 0 0 0 0 -86.28244687817164 -62.66651977213246 0 -62.66651977213246 -57.868838761887218 0 0 0 0 -87.735751689202516 -62.075286772540949 0 -62.075286772540949 -54.821429366585107 0 0 0 0 -113.63687858642334 -17.194087313856357 0 -17.194087313856357 -48.555435620254684 0 0 0 0 -86.933802060314065 -63.964335635458838 0 -63.964335635458838 -55.866176944945209 0 0 0 0 -85.88503603669426 -29.383573728361682 0 -29.383573728361682 -44.00298103186833 0 0 0 0 -53.461288373921889 -15.205293091694443 0 -15.205293091694443 -38.565269975544652 0 0 0 0 -23.455020434816674 -33.873021255719436 0 -33.873021255719436 -28.800277983294791 0 0 0 0 -34.258190183307306 -9.8861107444527079 0 -9.8861107444527079 15.48827697977049 0 0 0 0 15.711629560595611 10.742777602149545 0 10.742777602149545 8.4395751085772304 0 0 0 0 -7.558436397055857 -49.236262318061733 0 -49.236262318061733 -42.56588004175228 0 0 0 0 -33.099637565638432 -40.822259822501223 0 -40.822259822501223 -14.579357682374166 0 0 0 0 -49.46653619446306 -54.521625354193247 0 -54.521625354193247 -35.18564468766715 0 0 0 0 -51.327991967517377 -66.514794529727311 0 -66.514794529727311 -50.216370232993995 0 0 0 0 -35.593322173341903 -72.570324236967338 0 -72.570324236967338 -57.381325133762857 0 0 0 0 -61.065557571587306 -85.001166028564171 0 -85.001166028564171 -53.083524889409091 0 0 0 0 -42.012309505034409 -89.728563992699378 0 -89.728563992699378 -93.152330126495599 0 0 0 0 -12.230570579783034 -52.957861892715187 0 -52.957861892715187 -63.390815560899682 0 0 0 0 -91.591361467403658 -111.83103185872415 0 -111.83103185872415 -135.76221040777068 0 0 0 0 -82.358928101770744 -84.215264891250513 0 -84.215264891250513 -59.875659836355908 0 0 0 0 -135.43162444004486 -61.731821038449993 0 -61.731821038449993 -98.712152197026171 0 0 0 0 -91.44219282680092 -102.94463482055028 0 -102.94463482055028 -57.421498412978963 0 0 0 0 -58.635490442468836 -87.703594085232282 0 -87.703594085232282 -70.884841320434589 0 0 0 0 -50.747423937687927 9.5215447183306878 0 9.5215447183306878 -123.90692135007475 0 0 0 0 -102.51048590175651 110.46389510795478 0 110.46389510795478 -49.227823898509655 0 0 0 0 -89.372421058620603 64.082707273869971 0 64.082707273869971 109.14811815448058 0 0 0 0 -1.0035217711756559 63.021412204831904 0 63.021412204831904 -10.410429348055459 0 0 0 0 -65.935807197188524 21.874111737610065 0 21.874111737610065 8.1244126239589605 0 0 0 0 -41.547928248245626 -14.22862989752457 0 -14.22862989752457 -63.742211849686839 0 0 0 0 -49.313339703871861 -53.828290979638268 0 -53.828290979638268 -154.38145906378486 0 0 0 0 -8.4172987168093982 15.443462375560635 0 15.443462375560635 25.895474291357004 0 0 0 0 -6.6923293000331796 -33.364294233414171 0 -33.364294233414171 -57.154402871115735 0 0 0 0 15.518814225722977 74.096653466813507 0 74.096653466813507 85.974498922244038 0 0 0 0 16.393465105969881 27.341090610409879 0 27.341090610409879 8.093042050674967 0 0 0 0 -9.5449827600305071 56.407722834726428 0 56.407722834726428 -21.406184618429165 0 0 0 0 -12.9279352588851 87.640194648162435 0 87.640194648162435 78.162977387967203 0 0 0 0 48.016380332856897 61.271782144975305 0 61.271782144975305 88.667621052267805 0 0 0 0 17.323400285881235 117.0226525401838 0 117.0226525401838 149.31819243424673 0 0 0 0 31.933405842636603 74.539340794605664 0 74.539340794605664 82.866993786868647 0 0 0 0 1.5018911111260422 73.325376102352038 0 73.325376102352038 212.89043753848227 0 0 0 0 20.923328232142012 104.29688890404748 0 104.29688890404748 164.44019036529016 0 0 0 0 28.414607948536286 54.212838008806045 0 54.212838008806045 166.41358115270714 0 0 0 0 40.708056810888138 70.294095873656261 0 70.294095873656261 95.579017479508366 0 0 0 0 10.19756639666457 50.355785601713251 0 50.355785601713251 103.52736810382879 0 0 0 0 18.633285076229186 -12.841530730395107 0 -12.841530730395107 -35.239716253641745 0 0 0 0 -14.289961592653526 5.3322156798394076 0 5.3322156798394076 60.400659083607479 0 0 0 0 29.261347041713179 22.631491701558616 0 22.631491701558616 12.375503779570863 0 0 0 0 32.366093343340026 41.327949785644932 0 41.327949785644932 44.842663162326744 0 0 0 0 -2.2055285676065068 48.289610355876221 0 48.289610355876221 141.72744825780001 0 0 0 0 22.781981446223426 59.317676330326435 0 59.317676330326435 91.250255742444779 0 0 0 0 0.8992554842205891 106.19636663021214 0 106.19636663021214 216.47438857050315 0 0 0 0 49.783814978109149 85.727248085226506 0 85.727248085226506 129.72169257571289 0 0 0 0 50.133318077117565 -24.829543015313789 0 -24.829543015313789 60.193475964267463 0 0 0 0 118.85841167862509 44.133329501719629 0 44.133329501719629 -84.154150752962323 0 0 0 0 77.772410747890717 7.7770427480036233 0 7.7770427480036233 -97.337579751955218 0 0 0 0 48.562395683784416 38.542165193597612 0 38.542165193597612 -110.32377961278866 0 0 0 0 77.827090864185266 5.3219839332896868 0 5.3219839332896868 -122.99508822611824 0 0 0 0 -74.507207129139715 57.79607013241241 0 57.79607013241241 -62.17924375327425 0 0 0 0 -68.109759410352126 68.772815165633347 0 68.772815165633347 -64.857828611646937 0 0 0 0 -0.45753453046215142 0.46877620656723806 0 0.46877620656723806 0.0365683922152793 0 0 0 0 -46.187083696146146 30.400379803217788 0 30.400379803217788 1.5880706865682441 0 0 0 0 -38.649724254773901 -37.350602292031908 0 -37.350602292031908 -88.075238041688522 0 0 0 0 -94.122389935257161 125.75010838575633 0 125.75010838575633 -11.131389485549334 0 0 0 0 18.870129083858956 153.52960097425506 0 153.52960097425506 232.08357683946892 0 0 0 0 -23.928249228876695 9.6835241484969767 0 9.6835241484969767 -3.1117603322763463 0 0 0 0 34.522040899544663 -54.588438569341633 0 -54.588438569341633 37.696600544229909 0 0 0 0 103.26289972710219 126.34166073369374 0 126.34166073369374 137.76681605020943 0 0 0 0 -6.0316915068469825 107.80600436435157 0 107.80600436435157 138.49202290199923 0 0 0 0 80.721507924906291 36.012776868330491 0 36.012776868330491 196.76880188820371 0 0 0 0 -40.043046627460171 68.958080078874033 0 68.958080078874033 309.83990696636948 0 0 0 0 -18.899040670874456 -28.584050691405537 0 -28.584050691405537 -18.304528839815475 0 0 0 0 6.4971804878223338 -25.618046416700736 0 -25.618046416700736 -27.482712390702318 0 0 0 0 25.547867722737465 -8.2694755715837118 0 -8.2694755715837118 -26.38930528914716 0 0 0 0 -21.586137086382223 28.883633084576104 0 28.883633084576104 -22.824398082769676 0 0 0 0 -10.036786664633837 -5.092657557466282 0 -5.092657557466282 -8.4996954496320996 0 0 0 0 -48.200870897378991 174.9083699517858 0 174.9083699517858 300.6486087946098 0 0 0 0 14.808653860076447 -2.5753356618427006 0 -2.5753356618427006 -12.797197510934438 0 0 0 0 -2.7817226807205238 -0.80216742868367419 0 -0.80216742868367419 -2.8820204361874247 0 0 0 0 -22.021398221850546 5.6345034511662844 0 5.6345034511662844 -2.6115776364535441 0 0 0 0 35.121817444059616 182.1701194587049 0 182.1701194587049 204.42806028959234 0 0 0 0 -25.769982092077043 82.924833751264373 0 82.924833751264373 140.43271165263741 0 0 0 0 -49.040845392106348 107.76318487279923 0 107.76318487279923 180.86000337103724 0 0 0 0 -57.137793341850056 142.56823296004796 0 142.56823296004796 240.18669373272547 0 0 0 0 -57.935865539655424 136.71556968401603 0 136.71556968401603 204.91871947235109 0 0 0 0 -30.533356370024194 84.474177941424841 0 84.474177941424841 93.539087193616069 0 0 0 0 -25.527037769429853 45.378626161938442 0 45.378626161938442 200.47158793704693 0 0 0 0 -91.382504123203944 108.91066880981816 0 108.91066880981816 185.65353511100545 0 0 0 0 127.71382048300927 264.08047697835548 0 264.08047697835548 -56.564764666199153 0 0 0 0 74.532155986113139 -259.147194935691 0 -259.147194935691 -139.69925562468785 0 0 0 0 -246.02955192509216 -78.980002586683668 0 -78.980002586683668 -14.520411147366531 0 0 0 0 -488.49622675188039 -172.54603120823663 0 -172.54603120823663 -28.18348113388538 0 0 0 0 -489.30437647663894 -67.801638381999453 0 -67.801638381999453 0.0011553770467571667 0 0 0 0 -779.69724393835895 -174.50544923116081 0 -174.50544923116081 44.482183027276278 0 0 0 0 -778.2520791226143 -174.63793606867375 0 -174.63793606867375 -5.4161739263418696 0 0 0 0 -4.2601869874664615 1.8242216751571583 0 1.8242216751571583 0.82142614378969592 0 0 0 0 -950.29332427084501 22.653358204909523 0 22.653358204909523 -20.425589821635583 0 0 0 0 -496.26277594120984 -290.13183692183009 0 -290.13183692183009 33.1469977976775 0 0 0 0 -554.4645039102661 -416.35338794720604 0 -416.35338794720604 100.15613380554169 0 0 0 0 -10.313458984276355 2.7400884831870611 0 2.7400884831870611 -0.42510455860243201 0 0 0 0 -719.83603077910993 -318.27024779467337 0 -318.27024779467337 70.301145480052355 0 0 0 0 -18.428157814142423 257.40990059522824 0 257.40990059522824 -22.0925811624669 0 0 0 0 -938.55139834213605 -166.0532966906095 0 -166.0532966906095 144.06154614205417 0 0 0 0 27.747270087436192 -25.261171509561635 0 -25.261171509561635 116.45333994858765 0 0 0 0 -36.507873476043187 47.153729062239449 0 47.153729062239449 137.63099671035548 0 0 0 0 42.038374363207822 71.620898002043759 0 71.620898002043759 121.18775776696106 0 0 0 0 -44.224433358351916 97.644833592840655 0 97.644833592840655 287.64432816002648 0 0 0 0 -25.480617384137986 11.267801136443609 0 11.267801136443609 89.235981707521432 0 0 0 0 -5.9485443099110853 34.166320758934262 0 34.166320758934262 179.65628429416097 0 0 0 0 66.183127685169893 162.31741921911294 0 162.31741921911294 145.29642666900895 0 0 0 0 -24.812582021677656 9.9720474500748537 0 9.9720474500748537 -3.3782581019688589 0 0 0 0 193.08323501306131 65.825574601421863 0 65.825574601421863 -36.798679746887501 0 0 0 0 -21.978423957466976 8.2822780757836352 0 8.2822780757836352 -2.1912721253540521 0 0 0 0 -112.20972567878562 303.37700675217263 0 303.37700675217263 373.62024752925799 0 0 0 0 -16.578200786716479 -29.068182537589792 0 -29.068182537589792 186.275838513341 0 0 0 0 -125.94559264553573 146.47700421478908 0 146.47700421478908 -22.858365681519217 0 0 0 0 47.354882934021134 -23.369345712180348 0 -23.369345712180348 -175.7290296009578 0 0 0 0 -1.0691325313700872 82.794135299391002 0 82.794135299391002 -27.487768643229174 0 0 0 0 -242.37247692711753 -45.591797534151624 0 -45.591797534151624 -102.89259185084234 0 0 0 0 111.78878019077638 9.976836858743809 0 9.976836858743809 -120.20921592461946 0 0 0 0 89.451228490794165 72.813858305852136 0 72.813858305852136 -59.81264274568025 0 0 0 0 -3.494477393804118 22.425875635501143 0 22.425875635501143 -110.13347362666832 0 0 0 0 -16.071471191603536 16.648010993928938 0 16.648010993928938 -96.067732662639173 0 0 0 0 97.32641506717664 -1.1639510277261707 0 -1.1639510277261707 -151.05368940713561 0 0 0 0 96.578410199508653 10.29051283862259 0 10.29051283862259 -112.36033876977444 0 0 0 0 3.394165836942193 18.650896699970644 0 18.650896699970644 -157.318636603507 0 0 0 0 -15.998658898348367 24.664834533205749 0 24.664834533205749 -118.42632375970743 0 0 0 0 -189.46738069203457 -62.909505948860215 0 -62.909505948860215 -134.07520934033897 0 0 0 0 -222.52535348387573 40.828222495542605 0 40.828222495542605 -116.72565273748569 0 0 0 0 -291.08393705384879 -6.6619736008153723 0 -6.6619736008153723 -87.236361682689676 0 0 0 0 -421.61497595029869 -6.6928205632730169 0 -6.6928205632730169 -63.600144503708179 0 0 0 0 -534.11002148607167 177.68004808716273 0 177.68004808716273 -95.839602415934678 0 0 0 0 -611.67240239134662 -45.609433161485413 0 -45.609433161485413 -76.261535753838416 0 0 0 0 -244.51225257480655 -31.450418905913921 0 -31.450418905913921 -195.22948351513128 0 0 0 0 -740.59447560144599 -275.6545002462201 0 -275.6545002462201 -125.64114082849756 0 0 0 0 -225.86246049327838 6.3885849698916672 0 6.3885849698916672 -307.92339028345532 0 0 0 0 235.76188576894128 -242.78435456580632 0 -242.78435456580632 -52.518410632052792 0 0 0 0 -1.2650022263662173 -1.1030257611535959 0 -1.1030257611535959 -0.47345584326271428 0 0 0 0 -5.3757518584152422 137.83612123781995 0 137.83612123781995 -60.567678601434636 0 0 0 0 -1076.3918998609911 174.37442213650866 0 174.37442213650866 13.651556155802155 0 0 0 0 -535.27257190622731 -94.63958436762789 0 -94.63958436762789 -140.75636284326083 0 0 0 0 -732.07434331681543 -504.48454071258357 0 -504.48454071258357 -17.447272899582799 0 0 0 0 -5.5711631600692524 -2.0874452139495947 0 -2.0874452139495947 -1.0143574945694169 0 0 0 0 -484.08894996157687 136.1792853810307 0 136.1792853810307 -71.893134207879029 0 0 0 0 -503.7771888299385 158.47062996242539 0 158.47062996242539 -85.882978782406099 0 0 0 0 -526.52389214627647 53.912198539683288 0 53.912198539683288 -9.946278816702943 0 0 0 0 -433.69513985225558 145.88213834548947 0 145.88213834548947 -162.65581297981862 0 0 0 0 -493.68482512532501 70.558676201883372 0 70.558676201883372 -121.57775732471691 0 0 0 0 -377.94369694100897 109.37256745112381 0 109.37256745112381 -122.5739872382801 0 0 0 0 -407.3590353068721 312.5311543564153 0 312.5311543564153 -202.50083204246675 0 0 0 0 -512.13187012252456 360.13686548378632 0 360.13686548378632 -215.51051800784808 0 0 0 0 -0.62069023832835768 0.041133998030614904 0 0.041133998030614904 -1.2284378582043791 0 0 0 0 -497.86120774118535 173.37603091877827 0 173.37603091877827 -84.503641634624728 0 0 0 0 -650.1787944823518 230.76730661532474 0 230.76730661532474 -102.48601364664864 0 0 0 0 -383.85435168314655 222.73108919628572 0 222.73108919628572 -140.06358132500281 0 0 0 0 -385.99203533178297 159.11127327150052 0 159.11127327150052 -96.183662829117111 0 0 0 0 -420.41773960945284 171.83175233971997 0 171.83175233971997 -98.495971177867887 0 0 0 0 -297.10082396715734 85.196850049635486 0 85.196850049635486 -106.36832597364582 0 0 0 0 -385.67928134677641 72.363318509703618 0 72.363318509703618 -92.020615459228793 0 0 0 0 -320.19419903292601 74.013644384410526 0 74.013644384410526 -85.729156020130176 0 0 0 0 -223.25477769785721 55.348803530833266 0 55.348803530833266 -103.98406848938384 0 0 0 0 -275.97660632789484 113.78291543802607 0 113.78291543802607 -113.56817373483977 0 0 0 0 -324.34992905862657 148.87973556868383 0 148.87973556868383 -129.989285065476 0 0 0 0 -215.22411514260239 23.395786334012882 0 23.395786334012882 -89.401904203605909 0 0 0 0 -186.50919966920947 -42.259388343160708 0 -42.259388343160708 -49.637665990013375 0 0 0 0 -177.95353696435996 -20.208588374626288 0 -20.208588374626288 -74.276171360410444 0 0 0 0 -275.39922868810754 50.861343826129541 0 50.861343826129541 -100.66827673072157 0 0 0 0 -279.52148183501049 9.9336332699083414 0 9.9336332699083414 -75.139858117609037 0 0 0 0 -241.47497149438823 -21.170215810235732 0 -21.170215810235732 -67.370081373056564 0 0 0 0 -199.23366018445449 25.064828833237243 0 25.064828833237243 -104.16678306048243 0 0 0 0 -342.63741201619268 94.207061619287742 0 94.207061619287742 -114.77111805633194 0 0 0 0 -335.73160383058257 33.663492857358051 0 33.663492857358051 -90.302414046495869 0 0 0 0 -488.99932497442569 126.31063536843772 0 126.31063536843772 -89.693636713352134 0 0 0 0 -420.02272844016215 77.547557109338698 0 77.547557109338698 -66.745585290268536 0 0 0 0 -307.06351861218354 51.319576682851448 0 51.319576682851448 -76.182682475449838 0 0 0 0 -291.5548594073266 -5.6315111292283291 0 -5.6315111292283291 -80.737042786334314 0 0 0 0 -87.444047472639795 -41.247703278804238 0 -41.247703278804238 -119.52786936324907 0 0 0 0 -32.946384545317414 -60.162524456387473 0 -60.162524456387473 -51.484695436629067 0 0 0 0 -26.644782568613664 34.357982990154142 0 34.357982990154142 -37.970152515405061 0 0 0 0 -206.31088967740652 -5.5246276836276138 0 -5.5246276836276138 -35.964912553755312 0 0 0 0 43.860863655569119 -0.82756522692579892 0 -0.82756522692579892 -101.63479907181261 0 0 0 0 95.793811953462864 54.603804224016585 0 54.603804224016585 -53.773728473222491 0 0 0 0 46.515344421464761 -78.512699603915962 0 -78.512699603915962 94.129621982940535 0 0 0 0 208.59977973812875 20.12879898311985 0 20.12879898311985 -20.362712630314036 0 0 0 0 21.550831736075452 -13.359225566114219 0 -13.359225566114219 -42.742058850616559 0 0 0 0 -45.475253128501208 -68.692624746499177 0 -68.692624746499177 26.664338664452089 0 0 0 0 67.048908362892689 -56.198675101908748 0 -56.198675101908748 -36.358460419436142 0 0 0 0 60.456027142515268 -24.340621976128404 0 -24.340621976128404 -1.7545723722719231 0 0 0 0 -118.13991549937418 -47.153788351916319 0 -47.153788351916319 -84.197110260479803 0 0 0 0 -169.35933694473715 2.6128441904327246 0 2.6128441904327246 -74.892065254866338 0 0 0 0 -103.7976512564328 -15.968192902583496 0 -15.968192902583496 -17.675101395162983 0 0 0 0 -44.461507828826143 -66.699021090247925 0 -66.699021090247925 -64.349197258731238 0 0 0 0 -109.30757867529974 -44.987655506148258 0 -44.987655506148258 -75.353199407942611 0 0 0 0 -114.82554824828185 -47.11657934820721 0 -47.11657934820721 -27.36466186166308 0 0 0 0 -73.135522012365982 -97.780029211186047 0 -97.780029211186047 -38.279366031954908 0 0 0 0 -46.61641065155527 -77.459725217167943 0 -77.459725217167943 -33.166626580554748 0 0 0 0 -63.630565406961978 -84.823472941541922 0 -84.823472941541922 -47.141721438680634 0 0 0 0 -114.46787210443563 -53.625136119265562 0 -53.625136119265562 -47.986888860747513 0 0 0 0 -43.775793854683798 -83.52532158864301 0 -83.52532158864301 -21.163510025822234 0 0 0 0 43.90380160845416 -18.617208461736254 0 -18.617208461736254 -3.6990529871159197 0 0 0 0 -160.7076028637166 -106.68227378372012 0 -106.68227378372012 -10.197543502954659 0 0 0 0 -0.13844447963922057 -0.54516996900720471 0 -0.54516996900720471 -2.7014490593214049 0 0 0 0 -85.800532640572328 -61.808020843439124 0 -61.808020843439124 15.722977598916259 0 0 0 0 -52.002267088272674 -117.92135878160354 0 -117.92135878160354 -46.572087509364792 0 0 0 0 -96.59029613459461 -167.1747170859079 0 -167.1747170859079 -94.926884943028199 0 0 0 0 -69.395112958161008 -88.047022591487234 0 -88.047022591487234 -45.943035878422506 0 0 0 0 -54.409795197250787 -110.65495446872728 0 -110.65495446872728 -27.139177311630647 0 0 0 0 -38.258543393717446 -106.44538006803009 0 -106.44538006803009 -62.813724939591793 0 0 0 0 -38.002844348196959 -110.91683629675799 0 -110.91683629675799 -49.222056888169504 0 0 0 0 -13.244811919354106 -83.189324651967581 0 -83.189324651967581 -46.415582685931895 0 0 0 0 -58.452418561340892 -60.363989194602027 0 -60.363989194602027 -28.074172382606889 0 0 0 0 -57.642188649060699 -43.648267683431186 0 -43.648267683431186 14.687328995358257 0 0 0 0 -109.91288359862301 -35.041691549952702 0 -35.041691549952702 -36.091471768636211 0 0 0 0 -161.64110974688083 -16.0628447041031 0 -16.0628447041031 -25.366944342683382 0 0 0 0 -77.03240054994103 -0.86580216657586107 0 -0.86580216657586107 -23.025551704918144 0 0 0 0 -142.77758228231687 -15.730491074694328 0 -15.730491074694328 54.125522582650561 0 0 0 0 -151.41112543734926 70.76285582621091 0 70.76285582621091 -68.565655487589538 0 0 0 0 -117.50976928637738 -29.873939292803072 0 -29.873939292803072 -39.29004449945387 0 0 0 0 -130.97900462480902 35.317977225760387 0 35.317977225760387 -102.92717873329866 0 0 0 0 -216.22073751595235 38.120942343513661 0 38.120942343513661 -77.967490950816 0 0 0 0 -193.8839769422766 94.880562505611238 0 94.880562505611238 -184.83400621201054 0 0 0 0 -318.83234870365959 169.98142890452345 0 169.98142890452345 -148.51462073933362 0 0 0 0 -302.30284543693415 128.89377030271044 0 128.89377030271044 -127.65277870117825 0 0 0 0 -292.22868183963874 100.42914094789921 0 100.42914094789921 -114.7532476839433 0 0 0 0 -190.96758005943775 60.440725793761885 0 60.440725793761885 -131.90928437451839 0 0 0 0 -241.4453503105251 40.499608698394013 0 40.499608698394013 -91.220037361507821 0 0 0 0 -178.22734678556708 -13.204237800259904 0 -13.204237800259904 -79.099358857475636 0 0 0 0 -110.91429140002583 -58.953782131206026 0 -58.953782131206026 -67.540832837232585 0 0 0 0 -180.74239836297238 -16.889284913164602 0 -16.889284913164602 -62.240327897753559 0 0 0 0 -101.03973107308593 -38.03487271715926 0 -38.03487271715926 -64.605793893520513 0 0 0 0 -167.49490540589613 -1.7892690318922178 0 -1.7892690318922178 -66.958988089342711 0 0 0 0 -9.0255360235660191 -14.933327189736843 0 -14.933327189736843 -4.884214633494139 0 0 0 0 -18.489333606770742 -8.5958473621549842 0 -8.5958473621549842 1.3136838457002114 0 0 0 0 -16.588150957566086 -10.175546076694665 0 -10.175546076694665 1.843221192404485 0 0 0 0 -10.992790469079623 -7.5348571019514914 0 -7.5348571019514914 -7.486729891385913 0 0 0 0 9.6607347076878796 -9.6717920554951888 0 -9.6717920554951888 -14.720434414366423 0 0 0 0 -17.610269202425116 -23.780175510656591 0 -23.780175510656591 -2.131703740900889 0 0 0 0 1.30880060396521 -14.122938287618581 0 -14.122938287618581 -19.564304857126444 0 0 0 0 9.9787774184383693 -13.286842857967436 0 -13.286842857967436 -19.83779048087581 0 0 0 0 3.8641072819264082 -25.682085784741503 0 -25.682085784741503 -3.1804406812366324 0 0 0 0 -9.9999170253959164 -19.111688189842027 0 -19.111688189842027 3.9459083135885749 0 0 0 0 -9.8894968390893183 -8.6998564444500133 0 -8.6998564444500133 -7.0824960766833511 0 0 0 0 -15.362258407991249 -4.0925916573463041 0 -4.0925916573463041 0.6489396587403462 0 0 0 0 -22.219656376397324 -13.628770946975692 0 -13.628770946975692 7.6903982493489877 0 0 0 0 -77.778437310380468 -18.577547039680894 0 -18.577547039680894 -9.9374161712139539 0 0 0 0 -25.126708769470497 -35.748970329733083 0 -35.748970329733083 -20.956961551027689 0 0 0 0 -27.395304098002271 -10.666836617851743 0 -10.666836617851743 -27.998006676151363 0 0 0 0 -41.675968415428088 2.1060018361754942 0 2.1060018361754942 1.6805873128769235 0 0 0 0 0.057761726774749889 0.012684561666636895 0 0.012684561666636895 -0.85600251227350199 0 0 0 0 62.754419397708261 16.942661603207171 0 16.942661603207171 -86.75786619546534 0 0 0 0 132.24901159701403 -57.1999509267512 0 -57.1999509267512 -30.678470201304208 0 0 0 0 0.035451528168945146 -1.330448607970375 0 -1.330448607970375 -0.7057358836395089 0 0 0 0 -18.544418373065128 -3.9109505074405888 0 -3.9109505074405888 1.901322105896611 0 0 0 0 -0.12809108706264993 -1.2101156334152492 0 -1.2101156334152492 -1.6642694806799572 0 0 0 0 7.5582565756576514 -19.7992551648058 0 -19.7992551648058 25.319730920017946 0 0 0 0 -2.5950578632510677 -3.137612506282899 0 -3.137612506282899 3.4959104759716442 0 0 0 0 -8.271902885131567 -8.3176015154112974 0 -8.3176015154112974 1.9029494947420744 0 0 0 0 79.465532692916895 -40.142758896700343 0 -40.142758896700343 -30.474600740793448 0 0 0 0 4.2728949307611401 -19.368477127160816 0 -19.368477127160816 -0.36818774740777371 0 0 0 0 2.449078097419715 -15.207220045839591 0 -15.207220045839591 7.2925827954768465 0 0 0 0 -0.32617462403294262 -2.6784328141186879 0 -2.6784328141186879 -6.626429198791377 0 0 0 0 -15.003469135846899 -2.672929487369629 0 -2.672929487369629 39.270068563104815 0 0 0 0 -11.017615238977214 9.0742883050275793 0 9.0742883050275793 -6.9895386739533478 0 0 0 0 33.915521630362491 -14.829785679257157 0 -14.829785679257157 -95.915035719179969 0 0 0 0 25.386343402909915 10.292655603517233 0 10.292655603517233 -82.787526064399344 0 0 0 0 -9.4263419606213574 31.19008425655943 0 31.19008425655943 -32.179716401542009 0 0 0 0 1.1939011750098487 -0.40646830746428542 0 -0.40646830746428542 -1.4067516450392001 0 0 0 0 -9.6564527465106949 -24.777003639139593 0 -24.777003639139593 -22.232728325565859 0 0 0 0 25.803113401505527 -16.968465060622108 0 -16.968465060622108 -37.219919605930954 0 0 0 0 -22.771821656919201 -16.896738868867487 0 -16.896738868867487 -6.8943790674012462 0 0 0 0 3.2598410955466584 -4.6686501507375464 0 -4.6686501507375464 -4.2685984737609495 0 0 0 0 -2.5700737215826379 -2.7090444710704356 0 -2.7090444710704356 -0.37538375615046071 0 0 0 0 -3.4444224369981384 -12.535086030464129 0 -12.535086030464129 -5.8163949804386448 0 0 0 0 0.72367096621383098 -20.914531286391252 0 -20.914531286391252 -7.6922990281458397 0 0 0 0 -8.8735288653078896 -17.780016623046322 0 -17.780016623046322 6.9787630688925617 0 0 0 0 -8.6313871672899474 -9.5533054450794346 0 -9.5533054450794346 -6.9116005351505736 0 0 0 0 0.3908919201385288 -12.465072324755397 0 -12.465072324755397 -8.5870589046495525 0 0 0 0 -9.9922615146242606 -16.110175562077814 0 -16.110175562077814 -9.3824032194385154 0 0 0 0 -7.936970457123607 -11.69245444927509 0 -11.69245444927509 -16.826141167356241 0 0 0 0 -0.92725480796980264 -13.832289615280018 0 -13.832289615280018 -18.291807605437953 0 0 0 0 -3.6379375393522864 -1.9744967778811926 0 -1.9744967778811926 -1.0664585265166697 0 0 0 0 1.4518837259195827 -4.1278544261473815 0 -4.1278544261473815 -7.9016701780213303 0 0 0 0 -8.9980248250612931 -7.9930373321724346 0 -7.9930373321724346 -26.213791983949989 0 0 0 0 -19.686155920608144 -17.027610163339091 0 -17.027610163339091 -14.378924829948119 0 0 0 0 -30.760301673773938 -20.925579866196927 0 -20.925579866196927 -22.622544543003414 0 0 0 0 -9.4388505153510778 -16.779988089424307 0 -16.779988089424307 -45.730986618133443 0 0 0 0 -19.716228984416375 -17.521170614637185 0 -17.521170614637185 -21.573234510517864 0 0 0 0 -31.447734905299512 -15.230959460394331 0 -15.230959460394331 -10.050129765546671 0 0 0 0 -33.117924912308354 -18.044531146672171 0 -18.044531146672171 -8.8474154947559782 0 0 0 0 -9.7539007325613056 -15.519619288354676 0 -15.519619288354676 -14.506506988466526 0 0 0 0 -22.854548032628372 -14.618100279400153 0 -14.618100279400153 -1.9086970479630736 0 0 0 0 -30.482116988462622 -9.6204717604398695 0 -9.6204717604398695 -0.13615506147925771 0 0 0 0 -22.380146057128513 -13.880924993660017 0 -13.880924993660017 -7.506290351704024 0 0 0 0 -41.440399102574247 -20.132980530236892 0 -20.132980530236892 -15.177478489196801 0 0 0 0 -27.809220504692348 -30.859776116589728 0 -30.859776116589728 1.6850318137667273 0 0 0 0 -12.771564777338426 -38.201476633428229 0 -38.201476633428229 5.2506142400966382 0 0 0 0 -3.4764137056271949 -2.2644323645412641 0 -2.2644323645412641 -2.9871475276351571 0 0 0 0 -46.449239176294213 5.7557911987123589 0 5.7557911987123589 -14.045558382769741 0 0 0 0 -28.441041746482369 -5.5223407254366066 0 -5.5223407254366066 -14.915763501155197 0 0 0 0 -14.392153911212745 -2.9619828548726126 0 -2.9619828548726126 3.5187724166784982 0 0 0 0 -18.407951753941234 -20.091286092011501 0 -20.091286092011501 -20.751060062114448 0 0 0 0 -19.45915729762055 -28.803905596243112 0 -28.803905596243112 -58.854869841521122 0 0 0 0 -1.0950048177251546 2.1902935512132276 0 2.1902935512132276 1.6017313995295859 0 0 0 0 -11.771571041065421 -7.2079523423218914 0 -7.2079523423218914 -1.7795108641960815 0 0 0 0 -9.56716995282477 -7.4754970084786692 0 -7.4754970084786692 -8.3312653649921913 0 0 0 0 -35.389416479625652 -8.3689614299605637 0 -8.3689614299605637 -14.587188482853435 0 0 0 0 -0.58923655683975085 -16.594636968111672 0 -16.594636968111672 0.27775024063868159 0 0 0 0 -24.772446846487583 -23.413461843062123 0 -23.413461843062123 -0.64767172649499116 0 0 0 0 -10.690308234297845 -8.5379201189252854 0 -8.5379201189252854 -4.9728079052379144 0 0 0 0 -40.027176657087693 -17.164415310509867 0 -17.164415310509867 -4.6364301499343128 0 0 0 0 -12.860676615055127 -15.581589243349526 0 -15.581589243349526 -32.559794058022817 0 0 0 0 -29.004272744699847 -13.876664454892307 0 -13.876664454892307 12.515585319488309 0 0 0 0 -14.384174585649816 -7.2280308137505926 0 -7.2280308137505926 -37.510616628400385 0 0 0 0 20.482649033539928 -60.031581010051468 0 -60.031581010051468 0.35836635386544913 0 0 0 0 -26.105115851270781 -13.224530233526638 0 -13.224530233526638 -4.4915301923916768 0 0 0 0 -136.10180832833066 -250.03362944178366 0 -250.03362944178366 129.02653385148369 0 0 0 0 -32.227659587658366 -13.073953735578533 0 -13.073953735578533 -3.2589700897988907 0 0 0 0 -19.646401001871709 11.569065489101263 0 11.569065489101263 -33.524245906754686 0 0 0 0 42.467851115025042 -21.076615145566848 0 -21.076615145566848 -71.325723642480966 0 0 0 0 -23.856905192838894 -12.009882472556455 0 -12.009882472556455 -13.299972957776163 0 0 0 0 -22.726654367114861 5.1722413544324013 0 5.1722413544324013 -26.999964017046295 0 0 0 0 -25.118522337224022 5.0669589930165557 0 5.0669589930165557 -2.4631393452727934 0 0 0 0 -19.585152856328932 0.061327947254312676 0 0.061327947254312676 33.276950239713187 0 0 0 0 -25.555122133895566 3.4884659645595093 0 3.4884659645595093 14.524775142375802 0 0 0 0 -15.503820962600003 -7.86386811265902 0 -7.86386811265902 6.4240686659904895 0 0 0 0 -27.989524621189048 -8.7515444647278855 0 -8.7515444647278855 22.791445969328379 0 0 0 0 2.7787452966767887 -13.041057100716216 0 -13.041057100716216 22.716662180777348 0 0 0 0 26.727506853560044 -100.13895447209052 0 -100.13895447209052 -22.704914862705664 0 0 0 0 -10.881325492444248 -4.543798367290556 0 -4.543798367290556 -1.7042576350912118 0 0 0 0 -68.864433466322225 -8.3202314092550296 0 -8.3202314092550296 -49.6281555945734 0 0 0 0 47.171459965378745 -117.62788660180468 0 -117.62788660180468 -91.039616841766929 0 0 0 0 -146.15863801301748 -38.922180078727251 0 -38.922180078727251 -8.9448812861714941 0 0 0 0 -103.42922486513817 81.809057282289587 0 81.809057282289587 35.914853313874119 0 0 0 0 7.2682527743818355 16.175528440414382 0 16.175528440414382 44.939995093309335 0 0 0 0 -29.929515976971743 -1.7254196071248771 0 -1.7254196071248771 104.63784440618201 0 0 0 0 -19.878894664640029 -3.7397040218233997 0 -3.7397040218233997 27.703686653717796 0 0 0 0 -18.134323890091309 -6.5497911490260172 0 -6.5497911490260172 -2.1073350491730656 0 0 0 0 -25.664930994627866 -13.098941603708226 0 -13.098941603708226 43.477916408699457 0 0 0 0 -20.122816399223666 -28.349917045725306 0 -28.349917045725306 48.224316085863393 0 0 0 0 -8.4279467829619534 -14.493648769623178 0 -14.493648769623178 12.533076907020359 0 0 0 0 -10.834600532982222 -4.1055039841533016 0 -4.1055039841533016 29.41418008049277 0 0 0 0 -11.964786288153846 -3.0603843383023559 0 -3.0603843383023559 35.997944384394032 0 0 0 0 -1.6529524739016779 12.890396434140712 0 12.890396434140712 38.049876033402143 0 0 0 0 -7.7478822195917019 3.1264070582146815 0 3.1264070582146815 20.500301490742004 0 0 0 0 -7.6679903240292333 5.9840506289847326 0 5.9840506289847326 30.136941835892685 0 0 0 0 -14.713975434096938 -8.6127012760052821 0 -8.6127012760052821 24.181412619750745 0 0 0 0 -14.562538260110159 -4.1720057111378992 0 -4.1720057111378992 15.595674306865476 0 0 0 0 -12.384368070757773 0.74400694175074022 0 0.74400694175074022 26.593228614594409 0 0 0 0 -19.252570632845163 -5.3082998128165855 0 -5.3082998128165855 14.028133086674643 0 0 0 0 -19.203798832022585 -5.9133720136678676 0 -5.9133720136678676 20.508358851591765 0 0 0 0 -20.051952409790829 -6.5825010426651716 0 -6.5825010426651716 20.189890795413703 0 0 0 0 -14.714312621828867 -8.4560675682296278 0 -8.4560675682296278 17.27821684551509 0 0 0 0 -20.951592103367148 -13.413572393042159 0 -13.413572393042159 34.813273225891407 0 0 0 0 -21.145404710414368 -18.179317079150223 0 -18.179317079150223 24.587125564249618 0 0 0 0 -92.825474868259334 -2.8624817111506218 0 -2.8624817111506218 74.220468116960546 0 0 0 0 -23.662866393301343 -8.1938458377580012 0 -8.1938458377580012 -2.9261942260004474 0 0 0 0 -35.412279972855103 -12.109387966188462 0 -12.109387966188462 -2.8550607876156957 0 0 0 0 -37.50433020802393 -11.385915308439166 0 -11.385915308439166 30.363510583400057 0 0 0 0 -69.72009586436252 -24.10639897271858 0 -24.10639897271858 64.690649524048922 0 0 0 0 -64.367936385865505 -31.441198569281539 0 -31.441198569281539 54.75802415919987 0 0 0 0 -64.729775907125926 46.27423195241856 0 46.27423195241856 98.585915064904839 0 0 0 0 -4.6376352586412395 -53.125384644677524 0 -53.125384644677524 14.857090969791752 0 0 0 0 -69.401626436327206 3.2691229593661149 0 3.2691229593661149 159.78525134138386 0 0 0 0 -20.336401929246222 -80.076185705939565 0 -80.076185705939565 89.734771798952806 0 0 0 0 -103.66241198273565 -19.230284228543269 0 -19.230284228543269 288.02622296994127 0 0 0 0 49.980128611783584 -29.921692113935933 0 -29.921692113935933 -50.451309272758635 0 0 0 0 -15.166637918892775 -123.50607687934667 0 -123.50607687934667 -164.8279841737085 0 0 0 0 44.691687431528408 186.51018648664649 0 186.51018648664649 -48.561251023651948 0 0 0 0 -41.155950387517805 -8.461658276786693 0 -8.461658276786693 6.7565230115014856 0 0 0 0 -41.048067152617421 1.7494374291088448 0 1.7494374291088448 12.450336693083045 0 0 0 0 -31.811491841552197 9.662657340651549 0 9.662657340651549 15.544987137420776 0 0 0 0 -26.706706989294617 -1.5555179706711897 0 -1.5555179706711897 4.184688641198818 0 0 0 0 -42.160198820973164 6.6535767244072304 0 6.6535767244072304 27.137113239060909 0 0 0 0 -49.033787775315432 13.1822907473138 0 13.1822907473138 22.074319890346032 0 0 0 0 -35.467672997752274 -12.704698142514191 0 -12.704698142514191 -3.0073049660175171 0 0 0 0 -32.387915861723741 19.966521134663026 0 19.966521134663026 15.422534708929561 0 0 0 0 -64.801126057540387 25.941588547795618 0 25.941588547795618 15.095603358583048 0 0 0 0 -62.569384270961109 12.108058709764663 0 12.108058709764663 7.6289036261860019 0 0 0 0 -29.472427590870211 9.4788167182214238 0 9.4788167182214238 14.745891687750373 0 0 0 0 -13.914884124853415 -7.3512961801043275 0 -7.3512961801043275 20.000790688357938 0 0 0 0 -23.181062058356474 9.6890401432428916 0 9.6890401432428916 9.9266073622347903 0 0 0 0 63.636891144422407 -100.75551245603174 0 -100.75551245603174 -23.197380074174362 0 0 0 0 -18.181247364776937 -17.555625538971981 0 -17.555625538971981 43.458818066782442 0 0 0 0 7.2197269627868081 -12.873765426714272 0 -12.873765426714272 14.364051471728089 0 0 0 0 -3.3262958414070454 -1.6061887629690865 0 -1.6061887629690865 -0.89641111326697676 0 0 0 0 -79.031972565804608 36.608345403266867 0 36.608345403266867 -9.6906912097429085 0 0 0 0 -4.4845565216855903 24.022313850823366 0 24.022313850823366 -13.347793860320962 0 0 0 0 -143.0776486810862 -131.75888163740532 0 -131.75888163740532 -145.76592583878937 0 0 0 0 -161.7632772912948 -3.0847428838728774 0 -3.0847428838728774 9.5000390575360143 0 0 0 0 -64.006017437793162 -54.598794264709682 0 -54.598794264709682 -19.76341531480648 0 0 0 0 -103.31559812455816 4.0436087879122624 0 4.0436087879122624 26.936229650742007 0 0 0 0 -28.763707380223423 -19.017110508522364 0 -19.017110508522364 15.564924912899642 0 0 0 0 -15.864312568613968 -56.570568804477034 0 -56.570568804477034 -102.10898215639554 0 0 0 0 -58.076361398489098 -29.943026178009404 0 -29.943026178009404 -24.552905540168013 0 0 0 0 4.6019668721091875 -9.7373094454474085 0 -9.7373094454474085 -10.497911256306793 0 0 0 0 8.7265176331111434 -14.712649221652441 0 -14.712649221652441 -32.745238047325074 0 0 0 0 9.0112711205865708 -4.5516774862499005 0 -4.5516774862499005 -7.7560203189327694 0 0 0 0 -8.0431989576564611 -4.0734664597140018 0 -4.0734664597140018 -6.0279141704996126 0 0 0 0 -25.473737923266526 10.863189134457798 0 10.863189134457798 9.5267936385171197 0 0 0 0 -14.707421610353776 -25.905691027084458 0 -25.905691027084458 -19.65963614600787 0 0 0 0 -30.673731302824763 -51.923025991118678 0 -51.923025991118678 -16.534693943543971 0 0 0 0 -17.002195448263592 -28.828403685644844 0 -28.828403685644844 18.519819669839762 0 0 0 0 -7.5101352567339319 0.8852680675154545 0 0.8852680675154545 5.9896243666325955 0 0 0 0 -32.345351025953278 37.177333809509719 0 37.177333809509719 63.948303241816063 0 0 0 0 -33.850147608557087 -11.665438561819482 0 -11.665438561819482 -3.0283561478647831 0 0 0 0 -52.768012512435234 170.33845020784315 0 170.33845020784315 -83.835675580205702 0 0 0 0 -560.45254523105177 -85.716182374005029 0 -85.716182374005029 -152.78079076828408 0 0 0 0 -442.56948595094582 446.7983957769743 0 446.7983957769743 -711.37463422970905 0 0 0 0 -603.06506336525672 390.91001731018741 0 390.91001731018741 83.068386606303648 0 0 0 0 -226.25432067716611 130.92741588192598 0 130.92741588192598 -271.65333713611653 0 0 0 0 90.271126383169076 -257.92162017808965 0 -257.92162017808965 -119.66185598804577 0 0 0 0 -276.72820434893765 198.3095732172543 0 198.3095732172543 187.45475128080125 0 0 0 0 10.969560058236311 150.13943026478856 0 150.13943026478856 -214.28456360236129 0 0 0 0 -179.68505179486419 94.057795859772682 0 94.057795859772682 195.22094460175344 0 0 0 0 -5.0182297460545584 2.9046315873385602 0 2.9046315873385602 -1.4055397455916276 0 0 0 0 -66.404610541972943 257.46645720014033 0 257.46645720014033 -355.23655785333 0 0 0 0 -135.5414079124821 -58.618418027667303 0 -58.618418027667303 -18.341681834830979 0 0 0 0 -351.81093109098128 317.31839861897356 0 317.31839861897356 -148.4685919963722 0 0 0 0 -89.696205224936421 139.18965575422658 0 139.18965575422658 -87.245646725862173 0 0 0 0 -19.478774578841723 0.04887293774750745 0 0.04887293774750745 0.36548569203901804 0 0 0 0 -270.53651180226007 137.67815968514356 0 137.67815968514356 68.01595428973053 0 0 0 0 -27.288212883899178 360.80312016292538 0 360.80312016292538 -565.47565442847292 0 0 0 0 -69.368702830382972 176.52638358246577 0 176.52638358246577 -204.22748216299607 0 0 0 0 -107.38687290609323 -79.90613508726284 0 -79.90613508726284 -32.698404771994092 0 0 0 0 -7.2951905153095282 1.5866399453327702 0 1.5866399453327702 0.27593903085542726 0 0 0 0 -18.847560405243712 22.341528443931907 0 22.341528443931907 -23.187614892375677 0 0 0 0 -1.0471886093659357 -2.7038450144430186 0 -2.7038450144430186 -4.3086484633680335 0 0 0 0 -33.028528360022392 -23.771360464051554 0 -23.771360464051554 -42.293974032565302 0 0 0 0 -369.03683390319202 51.943154285856281 0 51.943154285856281 -4.7230959130474375 0 0 0 0 -127.11888573676333 -11.151413052080557 0 -11.151413052080557 -1.7753195889665676 0 0 0 0 2.7025378304861079 49.630957489977703 0 49.630957489977703 -426.65572725097456 0 0 0 0 -214.05192248582625 254.86737691899896 0 254.86737691899896 -201.47536006273822 0 0 0 0 18.028383711298375 78.789096452443118 0 78.789096452443118 -201.4688953398479 0 0 0 0 25.591077833858435 104.35096524538244 0 104.35096524538244 -148.03941143416588 0 0 0 0 -17.76040295117491 120.38148079337111 0 120.38148079337111 -113.07036931632945 0 0 0 0 -6.338170236285805 124.97004633924917 0 124.97004633924917 -154.10947914650365 0 0 0 0 115.11519263162882 70.195270006485941 0 70.195270006485941 -175.11873928140881 0 0 0 0 0.26322926139982883 82.055387169289958 0 82.055387169289958 -23.014139544879072 0 0 0 0 3.7078014093804086 3.4304474491038945 0 3.4304474491038945 -21.525233135549229 0 0 0 0 0.95982563376288965 1.9689268361284071 0 1.9689268361284071 -0.93220234390264145 0 0 0 0 70.770562078221701 33.017155458618447 0 33.017155458618447 6.7167705185668893 0 0 0 0 25.68720547772682 1.7357822309572839 0 1.7357822309572839 -13.765719715882369 0 0 0 0 93.652327560282174 -58.725089025959093 0 -58.725089025959093 -130.71412317382942 0 0 0 0 -44.629258073982783 -97.648105074411177 0 -97.648105074411177 -30.894772356795698 0 0 0 0 21.186427508404449 -35.558786540640085 0 -35.558786540640085 17.850260022944667 0 0 0 0 -27.217552104248171 -32.73905297394731 0 -32.73905297394731 35.462433690777061 0 0 0 0 20.548495068445959 -14.513002510398179 0 -14.513002510398179 5.8085278002076848 0 0 0 0 -458.99103468470457 228.27059729964313 0 228.27059729964313 -86.783879075842094 0 0 0 0 -204.80012138763777 -188.66033854390594 0 -188.66033854390594 -162.62732017414299 0 0 0 0 -57.735908281811135 -46.818323300801261 0 -46.818323300801261 -32.757033551154223 0 0 0 0 -31.455801765328943 10.994486105101487 0 10.994486105101487 126.55577436557815 0 0 0 0 -200.14852932698705 -9.4443348619729477 0 -9.4443348619729477 273.09380979779826 0 0 0 0 -101.0088256343879 -98.217177454794864 0 -98.217177454794864 28.665932132497119 0 0 0 0 -13.026323628360842 -18.187445381970974 0 -18.187445381970974 93.711615946234133 0 0 0 0 89.811993046394491 138.81072363786643 0 138.81072363786643 176.14995099337307 0 0 0 0 -3.7847641794470483 0.092816762688471499 0 0.092816762688471499 1.8724220890398904 0 0 0 0 153.04800796187192 74.199464866719609 0 74.199464866719609 -82.15506693565203 0 0 0 0 -14.670399150111848 6.3718343411446945 0 6.3718343411446945 0.17564211136086483 0 0 0 0 -11.475587196975539 12.500040934012532 0 12.500040934012532 10.799600690668285 0 0 0 0 -53.72554425729686 33.903319499106601 0 33.903319499106601 103.42766571847233 0 0 0 0 -8.3118109901041777 7.5389134426540112 0 7.5389134426540112 -1.8939220884314394 0 0 0 0 -14.451943660704273 7.9739842224853703 0 7.9739842224853703 15.425155936923829 0 0 0 0 -14.164305838598011 13.770503726630523 0 13.770503726630523 0.64990445167609323 0 0 0 0 -10.317986652742547 5.5418736640365296 0 5.5418736640365296 14.29624267155782 0 0 0 0 -5.5569589480526247 0.82653647732758984 0 0.82653647732758984 3.5455618282521044 0 0 0 0 -8.4939587073640723 11.399473161583956 0 11.399473161583956 5.986971733530936 0 0 0 0 -5.7229468980428813 5.0211583231971062 0 5.0211583231971062 7.5074106829772633 0 0 0 0 -12.601822867939518 10.876913937231848 0 10.876913937231848 8.6734285922566414 0 0 0 0 -0.62844027396567981 15.757618837295141 0 15.757618837295141 -0.44179866831723302 0 0 0 0 -1.3491901267827764 4.5492823193914944 0 4.5492823193914944 9.6004508162550408 0 0 0 0 5.4869584348707576 -6.6661861154175313 0 -6.6661861154175313 24.560658047723791 0 0 0 0 -43.580064971181855 22.826851818486375 0 22.826851818486375 23.452231035196633 0 0 0 0 2.0957717604138679 5.1671352220596045 0 5.1671352220596045 0.60990474702539721 0 0 0 0 -4.6089151422056602 -7.928247845106398 0 -7.928247845106398 59.772345083729761 0 0 0 0 -12.000663265619849 9.1862609176542307 0 9.1862609176542307 -0.21567130066749768 0 0 0 0 -15.395644308984629 18.065451196969434 0 18.065451196969434 10.141866967943201 0 0 0 0 -14.942706339395954 15.699366569875224 0 15.699366569875224 3.9880640344617859 0 0 0 0 -8.133561804655983 10.018080904731164 0 10.018080904731164 8.6449542137768276 0 0 0 0 -17.737836944903393 13.678754360629 0 13.678754360629 8.1606934026371505 0 0 0 0 -31.970395942931646 35.733031213854332 0 35.733031213854332 -8.6770617052289367 0 0 0 0 -33.061260078564374 40.049112005601785 0 40.049112005601785 9.3909271912961003 0 0 0 0 -21.99792248378435 15.576261155366183 0 15.576261155366183 9.5172393272521276 0 0 0 0 3.8838871241430919 12.215116223479356 0 12.215116223479356 4.7113189220162326 0 0 0 0 -3.0491767326988182 13.088168812560049 0 13.088168812560049 7.7339153825424223 0 0 0 0 -55.595471357119095 26.551489456028435 0 26.551489456028435 46.718615923140618 0 0 0 0 -20.958422688596329 14.314749374951134 0 14.314749374951134 3.7228590764370324 0 0 0 0 -17.461647586575054 13.074968661381604 0 13.074968661381604 0.97355423973067445 0 0 0 0 -41.508301701471282 11.292021530375365 0 11.292021530375365 4.8198276359588021 0 0 0 0 -20.552862759405365 7.746831119607597 0 7.746831119607597 1.0202056367353147 0 0 0 0 -40.07284589012901 -0.072881526524871537 0 -0.072881526524871537 0.92507800673428997 0 0 0 0 -33.196585761666938 0.9663216616147281 0 0.9663216616147281 -43.327715079013956 0 0 0 0 -8.078731845056609 7.8707377562404872 0 7.8707377562404872 5.2628169013252091 0 0 0 0 -2.6741341349363843 4.6481391542809085 0 4.6481391542809085 4.1463354960777714 0 0 0 0 -4.4972229842837166 3.3907984101855391 0 3.3907984101855391 7.52690078307183 0 0 0 0 -9.0606600836235884 7.7910203683748023 0 7.7910203683748023 2.3306119054439023 0 0 0 0 -5.790548099132458 7.120403571719276 0 7.120403571719276 0.66337474928488316 0 0 0 0 -19.563394648774192 11.898229446040318 0 11.898229446040318 2.9801057849520021 0 0 0 0 -47.671536232728613 14.000531268528164 0 14.000531268528164 4.7138392023348388 0 0 0 0 -2.9619699036372644 0.91205784824407488 0 0.91205784824407488 0.45582802476185991 0 0 0 0 -6.2944239440532357 6.3826938835379501 0 6.3826938835379501 1.2910327865150073 0 0 0 0 -4.2975667645068825 12.309767534023933 0 12.309767534023933 2.3428619788431888 0 0 0 0 -7.9466949014695274 6.5427799061058067 0 6.5427799061058067 3.4957205898390384 0 0 0 0 -10.076203535800005 6.5054431002917266 0 6.5054431002917266 3.1551194213343479 0 0 0 0 -11.217506110462637 7.8894036266879084 0 7.8894036266879084 8.6847903288989983 0 0 0 0 -11.83806152390207 6.1688057414294235 0 6.1688057414294235 9.7987798556605412 0 0 0 0 -6.0413575914920692 9.5537219616355813 0 9.5537219616355813 5.4957733612872728 0 0 0 0 -8.9140418379947732 9.4697448734623322 0 9.4697448734623322 2.2038381023239708 0 0 0 0 -10.108819513206981 7.912989380982026 0 7.912989380982026 2.6198176525263079 0 0 0 0 -12.010788141411467 9.33791890696466 0 9.33791890696466 3.3277267294083686 0 0 0 0 -8.5120014383173839 4.9922659508647484 0 4.9922659508647484 -1.5225408765718385 0 0 0 0 -8.9443900323608432 7.7254016004260393 0 7.7254016004260393 -13.41585866605601 0 0 0 0 -14.55727367167492 32.184206780257682 0 32.184206780257682 -23.79579810873679 0 0 0 0 -13.905138527396048 18.586578880160687 0 18.586578880160687 -4.5571749505230628 0 0 0 0 -20.646020676773333 13.568053389131819 0 13.568053389131819 1.5806325664649421 0 0 0 0 -15.620637531803951 5.2467217862281554 0 5.2467217862281554 5.1835473447586597 0 0 0 0 -25.909519122968049 -29.801741964708526 0 -29.801741964708526 4.715612212212875 0 0 0 0 -32.585434353857636 16.100408215626203 0 16.100408215626203 25.378453243410604 0 0 0 0 -21.206217828003076 4.1288395109902361 0 4.1288395109902361 0.083225726761159496 0 0 0 0 -22.637054314185661 18.386147390228416 0 18.386147390228416 17.55032130411746 0 0 0 0 -18.161442322564152 2.0718014586180118 0 2.0718014586180118 -0.11943664305469498 0 0 0 0 -40.287662686419935 12.131112808790931 0 12.131112808790931 44.786660910535204 0 0 0 0 -36.48553618983442 -1.1238328255311671 0 -1.1238328255311671 37.699306157676347 0 0 0 0 -354.51312676584348 223.3067740580114 0 223.3067740580114 -164.83323923078478 0 0 0 0 0.12281356999079662 2.0750991233748639 0 2.0750991233748639 -3.4248664653898171 0 0 0 0 -1.8096644475954236 -1.5258063222245255 0 -1.5258063222245255 -22.997417763681369 0 0 0 0 6.2679229822879279 13.40524839452155 0 13.40524839452155 -99.756945019370505 0 0 0 0 -351.85818620114514 234.75869624405573 0 234.75869624405573 -156.56568033562053 0 0 0 0 -67.908727802065187 8.691743461479291 0 8.691743461479291 18.172488766126662 0 0 0 0 -6.0887719222391752 63.371034071655686 0 63.371034071655686 -221.52573436940838 0 0 0 0 -346.7932049676001 213.11224321414534 0 213.11224321414534 -197.31361134768485 0 0 0 0 -310.62266645485943 174.98848635438208 0 174.98848635438208 -169.99181936364494 0 0 0 0 -357.06544420626597 202.66970795100679 0 202.66970795100679 -126.0991905873334 0 0 0 0 -2.637616283108315 0.10703096436159854 0 0.10703096436159854 0.0084656218747838352 0 0 0 0 -50.941242082433746 -26.653735677548411 0 -26.653735677548411 6.9302317994279292 0 0 0 0 -9.5983405841070635 12.589579705205779 0 12.589579705205779 -30.572078419063473 0 0 0 0 -76.619873791471036 24.187324469556188 0 24.187324469556188 -7.7853181375630811 0 0 0 0 -16.002229247056675 34.809542290747686 0 34.809542290747686 7.6195326928900613 0 0 0 0 -22.137586455439305 29.933177477572372 0 29.933177477572372 12.779893458141032 0 0 0 0 -18.879859478493017 49.417248353624018 0 49.417248353624018 -41.620467660305394 0 0 0 0 -104.74902471581299 62.383558295050989 0 62.383558295050989 69.93152226985876 0 0 0 0 -30.102437203458976 1.7270013494530758 0 1.7270013494530758 49.266088368436726 0 0 0 0 -8.8666620092571975 36.81712335552163 0 36.81712335552163 16.156772756107785 0 0 0 0 -565.73229417295443 160.48522896577856 0 160.48522896577856 -84.391215344126977 0 0 0 0 -293.17296344795614 153.38675319132653 0 153.38675319132653 -207.81541036358612 0 0 0 0 -331.76943723623117 180.52961664073837 0 180.52961664073837 -166.1858287093637 0 0 0 0 -330.6788960717563 178.79663721971599 0 178.79663721971599 -243.63961093301168 0 0 0 0 -361.42680115561598 99.436923951707286 0 99.436923951707286 -235.29176388472263 0 0 0 0 -265.07245999438237 156.70264126176562 0 156.70264126176562 -180.02856091176591 0 0 0 0 -351.56398832271316 133.21833694531506 0 133.21833694531506 -153.0066970841126 0 0 0 0 -169.03761404928809 44.004524113155639 0 44.004524113155639 -101.79899055035617 0 0 0 0 -320.73559096561439 292.80094965493731 0 292.80094965493731 -158.55254056760032 0 0 0 0 -197.36773328605341 480.52220881782 0 480.52220881782 -53.3199697537259 0 0 0 0 72.989039880890232 164.82012885483744 0 164.82012885483744 -118.89917048348434 0 0 0 0 -51.894492025336149 -32.648503964390784 0 -32.648503964390784 29.843519339971635 0 0 0 0 73.009184569722493 22.679862314236743 0 22.679862314236743 3.5340115964345387 0 0 0 0 0.1139928719778176 0.48592430652812979 0 0.48592430652812979 -0.64484614482996072 0 0 0 0 -574.88923576706293 490.47043839359912 0 490.47043839359912 -65.649385329294091 0 0 0 0 -158.22683629812673 498.95077905735911 0 498.95077905735911 -336.03260946301083 0 0 0 0 6.4077437094219931 205.9869228553016 0 205.9869228553016 24.543524871054615 0 0 0 0 -87.716283144325644 19.846108438257147 0 19.846108438257147 45.41441516787927 0 0 0 0 -374.65401832764837 29.346362017485944 0 29.346362017485944 74.147778990518418 0 0 0 0 -16.667256973993062 -18.709560823603169 0 -18.709560823603169 -9.974428888971488 0 0 0 0 -46.186648128641536 36.564528289402915 0 36.564528289402915 48.987191413430082 0 0 0 0 -62.829946954533625 8.1736348177886384 0 8.1736348177886384 24.961982038507813 0 0 0 0 -5.9866550535007264 19.508643364788895 0 19.508643364788895 16.060714211898016 0 0 0 0 3.3194921537278788 12.598116825230818 0 12.598116825230818 4.4204924984883291 0 0 0 0 -11.484956029104978 3.902621563893149 0 3.902621563893149 -0.072130486363676027 0 0 0 0 -5.4739181247186934 14.027860422552294 0 14.027860422552294 5.6991447786658682 0 0 0 0 -8.8281789507973372 10.328689802145504 0 10.328689802145504 2.5812196042988944 0 0 0 0 -11.367330936923736 12.302978774322526 0 12.302978774322526 6.4053788112896655 0 0 0 0 -27.671065393700701 12.636383629222564 0 12.636383629222564 6.4579692061950027 0 0 0 0 -22.455699706391897 28.452235068117261 0 28.452235068117261 6.0528768266150905 0 0 0 0 -12.863887381701716 22.427099836856087 0 22.427099836856087 5.7287288295128747 0 0 0 0 -25.179191113824345 20.013615489105632 0 20.013615489105632 28.081088419232401 0 0 0 0 
</DataArray>
<DataArray type="Float64" Name="cross_section_updated" format="ascii">
1 1 1 1 1 1 0.0092486852848636635 1 1 1 0.0086767857648147075 1 1 1 0.009703722498621092 1 1 1 1 1 1 0.010012670558719404 0.0092085682521443179 1 1 1 1 0.010006380474000331 0.010003369745475096 1 0.0096713137259773537 0.0095906844376744058 1 0.010108360406914874 1 1 1 0.0093030729420095545 1 1 0.010074157853148287 1 1 1 1 1 1 1 0.0094262730293479518 1 1 1 1 1 1 1 1 0.0064754009331616236 1 1 0.009018956209268271 1 0.0062915262023493998 1 0.01006110366492677 1 0.0082584610775026136 1 1 1 1 1 1 1 1 1 1 1 1 1 1 1 1 0.011264483142655884 1 1 1 1 1 1 1 1 0.0091400480412102744 1 1 0.0079049012866301543 0.009772958404137411 1 1 1 1 1 1 1 1 1 1 1 1 0.0068056260641851159 1 1 1 1 1 0.009874129888157954 1 1 0.0099327747126985826 1 1 1 1 1 1 1 1 1 1 1 1 1 1 1 1 1 1 1 0.0098607781282442439 1 1 1 1 1 0.0099570737075670608 1 1 1 1 1 1 1 1 1 1 1 1 1 1 1 1 1 1 1 1 1 1 1 1 0.010000011000513268 1 0.0093794403042233576 1 1 1 0.0082859154233093871 1 1 1 0.0078897602724840275 1 1 1 0.010094731715308112 0.0072087721391698428 1 1 0.010975830756473993 1 1 1 1 0.01071438618371702 1 1 1 1 1 0.0098587021184621624 1 1 1 1 0.010010746867577637 1 0.0098027682374578033 1 1 0.0098431874641627774 1 1 1 0.0099897187123249662 1 1 0.0088353778668145925 1 1 1 1 1 1 1 1 1 1 0.0098485498878122663 1 1 0.010009130624693373 1 1 1 1 1 1 1 0.0098014344436947193 1 1 1 1 1 1 1 1 1 1 1 1 1 1 1 1 1 1 1 1 1 0.0087247787791731625 1 0.0085366500229215082 1 1 1 1 1 0.0099993486332633739 1 1 1 1 1 1 1 1 0.0050090268594503995 1 1 1 0.0096089186659590268 1 1 0.010555114843188775 1 1 1 1 0.0098947524621216532 1 1 0.0096744417898219966 1 1 1 1 1 0.010042525612898628 1 0.0094160403653041659 1 1 1 1 1 1 1 1 1 1 1 1 1 1 1 1 1 1 0.010012420702831983 1 1 1 1 1 0.0073981894132479926 0.0091056907415421051 1 1 1 1 1 1 1 1 1 1 0.0096722741429033504 1 1 1 1 1 1 1 1 1 0.010105008143950185 1 1 0.0089259512235426702 0.010000780591683085 1 1 1 0.0099988434896075441 1 1 0.0090853795941066139 1 1 1 1 1 1 1 1 1 1 1 1 1 1 1 0.0095444700738047915 1 1 1 1 1 1 1 1 0.0067347387124165464 1 1 0.0099949688767460611 1 1 1 1 0.0074065683369335901 1 1 1 1 1 1 1 1 1 1 1 1 1 1 0.0091831105248698797 0.010122308764086482 1 1 0.0098254585119204024 0.0080282444211353058 1 0.0099429312457690287 1 0.0081285183376419955 1 0.010245360402025935 1 1 0.0076027442531982556 1 1 1 1 1 1 1 1 1 0.0098739955015623299 0.0094473566649398866 1 1 0.0099626453541446069 1 1 1 1 1 0.0099592826761587799 1 1 0.0099334281106674173 1 1 1 1 0.0099292524641722002 1 1 1 0.0077145500681150576 1 1 1 0.0082421795065697103 1 0.0095646170790742759 1 1 0.009896956312077777 1 1 1 1 1 1 1 1 1 1 1 0.010009715191980755 1 1 1 1 1 1 0.0099960804708830522 1 1 1 0.0099933476015433807 1 1 1 1 1 1 1 0.0090040108008671363 1 1 1 1 1 0.0095649032155426701 1 0.0092048398585539756 1 1 1 1 1 0.0096961418683447487 0.0096472436683305626 1 1 1 0.010000742868588427 0.0091244471192354678 1 0.0089842568934443961 1 1 1 1 1 1 1 0.010170365700239676 1 1 1 1 1 1 1 1 1 1 1 1 1 1 0.010201900279772349 1 1 0.010364697903322154 1 0.010372265980012025 1 1 1 1 1 1 1 1 1 1 1 1 1 1 0.01003046054072502 1 1 1 1 1 1 1 1 1 1 1 1 1 1 1 1 0.0099932639516452076 1 1 1 1 1 1 1 1 1 1 1 0.0099811867187754033 0.010039993931158417 1 1 1 1 1 1 1 1 1 1 1 1 1 1 1 1 0.0059217537619118167 1 1 1 1 1 1 1 0.0065293806363363868 1 1 1 1 1 1 1 1 0.009168059001891396 1 1 1 0.010042363709894826 1 1 1 1 1 1 1 1 1 1 1 1 1 1 1 1 1 1 1 1 1 1 1 1 1 1 1 1 0.0098568589576228938 1 0.0093994132959927985 1 1 1 1 1 1 1 1 1 1 1 1 1 0.0087599326634567598 1 1 1 0.0099556314312765765 1 1 1 1 1 1 1 1 1 1 1 1 1 0.0092735117318115921 0.0084462752168292243 1 1 1 1 1 1 1 0.0081669323114832385 1 1 1 1 1 1 1 1 1 1 1 0.0082672868542250262 1 1 1 1 1 1 1 0.0093948871899211164 1 1 1 1 1 1 1 1 1 1 1 1 1 1 1 1 1 0.0099528012992255114 1 1 1 1 1 1 1 1 1 1 0.010187420413200903 1 1 1 1 1 0.010388989976486018 1 1 1 0.010306594749908752 1 1 1 1 0.0078551900428216036 1 1 1 1 1 1 1 0.010592292944708457 1 0.005243087260377019 1 1 0.011528561425066634 1 0.010308732537607784 1 1 1 1 1 1 1 1 1 1 1 1 1 1 1 1 1 1 1 1 1 1 1 1 1 1 1 1 1 1 1 1 1 1 1 0.0099965620841251483 1 0.011042457373998312 0.0100039909119448 1 1 1 1 1 1 1 1 1 1 1 0.0093418322489164166 1 1 1 1 1 1 1 0.0087875212503982746 1 0.010058285991119423 1 0.008542745134467223 1 1 1 1 1 1 0.00957246035714426 1 0.010105025186623637 0.0087028791755997918 1 1 1 1 1 1 1 1 1 1 1 1 1 1 1 1 1 0.0095927608445265933 1 1 1 1 1 1 1 1 1 1 1 1 1 1 0.0098599069597105141 1 1 1 1 1 1 1 1 1 1 1 1 1 0.0099088049214509401 1 1 1 1 1 1 1 1 1 0.010170944179183553 1 1 1 1 1 0.0097290185477272913 0.009986967829984858 1 1 1 1 0.0094328941295770373 0.010038802820920427 1 1 1 1 1 1 1 1 1 1 1 0.0098867069139332818 1 1 1 1 0.0097388670174930574 1 1 1 1 1 1 0.0094119412678331793 1 1 0.010047092315128922 1 0.0097027474085946402 1 1 1 0.0093479837359307944 1 1 1 1 1 1 1 0.0099954975129197092 1 1 1 1 0.0095179417654556713 0.0092708819984808587 1 1 0.0099868293396560802 1 1 1 0.0098630573370173252 0.0084732588409838286 0.0094536444661281853 0.010000882483752688 1 1 0.0097906238079233394 1 1 1 1 1 1 1 1 0.0090810822773113205 0.0090731763413549639 1 1 1 1 1 1 0.0090708754491251441 1 0.0095869301680768116 1 1 1 0.0099659263077919759 1 1 1 1 1 1 1 1 1 1 1 1 1 1 1 1 1 1 1 1 1 1 1 1 1 1 1 1 0.0099187276070174853 1 1 1 1 1 1 1 1 1 1 1 1 1 1 1 1 1 1 1 1 1 0.0059462643783332898 1 1 1 1 1 1 1 1 1 0.010077405786432399 1 1 1 1 1 1 0.0099981052715894889 1 1 1 1 1 0.0061755672146445667 1 1 1 1 1 0.0093248959039043469 1 1 1 1 1 1 1 1 1 1 0.0089080895218443239 1 1 1 1 0.0088979831719385588 0.0099382358422785977 1 1 0.0098975818395188805 1 1 1 1 0.0098239454422201361 1 1 0.009926687351485948 1 1 1 1 1 0.0059630371117385082 0.0098088762569402185 1 1 1 1 1 1 0.0094158394697132913 1 1 1 1 1 1 1 0.0096580476270762133 0.010051409209020812 1 1 1 0.0076656235490173714 1 1 1 0.008291075980701992 1 1 0.0094206708051943026 1 0.009517042718971469 1 1 1 0.0089755756937078841 1 1 0.0086290392084293205 0.0097774140466031466 1 1 1 1 1 1 0.0092062490972476194 1 0.0099281375138277859 1 0.0099608355547237768 1 1 1 0.0099922667495665283 0.0098049769403296769 1 0.0097743368338661339 1 1 1 1 1 1 1 1 1 1 1 1 1 1 1 1 0.0095281373881696656 1 1 1 1 1 1 1 0.0095013000710852287 1 1 1 1 1 0.010128056629697617 1 1 1 0.0092045498082548739 1 1 1 1 0.0092239650056689989 1 0.0099985255920925879 1 0.0091114953833304757 1 1 1 1 0.0091564827035450005 1 1 0.010275793037906883 1 1 1 1 1 1 1 1 1 1 1 0.0086366935268351146 1 1 1 1 0.0078092305493095262 1 1 1 1 0.010530155386118616 1 1 1 1 1 1 0.0099729523271628717 1 1 1 0.0073996285684850933 1 0.010000098481945144 0.0099661912039139093 1 1 1 1 1 1 1 1 1 1 1 1 1 1 1 1 1 1 1 1 1 1 1 1 1 1 1 1 0.0099130986460988241 1 1 0.009966635688662101 0.0082147822717271099 1 0.0080471925432758131 1 1 1 1 0.009952713073569824 1 1 0.0099826455101970427 1 1 1 1 1 1 1 1 1 1 1 1 1 1 1 1 1 1 1 1 1 1 1 1 1 1 1 1 0.0097308580560629028 1 1 1 1 1 1 1 1 0.0095548861609920568 1 1 1 1 1 1 1 0.008936978325526368 1 0.0096836902644389222 1 1 1 0.0090253646635958668 1 1 1 1 1 1 1 0.0093557531775294075 1 0.010156023920286568 1 1 1 1 1 0.0090237284793416132 1 1 1 1 1 1 1 1 1 1 1 1 1 1 1 1 1 1 1 1 1 1 1 1 1 1 1 1 1 1 1 1 1 1 1 1 1 1 1 0.0082107354705173354 0.0082958275251261478 1 1 0.0081322925118159674 1 1 1 0.0096799431746516056 1 1 1 0.009539758025558457 0.0091073896411132307 1 1 0.0085807727741395133 1 1 1 1 1 1 1 1 1 1 1 1 1 1 1 1 1 1 1 1 1 0.010429635974774212 1 0.010109006733477952 1 1 1 1 1 1 1 1 1 1 1 1 1 1 1 1 1 1 1 1 1 1 1 1 1 1 1 1 1 1 1 1 1 1 1 1 1 1 1 1 1 1 1 1 1 0.0098251184737970267 1 0.0079230977947574218 1 0.0093204698579185796 1 1 0.0082796210732019211 1 1 1 1 1 1 1 1 1 1 1 1 1 1 1 1 1 1 1 1 1 1 1 1 1 1 1 0.010017939272408264 1 1 1 1 1 1 1 1 1 1 1 1 1 1 1 1 1 1 1 1 1 1 1 1 1 1 1 1 1 1 1 1 1 1 1 1 1 1 1 1 1 1 1 1 1 1 1 1 1 0.0099636332637091443 1 1 1 1 0.0098373710975156927 1 1 1 1 1 1 1 1 0.0099667591350061247 1 1 1 1 1 0.0098512399988002139 0.0096180768387012852 0.0096108574052876563 1 1 1 1 0.0096503523704591521 0.0097562218635255486 1 1 0.0095883751829181959 1 1 1 1 1 1 1 1 1 1 1 1 1 1 0.0091767950835427697 0.0099939569073548441 1 0.0099116199869542128 1 1 1 1 1 1 1 1 1 1 1 1 1 1 1 1 1 1 0.010049343604687091 1 1 1 1 1 1 0.010167291899495225 1 1 1 1 1 1 1 1 1 1 1 1 1 1 1 1 1 1 0.0099252603376752489 1 1 1 1 1 1 1 1 1 0.0097807246467714222 1 1 0.010001811145808436 1 1 1 1 1 1 1 1 1 1 1 1 1 1 1 1 0.0096226302423667448 1 0.0087619419694504475 1 1 1 1 0.0084852889748961938 1 0.0095279479526372991 1 1 0.0090964583606553597 0.0094515612704847811 1 1 0.0092583576461058859 1 1 1 0.0099741266580727107 1 1 1 1 1 1 0.0099991922355805694 1 1 1 0.008647711480587475 1 1 1 1 0.0095035448082291182 1 1 1 1 1 1 1 0.0098633286360921592 1 1 1 1 1 0.0096405931364609166 1 1 0.0099222480060945084 1 1 1 1 1 1 1 0.0099160372555898591 1 1 1 0.0097781659536669216 0.0085698039610618785 1 1 1 0.009964725270808 1 1 1 1 1 0.0099980688912697201 0.0092170788173382128 0.0094540817552180353 1 1 1 1 1 1 1 1 1 0.0089344064267394135 0.0088594489847863122 1 0.0088029876454979658 1 1 1 1 1 0.009334390876873027 1 1 0.0089955984144236278 1 0.0089549709312705429 1 1 1 0.0089588942858106185 1 1 0.009875885287711746 1 1 1 1 1 1 1 0.0098306197275703829 1 1 0.010002403643260062 0.0087415543220540955 1 1 0.0099444682904316645 1 0.0096779917752626635 1 1 0.0090785714732656737 1 1 0.0096692179968596529 1 0.0092674750308843375 1 1 1 0.009671731290794558 1 1 0.010286405908301389 1 0.0099404656009406227 1 1 0.0099858995217480782 1 0.0099772412915779141 1 1 1 1 0.0096984324118170838 0.0092164186048893457 1 1 1 1 1 1 1 1 1 0.0097784951885311472 1 1 1 1 1 1 1 1 1 1 1 1 1 1 1 1 1 1 0.010000004720696117 0.011639672162314072 1 1 1 0.008345360904714088 1 1 1 1 0.0083235288652768209 1 1 0.00938908470054544 1 1 1 0.0095208513603962566 1 1 0.009231436652967738 1 1 1 1 0.0099965922134591153 1 1 1 1 1 0.0081372075622988625 1 1 1 0.0086320518584768018 0.0099995828737955983 1 1 0.0098834054625674579 1 1 1 1 1 0.0091880546620896515 0.007733218221673519 1 1 1 1 0.0094090749064790584 1 1 1 1 0.0093014718284060716 1 1 1 1 1 1 1 1 1 1 1 1 1 1 1 1 1 1 1 1 1 1 1 1 1 1 1 1 0.0095556983157091997 1 1 1 1 1 1 1 1 1 1 1 0.0083042185977984101 1 1 1 1 0.0098559985072257921 1 1 1 0.0082529311669816575 1 1 0.010000009126736542 1 1 1 1 1 0.010094363854635887 1 1 1 1 1 1 1 1 1 1 1 1 1 1 1 1 1 1 1 1 0.0096289576914496203 1 1 1 1 1 0.0094990240430831915 1 1 1 1 1 1 1 0.010089145370353148 1 1 1 1 1 1 1 1 1 1 1 1 1 0.0088085017993165572 1 1 1 1 1 0.010256692573006062 0.0080620634475674254 1 1 1 1 0.010506839204875058 1 0.0099984141482569594 1 1 1 0.0093532259636704973 0.0095858720257867604 1 1 0.0044715083876895583 1 1 1 0.0052021454477959939 1 1 1 1 0.0099279147298889439 1 1 0.0092608064586070307 0.0097270993686331374 1 1 1 1 1 1 0.010846366716125457 1 1 0.0095950853292344832 1 1 1 1 0.010145345515938183 1 1 1 1 1 1 1 1 1 1 1 1 1 1 1 1 1 1 1 0.0078628880765168503 1 0.010007306499685707 1 1 1 0.010018347091971301 1 0.009491878324983662 1 0.0099600444795052527 1 1 0.0091403367472646744 1 1 0.0088375110046176684 0.0083145361550932394 0.0096999736523150672 1 1 1 0.0084557095818985038 1 1 1 1 1 1 0.009964663531672328 1 1 1 1 1 1 1 0.008958391272438769 1 0.010111635597683702 1 1 1 1 1 1 1 0.009842827812739742 1 1 1 1 1 1 1 1 1 1 1 0.0096276579646895673 1 1 0.010000878365683506 1 1 1 1 1 1 1 1 1 1 1 1 1 1 1 1 0.0097567550716550003 1 1 1 1 1 1 1 1 1 1 1 1 1 1 1 1 1 1 1 1 1 0.0096108808384594881 1 1 1 0.009826050686509661 1 1 1 1 1 1 1 1 1 1 0.0098776425082723381 1 1 1 1 1 1 1 1 1 1 0.0097305325479004907 1 1 1 1 1 1 0.0095266560571289557 1 1 1 0.0085242941225311154 1 1 1 1 1 1 1 1 1 1 1 1 1 1 1 1 1 1 1 1 1 0.0098306640664491615 1 1 1 1 1 0.0046918726608712784 1 1 0.010887426428841249 1 1 1 1 1 1 0.010354311359573232 1 1 1 1 0.010055870016035537 1 1 1 1 1 1 1 1 1 1 1 1 1 1 1 1 1 1 0.009991285625484389 1 1 1 1 1 0.0089767154978478911 1 1 1 0.0081671931477820293 1 0.0033566781587827527 1 1 1 1 1 1 1 0.0061317308715853613 1 1 1 0.0050670915371621578 0.0054149072979777606 1 1 1 1 1 0.010118626242273816 1 1 1 0.010503043057581159 1 1 1 1 1 1 1 1 1 1 1 1 1 1 1 0.008301437631323556 1 1 1 1 1 1 0.0094456274486008074 1 1 1 1 1 1 1 1 1 1 1 0.0099271283847302254 1 1 1 1 1 1 1 1 1 0.0089916327353331167 1 1 1 1 0.0087918404075433033 0.0098951051927072698 1 1 1 1 1 1 1 1 0.0012042032378036631 0.0091437887293700573 1 -3.4694469519536142e-18 1 1 1 1 1 0.010290927489981855 1 1 1 1 1 1 0.0063705995651517303 1 0.010082844918333738 1 1 1 1 1 1 1 1 1 1 0.0095578201657965794 1 1 1 1 1 1 0.0097915854711042409 1 1 1 1 1 1 1 1 0.00965365482921237 1 1 1 1 1 0.0092031951789603612 1 1 0.0099022090700068392 1 1 1 1 1 1 0.009148194340537848 1 1 1 1 1 1 1 1 0.0075723886072545307 1 1 1 1 0.0062600851425118342 1 1 1 1 1 1 1 1 1 1 0.0096730966639583683 1 1 1 1 1 1 1 1 1 0.0051576896943728249 1 1 1 1 0.0041902519167932879 1 1 1 1 1 1 1 1 0.01014119017682185 1 0.007166370724928095 1 1 1 0.010033727174448427 1 1 1 1 1 1 1 1 0.0079299421241283002 1 1 1 0.0071785864678493762 1 1 1 0.010230954137744556 1 1 0.01005608393261217 1 1 1 1 1 1 1 1 1 1 1 1 1 1 1 1 1 1 1 1 1 1 1 1 1 1 1 1 1 1 1 1 1 1 1 1 1 1 1 1 1 1 1 1 1 1 1 1 1 1 1 1 1 0.0096237048752560728 1 1 1 0.0097516827650546041 1 1 1 1 1 1 0.010022035870301949 1 0.0099466260575307788 1 1 1 1 0.0097654049369618641 0.009592121558669342 1 1 1 1 1 1 1 1 1 1 1 1 1 1 1 1 1 1 1 1 1 1 0.0057042795556141203 1 1 0.0064917282851955568 1 1 1 0.0099495254761064814 1 1 1 1 1 1 1 1 1 1 1 1 1 1 0.009597497861488247 1 0.0082341606300628725 1 0.0083022873077140992 1 1 1 1 1 1 1 1 1 1 1 1 1 1 1 1 1 0.0088037470307984807 1 1 1 1 1 1 1 1 1 1 1 1 1 1 1 1 1 1 1 1 1 1 1 1 1 1 1 1 1 1 1 1 1 0.0099155605349303937 1 1 1 1 1 1 0.0082786921121604743 1 1 0.010801564427074379 1 0.0099894807938120441 1 1 0.0080797690886884859 1 1 1 0.010135158464409464 1 1 1 1 1 1 1 1 1 1 1 1 1 1 1 1 1 1 1 1 1 1 1 1 1 0.0099300648676814273 1 1 1 1 0.0098811862020994415 1 1 0.0099510213355607502 1 1 1 1 1 1 1 1 1 1 1 1 1 1 1 1 1 1 1 1 1 1 1 1 1 1 1 1 1 1 0.010030959925133365 1 1 1 0.0099825874296583916 1 1 1 1 0.010112182833772604 1 1 1 1 1 0.010200783520000489 1 1 1 1 0.0098353540255336699 1 1 1 1 1 1 1 1 1 1 1 1 1 1 0.0099467492556470603 0.0098449431884190808 1 0.0093233682362883347 1 0.0095378320686282051 1 1 1 1 1 1 1 1 1 1 1 1 1 1 1 1 1 1 1 1 1 1 1 1 1 0.009687886751802861 0.010200049237653015 1 1 0.0099079484676870937 1 1 0.0095600731428460237 1 1 1 1 1 1 1 1 1 1 1 0.009714844548387138 1 1 0.0099123265174823842 1 1 1 1 1 1 1 1 1 1 1 1 1 1 0.0098838476742026029 0.0099932784020977695 1 0.0090072185527394523 0.010012146157013544 1 1 1 1 0.0099994088498881438 1 1 1 0.010326997403736002 0.0088578861989490436 1 1 1 1 1 1 1 0.010005194383098456 1 1 1 1 1 1 1 1 1 1 1 1 1 1 1 1 0.010102058599392224 1 1 1 1 0.010222653251915006 1 1 1 1 1 1 1 0.0089458456836108754 1 1 1 1 1 1 1 0.0091701725040682844 1 1 0.009664949699387285 1 1 1 1 1 1 1 1 1 1 1 1 1 1 1 0.009967724912985889 1 1 1 1 1 1 1 1 0.0099537922395826692 1 1 1 1 1 1 1 0.0099983416150131645 1 1 1 1 1 0.010010840388728213 1 1 1 1 0.0099242902579635851 1 1 1 1 1 1 1 1 1 1 1 1 0.01002015092305676 1 1 1 1 1 1 1 1 1 1 1 1 1 1 0.009664716801670567 1 1 1 1 1 1 1 1 1 1 1 1 1 0.0099987889154335655 0.010022516875679691 1 1 0.0091167178524524974 1 1 1 1 0.0095514487859196494 1 1 1 0.0093080337806928926 1 1 0.0099035463362086764 1 1 1 1 0.0091973198676029884 1 1 1 1 1 1 1 1 1 1 1 1 1 1 1 1 1 1 1 1 1 1 1 1 1 1 1 1 1 1 1 1 1 1 0.0099121138819915581 1 1 1 0.0098049168326926964 1 0.009880626574729108 1 1 1 1 1 1 1 1 1 1 1 1 1 1 0.0099635004128817047 1 1 1 1 1 1 1 1 0.0059469317833864607 1 1 1 0.0099957754998958055 1 1 1 1 1 1 1 0.0065460382108882657 1 0.0060130821989876175 1 1 1 1 1 1 1 1 1 1 1 1 1 1 0.0094978798010067998 1 1 0.009815517792297359 1 1 1 1 1 1 1 0.0060954314551967415 1 1 1 1 1 1 1 1 1 1 1 1 1 1 1 1 1 1 1 1 1 1 1 1 1 1 1 0.0094337389052304883 1 1 0.0040776383901203559 1 1 1 0.0047035746973958306 1 1 0.0082072750137365032 1 1 1 1 1 1 1 1 1 1 1 1 1 1 1 1 1 1 1 0.0093954919308806562 1 1 1 1 1 1 1 1 1 1 1 1 1 0.0097131299221712188 1 1 1 1 1 1 1 1 1 1 1 1 1 1 1 1 1 1 1 0.0096530743067010649 1 1 1 1 1 1 1 1 1 1 1 1 1 1 1 1 0.009977860192420281 1 1 0.0095963708622417987 1 1 1 0.0098457234173548337 1 1 0.010083080589502009 1 1 1 1 1 1 1 1 1 1 1 1 1 1 0.0089675594963512916 1 1 0.0083204905288411773 1 1 1 1 1 1 1 1 1 1 1 1 1 1 1 1 1 1 1 1 1 1 1 1 1 1 1 1 1 1 1 1 1 1 1 1 0.0088033128714821995 1 1 1 1 0.0089708475136007736 1 1 1 1 1 1 1 1 1 1 1 1 1 1 1 0.0077526378886698648 1 0.010021752839492682 0.0069643369493596462 1 1 0.0091682113332041092 1 0.0085979623939950005 1 1 1 1 1 1 1 1 0.0029501956899945676 1 1 0.0092631829496058003 1 1 1 1 0.0058192740166822538 0.0075253579448057994 1 0.0081437484670534039 1 1 1 1 1 1 1 1 1 1 1 1 1 1 1 1 1 1 1 1 1 0.0099662910132977175 1 1 1 1 1 1 1 1 1 1 1 1 1 1 1 1 1 1 1 1 1 1 1 1 1 0.0061697468720358119 1 1 1 1 1 0.0067632088097345014 1 1 1 1 1 1 1 1 1 0.0054937096829467506 1 1 1 1 1 1 1 1 1 1 1 1 1 1 1 1 1 0.0038016684056675484 0.0078475038336742204 1 1 0.0047370945449623347 1 1 1 0.0099446746085765803 1 1 1 1 1 1 1 1 1 1 0.0068742769702655436 1 1 0.010028280969335853 1 0.009002017920905811 1 1 1 1 0.0094733842183201897 1 1 1 0.0091773012773606662 1 1 1 1 1 1 0.0096571206496631392 1 1 1 1 1 1 0.009659611522030832 1 1 1 1 1 1 1 1 1 1 1 1 1 1 0.0099378173065566688 1 1 0.0098198167036528897 1 1 1 0.0098604703096494117 0.0099351152322035719 1 1 1 1 1 1 1 1 1 1 0.0065955329562923191 1 1 1 0.0065003205582084382 1 1 1 1 0.0098665367409796582 1 1 1 1 1 1 1 1 0.0085202594822692268 1 1 1 1 1 0.0093700480090775015 0.0071688542535234233 1 1 1 0.0061565643769287068 1 0.0097787701871272763 0.0099264973002999388 1 1 1 1 1 0.0068805248431145598 1 1 1 1 1 1 0.0098687261292441375 1 1 1 1 1 1 1 0.0097003122328139894 1 1 0.0095846526054774936 1 1 0.0099433710517982995 1 1 1 1 1 1 1 1 1 1 1 1 1 1 0.0095227032785037014 1 1 1 0.0099999884188382571 1 1 0.0096476187848268495 1 1 1 1 0.010000237583067961 1 1 1 1 1 1 1 1 0.0097403827542421779 1 1 1 1 0.0080142252284243539 1 1 1 1 1 1 1 1 0.0070941516429057876 1 1 1 1 1 1 1 1 1 0.0098116417840210055 1 1 1 0.0094085816752349349 1 1 0.0058854133340449557 1 1 0.0045217763871101668 1 1 1 1 1 1 1 1 1 0.0074609692194044699 1 1 1 1 1 1 1 1 1 1 1 1 1 1 1 1 0.010008221589891725 1 1 1 1 1 1 1 1 1 1 1 1 1 1 1 1 1 1 1 1 1 1 1 1 1 1 0.0071591486739489285 1 0.0070922599636834161 1 1 1 1 1 1 1 1 1 1 0.0072763153147931449 1 1 0.0099870154191688647 1 1 1 1 1 1 1 1 1 1 1 1 1 1 1 1 1 1 1 1 1 0.009131193256073044 1 1 1 1 1 1 1 1 1 0.0080756466176167968 1 0.010136467836704129 1 1 1 1 1 1 1 0.0093915972368520031 1 0.0096176113170504864 1 1 1 1 1 1 1 1 1 1 1 0.0083087300350105746 1 1 1 1 0.009999460805912937 1 0.0094464863356723862 1 1 1 1 1 1 0.0083120119972816368 1 1 0.0082211861000628071 1 1 0.0085009594790676317 1 1 1 0.0074357597327627438 0.0088912817319409219 0.0090691404864359122 1 1 1 1 1 1 1 1 1 1 1 1 1 0.0098875300498279979 1 1 1 1 1 1 1 0.0081200732883531437 1 0.0097004955482815538 1 0.0081670254379051684 1 1 0.0078961010128498835 0.0099997714125218684 1 1 1 1 1 1 0.0094404531703454961 1 1 1 1 0.0099425209279736804 1 0.0087984755905687884 1 0.0098889289735610668 1 0.0083648355968452721 1 1 1 1 0.0094981435794403261 1 1 1 1 1 0.0097816437834796609 1 1 1 1 1 1 1 1 1 1 1 1 1 1 0.0094579444355893817 1 1 1 1 1 0.0097316217234844279 1 1 1 0.0093052002131045197 1 1 1 1 1 1 1 1 1 1 1 1 1 1 1 1 1 0.0080261244322349344 1 1 1 1 0.0080584347789432794 1 1 1 1 1 1 0.010012279570167608 1 1 1 1 1 1 1 1 1 1 0.0089928634700506202 1 1 0.008563182612366535 1 0.010023409582075794 1 1 1 1 1 1 1 1 1 1 1 0.0093055081125842896 1 1 1 1 1 1 0.010088105604461894 1 0.01101280612840074 0.0087469193323724929 1 0.0094614388560588895 1 1 1 1 1 1 1 0.01034938485156519 1 1 1 1 1 1 1 1 1 1 1 1 1 1 1 1 0.0094422165190057444 1 1 1 1 1 1 1 1 1 1 0.0095006260400897734 1 1 1 1 1 1 1 1 1 1 0.0091268613871081181 1 1 1 1 0.009625351344097869 1 1 1 1 1 0.010083281748681923 1 1 1 1 0.010008220926749575 1 1 1 1 1 1 1 1 1 1 1 1 1 1 1 1 1 1 0.010293992799421404 1 1 1 1 1 1 1 1 0.010257154314624865 1 0.0096555804596618056 0.0099985517450573939 1 1 1 1 1 0.0098341242582298902 1 1 1 1 1 1 1 1 1 1 1 1 1 1 0.009850238157971208 1 1 0.0085729761068053037 1 0.0099862767879454906 0.010222109074642665 1 1 1 1 1 1 0.0099000898412136985 1 1 1 1 0.0099111107502270826 1 0.0095140093838968418 1 1 0.010185041741240486 1 1 1 1 1 1 0.010027854396219945 0.0097815639470357971 1 1 1 1 1 1 1 1 1 1 1 1 1 1 1 0.0096035435048285201 1 1 1 1 1 1 1 0.0099819004977015346 1 0.0098004640414572457 1 1 1 0.0099392603113999875 1 0.0097560753042862242 1 1 1 1 1 1 1 1 0.010007102716624236 1 1 1 1 1 0.0096230419940189146 1 0.0099863470748628516 1 1 1 1 0.0099612982947957836 1 1 1 1 1 0.0099761209984095874 1 1 1 1 1 1 1 1 1 1 1 1 1 1 1 1 1 1 1 1 1 1 1 1 0.0070189549014166314 1 1 1 0.0096804481736769664 1 0.006945275917281871 1 1 1 0.0098852322681525686 1 1 1 1 1 1 1 1 1 1 1 1 1 1 1 1 1 0.0097871251770254627 0.010020691882716329 0.0098868571759881136 0.0097552592053999285 1 1 1 1 1 1 0.01010070022416625 1 1 1 0.010329256927366571 1 1 1 1 1 1 1 1 1 1 0.0095067096622965669 0.0080903242184995477 0.0099365242743083542 1 1 0.00931321420402576 0.010000914703876639 1 1 1 1 1 1 1 1 1 0.0090283340882863893 1 1 1 1 1 1 1 1 0.0087455628323354403 0.0076601223502290317 1 1 1 0.0099355726849451164 1 1 1 1 1 1 1 1 1 1 1 0.0080247494838356255 1 0.009991657231254978 1 1 1 1 1 0.0099938717539235621 0.0092021366165618967 1 1 0.0097429337731133117 0.0086258075842427298 1 1 1 1 1 1 1 1 1 1 1 1 1 1 1 1 1 1 1 1 1 1 1 1 1 1 1 1 1 1 1 1 1 1 1 1 1 1 1 1 1 1 0.0096134491467334427 0.009880741175244517 1 1 1 1 1 1 1 1 1 1 1 1 1 1 1 1 1 1 1 1 0.0098150061954999403 1 1 1 1 1 1 1 1 1 1 1 1 1 1 1 1 0.0099632398062784334 1 0.0096188888936812392 1 1 1 1 1 1 1 1 0.0095546930104694391 1 1 1 1 1 1 1 1 1 1 1 0.010001450739657261 1 1 0.0061159418704846216 1 1 0.0078696026996788789 1 1 1 1 0.0059194079304147381 1 1 1 1 0.010008829665134222 1 1 0.0054497108043281874 1 0.0096812146551969042 1 1 1 1 1 0.008819478056228864 1 1 1 1 1 1 1 0.0096383580540299711 1 1 1 1 1 1 1 1 1 1 1 1 1 1 1 1 1 1 1 1 1 1 1 1 0.01039838984996753 1 1 1 0.010001569898262792 1 1 0.010627258027897539 1 1 1 0.0098570996731074754 1 1 1 1 0.01008559631208982 1 0.010833420258687313 1 1 1 1 1 1 1 1 0.0099909238923103372 1 1 1 1 1 1 1 1 1 1 0.0049723542014736156 1 1 0.0099928296574654588 1 1 0.0076066135101983141 1 1 0.0079654322234966671 0.010401597357254065 1 1 1 1 1 1 1 0.0096502007631270644 0.011286451390048576 1 1 1 0.0093395029936127749 1 1 0.0095062735962413471 0.0084873501295386101 1 1 1 0.0090352322738373007 0.010489398029058015 1 0.0095948812565371279 1 1 0.0099921926574704813 1 1 1 1 0.011785311774091773 1 0.0082309284160220486 0.0090800918833082774 1 1 1 0.010196920817294734 1 0.0088284858367086803 0.0094612174841282089 1 0.010470549503307773 0.010267863698348175 0.0099464778419889634 0.010872322130022595 1 0.010312600782290845 1 0.0095299556379637961 1 0.010292312990243494 1 1 1 0.010130133674705092 1 1 0.0096563545455951305 1 0.010416786065442857 0.0090518819668022159 1 1 1 1 0.009888542217323543 1 0.0096588061257964104 0.0093535893290938605 1 1 1 0.0095654569849647451 0.009595296356064837 1 1 0.0088746228279332155 0.0096265532021921479 1 1 1 1 0.010012675457611021 1 1 1 1 0.0099154567941715285 1 1 1 1 0.010059274108332598 1 0.0077457179434894143 1 0.010225683750259642 1 0.0095139571166209351 1 0.0087365622074077002 1 0.010000766838121549 1 1 1 1 1 0.010040535522457402 1 1 0.0085820776941308522 0.0099997522238184384 0.0098166710525820645 1 1 0.009911218209010652 0.0098020592872285484 1 0.0092408991255595249 1 1 0.0092714581505040968 1 1 1 1 1 1 0.0091367244929240164 1 1 0.0098199508734492045 1 0.0096547335347558008 1 1 1 1 0.0092634500796039895 1 0.010025086591599779 1 0.0097503607902701683 1 1 1 0.0099788164341637585 1 1 0.0090280564989774006 1 0.0095182740973940496 1 0.0087879570758404579 1 1 1 1 1 0.0095875321591934008 1 1 1 1 1 1 1 1 1 1 0.0095968537271418786 1 1 1 1 0.0098398536987489259 1 1 0.0096833298067915269 1 1 1 1 1 0.010131296122000581 1 1 0.010807427841267675 1 1 1 0.0090506315674135258 1 0.0099099289957161156 1 1 1 0.0094736496778503026 1 1 1 1 0.0080063970020183006 1 1 1 1 0.0074179787614532299 0.0098749758227766916 1 1 1 1 1 1 0.0095691000843262861 1 1 0.0088997613119924501 1 1 1 1 1 1 1 1 1 1 1 1 1 1 1 1 1 1 1 1 1 1 1 1 1 1 1 1 1 1 1 1 1 1 1 1 1 1 1 1 1 1 1 1 1 1 1 1 1 1 1 1 1 1 1 1 1 1 0.0091854681218235777 1 1 1 1 1 1 1 1 1 1 1 1 0.012006486511557116 1 1 0.0094800494656692661 1 1 1 0.0099136910320933233 1 1 1 1 1 1 1 1 1 1 1 1 1 1 1 0.0077103295898888913 1 1 1 1 1 1 1 1 1 1 1 1 1 1 1 1 0.0098902615349372204 1 1 1 1 1 1 1 1 1 1 1 1 1 0.0082763961284871915 1 1 0.0099021308641342454 1 1 0.0091549523212519808 1 0.0075841562742239646 1 1 1 1 1 1 1 0.0073989617937059923 1 1 1 1 1 1 1 1 1 1 1 1 0.009988994527695149 1 1 1 0.0098543997034048515 1 1 1 1 1 1 1 1 1 0.0099662966916134396 1 1 1 1 1 1 0.0066352741958288549 1 1 1 1 1 1 0.0069493771487983301 1 1 1 0.01019498776296506 1 1 1 1 1 1 1 0.010511539004700088 1 1 1 1 1 1 1 1 1 1 0.0066325573969386771 1 1 1 1 1 1 1 1 1 1 1 1 1 1 1 1 0.0090454105410456651 1 0.0099792918953066564 1 1 1 1 1 1 1 1 1 1 0.010675419587556472 1 0.0090223998452390458 1 1 1 1 1 1 1 1 1 1 1 0.00678706631775766 1 1 1 1 1 1 1 1 1 1 1 0.0066294594661608182 1 1 1 1 1 1 1 0.0099715319378264732 1 1 1 1 1 1 1 0.0099851547694504057 1 1 1 1 1 1 1 1 1 1 1 0.010231795067191261 1 1 1 1 1 1 1 1 0.0070915630113229091 1 0.010712982882214089 1 1 1 1 1 1 1 1 1 1 0.0097815979999422865 1 1 1 0.0095539823446408427 1 1 1 1 1 1 1 1 1 0.0080324171862118116 1 1 1 1 1 1 1 1 1 1 1 1 1 1 1 1 0.0096780612406502479 1 1 1 1 1 1 1 1 1 1 1 1 1 1 1 1 1 1 0.0098179869575362629 1 1 0.0096638137965822397 1 1 0.0097873178613153353 1 1 1 1 1 0.0096273566987032967 1 1 1 1 1 1 1 1 1 1 1 1 1 1 1 1 1 1 1 1 1 1 1 1 1 1 1 1 1 1 1 1 1 1 1 1 1 1 1 1 1 1 1 1 1 1 1 1 1 1 1 1 1 1 1 1 1 1 1 0.0099323455073105967 1 1 0.0097649311017204352 1 1 1 1 1 1 1 1 1 1 1 1 1 1 1 1 1 1 1 1 1 1 1 1 0.010138438508439002 0.009758457631077494 1 1 1 1 1 1 1 1 1 1 1 1 1 1 1 1 0.01001095853049405 0.0096586133760405615 1 1 1 1 1 1 1 0.0093741271224119932 1 0.0098666198831621164 1 1 0.0093917848534701108 0.010007366792432438 1 1 1 1 1 1 1 1 1 1 1 0.0099988713445650704 1 0.01130147741541376 1 1 1 0.010917724735388429 1 1 1 0.0093288348979065749 1 0.0093286530491375162 1 1 1 1 1 0.0092644121312575028 0.0090052658304833541 1 1 1 1 1 1 1 1 1 1 1 1 1 1 1 1 1 1 1 1 1 1 1 1 1 1 1 1 1 1 1 1 1 1 1 1 1 1 1 1 1 1 1 1 1 1 1 1 1 1 1 1 1 1 1 1 1 1 1 1 1 1 1 1 1 1 1 1 1 1 1 1 1 1 1 1 1 1 1 1 1 1 1 1 1 1 1 1 1 1 1 1 1 1 1 1 1 1 1 1 1 1 1 1 0.0094559722036581875 0.01006991836395223 1 0.0080727280156608575 1 0.009637308751934047 1 1 0.0096845217160903847 1 1 1 1 0.010078591502766339 1 1 1 1 1 1 1 0.0074605943904946315 0.010221882953051382 0.0098513028377090282 1 1 1 1 1 0.0076216105711271976 0.0097406879413485491 1 1 1 1 1 1 1 1 1 1 1 1 1 1 1 1 1 1 1 1 1 1 1 1 1 1 1 1 1 1 1 1 1 1 0.0088755515746313796 1 1 0.0095982088272092494 1 1 1 1 1 1 1 1 1 1 1 0.0098187741790281193 1 1 1 1 1 1 1 0.0095920205675834973 1 1 1 1 1 1 1 1 1 1 1 1 1 1 1 1 0.0076590037812358808 1 1 0.0085317209608978487 1 1 1 1 1 1 1 1 1 1 1 1 1 1 1 1 1 1 1 1 1 1 1 0.010094020657738168 1 1 0.009973214774985327 1 1 0.0097847323682941842 1 1 1 1 1 1 1 0.0095579787568495621 1 1 1 1 1 1 0.0098007699214721512 1 1 0.0095221275319744784 1 1 1 1 0.009904882436119769 1 0.010051763174540934 1 1 0.0085463578908918179 1 1 1 1 0.0097116884597957288 1 0.0088492224859439694 1 1 0.0091288503282950257 1 1 1 1 1 1 1 1 1 1 1 1 0.0082965484783806259 1 1 1 0.0093475317352245905 1 1 0.0093535331437592326 1 1 1 1 0.009998466089829872 1 1 1 1 1 1 1 1 1 1 0.010011475923839094 1 1 1 1 1 1 1 1 1 1 0.0098548890290872763 1 1 1 1 1 1 1 1 1 1 1 1 0.0093567981958712371 1 1 0.010425261370234052 1 1 1 1 1 1 1 1 1 1 0.0098282925995151968 1 1 1 1 1 0.010155782937374343 1 0.010103143715194017 0.0099576295000831927 1 1 0.010041752957926951 1 1 1 1 1 1 1 1 1 0.0098913816886960632 0.010281601856258317 1 1 1 1 1 1 0.0098895434435314379 1 1 1 1 1 1 1 1 1 1 1 1 1 1 1 1 1 1 1 1 1 1 1 1 1 0.0099804889886272435 1 1 1 1 1 1 1 1 1 1 1 1 1 1 1 1 1 1 1 1 1 1 1 1 1 1 1 1 1 1 1 1 1 1 1 1 1 1 1 1 0.0097619460069204335 1 1 1 1 1 1 1 1 1 1 0.0099645301061353411 1 1 1 0.010111997466843995 1 0.010146441763360266 1 1 1 0.0092078850664305389 1 1 1 0.0099890467897771808 1 0.010029042610728282 1 0.0095629137999959316 1 0.010261610408238694 0.0096906930869242805 1 1 0.0092468785301200208 1 1 1 0.010018766716200802 1 1 1 1 1 0.010016015477339425 1 1 1 1 0.0095072953141231691 1 1 1 0.0098077255487197638 1 1 1 1 0.0093158996489327711 1 0.01000688836493553 1 1 1 1 1 1 1 1 1 1 1 1 1 1 0.0099230527997996171 1 1 1 1 0.0097346122017267396 1 1 0.010014386888647836 1 1 0.010617324872320286 0.0099935503934465396 1 1 0.010268105569425159 1 0.0097270493562872391 1 1 1 0.010061651695691464 0.010215335026751027 0.009868240793920206 0.010037847475775833 1 1 0.0094282440921059241 1 1 1 1 0.010902881101145243 1 0.0082933817410976145 1 1 0.010078113390859855 0.010180488752571491 0.010000450341610885 1 0.0098377752158554047 1 1 0.0095617362578176001 0.0097953363807335003 0.010173130054795672 1 1 1 1 1 1 1 1 1 0.0096173432296192529 0.0084682753829302716 1 1 1 1 0.0086166134885388521 0.0096571135974156102 1 1 1 0.0049904976738035537 1 0.0055249132281574012 1 1 1 1 1 1 1 1 1 1 1 0.0046440703905239215 1 1 1 1 1 1 1 1 1 1 1 1 1 1 1 1 1 1 1 1 1 1 1 0.0098519586623517039 1 1 1 1 1 1 1 1 1 1 1 1 1 1 1 1 0.0032088456472459566 1 1 0.0096003175978988421 1 1 1 1 1 1 1 1 1 0.0095045224367080357 1 1 1 0.0086600753929996499 0.009571248759253418 1 1 0.010004395271013536 1 1 1 1 1 0.0098816062549855581 1 0.0099207002676780752 1 1 1 0.0094912876051766546 1 1 1 1 1 1 1 0.0094814348401354928 1 1 0.009975762921240694 1 1 1 1 0.0094776754560662139 1 1 1 0.0099452176158950668 0.0099951998618416204 1 1 0.0091579983738276777 1 1 1 0.0042855812122562283 1 1 1 1 1 1 1 0.010167217804603355 1 1 0.0045699366918932997 1 0.00963965793783003 0.0068886232241216752 0.009600725793466592 1 0.0099841406660946229 1 0.0061541735870523605 0.0066145888187970269 1 1 1 1 1 1 0.0034802720405219621 1 1 0.0038510048336198015 1 1 1 1 1 1 1 1 1 1 1 1 1 1 1 1 1 1 1 1 1 1 1 1 1 1 1 1 1 1 1 1 1 1 1 0.0099610546865635495 0.0057170353607094038 1 1 1 1 1 1 1 1 0.0098889915376193741 0.010495688301188853 0.0056474554740041424 0.0055928509179879824 1 1 0.01110717225122782 1 1 1 1 1 1 1 1 0.011028392499786134 1 1 0.0098811505097177541 1 1 1 0.010152048905180615 1 1 1 1 0.01026740040592518 1 1 1 1 1 1 1 1 1 1 1 1 1 1 0.0097953646354312571 1 1 1 1 1 0.0068722596186182568 1 1 1 1 1 1 1 1 0.0090848653269311082 1 1 1 0.010464989391706672 0.0082300196875219524 1 1 0.0082611884945942311 0.010549682522507396 1 1 1 1 1 0.010000780803391333 1 1 1 1 1 1 0.010093312781494728 1 0.0047167028798166264 1 1 1 1 1 1 1 1 0.0090142972218873289 0.0085761983621228562 1 0.0061099918282349532 0.0095951556556553505 0.0053050994328089837 1 0.0083724532136333768 1 1 1 1 1 1 0.008768755682886176 1 1 1 1 1 1 1 0.0091707840665978813 1 1 1 1 1 1 1 1 1 1 1 1 1 1 1 1 1 1 1 1 1 1 1 1 1 1 1 1 1 1 1 1 1 1 1 1 1 1 1 1 1 1 1 1 1 1 1 1 1 1 1 1 1 1 1 1 1 0.0098011038567622725 1 1 1 1 1 1 1 0.0093900787990290457 1 1 0.0060522627499572518 1 1 1 0.011519049904659668 1 0.0099989460806504046 1 1 0.010102392903164005 1 1 1 1 1 1 1 0.0079198212597926948 1 1 1 0.0098056282913066457 1 1 1 1 1 1 1 0.010317695664682039 1 0.0100205556113196 1 1 1 1 1 1 1 1 1 1 1 1 1 1 1 1 1 1 1 1 1 1 1 1 1 0.0099557232170819753 0.0068217543165336406 1 0.0064899033500088188 1 1 1 1 1 1 1 0.009988479112392732 1 0.0097666502433467871 1 0.0093156247347690509 0.010418257130927311 0.0067120999571756773 1 1 0.0061645639710837339 1 1 0.0085847392358816867 1 1 1 0.0093931694077209818 1 1 1 1 1 1 1 0.010420809028411988 0.0083892237029348799 1 1 0.0092211109382514742 1 1 1 0.0097137594294451658 1 1 1 1 0.01006457189865221 1 0.0085295304739363646 1 1 1 1 1 1 0.0097575005747348766 1 0.0097368962232198888 1 1 1 1 1 0.0092189631381128928 1 1 0.0095259082591756857 1 1 1 1 1 1 1 1 1 1 1 1 1 1 1 1 0.010017722996691358 1 1 0.0092461415041964687 0.010002605587943979 1 0.0099956982892475919 1 1 1 1 1 1 1 1 0.009914986995237662 1 1 1 1 1 1 1 1 1 1 1 1 1 1 1 1 0.0072158147432765246 1 1 1 0.0096916237851312152 1 1 0.0063790974287292277 1 1 1 1 1 1 0.00628436888909591 1 1 1 1 1 1 1 1 1 1 1 1 1 1 1 1 1 1 1 0.010503578145162439 0.0099873939161699687 1 1 1 1 1 1 1 0.010144183534887998 1 1 1 0.0099997528601904473 1 1 0.010210007648231906 1 0.010376376850578866 1 1 0.010416424087886723 1 0.0098380247751714434 0.008432240183464737 1 0.010569637836687559 1 0.0090708234654040629 1 0.0087803724505892931 1 1 1 1 1 1 1 1 1 1 1 1 1 1 1 0.0097922684050645234 0.010086800530099457 1 1 1 1 1 1 1 0.009393567585555606 1 1 1 1 1 1 1 1 1 1 1 1 1 1 1 0.0097612432622403017 1 0.0098251239332426757 1 1 1 1 1 1 0.0096067787403357145 1 1 1 0.0090909573868540716 1 1 1 0.0096225004676940337 1 1 1 1 1 1 1 1 1 1 1 1 1 1 1 1 1 1 1 1 1 0.010060869863996706 1 1 1 1 0.0088606698782386951 1 1 1 1 1 0.007739181896517797 1 1 1 0.0080076964588660354 1 1 1 1 1 1 1 1 1 1 1 1 0.010015364267705593 1 1 1 1 0.0084141457369287416 1 1 1 1 1 1 1 1 0.0091972272062655885 1 1 1 1 1 1 1 0.0094485288065028501 1 1 1 1 0.0096903806222854612 1 1 1 1 1 1 1 1 0.009332813558521098 1 1 1 1 1 1 1 1 1 0.0097152419404205968 1 1 1 1 1 1 1 1 1 1 1 1 1 1 1 1 1 1 1 1 1 1 1 1 1 1 1 1 0.0098586710766620563 1 1 1 1 1 1 1 0.0087947421189408653 1 1 1 1 1 1 1 1 1 1 1 1 1 1 1 1 1 1 1 1 1 1 1 1 1 1 1 1 1 0.0097973765344513582 1 1 1 1 1 1 1 1 1 1 1 1 1 1 1 1 1 1 1 1 1 1 1 1 1 1 1 1 1 1 1 1 0.0099495535137792829 1 1 0.0099737905925385856 1 1 1 1 0.0065239361445560608 1 1 0.0063260520172348875 1 1 1 1 0.0065361639156556652 1 1 1 0.0066066172233662755 1 1 1 0.0097170956871793033 1 1 1 1 1 1 1 1 1 1 0.0091690502731159758 1 1 0.0088215170663485283 1 1 1 1 1 1 0.0035937615343361422 1 1 1 1 1 0.0087403311994243994 1 1 1 1 0.0087405934599469499 1 1 1 1 1 1 1 1 1 1 0.0088688516186635584 1 1 1 1 1 1 1 1 1 0.0096429520529771624 1 1 1 1 1 1 1 1 1 1 1 1 1 0.0036791080907680306 1 1 1 1 1 1 1 0.0087163399888505778 1 1 1 1 1 0.0095814370083543675 1 1 1 1 1 1 1 1 1 1 1 1 1 1 0.0093361143475916373 1 1 1 1 1 1 1 1 0.0090231776942361029 1 1 1 1 1 1 1 1 1 1 1 1 1 1 1 1 1 1 1 1 1 1 1 1 1 1 1 1 1 1 1 1 1 0.0095091333181419428 1 1 1 1 0.0091685159503008609 0.0090040808014455465 1 1 0.0079996722018453054 1 1 0.0090069510054426524 1 1 0.0057991321768409449 1 1 1 1 1 1 1 1 1 1 1 1 1 1 1 1 1 1 1 0.0047709837667306663 1 1 1 1 0.004039232515018757 1 1 1 1 1 1 1 1 1 1 1 1 1 1 1 1 1 1 1 1 1 1 1 1 1 1 1 1 1 1 1 1 1 1 1 1 1 1 1 1 1 1 1 1 1 1 1 1 1 1 1 1 1 1 1 1 1 1 1 1 1 1 1 1 1 1 1 1 1 1 1 0.0093438417244943103 1 1 1 1 0.0097546249947509673 1 0.0098654038702328372 1 1 0.0093428875211700423 1 1 1 1 0.0099683914032465369 1 1 0.0099595252642399983 1 1 1 1 1 1 1 1 1 1 1 1 1 1 1 1 1 1 1 1 1 1 1 1 1 1 1 1 1 1 1 1 1 1 1 1 1 1 1 1 1 1 1 1 1 1 1 1 1 1 1 1 1 1 1 1 1 1 1 1 0.010043179354571313 1 1 1 1 1 1 1 1 1 0.009808570613330533 1 1 1 1 1 1 1 0.0095725243537471954 1 1 1 1 1 1 1 1 1 1 1 1 1 1 1 1 1 1 1 0.0045447180290519029 0.0077167308645704541 1 1 0.01001385023341003 1 0.0099913563338497532 1 1 1 1 1 1 1 1 1 1 1 1 1 1 1 1 1 1 1 1 1 1 1 1 1 1 1 1 1 1 1 1 1 1 1 1 1 1 1 1 1 1 1 1 1 1 1 1 1 1 1 1 1 1 1 0.0070027947479605439 0.0067907034426129692 1 1 1 1 1 1 1 1 1 1 1 1 1 1 1 1 1 1 1 1 0.0099634998156656954 1 1 1 1 1 1 1 1 1 1 0.0099888911207391476 1 1 1 0.010115066304384263 1 1 1 1 1 1 0.009986712824049249 1 1 1 1 1 1 1 1 1 1 1 1 1 0.010158821482906179 1 1 1 1 1 1 0.009997824151447272 0.010075294449187215 1 0.0091398452946758087 1 1 0.0099532085861532889 1 1 1 0.009112001356767584 1 1 1 0.0091223469712756414 1 1 1 1 1 0.0099521712601641117 1 0.010207568808003241 1 1 1 1 0.0089657992909575809 1 1 1 1 0.010083008887688965 1 0.01001500348979549 1 1 0.0099748957637804288 0.0099842913854252206 1 1 1 1 1 0.0099598647720108291 1 1 1 1 1 0.0099167905427402069 0.010020701551418038 0.0097734218237786833 1 0.0095009193155797932 1 0.010002698389276426 1 1 1 1 1 0.0099855758033927638 1 1 1 1 1 1 1 1 0.010004055004890034 0.0094720431014152819 1 1 0.009723341718521265 1 1 1 1 0.0092198305430128188 1 1 0.0099319696279727959 1 1 0.0099394486990333642 1 1 1 1 1 1 1 1 1 0.0099498737140690102 1 1 1 1 1 1 1 1 0.0098826707179001504 1 1 1 1 1 1 1 1 1 0.010029560402142895 0.0098278560371477686 1 1 1 1 1 1 1 1 1 1 1 1 1 1 1 1 1 1 1 1 1 1 1 1 1 1 1 1 1 1 1 1 1 1 1 0.0099951635100060526 1 1 1 1 0.0099781822466927135 1 1 1 1 1 1 1 1 1 1 1 1 1 1 1 1 0.0096406818199083304 0.0088834256794763401 1 1 1 1 1 1 1 1 1 0.0090957506490184931 1 1 1 1 0.009607365261962441 1 1 0.0096786575745489087 1 1 1 1 1 1 1 1 1 1 1 1 1 0.0099388386032455804 1 1 1 1 1 1 1 1 1 1 1 1 1 1 1 1 1 1 1 1 1 1 1 1 1 0.0095659738399425549 1 1 1 1 1 0.01000828625270184 1 1 1 0.0089259905296130634 1 1 1 0.010500422913221735 0.010006043863723266 1 1 1 1 1 1 1 1 1 1 1 1 1 1 0.0093593247220322591 1 1 1 0.0078141830449505977 1 1 1 1 0.0090943943023799722 0.0093574306052800291 1 1 1 1 1 1 1 1 1 1 1 1 1 1 1 1 1 1 1 1 1 1 1 0.0093785699297535101 1 1 1 1 1 1 1 1 1 0.010174950039558255 1 1 1 1 0.0097752770891196463 1 0.010109008417892369 1 1 1 1 0.010013927860260563 1 1 1 1 1 1 1 1 1 1 1 1 1 1 1 0.0099502738869710165 1 1 0.0098670646912549422 1 1 1 1 1 1 1 1 1 1 0.010186995320153949 0.010198008715674826 1 1 1 1 0.0090739937055391816 1 1 1 0.0088434248506130547 1 1 1 1 0.0097512602793975705 0.0099094553523920593 1 0.0097736408543665637 1 0.010254424700491194 1 0.0078459020406248664 1 1 0.010146201449369818 1 1 0.0082916314653023546 1 1 0.010288413083908219 1 1 1 0.009341377620193549 1 1 0.010000005078402287 1 0.0098914439030797965 1 0.0091770575411356491 1 1 0.00985691609965628 1 1 1 1 1 1 1 1 1 1 1 1 1 0.010042905905981817 1 1 1 1 1 1 1 1 1 1 1 1 1 1 1 1 0.010410956073601225 0.010712243428188641 1 1 1 1 1 0.0095069269367962402 1 1 1 1 0.0093620226769070732 1 1 0.01102682726328149 1 1 1 1 0.0097955654948888374 1 1 1 1 1 1 1 1 1 1 1 1 1 1 1 1 1 1 1 1 1 1 1 1 1 1 1 1 1 1 1 1 1 1 1 1 1 1 0.0099282064559803561 1 1 1 1 1 1 1 1 1 1 1 1 1 0.01015160419779727 1 0.009914443488365534 1 1 1 1 0.010117319168834384 1 1 1 1 1 1 1 1 1 1 1 1 1 1 1 1 1 1 0.010069054263451291 1 0.01002325533050517 1 1 0.010099554132587103 1 1 1 0.010093704771445484 1 1 1 1 1 1 1 1 1 1 1 1 1 1 1 1 1 1 1 1 1 1 1 1 1 1 1 0.0099261211965826594 1 1 0.009837119104121746 1 1 1 1 1 1 1 1 1 1 1 1 1 1 1 1 1 1 1 1 1 1 1 1 1 1 1 1 1 1 1 1 1 1 1 0.0099089126481413884 1 0.0096854679953812528 1 1 1 1 1 1 1 1 1 1 1 1 1 1 1 1 1 0.0097636712908182356 0.0094980669504201413 1 1 1 1 1 0.0098435255504262485 1 1 1 1 0.0096358682813213956 1 1 1 1 0.0098724461241929268 1 1 1 1 1 1 1 1 1 1 1 1 1 1 1 1 1 1 0.0097343956596019077 1 1 1 1 1 1 0.0097123905305656535 1 1 0.0092642080284202726 1 1 1 1 1 1 1 1 1 1 1 1 0.0098042172066098356 1 1 0.0097520004522443395 1 1 1 1 1 1 1 1 0.0099246628785584351 1 1 1 1 1 1 0.009856951202689106 1 1 0.0096492939335842513 1 1 1 1 1 1 1 1 1 1 1 1 1 1 1 1 1 1 1 1 1 1 1 1 1 1 1 1 1 1 1 1 1 1 1 1 0.0099540979310892841 1 1 1 0.009939159277457638 1 1 0.0098654981587879623 1 1 1 1 1 1 0.0098673390334232947 1 1 1 1 1 0.0099418005748772992 1 1 1 1 1 1 0.0099520317523327378 1 1 1 1 0.0092795233007059597 1 0.0094358145649029029 1 1 0.0096289965757761619 1 1 1 0.0099850613463683454 1 1 1 1 1 1 1 1 1 1 1 1 1 0.0099524482602636605 1 1 1 1 1 1 1 1 1 1 1 1 1 1 1 1 1 1 1 1 1 1 1 1 0.010000350193726245 1 0.010000827933347532 1 0.010013327045868296 1 0.010112908474989879 1 1 1 1 0.0099809091633354368 1 1 1 1 0.0098779894008393602 1 1 1 1 1 1 1 1 1 1 1 1 1 1 0.0096508406250856126 1 1 1 0.0094974586061173302 1 1 1 0.0098541581689506937 1 1 0.0097187068006177133 1 1 1 0.009733278146010646 1 1 1 1 0.0098653692576007607 1 1 1 1 0.0097755082657062509 1 1 1 1 1 1 1 1 1 1 0.0075143334888409224 1 1 1 1 1 0.007489906744421803 1 0.0099921145456844836 1 1 1 1 1 0.0096118998872404826 0.0083836557609663753 1 1 0.0091066565277033613 1 0.0099994436360099533 1 1 0.0099713454147480479 1 1 1 1 1 1 1 1 1 1 1 1 1 0.010321507570806585 1 1 1 1 1 0.0075679947947343926 1 1 1 1 1 1 1 1 1 1 0.0099431315781473694 1 0.0093963192645181368 1 1 0.0091471177207987382 1 1 0.010025014886789798 1 0.0084167778766009744 1 0.01037449356700916 1 1 1 1 1 0.010102607843494735 0.010284348625346785 1 1 1 1 1 1 1 1 1 1 1 0.010049913237263685 1 1 1 1 1 0.010002364782589493 1 1 1 0.0077837323379128867 1 0.0099655018322895809 1 1 1 1 1 1 1 1 1 1 1 1 1 1 1 0.010004892254720638 1 1 1 1 0.010013881450408416 1 1 1 1 1 1 1 1 1 1 1 1 1 1 1 1 1 1 1 1 1 1 1 0.010008989195687781 1 1 0.0087154392664604754 1 1 1 1 1 1 1 0.0085308082254828919 1 1 0.009568425845738672 1 0.0090222718276591393 1 1 1 1 1 1 1 1 1 0.009595661232255975 1 1 0.0079964877459400355 1 1 1 0.008201588687052527 1 1 1 1 1 1 1 0.009912930774568297 1 1 1 1 0.0083813187882084729 0.010216481991184372 1 1 1 1 1 1 1 1 1 0.01007992666607853 1 1 1 1 1 1 1 1 1 1 1 1 1 1 1 1 0.0098547161259255455 1 0.0099480309380985139 1 1 1 0.0095371500977499309 1 1 1 1 1 1 1 1 1 1 1 1 1 0.0098405079838592927 1 1 1 1 1 0.0095440843803248354 1 1 1 0.0098468236526045652 0.0098573762581557096 1 1 1 0.0095033818684738206 1 1 0.0098968886700357105 1 1 1 1 0.0065537587771324762 0.0099839032595816571 1 1 1 0.01035552460150739 1 1 0.010090706915733105 1 1 1 1 0.0070369484119457461 1 0.0050282160704826946 1 1 1 0.0059012637308359754 1 1 1 1 1 1 1 1 1 1 1 1 1 1 1 1 1 1 1 1 1 0.0098084407146811076 1 1 1 1 1 1 1 1 1 0.0078782124840474817 1 1 1 0.0081266232570853941 1 0.008135488422609435 1 1 1 1 1 1 1 1 1 1 1 0.0081336697524398809 1 1 1 1 1 0.0065960644715410185 1 1 1 1 1 0.0090555577396226362 1 1 1 1 1 1 1 1 1 1 1 1 1 1 1 1 0.0089411295356703162 1 1 1 1 1 1 1 1 1 0.0091925574031123877 1 1 1 1 1 1 1 1 1 1 1 1 1 1 1 0.0098976455263651824 1 1 1 1 1 1 1 1 1 1 1 1 1 1 1 1 1 1 1 1 1 1 1 1 1 1 1 1 1 0.0080508613815457701 1 1 1 1 0.0091364064680688698 1 0.0089948825046871107 0.0099984527652063355 1 1 1 1 1 1 0.0099348474502504742 1 0.01027823920494301 1 1 1 0.0099888221225292676 1 1 0.0088841021207142663 1 1 1 1 1 1 0.0099723759609993672 1 1 1 1 1 1 1 0.00994297333829091 1 1 1 1 0.0098924290360846365 1 1 1 1 1 1 0.009389968911016771 1 1 1 1 1 1 1 1 1 1 1 1 0.0098165059002059598 1 0.0096566907650061252 1 1 1 1 1 1 1 0.0095753407866006942 0.0097078201841051294 1 1 1 1 1 1 1 1 0.0098959541016843521 1 1 1 0.009586511373171281 1 1 0.0098461241927489673 1 1 1 1 1 1 1 1 1 1 1 1 1 1 1 1 1 1 1 1 1 1 1 1 1 0.0099589261331895201 1 1 0.0099857253228106766 1 1 1 1 1 0.0098538835915993224 1 1 0.0095559775689218005 1 0.0087193106706298963 1 1 1 0.010021216101783763 1 1 1 1 0.0093776477928925739 1 1 0.0102193701665795 0.0090958339547940158 1 1 1 1 1 0.0099890741784833866 1 1 0.010029471026954791 1 1 1 1 1 0.010008595082057984 1 1 1 1 1 1 1 1 1 0.0099900572385516369 1 1 1 1 0.010008562159688686 1 1 1 1 1 1 0.0080422198046958722 1 0.0085074944014229686 1 1 1 0.010460698557895559 1 0.0070660842928474982 1 1 0.0080720083999067521 1 0.010049618082377035 1 1 1 0.010020824643402574 1 1 1 1 1 1 1 1 1 1 1 1 1 0.0062387215969520998 1 1 1 1 0.0060551888141975839 1 1 1 1 1 1 0.010186647580007341 1 1 1 1 1 1 1 0.0096662318132386023 1 1 1 1 1 1 0.0090848003096275047 1 1 1 1 1 1 1 0.0086611772809820717 1 1 0.0098760788727959171 1 1 1 1 1 1 1 1 1 0.0099221892099330966 0.010015783326940603 1 1 1 1 1 1 1 1 1 1 1 1 0.0099769082805180945 1 1 1 1 1 1 1 0.009746726132529011 1 1 1 0.0099987109894917967 1 0.0095532689914735267 1 1 0.010102907164442034 1 1 1 1 1 0.010237666403710691 1 1 1 0.0091482205487554112 1 1 1 1 0.0078070562848518137 1 1 1 0.010044932464399099 1 1 1 1 1 1 1 0.0098276760803730056 1 1 0.0099036545415105929 1 1 1 0.0065018604726221063 1 1 1 0.0068413047936164307 1 1 1 1 0.0103174771965431 1 1 1 0.010106499417290648 1 1 1 1 1 1 1 1 1 0.0064528826009153193 1 1 1 1 1 1 1 1 1 0.0069793173978278146 1 1 1 1 0.0087540059997746264 1 1 0.0082109907495492417 1 1 1 1 1 1 1 1 1 1 1 1 1 1 1 1 1 1 1 1 1 1 1 1 1 1 0.0099725700009834217 1 1 1 1 1 1 1 1 1 1 1 0.009979410993915399 1 1 1 0.010160344764434788 1 1 1 1 1 1 0.010072263808652612 1 1 1 1 1 1 1 1 1 1 1 1 1 1 1 1 1 1 1 1 1 1 1 1 1 1 0.0076318430323209022 1 0.011816927217568296 1 1 0.0094852406184989281 0.010496688680025233 1 1 1 1 1 1 1 1 1 1 1 1 1 1 1 1 1 0.0091230203910800875 1 1 1 1 1 1 1 1 1 1 1 1 1 1 1 1 1 1 1 1 1 1 1 1 1 1 1 1 1 1 1 1 1 1 1 1 1 1 1 1 1 1 1 1 1 1 1 1 1 1 1 1 1 1 1 1 1 1 1 1 1 0.010296912040915823 1 1 0.010746754792765307 1 1 1 1 0.011188170362237885 1 1 1 1 1 1 1 1 1 1 0.0099984790498915052 1 0.006802983797539271 1 1 1 0.0095776169306044864 1 1 1 0.010007668835268392 1 0.010032074871055919 1 1 1 0.0096933086546615709 1 0.0099543141414542499 1 0.0094719982030529379 1 1 1 0.00868890613654133 1 1 1 1 0.0099774058609361626 1 0.0092311926914847939 1 1 1 1 1 0.0091173127220153388 1 0.0099961787531930094 0.010198884493507473 1 1 1 1 1 1 0.0090841518712013215 1 1 1 0.009994737659339295 1 1 1 1 1 1 1 1 1 1 1 1 1 1 1 1 1 1 1 0.010004799062604874 1 1 1 0.0091866448052816008 0.0099657363824012177 1 1 1 1 1 0.0099070423287577168 1 1 1 1 1 1 1 1 1 1 1 1 1 1 0.0094091474133933106 1 1 0.0090552095663439837 1 0.0095269021295635112 1 1 1 0.010009329091448022 1 0.0097317910698936569 1 1 0.0090488214528428711 1 1 1 1 1 1 1 1 1 1 1 0.0089398110959888928 1 1 1 1 1 1 1 1 1 1 0.0089651165447166836 0.0099533513336809258 1 1 1 1 1 1 1 0.0092703677617696732 1 1 1 1 1 1 1 1 1 1 1 1 1 1 0.009743798429582437 1 1 1 1 1 1 1 1 1 1 0.0097976785504564016 1 1 1 0.0094733071582446295 1 0.0092867807799560491 0.0094093040878916491 1 1 1 1 1 1 1 1 0.0089574368087708186 1 1 1 1 1 1 1 1 1 0.0095172764319231742 1 0.0090825284328215905 1 0.010059799007920875 1 1 1 1 1 1 1 1 0.0097627848321836779 1 0.009521312211714426 1 1 1 1 1 1 0.010142210208645376 1 1 0.0094123869969415987 1 0.010277577315572174 1 1 1 1 1 1 1 1 1 1 1 1 1 1 0.0096402775471260364 1 1 1 1 1 1 1 1 1 1 0.0097921949494044497 1 1 1 1 1 1 0.0099026996757840026 1 1 1 1 1 1 1 1 1 1 1 1 1 1 1 1 1 1 1 1 1 1 1 1 1 0.0095574838744766789 1 1 1 1 1 0.008817532881413289 1 1 1 1 1 1 1 1 1 1 1 0.0099861359647716377 1 1 1 1 0.0048486129978576042 1 1 1 1 1 0.0047808398053711745 1 1 1 1 1 0.0050631969575176232 1 1 0.0055273571481503463 1 1 1 1 1 1 1 1 1 1 1 1 1 1 1 1 1 1 1 1 1 1 1 1 1 1 0.0095942368596405106 1 1 0.0095953181487066844 1 1 1 1 1 1 1 1 1 1 1 1 1 1 1 0.0099004503927328548 1 1 1 1 1 1 1 1 1 0.0098031500685168624 1 1 1 1 1 1 1 0.0082945339707535693 1 1 1 1 1 0.0099639887059957202 1 1 1 1 1 1 0.0053574978365293876 1 1 1 1 0.0062558401204152988 1 1 1 1 1 1 1 0.0099778527412240775 1 1 0.0080042731807182469 1 1 0.0081972053212070514 1 1 1 1 0.0072274581611545463 1 1 1 1 1 1 1 1 0.0080418157200376067 1 1 0.009055394526290032 1 1 1 1 1 1 1 1 1 0.0097284350962060263 1 1 1 1 1 0.009803652276371335 1 1 1 1 0.0096224632602267476 1 1 1 0.0092258510902886049 1 1 1 1 1 1 1 1 1 1 1 0.0096181815544702058 0.0096018993316487351 1 1 1 1 1 1 1 1 1 1 1 0.0096213541603322773 1 1 1 1 1 0.0085498202565689324 1 0.0091530362385245645 0.010096949279514135 1 0.0092167717065532433 0.010088360909983798 1 1 0.010012405684046774 1 1 1 1 1 1 0.0083876044090016345 1 0.0095064000717617527 0.0099897809318434359 1 1 1 1 1 0.010010323084556436 1 1 1 1 1 1 1 1 0.0084413308648134365 1 1 1 1 0.0096948988043580441 1 1 1 1 1 0.0099336518609199308 1 1 0.0097500207940782544 1 1 1 1 1 1 1 0.0091403845965150748 1 0.01010628502522423 1 1 1 1 1 1 1 0.0090159854379128299 0.0096063782649959944 1 1 1 1 1 1 1 0.0098783562225124976 1 1 1 1 1 1 0.0096693999827895186 1 1 1 1 1 1 1 1 1 1 1 1 1 1 0.0091372503573567687 1 1 0.0097036450718370072 1 1 1 1 0.0098762054226749947 1 1 1 1 0.0083730568221875093 1 1 1 1 1 1 0.0077085116990056827 1 1 1 1 1 1 1 0.0099499828197056831 1 1 1 0.0089917497455374081 1 1 1 1 0.007407140213333361 1 1 0.0089653211199523311 1 1 1 1 1 1 1 0.0073935600216555658 1 1 1 1 0.0074290909415928282 1 0.010011845729321896 1 1 1 1 1 1 1 1 1 1 1 1 1 1 0.0094008722266746628 1 1 1 1 1 1 1 0.0093897548815647155 1 1 0.0096318937470429578 1 1 0.0095258666564192861 1 1 1 1 1 1 1 1 1 0.0084319482206407954 1 1 1 0.0088447598216423329 1 1 1 1 1 1 1 1 1 0.0092760248818949745 1 1 1 1 1 1 1 1 1 1 1 0.010123819395826029 1 1 1 0.009749753078844195 1 1 1 1 1 1 1 1 1 1 1 0.010455978577162642 1 1 1 1 1 1 1 1 1 1 0.010887805181432066 1 1 1 1 1 0.0084723068907209959 1 1 1 1 1 1 1 1 0.0099936469517379559 1 1 0.0073273639764788604 1 1 0.0078729552126129507 1 1 1 1 0.0068613649336697917 0.010058118355378776 1 1 1 1 0.0082007148375160249 1 1 1 1 0.010047585410809957 1 1 0.010018665608963338 1 1 1 1 0.0093184965367325377 1 1 0.0094819414001109971 1 1 1 1 1 0.009641515749267509 1 1 1 1 1 1 1 1 0.0087286924903384952 1 0.0099948620878508952 1 1 1 1 1 1 1 1 1 0.0095838278764758429 0.009247903366393714 1 1 1 1 1 1 0.0091624353770888532 1 1 0.0098176254927249546 1 1 0.0098444374805745291 1 0.010001552101736028 1 1 1 0.0102173133582034 1 1 0.010019952227968504 1 1 1 1 1 1 1 1 0.0095181400013089543 0.0095182177246129589 1 1 0.0099927923710323822 0.0084350923251106033 1 1 1 1 0.0097143691484384755 1 1 1 0.0089976550576716351 1 0.010481357223870563 1 0.0098410565927256177 0.0089550936456983688 0.0093510673040439057 1 0.010234923514956827 1 1 1 0.010064474211076094 1 1 1 1 1 1 1 1 1 0.0081666961085377805 1 1 0.008336012114999132 1 1 1 1 1 1 0.010276501508232113 1 1 1 1 1 1 0.010028338103268407 0.010036991048823114 0.01089509331788859 1 1 1 1 1 1 1 1 1 1 1 0.010896861577651443 1 1 1 1 0.0085210672690180667 1 1 1 1 1 1 1 1 0.0088540266527473398 1 1 0.01052386815144425 1 1 1 0.0099091794532300548 1 1 1 1 1 1 1 1 1 0.010058046069036139 1 1 1 1 1 1 1 1 0.0083091964255676744 1 1 1 0.0080406089549279348 1 1 0.010027358831015326 1 1 1 0.010160018066455168 1 0.0091326193801140911 1 1 0.0092769400449752553 1 0.0091337438430538591 1 1 0.010038302613275612 1 1 1 1 1 1 0.009106558760749027 1 1 0.010028793723994543 1 1 1 1 1 1 1 1 1 1 1 1 1 1 1 1 1 1 1 1 1 1 1 1 1 1 1 1 1 1 1 1 1 1 1 1 1 1 1 1 1 1 1 1 1 1 1 1 1 1 1 1 1 1 1 1 1 1 1 1 1 1 1 1 1 1 1 1 1 1 1 1 1 1 1 1 1 1 1 1 1 1 1 1 1 1 1 1 1 1 1 1 1 1 1 1 0.0099278978140992409 1 1 1 1 0.007230364163828799 1 1 1 1 1 1 1 1 1 1 1 1 0.0097786113480015958 0.0076957032979068562 1 1 1 1 1 1 1 1 1 1 1 1 1 1 1 0.0096216919384396766 1 1 1 0.0089261835532896874 1 1 1 1 1 1 1 1 1 1 0.0071306652184517563 1 0.0075116907476374759 1 1 1 1 1 1 1 1 1 1 1 1 1 1 1 1 1 1 1 1 1 1 1 1 0.0098546522125771384 1 1 1 1 0.0096591935776434885 1 1 1 1 1 1 1 1 0.0099380760491969838 1 1 1 1 1 1 1 1 1 1 1 1 1 1 1 1 1 1 1 1 1 1 1 1 1 1 1 1 1 1 1 1 1 1 1 1 1 1 1 1 1 1 1 1 1 1 1 1 1 0.0097211355978075401 1 1 1 1 1 1 1 1 1 1 1 1 1 1 1 1 1 1 1 1 1 1 1 1 1 1 1 1 1 1 1 1 0.008341455312361943 1 1 1 1 1 1 0.0082976505526962188 1 1 1 1 1 1 0.0099227749379628347 1 1 0.010089159438032057 1 0.0097793517902063452 1 0.010414382639807568 1 1 1 1 0.0092416938372058711 1 1 1 1 1 0.0099371301441548987 1 1 1 0.010329722225247528 0.010009985055850764 1 1 1 0.0082791941068247211 1 1 1 1 0.0098512493964345235 0.0099860958889728436 1 1 1 1 1 1 1 1 1 1 1 1 1 1 0.0099034891282266859 1 1 0.0091790093867112135 1 1 0.0099703688759347261 0.0086128934157460105 1 1 1 1 1 1 1 1 1 1 0.0070134889660118426 1 0.0064268244765957076 1 1 1 1 1 1 1 1 1 1 1 0.0087375519798172513 1 1 1 1 1 1 1 0.007958384874672127 1 1 1 1 1 1 1 1 1 1 1 1 1 1 1 1 1 1 0.0073539211812738677 0.006150266086206951 1 1 1 1 1 1 1 1 1 1 1 1 1 1 1 1 1 0.0061248019370932086 1 1 1 1 1 1 1 1 1 0.009599034422635393 1 1 1 1 1 1 1 1 1 1 1 1 0.0090343732890738031 1 1 1 1 0.01040475757742932 1 0.0063162707141573371 1 1 1 1 1 1 1 1 1 0.0093964073816714868 1 1 1 1 0.0081093660962271337 1 1 1 1 0.0093440860695317395 1 0.009418399167374903 1 1 1 1 1 1 1 1 1 1 1 1 0.010121312403070199 1 1 1 1 1 1 1 1 1 1 1 1 1 1 1 0.010151524635227746 1 0.0083390770842041856 1 1 0.0088921230881077763 1 1 1 0.01000031159001942 1 0.010447009323027221 1 1 0.011100428026670835 1 1 0.0099949613101021784 1 0.0084795994833206656 1 1 1 1 1 1 1 0.010979994963699556 0.011272931022711014 1 1 1 1 0.0079779493075668902 0.0059941938798975672 1 1 0.010551756358132849 0.010514456232552358 1 0.0097040730493876595 1 1 0.0099847692575748236 0.0093974978013919384 1 1 0.0090200770480777792 1 1 0.010950508611129898 1 1 1 1 1 1 1 1 0.0088691220690254296 1 1 0.0078975175087805868 1 0.0081932777747943421 1 1 1 0.0098781598782017137 1 1 1 1 1 1 1 1 0.0098469182391795473 1 1 1 1 1 1 1 1 1 1 1 1 1 1 1 1 1 1 1 1 1 1 0.0099859166222534754 1 1 1 1 1 1 1 1 1 1 1 1 1 1 1 1 1 1 
</DataArray>
</CellData>
</Piece>
</UnstructuredGrid>
</VTKFile>
