<?xml version="1.0"?>
<VTKFile type="UnstructuredGrid" version="0.1" byte_order="LittleEndian">
<UnstructuredGrid>
<Piece NumberOfPoints="32187" NumberOfCells="11325">
<Points>
<DataArray type="Float64" NumberOfComponents="3" format="ascii">
-0.5 -0.5 0 -0.45831578468363038 -0.46950202935628949 0 -0.44910656691341982 -0.5 0 -0.5 -0.5 0 -0.45831578468363038 -0.46950202935628949 0 -0.47548409656206481 -0.44434193509350378 0 -0.5 -0.5 0 -0.47548409656206481 -0.44434193509350378 0 -0.5 -0.40075436724955238 0 -0.45831578468363038 -0.46950202935628949 0 -0.4340648167376549 -0.48030433380733228 0 -0.43685909820352309 -0.45881430559714581 0 -0.45831578468363038 -0.46950202935628949 0 -0.44910656691341982 -0.5 0 -0.4340648167376549 -0.48030433380733228 0 -0.45831578468363038 -0.46950202935628949 0 -0.45180435970164051 -0.43516011877324318 0 -0.43685909820352309 -0.45881430559714581 0 -0.45831578468363038 -0.46950202935628949 0 -0.47548409656206481 -0.44434193509350378 0 -0.45180435970164051 -0.43516011877324318 0 -0.45180435970164051 -0.43516011877324318 0 -0.43685909820352309 -0.45881430559714581 0 -0.42765671123997828 -0.44062272987327022 0 -0.47548409656206481 -0.44434193509350378 0 -0.5 -0.40075436724955238 0 -0.46730033842505342 -0.41629316008843359 0 -0.5 -0.40075436724955238 0 -0.47081318185543042 -0.38679770753818771 0 -0.46730033842505342 -0.41629316008843359 0 -0.5 -0.40075436724955238 0 -0.47081318185543042 -0.38679770753818771 0 -0.47758579317966549 -0.35881345444698848 0 -0.47081318185543042 -0.38679770753818771 0 -0.45228838232231239 -0.39136475193559028 0 -0.45689139535012058 -0.36676280397037331 0 -0.47081318185543042 -0.38679770753818771 0 -0.45228838232231239 -0.39136475193559028 0 -0.46730033842505342 -0.41629316008843359 0 -0.45228838232231239 -0.39136475193559028 0 -0.43938919446052888 -0.4141374843368395 0 -0.42859973878018642 -0.38970660096665749 0 -0.45228838232231239 -0.39136475193559028 0 -0.42859973878018642 -0.38970660096665749 0 -0.43948172058565033 -0.37483374937367731 0 -0.45228838232231239 -0.39136475193559028 0 -0.45689139535012058 -0.36676280397037331 0 -0.43948172058565033 -0.37483374937367731 0 -0.47548409656206481 -0.44434193509350378 0 -0.46730033842505342 -0.41629316008843359 0 -0.45180435970164051 -0.43516011877324318 0 -0.46730033842505342 -0.41629316008843359 0 -0.43938919446052888 -0.4141374843368395 0 -0.45228838232231239 -0.39136475193559028 0 -0.46730033842505342 -0.41629316008843359 0 -0.43938919446052888 -0.4141374843368395 0 -0.46730033842505342 -0.41629316008843359 0 -0.43938919446052888 -0.4141374843368395 0 -0.45180435970164051 -0.43516011877324318 0 -0.43938919446052888 -0.4141374843368395 0 -0.45180435970164051 -0.43516011877324318 0 -0.42977019974381958 -0.42600382899965589 0 -0.45180435970164051 -0.43516011877324318 0 -0.42977019974381958 -0.42600382899965589 0 -0.42765671123997828 -0.44062272987327022 0 -0.42977019974381958 -0.42600382899965589 0 -0.41593344556015183 -0.43076276144369002 0 -0.42765671123997828 -0.44062272987327022 0 -0.43938919446052888 -0.4141374843368395 0 -0.41147805049600439 -0.41198180858524541 0 -0.42119853707958432 -0.40326305369231358 0 -0.43938919446052888 -0.4141374843368395 0 -0.41147805049600439 -0.41198180858524541 0 -0.43938919446052888 -0.4141374843368395 0 -0.42977019974381958 -0.42600382899965589 0 -0.41649143046344522 -0.41599750794685542 0 -0.43938919446052888 -0.4141374843368395 0 -0.41649143046344522 -0.41599750794685542 0 -0.41147805049600439 -0.41198180858524541 0 -0.41649143046344522 -0.41599750794685542 0 -0.41147805049600439 -0.41198180858524541 0 -0.39207877989691631 -0.41716030247659741 0 -0.41649143046344522 -0.41599750794685542 0 -0.41593344556015183 -0.43076276144369002 0 -0.40417995103013882 -0.42591437623847228 0 -0.41593344556015183 -0.43076276144369002 0 -0.40306216458871291 -0.43709047733059803 0 -0.41565228764813961 -0.44227837696109751 0 -0.41593344556015183 -0.43076276144369002 0 -0.40306216458871291 -0.43709047733059803 0 -0.40417995103013882 -0.42591437623847228 0 -0.42977019974381958 -0.42600382899965589 0 -0.41649143046344522 -0.41599750794685542 0 -0.41593344556015183 -0.43076276144369002 0 -0.42859973878018642 -0.38970660096665749 0 -0.43948172058565033 -0.37483374937367731 0 -0.42226287646463972 -0.36997933246014453 0 -0.42859973878018642 -0.38970660096665749 0 -0.42226287646463972 -0.36997933246014453 0 -0.43938919446052888 -0.4141374843368395 0 -0.42859973878018642 -0.38970660096665749 0 -0.42119853707958432 -0.40326305369231358 0 -0.42119853707958432 -0.40326305369231358 0 -0.41285390193413618 -0.4034640138084381 0 -0.41426328056782341 -0.39640481792694082 0 -0.41147805049600439 -0.41198180858524541 0 -0.42119853707958432 -0.40326305369231358 0 -0.41285390193413618 -0.4034640138084381 0 -0.41147805049600439 -0.41198180858524541 0 -0.41285390193413618 -0.4034640138084381 0 -0.40542210893834579 -0.40121350648933768 0 -0.41285390193413618 -0.4034640138084381 0 -0.41426328056782341 -0.39640481792694082 0 -0.40542210893834579 -0.40121350648933768 0 -0.42859973878018642 -0.38970660096665749 0 -0.42119853707958432 -0.40326305369231358 0 -0.41426328056782341 -0.39640481792694082 0 -0.42859973878018642 -0.38970660096665749 0 -0.41426328056782341 -0.39640481792694082 0 -0.41147710975592378 -0.38333987949170478 0 -0.42859973878018642 -0.38970660096665749 0 -0.41147710975592378 -0.38333987949170478 0 -0.42226287646463972 -0.36997933246014453 0 -0.41426328056782341 -0.39640481792694082 0 -0.41147710975592378 -0.38333987949170478 0 -0.39642372267859077 -0.39121711777500801 0 -0.41147710975592378 -0.38333987949170478 0 -0.39642372267859077 -0.39121711777500801 0 -0.39583593028837899 -0.36939152832977312 0 -0.41426328056782341 -0.39640481792694082 0 -0.39642372267859077 -0.39121711777500801 0 -0.40542210893834579 -0.40121350648933768 0 -0.41147805049600439 -0.41198180858524541 0 -0.40542210893834579 -0.40121350648933768 0 -0.39574209886036082 -0.40252452063130523 0 -0.39642372267859077 -0.39121711777500801 0 -0.39574209886036082 -0.40252452063130523 0 -0.38181970565738338 -0.39838403747328383 0 -0.39642372267859077 -0.39121711777500801 0 -0.40542210893834579 -0.40121350648933768 0 -0.39574209886036082 -0.40252452063130523 0 -0.39642372267859077 -0.39121711777500801 0 -0.38181970565738338 -0.39838403747328383 0 -0.37574584642766701 -0.3885309927059149 0 -0.39574209886036082 -0.40252452063130523 0 -0.38181970565738338 -0.39838403747328383 0 -0.38356690653147968 -0.40982613283365121 0 -0.37574584642766701 -0.3885309927059149 0 -0.39583593028837899 -0.36939152832977312 0 -0.39642372267859077 -0.39121711777500801 0 -0.37574584642766701 -0.3885309927059149 0 -0.39583593028837899 -0.36939152832977312 0 -0.39261329892623142 -0.4296889994241388 0 -0.40417995103013882 -0.42591437623847228 0 -0.39207877989691631 -0.41716030247659741 0 -0.39261329892623142 -0.4296889994241388 0 -0.40306216458871291 -0.43709047733059803 0 -0.38839041532778651 -0.44134397173122958 0 -0.39261329892623142 -0.4296889994241388 0 -0.40306216458871291 -0.43709047733059803 0 -0.40417995103013882 -0.42591437623847228 0 -0.41147805049600439 -0.41198180858524541 0 -0.38356690653147968 -0.40982613283365121 0 -0.41649143046344522 -0.41599750794685542 0 -0.39207877989691631 -0.41716030247659741 0 -0.41147805049600439 -0.41198180858524541 0 -0.39207877989691631 -0.41716030247659741 0 -0.38356690653147968 -0.40982613283365121 0 -0.41147805049600439 -0.41198180858524541 0 -0.39574209886036082 -0.40252452063130523 0 -0.38356690653147968 -0.40982613283365121 0 -0.41649143046344522 -0.41599750794685542 0 -0.40417995103013882 -0.42591437623847228 0 -0.39207877989691631 -0.41716030247659741 0 -0.39207877989691631 -0.41716030247659741 0 -0.38270997450906402 -0.42486530120831162 0 -0.36766612933038739 -0.41832309700633941 0 -0.39207877989691631 -0.41716030247659741 0 -0.36766612933038739 -0.41832309700633941 0 -0.39207877989691631 -0.41716030247659741 0 -0.38356690653147968 -0.40982613283365121 0 -0.36766612933038739 -0.41832309700633941 0 -0.38270997450906402 -0.42486530120831162 0 -0.37848168988272107 -0.43428880592617097 0 -0.36766612933038739 -0.41832309700633941 0 -0.39261329892623142 -0.4296889994241388 0 -0.39207877989691631 -0.41716030247659741 0 -0.38270997450906402 -0.42486530120831162 0 -0.39261329892623142 -0.4296889994241388 0 -0.38270997450906402 -0.42486530120831162 0 -0.37848168988272107 -0.43428880592617097 0 -0.39261329892623142 -0.4296889994241388 0 -0.37848168988272107 -0.43428880592617097 0 -0.38839041532778651 -0.44134397173122958 0 -0.37848168988272107 -0.43428880592617097 0 -0.38839041532778651 -0.44134397173122958 0 -0.3720599841663827 -0.45122088832831297 0 -0.39573493907488461 -0.45443068764692751 0 -0.3720599841663827 -0.45122088832831297 0 -0.38839041532778651 -0.44134397173122958 0 -0.39573493907488461 -0.45443068764692751 0 -0.3720599841663827 -0.45122088832831297 0 -0.40306216458871291 -0.43709047733059803 0 -0.3960266010218802 -0.45806031822039878 0 -0.40787577632353289 -0.45037378067049172 0 -0.40306216458871291 -0.43709047733059803 0 -0.38839041532778651 -0.44134397173122958 0 -0.39573493907488461 -0.45443068764692751 0 -0.40306216458871291 -0.43709047733059803 0 -0.3960266010218802 -0.45806031822039878 0 -0.40306216458871291 -0.43709047733059803 0 -0.39573493907488461 -0.45443068764692751 0 -0.3960266010218802 -0.45806031822039878 0 -0.3960266010218802 -0.45806031822039878 0 -0.38899103745504748 -0.47903015911019969 0 -0.3960266010218802 -0.45806031822039878 0 -0.40194092463076397 -0.47127144004565608 0 -0.40719998746372882 -0.46129344878997108 0 -0.3960266010218802 -0.45806031822039878 0 -0.40787577632353289 -0.45037378067049172 0 -0.40719998746372882 -0.46129344878997108 0 -0.39573493907488461 -0.45443068764692751 0 -0.3960266010218802 -0.45806031822039878 0 -0.38116171317058051 -0.46473818612447582 0 -0.3960266010218802 -0.45806031822039878 0 -0.38116171317058051 -0.46473818612447582 0 -0.38899103745504748 -0.47903015911019969 0 -0.39573493907488461 -0.45443068764692751 0 -0.38116171317058051 -0.46473818612447582 0 -0.3720599841663827 -0.45122088832831297 0 -0.38116171317058051 -0.46473818612447582 0 -0.38899103745504748 -0.47903015911019969 0 -0.36792886760289872 -0.48050036472909652 0 -0.38899103745504748 -0.47903015911019969 0 -0.38195547388821449 -0.50000000000000044 0 -0.36792886760289872 -0.48050036472909652 0 -0.38899103745504748 -0.47903015911019969 0 -0.38195547388821449 -0.50000000000000044 0 -0.38899103745504748 -0.47903015911019969 0 -0.38195547388821449 -0.50000000000000044 0 -0.402240000609699 -0.48476794002448459 0 -0.38195547388821449 -0.50000000000000044 0 -0.402240000609699 -0.48476794002448459 0 -0.41079563728423713 -0.5 0 -0.3960266010218802 -0.45806031822039878 0 -0.38899103745504748 -0.47903015911019969 0 -0.40194092463076397 -0.47127144004565608 0 -0.38899103745504748 -0.47903015911019969 0 -0.402240000609699 -0.48476794002448459 0 -0.40194092463076397 -0.47127144004565608 0 -0.402240000609699 -0.48476794002448459 0 -0.40194092463076397 -0.47127144004565608 0 -0.41524699660346431 -0.47320533408322618 0 -0.44910656691341982 -0.5 0 -0.41079563728423713 -0.5 0 -0.4340648167376549 -0.48030433380733228 0 -0.41524699660346431 -0.47320533408322618 0 -0.41079563728423713 -0.5 0 -0.4340648167376549 -0.48030433380733228 0 -0.402240000609699 -0.48476794002448459 0 -0.41524699660346431 -0.47320533408322618 0 -0.41079563728423713 -0.5 0 -0.41524699660346431 -0.47320533408322618 0 -0.4340648167376549 -0.48030433380733228 0 -0.43685909820352309 -0.45881430559714581 0 -0.41524699660346431 -0.47320533408322618 0 -0.43685909820352309 -0.45881430559714581 0 -0.41789454366792628 -0.45411948061477181 0 -0.43685909820352309 -0.45881430559714581 0 -0.42765671123997828 -0.44062272987327022 0 -0.41789454366792628 -0.45411948061477181 0 -0.42765671123997828 -0.44062272987327022 0 -0.41565228764813961 -0.44227837696109751 0 -0.41789454366792628 -0.45411948061477181 0 -0.41593344556015183 -0.43076276144369002 0 -0.42765671123997828 -0.44062272987327022 0 -0.41565228764813961 -0.44227837696109751 0 -0.40306216458871291 -0.43709047733059803 0 -0.41565228764813961 -0.44227837696109751 0 -0.40787577632353289 -0.45037378067049172 0 -0.41565228764813961 -0.44227837696109751 0 -0.40787577632353289 -0.45037378067049172 0 -0.41789454366792628 -0.45411948061477181 0 -0.40787577632353289 -0.45037378067049172 0 -0.40719998746372882 -0.46129344878997108 0 -0.41789454366792628 -0.45411948061477181 0 -0.41524699660346431 -0.47320533408322618 0 -0.40719998746372882 -0.46129344878997108 0 -0.41789454366792628 -0.45411948061477181 0 -0.40194092463076397 -0.47127144004565608 0 -0.41524699660346431 -0.47320533408322618 0 -0.40719998746372882 -0.46129344878997108 0 -0.45024512185580401 -0.25478277675570082 0 -0.44402399600006281 -0.26945206120911469 0 -0.43248890343704932 -0.2570147486180836 0 -0.45024512185580401 -0.25478277675570082 0 -0.44402399600006281 -0.26945206120911469 0 -0.45971732325569309 -0.26735557917357872 0 -0.44402399600006281 -0.26945206120911469 0 -0.45971732325569309 -0.26735557917357872 0 -0.45383516776189198 -0.27893950054916777 0 -0.44402399600006281 -0.26945206120911469 0 -0.45383516776189198 -0.27893950054916777 0 -0.43768842874742619 -0.28803981886043878 0 -0.45971732325569309 -0.26735557917357872 0 -0.46692558031875347 -0.27874985244056327 0 -0.47753136201051888 -0.26765532905663247 0 -0.45971732325569309 -0.26735557917357872 0 -0.45383516776189198 -0.27893950054916777 0 -0.46692558031875347 -0.27874985244056327 0 -0.45971732325569309 -0.26735557917357872 0 -0.46574271158712788 -0.2545539550302931 0 -0.47753136201051888 -0.26765532905663247 0 -0.45024512185580401 -0.25478277675570082 0 -0.45971732325569309 -0.26735557917357872 0 -0.46574271158712788 -0.2545539550302931 0 -0.45024512185580401 -0.25478277675570082 0 -0.46574271158712788 -0.2545539550302931 0 -0.45811703466634629 -0.24198872844300201 0 -0.5 -0.2714214834046913 0 -0.47753136201051888 -0.26765532905663247 0 -0.47915166179685958 -0.23774051823811371 0 -0.46574271158712788 -0.2545539550302931 0 -0.47753136201051888 -0.26765532905663247 0 -0.47915166179685958 -0.23774051823811371 0 -0.5 -0.2714214834046913 0 -0.47753136201051888 -0.26765532905663247 0 -0.48809518117882428 -0.28149778642059298 0 -0.47753136201051888 -0.26765532905663247 0 -0.47549072789112801 -0.28286752079590199 0 -0.48809518117882428 -0.28149778642059298 0 -0.46692558031875347 -0.27874985244056327 0 -0.47753136201051888 -0.26765532905663247 0 -0.47549072789112801 -0.28286752079590199 0 -0.48809518117882428 -0.28149778642059298 0 -0.46864491778550899 -0.30002770525537381 0 -0.47549072789112801 -0.28286752079590199 0 -0.48809518117882428 -0.28149778642059298 0 -0.46864491778550899 -0.30002770525537381 0 -0.5 -0.2714214834046913 0 -0.48809518117882428 -0.28149778642059298 0 -0.48387991933177887 -0.30400481974793048 0 -0.46692558031875347 -0.27874985244056327 0 -0.47549072789112801 -0.28286752079590199 0 -0.46808715211812751 -0.28782923049000958 0 -0.5 -0.2714214834046913 0 -0.48387991933177887 -0.30400481974793048 0 -0.5 -0.32653948156289841 0 -0.48809518117882428 -0.28149778642059298 0 -0.48387991933177887 -0.30400481974793048 0 -0.46864491778550899 -0.30002770525537381 0 -0.47549072789112801 -0.28286752079590199 0 -0.46864491778550899 -0.30002770525537381 0 -0.46808715211812751 -0.28782923049000958 0 -0.48387991933177887 -0.30400481974793048 0 -0.46864491778550899 -0.30002770525537381 0 -0.47055417451182407 -0.31450805976773483 0 -0.46864491778550899 -0.30002770525537381 0 -0.44919465439219369 -0.31855762409015448 0 -0.47055417451182407 -0.31450805976773483 0 -0.46010660309407619 -0.30458950515713801 0 -0.46864491778550899 -0.30002770525537381 0 -0.44919465439219369 -0.31855762409015448 0 -0.46864491778550899 -0.30002770525537381 0 -0.44919465439219369 -0.31855762409015448 0 -0.46010660309407619 -0.30458950515713801 0 -0.46864491778550899 -0.30002770525537381 0 -0.45958541455130558 -0.28996815590229569 0 -0.46864491778550899 -0.30002770525537381 0 -0.46808715211812751 -0.28782923049000958 0 -0.45958541455130558 -0.28996815590229569 0 -0.46692558031875347 -0.27874985244056327 0 -0.46808715211812751 -0.28782923049000958 0 -0.45958541455130558 -0.28996815590229569 0 -0.45383516776189198 -0.27893950054916777 0 -0.46692558031875347 -0.27874985244056327 0 -0.45958541455130558 -0.28996815590229569 0 -0.45383516776189198 -0.27893950054916777 0 -0.45958541455130558 -0.28996815590229569 0 -0.43768842874742619 -0.28803981886043878 0 -0.46010660309407619 -0.30458950515713801 0 -0.45958541455130558 -0.28996815590229569 0 -0.43768842874742619 -0.28803981886043878 0 -0.46010660309407619 -0.30458950515713801 0 -0.43768842874742619 -0.28803981886043878 0 -0.44313225440567627 -0.3049779412936694 0 -0.44919465439219369 -0.31855762409015448 0 -0.42553933138900901 -0.30872481706694638 0 -0.46010660309407619 -0.30458950515713801 0 -0.44313225440567627 -0.3049779412936694 0 -0.44919465439219369 -0.31855762409015448 0 -0.46010660309407619 -0.30458950515713801 0 -0.43768842874742619 -0.28803981886043878 0 -0.44313225440567627 -0.3049779412936694 0 -0.5 -0.40075436724955238 0 -0.5 -0.32653948156289841 0 -0.47758579317966549 -0.35881345444698848 0 -0.44919465439219369 -0.31855762409015448 0 -0.43256033427064228 -0.33440484402189302 0 -0.44919465439219369 -0.31855762409015448 0 -0.45404019150504182 -0.34237768285888831 0 -0.43256033427064228 -0.33440484402189302 0 -0.44919465439219369 -0.31855762409015448 0 -0.45404019150504182 -0.34237768285888831 0 -0.47554999363126788 -0.32951274673777647 0 -0.44919465439219369 -0.31855762409015448 0 -0.47055417451182407 -0.31450805976773483 0 -0.47554999363126788 -0.32951274673777647 0 -0.44919465439219369 -0.31855762409015448 0 -0.47554999363126788 -0.32951274673777647 0 -0.5 -0.32653948156289841 0 -0.47554999363126788 -0.32951274673777647 0 -0.47758579317966549 -0.35881345444698848 0 -0.48387991933177887 -0.30400481974793048 0 -0.47055417451182407 -0.31450805976773483 0 -0.47554999363126788 -0.32951274673777647 0 -0.48387991933177887 -0.30400481974793048 0 -0.5 -0.32653948156289841 0 -0.47554999363126788 -0.32951274673777647 0 -0.45404019150504182 -0.34237768285888831 0 -0.47554999363126788 -0.32951274673777647 0 -0.47758579317966549 -0.35881345444698848 0 -0.47081318185543042 -0.38679770753818771 0 -0.47758579317966549 -0.35881345444698848 0 -0.45689139535012058 -0.36676280397037331 0 -0.45404019150504182 -0.34237768285888831 0 -0.47758579317966549 -0.35881345444698848 0 -0.45689139535012058 -0.36676280397037331 0 -0.45404019150504182 -0.34237768285888831 0 -0.43736621001099302 -0.35635525753562108 0 -0.43256033427064228 -0.33440484402189302 0 -0.45404019150504182 -0.34237768285888831 0 -0.45689139535012058 -0.36676280397037331 0 -0.43736621001099302 -0.35635525753562108 0 -0.45689139535012058 -0.36676280397037331 0 -0.43948172058565033 -0.37483374937367731 0 -0.43736621001099302 -0.35635525753562108 0 -0.43948172058565033 -0.37483374937367731 0 -0.42226287646463972 -0.36997933246014453 0 -0.43736621001099302 -0.35635525753562108 0 -0.43736621001099302 -0.35635525753562108 0 -0.41592601414909142 -0.3502520639536319 0 -0.43256033427064228 -0.33440484402189302 0 -0.42226287646463972 -0.36997933246014453 0 -0.43736621001099302 -0.35635525753562108 0 -0.41592601414909142 -0.3502520639536319 0 -0.42226287646463972 -0.36997933246014453 0 -0.41592601414909142 -0.3502520639536319 0 -0.42226287646463972 -0.36997933246014453 0 -0.41592601414909142 -0.3502520639536319 0 -0.39583593028837899 -0.36939152832977312 0 -0.41147710975592378 -0.38333987949170478 0 -0.42226287646463972 -0.36997933246014453 0 -0.39583593028837899 -0.36939152832977312 0 -0.41592601414909142 -0.3502520639536319 0 -0.39583593028837899 -0.36939152832977312 0 -0.39583593028837899 -0.36939152832977312 0 -0.37711480884564152 -0.34574984547743809 0 -0.36769740972583542 -0.36406159903974888 0 -0.37574584642766701 -0.3885309927059149 0 -0.39583593028837899 -0.36939152832977312 0 -0.36769740972583542 -0.36406159903974888 0 -0.39583593028837899 -0.36939152832977312 0 -0.37711480884564152 -0.34574984547743809 0 -0.39693173910003299 -0.34465804845052128 0 -0.41592601414909142 -0.3502520639536319 0 -0.39583593028837899 -0.36939152832977312 0 -0.39693173910003299 -0.34465804845052128 0 -0.39693173910003299 -0.34465804845052128 0 -0.38490118753738728 -0.32458275118839869 0 -0.40911510508999033 -0.32904904184397898 0 -0.37711480884564152 -0.34574984547743809 0 -0.39693173910003299 -0.34465804845052128 0 -0.38490118753738728 -0.32458275118839869 0 -0.38490118753738728 -0.32458275118839869 0 -0.3841033120826538 -0.3078987319378495 0 -0.37023896495115738 -0.30770051949006483 0 -0.38490118753738728 -0.32458275118839869 0 -0.39232251819553943 -0.3144410612319774 0 -0.3841033120826538 -0.3078987319378495 0 -0.40911510508999033 -0.32904904184397898 0 -0.40230419603088768 -0.30784601973432663 0 -0.38490118753738728 -0.32458275118839869 0 -0.39232251819553943 -0.3144410612319774 0 -0.40911510508999033 -0.32904904184397898 0 -0.39232251819553943 -0.3144410612319774 0 -0.40911510508999033 -0.32904904184397898 0 -0.40230419603088768 -0.30784601973432663 0 -0.41630943964632888 -0.31883359899994518 0 -0.40911510508999033 -0.32904904184397898 0 -0.40230419603088768 -0.30784601973432663 0 -0.41630943964632888 -0.31883359899994518 0 -0.40911510508999033 -0.32904904184397898 0 -0.43256033427064228 -0.33440484402189302 0 -0.41592601414909142 -0.3502520639536319 0 -0.40911510508999033 -0.32904904184397898 0 -0.43256033427064228 -0.33440484402189302 0 -0.41592601414909142 -0.3502520639536319 0 -0.39693173910003299 -0.34465804845052128 0 -0.40911510508999033 -0.32904904184397898 0 -0.41592601414909142 -0.3502520639536319 0 -0.40911510508999033 -0.32904904184397898 0 -0.41592601414909142 -0.3502520639536319 0 -0.43256033427064228 -0.33440484402189302 0 -0.44919465439219369 -0.31855762409015448 0 -0.43256033427064228 -0.33440484402189302 0 -0.42553933138900901 -0.30872481706694638 0 -0.41630943964632888 -0.31883359899994518 0 -0.43256033427064228 -0.33440484402189302 0 -0.42553933138900901 -0.30872481706694638 0 -0.44919465439219369 -0.31855762409015448 0 -0.42553933138900901 -0.30872481706694638 0 -0.43768842874742619 -0.28803981886043878 0 -0.44313225440567627 -0.3049779412936694 0 -0.42553933138900901 -0.30872481706694638 0 -0.43768842874742619 -0.28803981886043878 0 -0.42553933138900901 -0.30872481706694638 0 -0.42040503352277769 -0.29739213873228659 0 -0.43768842874742619 -0.28803981886043878 0 -0.42442681045834579 -0.28561861236604502 0 -0.41527025440077608 -0.27149013256373983 0 -0.43768842874742619 -0.28803981886043878 0 -0.42442681045834579 -0.28561861236604502 0 -0.42040503352277769 -0.29739213873228659 0 -0.40878340267957858 -0.29357311179807449 0 -0.42040503352277769 -0.29739213873228659 0 -0.40188400838582428 -0.29889201004373828 0 -0.42442681045834579 -0.28561861236604502 0 -0.41304610169044947 -0.28859560426185271 0 -0.42040503352277769 -0.29739213873228659 0 -0.41304610169044947 -0.28859560426185271 0 -0.40878340267957858 -0.29357311179807449 0 -0.42040503352277769 -0.29739213873228659 0 -0.42442681045834579 -0.28561861236604502 0 -0.41472350621299131 -0.28279949557840411 0 -0.41304610169044947 -0.28859560426185271 0 -0.42442681045834579 -0.28561861236604502 0 -0.41472350621299131 -0.28279949557840411 0 -0.41532708606274332 -0.27567236802670497 0 -0.41472350621299131 -0.28279949557840411 0 -0.41304610169044947 -0.28859560426185271 0 -0.4041913526319672 -0.28199341880523132 0 -0.41304610169044947 -0.28859560426185271 0 -0.40878340267957858 -0.29357311179807449 0 -0.39979846711926292 -0.28941269415442028 0 -0.42553933138900901 -0.30872481706694638 0 -0.40230419603088768 -0.30784601973432663 0 -0.40188400838582428 -0.29889201004373828 0 -0.42553933138900901 -0.30872481706694638 0 -0.40188400838582428 -0.29889201004373828 0 -0.41630943964632888 -0.31883359899994518 0 -0.42553933138900901 -0.30872481706694638 0 -0.40230419603088768 -0.30784601973432663 0 -0.42553933138900901 -0.30872481706694638 0 -0.42040503352277769 -0.29739213873228659 0 -0.40188400838582428 -0.29889201004373828 0 -0.40188400838582428 -0.29889201004373828 0 -0.39176854401550898 -0.30362740519368431 0 -0.37822868538263987 -0.28905920302052951 0 -0.40230419603088768 -0.30784601973432663 0 -0.40188400838582428 -0.29889201004373828 0 -0.39176854401550898 -0.30362740519368431 0 -0.39232251819553943 -0.3144410612319774 0 -0.40230419603088768 -0.30784601973432663 0 -0.39176854401550898 -0.30362740519368431 0 -0.3841033120826538 -0.3078987319378495 0 -0.37822868538263987 -0.28905920302052951 0 -0.37023896495115738 -0.30770051949006483 0 -0.39176854401550898 -0.30362740519368431 0 -0.3841033120826538 -0.3078987319378495 0 -0.37822868538263987 -0.28905920302052951 0 -0.39232251819553943 -0.3144410612319774 0 -0.39176854401550898 -0.30362740519368431 0 -0.3841033120826538 -0.3078987319378495 0 -0.40188400838582428 -0.29889201004373828 0 -0.37822868538263987 -0.28905920302052951 0 -0.37822868538263987 -0.28905920302052951 0 -0.39364505104134018 -0.28294103889722733 0 -0.39979846711926292 -0.28941269415442028 0 -0.37822868538263987 -0.28905920302052951 0 -0.39364505104134018 -0.28294103889722733 0 -0.38559325701987179 -0.27187646030386919 0 -0.40188400838582428 -0.29889201004373828 0 -0.37822868538263987 -0.28905920302052951 0 -0.39979846711926292 -0.28941269415442028 0 -0.40878340267957858 -0.29357311179807449 0 -0.40188400838582428 -0.29889201004373828 0 -0.39979846711926292 -0.28941269415442028 0 -0.39364505104134018 -0.28294103889722733 0 -0.39979846711926292 -0.28941269415442028 0 -0.4041913526319672 -0.28199341880523132 0 -0.41304610169044947 -0.28859560426185271 0 -0.39979846711926292 -0.28941269415442028 0 -0.4041913526319672 -0.28199341880523132 0 -0.40226066938438021 -0.268494851790338 0 -0.38559325701987179 -0.27187646030386919 0 -0.41532708606274332 -0.27567236802670497 0 -0.4041913526319672 -0.28199341880523132 0 -0.38559325701987179 -0.27187646030386919 0 -0.41532708606274332 -0.27567236802670497 0 -0.38559325701987179 -0.27187646030386919 0 -0.41532708606274332 -0.27567236802670497 0 -0.39364505104134018 -0.28294103889722733 0 -0.4041913526319672 -0.28199341880523132 0 -0.38559325701987179 -0.27187646030386919 0 -0.37822868538263987 -0.28905920302052951 0 -0.38559325701987179 -0.27187646030386919 0 -0.3756401855997647 -0.25828357907017269 0 -0.39285208005412858 -0.25494044626703749 0 -0.37957403109299931 -0.24513824107669269 0 -0.38559325701987179 -0.27187646030386919 0 -0.3756401855997647 -0.25828357907017269 0 -0.39285208005412858 -0.25494044626703749 0 -0.38559325701987179 -0.27187646030386919 0 -0.39285208005412858 -0.25494044626703749 0 -0.39285208005412858 -0.25494044626703749 0 -0.37957403109299931 -0.24513824107669269 0 -0.40226066938438021 -0.268494851790338 0 -0.38559325701987179 -0.27187646030386919 0 -0.39285208005412858 -0.25494044626703749 0 -0.39285208005412858 -0.25494044626703749 0 -0.41527025440077608 -0.27149013256373983 0 -0.39285208005412858 -0.25494044626703749 0 -0.40675913291867821 -0.25591171360924869 0 -0.41102747480957702 -0.26271344725088369 0 -0.40226066938438021 -0.268494851790338 0 -0.39285208005412858 -0.25494044626703749 0 -0.41527025440077608 -0.27149013256373983 0 -0.39285208005412858 -0.25494044626703749 0 -0.40203411032449582 -0.25204981142732441 0 -0.40220520894203721 -0.24485821986274481 0 -0.39285208005412858 -0.25494044626703749 0 -0.40203411032449582 -0.25204981142732441 0 -0.40675913291867821 -0.25591171360924869 0 -0.40203411032449582 -0.25204981142732441 0 -0.40816199467824738 -0.25137677441514578 0 -0.40675913291867821 -0.25591171360924869 0 -0.40203411032449582 -0.25204981142732441 0 -0.40816199467824738 -0.25137677441514578 0 -0.40552083553578339 -0.2486331788375164 0 -0.40816199467824738 -0.25137677441514578 0 -0.41241795348262938 -0.25239008067578411 0 -0.40960637812677442 -0.24751359326307329 0 -0.40816199467824738 -0.25137677441514578 0 -0.40675913291867821 -0.25591171360924869 0 -0.41241795348262938 -0.25239008067578411 0 -0.40675913291867821 -0.25591171360924869 0 -0.41241795348262938 -0.25239008067578411 0 -0.41507363352392512 -0.25821750570138152 0 -0.39285208005412858 -0.25494044626703749 0 -0.41102747480957702 -0.26271344725088369 0 -0.41527025440077608 -0.27149013256373983 0 -0.41241795348262938 -0.25239008067578411 0 -0.42051649998989837 -0.25337860450162181 0 -0.41507363352392512 -0.25821750570138152 0 -0.41241795348262938 -0.25239008067578411 0 -0.42051649998989837 -0.25337860450162181 0 -0.41573061849258908 -0.2466548038147931 0 -0.42051649998989837 -0.25337860450162181 0 -0.41507363352392512 -0.25821750570138152 0 -0.42244393790357848 -0.26244189580007748 0 -0.41717239579467652 -0.26489772932028999 0 -0.42091886253200028 -0.26760103869408058 0 -0.42244393790357848 -0.26244189580007748 0 -0.41507363352392512 -0.25821750570138152 0 -0.41717239579467652 -0.26489772932028999 0 -0.42244393790357848 -0.26244189580007748 0 -0.41507363352392512 -0.25821750570138152 0 -0.41717239579467652 -0.26489772932028999 0 -0.41102747480957702 -0.26271344725088369 0 -0.40675913291867821 -0.25591171360924869 0 -0.41507363352392512 -0.25821750570138152 0 -0.41102747480957702 -0.26271344725088369 0 -0.40226066938438021 -0.268494851790338 0 -0.41532708606274332 -0.27567236802670497 0 -0.41527025440077608 -0.27149013256373983 0 -0.41472350621299131 -0.28279949557840411 0 -0.4041913526319672 -0.28199341880523132 0 -0.41532708606274332 -0.27567236802670497 0 -0.42442681045834579 -0.28561861236604502 0 -0.41532708606274332 -0.27567236802670497 0 -0.41527025440077608 -0.27149013256373983 0 -0.41717239579467652 -0.26489772932028999 0 -0.41102747480957702 -0.26271344725088369 0 -0.41527025440077608 -0.27149013256373983 0 -0.41527025440077608 -0.27149013256373983 0 -0.42091886253200028 -0.26760103869408058 0 -0.42878886202896999 -0.27157439709221531 0 -0.41717239579467652 -0.26489772932028999 0 -0.41527025440077608 -0.27149013256373983 0 -0.42091886253200028 -0.26760103869408058 0 -0.43768842874742619 -0.28803981886043878 0 -0.41527025440077608 -0.27149013256373983 0 -0.42878886202896999 -0.27157439709221531 0 -0.42091886253200028 -0.26760103869408058 0 -0.42878886202896999 -0.27157439709221531 0 -0.42244393790357848 -0.26244189580007748 0 -0.44402399600006281 -0.26945206120911469 0 -0.43768842874742619 -0.28803981886043878 0 -0.42878886202896999 -0.27157439709221531 0 -0.43768842874742619 -0.28803981886043878 0 -0.41527025440077608 -0.27149013256373983 0 -0.44402399600006281 -0.26945206120911469 0 -0.42878886202896999 -0.27157439709221531 0 -0.43248890343704932 -0.2570147486180836 0 -0.42051649998989837 -0.25337860450162181 0 -0.43248890343704932 -0.2570147486180836 0 -0.42244393790357848 -0.26244189580007748 0 -0.42051649998989837 -0.25337860450162181 0 -0.43248890343704932 -0.2570147486180836 0 -0.42470883081946659 -0.2439208821782331 0 -0.42878886202896999 -0.27157439709221531 0 -0.43248890343704932 -0.2570147486180836 0 -0.42244393790357848 -0.26244189580007748 0 -0.32534632467288138 -0.26707759457998342 0 -0.30093553338960499 -0.25693076209158228 0 -0.32579801375107181 -0.26424282437404362 0 -0.32534632467288138 -0.26707759457998342 0 -0.30093553338960499 -0.25693076209158228 0 -0.32579801375107181 -0.26424282437404362 0 -0.32294052682052687 -0.25251877946222911 0 -0.30093553338960499 -0.25693076209158228 0 -0.32579801375107181 -0.26424282437404362 0 -0.32750923089450229 -0.25761550321199161 0 -0.32294052682052687 -0.25251877946222911 0 -0.32579801375107181 -0.26424282437404362 0 -0.32750057354924822 -0.2644601781456406 0 -0.32750923089450229 -0.25761550321199161 0 -0.32579801375107181 -0.26424282437404362 0 -0.32750057354924822 -0.2644601781456406 0 -0.32534632467288138 -0.26707759457998342 0 -0.32579801375107181 -0.26424282437404362 0 -0.32750057354924822 -0.2644601781456406 0 -0.32534632467288138 -0.26707759457998342 0 -0.30838103956812429 -0.28769044787373582 0 -0.32750057354924822 -0.2644601781456406 0 -0.32534632467288138 -0.26707759457998342 0 -0.32750057354924822 -0.2644601781456406 0 -0.35654691528456012 -0.26816831922475448 0 -0.32534632467288138 -0.26707759457998342 0 -0.35178750502776113 -0.27806839880025558 0 -0.32534632467288138 -0.26707759457998342 0 -0.35178750502776113 -0.27806839880025558 0 -0.3335490438157605 -0.29448073586992929 0 -0.32750057354924822 -0.2644601781456406 0 -0.32534632467288138 -0.26707759457998342 0 -0.35178750502776113 -0.27806839880025558 0 -0.32750057354924822 -0.2644601781456406 0 -0.33775632880124001 -0.25199941623563199 0 -0.35654691528456012 -0.26816831922475448 0 -0.32750057354924822 -0.2644601781456406 0 -0.33775632880124001 -0.25199941623563199 0 -0.32750057354924822 -0.2644601781456406 0 -0.32750923089450229 -0.25761550321199161 0 -0.33775632880124001 -0.25199941623563199 0 -0.32750923089450229 -0.25761550321199161 0 -0.33405263136615698 -0.25115053649489533 0 -0.33775632880124001 -0.25199941623563199 0 -0.32750923089450229 -0.25761550321199161 0 -0.32294052682052687 -0.25251877946222911 0 -0.33405263136615698 -0.25115053649489533 0 -0.35259320444334402 -0.25375996778655208 0 -0.36363464454726269 -0.25129442847850902 0 -0.35654691528456012 -0.26816831922475448 0 -0.33775632880124001 -0.25199941623563199 0 -0.35259320444334402 -0.25375996778655208 0 -0.34754853253990409 -0.24760991465529891 0 -0.33775632880124001 -0.25199941623563199 0 -0.35259320444334402 -0.25375996778655208 0 -0.35654691528456012 -0.26816831922475448 0 -0.35259320444334402 -0.25375996778655208 0 -0.36363464454726269 -0.25129442847850902 0 -0.35183251286180067 -0.24514162027338809 0 -0.3756401855997647 -0.25828357907017269 0 -0.36363464454726269 -0.25129442847850902 0 -0.37957403109299931 -0.24513824107669269 0 -0.3756401855997647 -0.25828357907017269 0 -0.36363464454726269 -0.25129442847850902 0 -0.35654691528456012 -0.26816831922475448 0 -0.38559325701987179 -0.27187646030386919 0 -0.35654691528456012 -0.26816831922475448 0 -0.37822868538263987 -0.28905920302052951 0 -0.38559325701987179 -0.27187646030386919 0 -0.35654691528456012 -0.26816831922475448 0 -0.37822868538263987 -0.28905920302052951 0 -0.35178750502776113 -0.27806839880025558 0 -0.35654691528456012 -0.26816831922475448 0 -0.38559325701987179 -0.27187646030386919 0 -0.3756401855997647 -0.25828357907017269 0 -0.35654691528456012 -0.26816831922475448 0 -0.32750057354924822 -0.2644601781456406 0 -0.35178750502776113 -0.27806839880025558 0 -0.35654691528456012 -0.26816831922475448 0 -0.35178750502776113 -0.27806839880025558 0 -0.35632158093706101 -0.29577011436264372 0 -0.3335490438157605 -0.29448073586992929 0 -0.37822868538263987 -0.28905920302052951 0 -0.35178750502776113 -0.27806839880025558 0 -0.35632158093706101 -0.29577011436264372 0 -0.37822868538263987 -0.28905920302052951 0 -0.35178750502776113 -0.27806839880025558 0 -0.37822868538263987 -0.28905920302052951 0 -0.35632158093706101 -0.29577011436264372 0 -0.37023896495115738 -0.30770051949006483 0 -0.37822868538263987 -0.28905920302052951 0 -0.37023896495115738 -0.30770051949006483 0 -0.35632158093706101 -0.29577011436264372 0 -0.34780370550798601 -0.30954171463243962 0 -0.3335490438157605 -0.29448073586992929 0 -0.35632158093706101 -0.29577011436264372 0 -0.37023896495115738 -0.30770051949006483 0 -0.34780370550798601 -0.30954171463243962 0 -0.34780370550798601 -0.30954171463243962 0 -0.3335490438157605 -0.29448073586992929 0 -0.32886132568214049 -0.31866856553300649 0 -0.32534632467288138 -0.26707759457998342 0 -0.3335490438157605 -0.29448073586992929 0 -0.30838103956812429 -0.28769044787373582 0 -0.3335490438157605 -0.29448073586992929 0 -0.32886132568214049 -0.31866856553300649 0 -0.31137981470815462 -0.30994514575242849 0 -0.3335490438157605 -0.29448073586992929 0 -0.31137981470815462 -0.30994514575242849 0 -0.30838103956812429 -0.28769044787373582 0 -0.32886132568214049 -0.31866856553300649 0 -0.31212133237135609 -0.33724209165303382 0 -0.31137981470815462 -0.30994514575242849 0 -0.33255601172903609 -0.33687357395162748 0 -0.32957877315186429 -0.35440930762936462 0 -0.31212133237135609 -0.33724209165303382 0 -0.33255601172903609 -0.33687357395162748 0 -0.32886132568214049 -0.31866856553300649 0 -0.31212133237135609 -0.33724209165303382 0 -0.34780370550798601 -0.30954171463243962 0 -0.32886132568214049 -0.31866856553300649 0 -0.34449261149142618 -0.32744385795683778 0 -0.33255601172903609 -0.33687357395162748 0 -0.32886132568214049 -0.31866856553300649 0 -0.34449261149142618 -0.32744385795683778 0 -0.34780370550798601 -0.30954171463243962 0 -0.34449261149142618 -0.32744385795683778 0 -0.36224924451967488 -0.32634183595960009 0 -0.37023896495115738 -0.30770051949006483 0 -0.34780370550798601 -0.30954171463243962 0 -0.36224924451967488 -0.32634183595960009 0 -0.38490118753738728 -0.32458275118839869 0 -0.37023896495115738 -0.30770051949006483 0 -0.36224924451967488 -0.32634183595960009 0 -0.37023896495115738 -0.30770051949006483 0 -0.36224924451967488 -0.32634183595960009 0 -0.37711480884564152 -0.34574984547743809 0 -0.38490118753738728 -0.32458275118839869 0 -0.36224924451967488 -0.32634183595960009 0 -0.37711480884564152 -0.34574984547743809 0 -0.36224924451967488 -0.32634183595960009 0 -0.35425952408819239 -0.34498315242913541 0 -0.34449261149142618 -0.32744385795683778 0 -0.36224924451967488 -0.32634183595960009 0 -0.35425952408819239 -0.34498315242913541 0 -0.33255601172903609 -0.33687357395162748 0 -0.34449261149142618 -0.32744385795683778 0 -0.35425952408819239 -0.34498315242913541 0 -0.36224924451967488 -0.32634183595960009 0 -0.35425952408819239 -0.34498315242913541 0 -0.35425952408819239 -0.34498315242913541 0 -0.36769740972583542 -0.36406159903974888 0 -0.34617421222165401 -0.36041243969271419 0 -0.37711480884564152 -0.34574984547743809 0 -0.35425952408819239 -0.34498315242913541 0 -0.36769740972583542 -0.36406159903974888 0 -0.36769740972583542 -0.36406159903974888 0 -0.34617421222165401 -0.36041243969271419 0 -0.35712595164133698 -0.37697605471129148 0 -0.34617421222165401 -0.36041243969271419 0 -0.34422703242502378 -0.3759405060804375 0 -0.35712595164133698 -0.37697605471129148 0 -0.33668969611741278 -0.36658826678275069 0 -0.32652245132713797 -0.37263639085237671 0 -0.34422703242502378 -0.3759405060804375 0 -0.33668969611741278 -0.36658826678275069 0 -0.32957877315186429 -0.35440930762936462 0 -0.32652245132713797 -0.37263639085237671 0 -0.34617421222165401 -0.36041243969271419 0 -0.33668969611741278 -0.36658826678275069 0 -0.32957877315186429 -0.35440930762936462 0 -0.34617421222165401 -0.36041243969271419 0 -0.33668969611741278 -0.36658826678275069 0 -0.34422703242502378 -0.3759405060804375 0 -0.33255601172903609 -0.33687357395162748 0 -0.35425952408819239 -0.34498315242913541 0 -0.32957877315186429 -0.35440930762936462 0 -0.35425952408819239 -0.34498315242913541 0 -0.34617421222165401 -0.36041243969271419 0 -0.32957877315186429 -0.35440930762936462 0 -0.32957877315186429 -0.35440930762936462 0 -0.30443559171273532 -0.36253270132284321 0 -0.31212133237135609 -0.33724209165303382 0 -0.32957877315186429 -0.35440930762936462 0 -0.32652245132713797 -0.37263639085237671 0 -0.30443559171273532 -0.36253270132284321 0 -0.32652245132713797 -0.37263639085237671 0 -0.30443559171273532 -0.36253270132284321 0 -0.31180528554575399 -0.38101278021034068 0 -0.30443559171273532 -0.36253270132284321 0 -0.31180528554575399 -0.38101278021034068 0 -0.29831742795078797 -0.37587716217801492 0 -0.30443559171273532 -0.36253270132284321 0 -0.28940699617227361 -0.36153282660081543 0 -0.29831742795078797 -0.37587716217801492 0 -0.30443559171273532 -0.36253270132284321 0 -0.28944303053566539 -0.34572442789203572 0 -0.31212133237135609 -0.33724209165303382 0 -0.30443559171273532 -0.36253270132284321 0 -0.28944303053566539 -0.34572442789203572 0 -0.30443559171273532 -0.36253270132284321 0 -0.28944303053566539 -0.34572442789203572 0 -0.28940699617227361 -0.36153282660081543 0 -0.28944303053566539 -0.34572442789203572 0 -0.28940699617227361 -0.36153282660081543 0 -0.27407432512854668 -0.36047435242873421 0 -0.28940699617227361 -0.36153282660081543 0 -0.27407432512854668 -0.36047435242873421 0 -0.28447771326048021 -0.37688950208321881 0 -0.28940699617227361 -0.36153282660081543 0 -0.29831742795078797 -0.37587716217801492 0 -0.28447771326048021 -0.37688950208321881 0 -0.27407432512854668 -0.36047435242873421 0 -0.28447771326048021 -0.37688950208321881 0 -0.27104634788799631 -0.3811146524423274 0 -0.27407432512854668 -0.36047435242873421 0 -0.26061073661929463 -0.37095704810168839 0 -0.27104634788799631 -0.3811146524423274 0 -0.27407432512854668 -0.36047435242873421 0 -0.26061073661929463 -0.37095704810168839 0 -0.25913484044583862 -0.35869260668696018 0 -0.26061073661929463 -0.37095704810168839 0 -0.25913484044583862 -0.35869260668696018 0 -0.2490005922272184 -0.36507546300933508 0 -0.26061073661929463 -0.37095704810168839 0 -0.24887830094792859 -0.3782086094316699 0 -0.2490005922272184 -0.36507546300933508 0 -0.26129553278233397 -0.34489942713012661 0 -0.24945885422899999 -0.35364861686929339 0 -0.24053982082965231 -0.33980925640634468 0 -0.25913484044583862 -0.35869260668696018 0 -0.26129553278233397 -0.34489942713012661 0 -0.24945885422899999 -0.35364861686929339 0 -0.25913484044583862 -0.35869260668696018 0 -0.2490005922272184 -0.36507546300933508 0 -0.24945885422899999 -0.35364861686929339 0 -0.27407432512854668 -0.36047435242873421 0 -0.25913484044583862 -0.35869260668696018 0 -0.26129553278233397 -0.34489942713012661 0 -0.28944303053566539 -0.34572442789203572 0 -0.27407432512854668 -0.36047435242873421 0 -0.26129553278233397 -0.34489942713012661 0 -0.28944303053566539 -0.34572442789203572 0 -0.26129553278233397 -0.34489942713012661 0 -0.27445046935859552 -0.32891615446122802 0 -0.26129553278233397 -0.34489942713012661 0 -0.27445046935859552 -0.32891615446122802 0 -0.26129553278233397 -0.34489942713012661 0 -0.25282081383457411 -0.32517126459204743 0 -0.24053982082965231 -0.33980925640634468 0 -0.26129553278233397 -0.34489942713012661 0 -0.27445046935859552 -0.32891615446122802 0 -0.25282081383457411 -0.32517126459204743 0 -0.25282081383457411 -0.32517126459204743 0 -0.26187902129988599 -0.3148222092108891 0 -0.249307573241177 -0.30072826396054958 0 -0.27445046935859552 -0.32891615446122802 0 -0.25282081383457411 -0.32517126459204743 0 -0.26187902129988599 -0.3148222092108891 0 -0.27445046935859552 -0.32891615446122802 0 -0.26187902129988599 -0.3148222092108891 0 -0.29141575446336038 -0.30830330116748222 0 -0.27445046935859552 -0.32891615446122802 0 -0.26187902129988599 -0.3148222092108891 0 -0.27445046935859552 -0.32891615446122802 0 -0.29332993678936531 -0.32716677208826322 0 -0.29141575446336038 -0.30830330116748222 0 -0.27445046935859552 -0.32891615446122802 0 -0.29141575446336038 -0.30830330116748222 0 -0.28944303053566539 -0.34572442789203572 0 -0.27445046935859552 -0.32891615446122802 0 -0.29332993678936531 -0.32716677208826322 0 -0.28944303053566539 -0.34572442789203572 0 -0.27445046935859552 -0.32891615446122802 0 -0.28944303053566539 -0.34572442789203572 0 -0.29332993678936531 -0.32716677208826322 0 -0.31212133237135609 -0.33724209165303382 0 -0.29332993678936531 -0.32716677208826322 0 -0.31137981470815462 -0.30994514575242849 0 -0.29141575446336038 -0.30830330116748222 0 -0.29332993678936531 -0.32716677208826322 0 -0.31212133237135609 -0.33724209165303382 0 -0.31137981470815462 -0.30994514575242849 0 -0.30838103956812429 -0.28769044787373582 0 -0.29141575446336038 -0.30830330116748222 0 -0.31137981470815462 -0.30994514575242849 0 -0.30838103956812429 -0.28769044787373582 0 -0.29141575446336038 -0.30830330116748222 0 -0.30838103956812429 -0.28769044787373582 0 -0.29084052944953609 -0.28743080456721648 0 -0.30191490027430379 -0.27340863601173482 0 -0.30838103956812429 -0.28769044787373582 0 -0.29084052944953609 -0.28743080456721648 0 -0.29141575446336038 -0.30830330116748222 0 -0.29084052944953609 -0.28743080456721648 0 -0.29141575446336038 -0.30830330116748222 0 -0.27543785661360021 -0.29952531552129169 0 -0.26187902129988599 -0.3148222092108891 0 -0.29141575446336038 -0.30830330116748222 0 -0.27543785661360021 -0.29952531552129169 0 -0.26187902129988599 -0.3148222092108891 0 -0.27543785661360021 -0.29952531552129169 0 -0.26216083642078192 -0.30104149105009947 0 -0.26216083642078192 -0.30104149105009947 0 -0.25899699079238769 -0.29041961294015128 0 -0.249307573241177 -0.30072826396054958 0 -0.26187902129988599 -0.3148222092108891 0 -0.249307573241177 -0.30072826396054958 0 -0.26187902129988599 -0.3148222092108891 0 -0.26216083642078192 -0.30104149105009947 0 -0.249307573241177 -0.30072826396054958 0 -0.25899699079238769 -0.29041961294015128 0 -0.24733474583734921 -0.27908563338862558 0 -0.2442442335931416 -0.29505171568623761 0 -0.25899699079238769 -0.29041961294015128 0 -0.26610350856992637 -0.27569437497245491 0 -0.24733474583734921 -0.27908563338862558 0 -0.25899699079238769 -0.29041961294015128 0 -0.2442442335931416 -0.29505171568623761 0 -0.249307573241177 -0.30072826396054958 0 -0.25899699079238769 -0.29041961294015128 0 -0.249307573241177 -0.30072826396054958 0 -0.26216083642078192 -0.30104149105009947 0 -0.25899699079238769 -0.29041961294015128 0 -0.27073994458310441 -0.28974394706615503 0 -0.25899699079238769 -0.29041961294015128 0 -0.27073994458310441 -0.28974394706615503 0 -0.26610350856992637 -0.27569437497245491 0 -0.29084052944953609 -0.28743080456721648 0 -0.26610350856992637 -0.27569437497245491 0 -0.29084052944953609 -0.28743080456721648 0 -0.27073994458310441 -0.28974394706615503 0 -0.26610350856992637 -0.27569437497245491 0 -0.29084052944953609 -0.28743080456721648 0 -0.27543785661360021 -0.29952531552129169 0 -0.27073994458310441 -0.28974394706615503 0 -0.27543785661360021 -0.29952531552129169 0 -0.26216083642078192 -0.30104149105009947 0 -0.27073994458310441 -0.28974394706615503 0 -0.26610350856992637 -0.27569437497245491 0 -0.25930047762213199 -0.25626596742101082 0 -0.28407107429137107 -0.26791357094615809 0 -0.29084052944953609 -0.28743080456721648 0 -0.26610350856992637 -0.27569437497245491 0 -0.28407107429137107 -0.26791357094615809 0 -0.26610350856992637 -0.27569437497245491 0 -0.2413664876903166 -0.26395794537769351 0 -0.24733474583734921 -0.27908563338862558 0 -0.26610350856992637 -0.27569437497245491 0 -0.2413664876903166 -0.26395794537769351 0 -0.26610350856992637 -0.27569437497245491 0 -0.25930047762213199 -0.25626596742101082 0 -0.2413664876903166 -0.26395794537769351 0 -0.25930047762213199 -0.25626596742101082 0 -0.28407107429137107 -0.26791357094615809 0 -0.27652474210632749 -0.2467839296031836 0 -0.28407107429137107 -0.26791357094615809 0 -0.30093553338960499 -0.25693076209158228 0 -0.27652474210632749 -0.2467839296031836 0 -0.30093553338960499 -0.25693076209158228 0 -0.27652474210632749 -0.2467839296031836 0 -0.28407107429137107 -0.26791357094615809 0 -0.30191490027430379 -0.27340863601173482 0 -0.30093553338960499 -0.25693076209158228 0 -0.29084052944953609 -0.28743080456721648 0 -0.28407107429137107 -0.26791357094615809 0 -0.30191490027430379 -0.27340863601173482 0 -0.32534632467288138 -0.26707759457998342 0 -0.30838103956812429 -0.28769044787373582 0 -0.30191490027430379 -0.27340863601173482 0 -0.32534632467288138 -0.26707759457998342 0 -0.30191490027430379 -0.27340863601173482 0 -0.30093553338960499 -0.25693076209158228 0 -0.32294052682052687 -0.25251877946222911 0 -0.30093553338960499 -0.25693076209158228 0 -0.30839492602666368 -0.24280208433148109 0 -0.34079035133544711 -0.46118981451824542 0 -0.32709384667359592 -0.46038248716826952 0 -0.32811290174366059 -0.47665977116523639 0 -0.33225556524977318 -0.45340329246586503 0 -0.34079035133544711 -0.46118981451824542 0 -0.34838502925788079 -0.44801108900969849 0 -0.33225556524977318 -0.45340329246586503 0 -0.34079035133544711 -0.46118981451824542 0 -0.32709384667359592 -0.46038248716826952 0 -0.33472104527129509 -0.43950872732504281 0 -0.32471007434937887 -0.44480128969108412 0 -0.34838502925788079 -0.44801108900969849 0 -0.33225556524977318 -0.45340329246586503 0 -0.32471007434937887 -0.44480128969108412 0 -0.34838502925788079 -0.44801108900969849 0 -0.32471007434937887 -0.44480128969108412 0 -0.34838502925788079 -0.44801108900969849 0 -0.33472104527129509 -0.43950872732504281 0 -0.34838502925788079 -0.44801108900969849 0 -0.34239823811251419 -0.43481501303592041 0 -0.33472104527129509 -0.43950872732504281 0 -0.32471007434937887 -0.44480128969108412 0 -0.32536541997217472 -0.43652752592524169 0 -0.33225556524977318 -0.45340329246586503 0 -0.32471007434937887 -0.44480128969108412 0 -0.32101990676894321 -0.45358653807602289 0 -0.32471007434937887 -0.44480128969108412 0 -0.31659065062894121 -0.43564844466377178 0 -0.30103511944087691 -0.44159149037246959 0 -0.32471007434937887 -0.44480128969108412 0 -0.30103511944087691 -0.44159149037246959 0 -0.32471007434937887 -0.44480128969108412 0 -0.32536541997217472 -0.43652752592524169 0 -0.31659065062894121 -0.43564844466377178 0 -0.32471007434937887 -0.44480128969108412 0 -0.32101990676894321 -0.45358653807602289 0 -0.31147332820219209 -0.4513403055238403 0 -0.32101990676894321 -0.45358653807602289 0 -0.31302935362439799 -0.46258814497423312 0 -0.31147332820219209 -0.4513403055238403 0 -0.32709384667359592 -0.46038248716826952 0 -0.31302935362439799 -0.46258814497423312 0 -0.32811290174366059 -0.47665977116523639 0 -0.33225556524977318 -0.45340329246586503 0 -0.32709384667359592 -0.46038248716826952 0 -0.32101990676894321 -0.45358653807602289 0 -0.32709384667359592 -0.46038248716826952 0 -0.32101990676894321 -0.45358653807602289 0 -0.31302935362439799 -0.46258814497423312 0 -0.31302935362439799 -0.46258814497423312 0 -0.31325631821363747 -0.47741446329944343 0 -0.32811290174366059 -0.47665977116523639 0 -0.31325631821363747 -0.47741446329944343 0 -0.32811290174366059 -0.47665977116523639 0 -0.31543545215187507 -0.49212972781222819 0 -0.31543545215187507 -0.49212972781222819 0 -0.32562314154314059 -0.50000000000000133 0 -0.30898585560736591 -0.5 0 -0.32811290174366059 -0.47665977116523639 0 -0.31543545215187507 -0.49212972781222819 0 -0.32630141212974151 -0.48941913853770408 0 -0.32811290174366059 -0.47665977116523639 0 -0.31543545215187507 -0.49212972781222819 0 -0.31543545215187507 -0.49212972781222819 0 -0.32630141212974151 -0.48941913853770408 0 -0.32562314154314059 -0.50000000000000133 0 -0.31543545215187507 -0.49212972781222819 0 -0.32562314154314059 -0.50000000000000133 0 -0.32562314154314059 -0.50000000000000133 0 -0.33603415308028989 -0.48888705517334963 0 -0.35378930771567763 -0.5 0 -0.32630141212974151 -0.48941913853770408 0 -0.32562314154314059 -0.50000000000000133 0 -0.33603415308028989 -0.48888705517334963 0 -0.32811290174366059 -0.47665977116523639 0 -0.32630141212974151 -0.48941913853770408 0 -0.33603415308028989 -0.48888705517334963 0 -0.32811290174366059 -0.47665977116523639 0 -0.33603415308028989 -0.48888705517334963 0 -0.34713165270975782 -0.47816279116293309 0 -0.34079035133544711 -0.46118981451824542 0 -0.32811290174366059 -0.47665977116523639 0 -0.34713165270975782 -0.47816279116293309 0 -0.34079035133544711 -0.46118981451824542 0 -0.32811290174366059 -0.47665977116523639 0 -0.34713165270975782 -0.47816279116293309 0 -0.36792886760289872 -0.48050036472909652 0 -0.35957626637382462 -0.46397052231212699 0 -0.34713165270975782 -0.47816279116293309 0 -0.35378930771567763 -0.5 0 -0.36792886760289872 -0.48050036472909652 0 -0.33603415308028989 -0.48888705517334963 0 -0.34713165270975782 -0.47816279116293309 0 -0.35378930771567763 -0.5 0 -0.38195547388821449 -0.50000000000000044 0 -0.35378930771567763 -0.5 0 -0.36792886760289872 -0.48050036472909652 0 -0.38116171317058051 -0.46473818612447582 0 -0.36792886760289872 -0.48050036472909652 0 -0.35957626637382462 -0.46397052231212699 0 -0.35957626637382462 -0.46397052231212699 0 -0.34838502925788079 -0.44801108900969849 0 -0.3720599841663827 -0.45122088832831297 0 -0.38116171317058051 -0.46473818612447582 0 -0.35957626637382462 -0.46397052231212699 0 -0.3720599841663827 -0.45122088832831297 0 -0.34079035133544711 -0.46118981451824542 0 -0.34713165270975782 -0.47816279116293309 0 -0.35957626637382462 -0.46397052231212699 0 -0.34079035133544711 -0.46118981451824542 0 -0.35957626637382462 -0.46397052231212699 0 -0.34838502925788079 -0.44801108900969849 0 -0.34838502925788079 -0.44801108900969849 0 -0.352265844269947 -0.43833598850833028 0 -0.34239823811251419 -0.43481501303592041 0 -0.34838502925788079 -0.44801108900969849 0 -0.352265844269947 -0.43833598850833028 0 -0.36325024907492942 -0.43961484564335451 0 -0.37848168988272107 -0.43428880592617097 0 -0.3720599841663827 -0.45122088832831297 0 -0.36325024907492942 -0.43961484564335451 0 -0.34838502925788079 -0.44801108900969849 0 -0.3720599841663827 -0.45122088832831297 0 -0.36325024907492942 -0.43961484564335451 0 -0.34838502925788079 -0.44801108900969849 0 -0.3720599841663827 -0.45122088832831297 0 -0.36325024907492942 -0.43961484564335451 0 -0.36766612933038739 -0.41832309700633941 0 -0.35468013497726381 -0.42986832643102119 0 -0.37848168988272107 -0.43428880592617097 0 -0.36325024907492942 -0.43961484564335451 0 -0.36766612933038739 -0.41832309700633941 0 -0.38356690653147968 -0.40982613283365121 0 -0.36766612933038739 -0.41832309700633941 0 -0.35565576256695508 -0.40767045708205668 0 -0.38356690653147968 -0.40982613283365121 0 -0.35565576256695508 -0.40767045708205668 0 -0.36766612933038739 -0.41832309700633941 0 -0.35565576256695508 -0.40767045708205668 0 -0.34325347876385859 -0.41948589153608301 0 -0.36766612933038739 -0.41832309700633941 0 -0.34325347876385859 -0.41948589153608301 0 -0.35565576256695508 -0.40767045708205668 0 -0.35246184426259131 -0.40742377954529818 0 -0.34961749613428422 -0.40911040323888542 0 -0.35565576256695508 -0.40767045708205668 0 -0.35246184426259131 -0.40742377954529818 0 -0.35347757255058099 -0.40403387508699351 0 -0.35565576256695508 -0.40767045708205668 0 -0.35246184426259131 -0.40742377954529818 0 -0.35565576256695508 -0.40767045708205668 0 -0.34721923286159889 -0.41296745121085482 0 -0.34325347876385859 -0.41948589153608301 0 -0.35565576256695508 -0.40767045708205668 0 -0.34961749613428422 -0.40911040323888542 0 -0.34721923286159889 -0.41296745121085482 0 -0.35565576256695508 -0.40767045708205668 0 -0.34325347876385859 -0.41948589153608301 0 -0.34949931059648282 -0.40675356347491581 0 -0.34961749613428422 -0.40911040323888542 0 -0.34623011936640707 -0.40746186928151212 0 -0.35246184426259131 -0.40742377954529818 0 -0.34949931059648282 -0.40675356347491581 0 -0.34961749613428422 -0.40911040323888542 0 -0.34961749613428422 -0.40911040323888542 0 -0.34721923286159889 -0.41296745121085482 0 -0.34668860299015741 -0.41014913309663342 0 -0.34721923286159889 -0.41296745121085482 0 -0.34408872996087969 -0.41113433830317692 0 -0.34343766529866587 -0.41471818877021099 0 -0.34721923286159889 -0.41296745121085482 0 -0.34408872996087969 -0.41113433830317692 0 -0.34668860299015741 -0.41014913309663342 0 -0.34408872996087969 -0.41113433830317692 0 -0.34623011936640707 -0.40746186928151212 0 -0.34096121997864748 -0.40820621062218632 0 -0.34623011936640707 -0.40746186928151212 0 -0.34432286466108047 -0.40324692845570398 0 -0.34096121997864748 -0.40820621062218632 0 -0.34961749613428422 -0.40911040323888542 0 -0.34668860299015741 -0.41014913309663342 0 -0.34623011936640707 -0.40746186928151212 0 -0.34408872996087969 -0.41113433830317692 0 -0.34668860299015741 -0.41014913309663342 0 -0.34623011936640707 -0.40746186928151212 0 -0.34721923286159889 -0.41296745121085482 0 -0.34325347876385859 -0.41948589153608301 0 -0.34343766529866587 -0.41471818877021099 0 -0.36766612933038739 -0.41832309700633941 0 -0.35468013497726381 -0.42986832643102119 0 -0.34325347876385859 -0.41948589153608301 0 -0.35468013497726381 -0.42986832643102119 0 -0.34239823811251419 -0.43481501303592041 0 -0.34325347876385859 -0.41948589153608301 0 -0.352265844269947 -0.43833598850833028 0 -0.35468013497726381 -0.42986832643102119 0 -0.34239823811251419 -0.43481501303592041 0 -0.352265844269947 -0.43833598850833028 0 -0.36325024907492942 -0.43961484564335451 0 -0.35468013497726381 -0.42986832643102119 0 -0.37574584642766701 -0.3885309927059149 0 -0.36769740972583542 -0.36406159903974888 0 -0.35712595164133698 -0.37697605471129148 0 -0.37574584642766701 -0.3885309927059149 0 -0.35542719216251412 -0.38982956718873651 0 -0.35712595164133698 -0.37697605471129148 0 -0.38181970565738338 -0.39838403747328383 0 -0.37574584642766701 -0.3885309927059149 0 -0.35565576256695508 -0.40767045708205668 0 -0.37574584642766701 -0.3885309927059149 0 -0.35610490075012918 -0.3980230618866521 0 -0.35542719216251412 -0.38982956718873651 0 -0.37574584642766701 -0.3885309927059149 0 -0.35565576256695508 -0.40767045708205668 0 -0.35610490075012918 -0.3980230618866521 0 -0.38181970565738338 -0.39838403747328383 0 -0.38356690653147968 -0.40982613283365121 0 -0.35565576256695508 -0.40767045708205668 0 -0.37574584642766701 -0.3885309927059149 0 -0.35565576256695508 -0.40767045708205668 0 -0.35565576256695508 -0.40767045708205668 0 -0.35347757255058099 -0.40403387508699351 0 -0.35610490075012918 -0.3980230618866521 0 -0.35347757255058099 -0.40403387508699351 0 -0.34968778262264871 -0.40301820183396719 0 -0.35610490075012918 -0.3980230618866521 0 -0.35246184426259131 -0.40742377954529818 0 -0.35347757255058099 -0.40403387508699351 0 -0.34968778262264871 -0.40301820183396719 0 -0.34949931059648282 -0.40675356347491581 0 -0.34623011936640707 -0.40746186928151212 0 -0.34968778262264871 -0.40301820183396719 0 -0.35246184426259131 -0.40742377954529818 0 -0.34949931059648282 -0.40675356347491581 0 -0.34968778262264871 -0.40301820183396719 0 -0.34968778262264871 -0.40301820183396719 0 -0.34567411131352171 -0.39668841643832548 0 -0.35610490075012918 -0.3980230618866521 0 -0.34623011936640707 -0.40746186928151212 0 -0.34968778262264871 -0.40301820183396719 0 -0.34432286466108047 -0.40324692845570398 0 -0.34968778262264871 -0.40301820183396719 0 -0.34432286466108047 -0.40324692845570398 0 -0.34567411131352171 -0.39668841643832548 0 -0.34567411131352171 -0.39668841643832548 0 -0.35610490075012918 -0.3980230618866521 0 -0.35542719216251412 -0.38982956718873651 0 -0.35542719216251412 -0.38982956718873651 0 -0.34793871402074011 -0.38517622622327907 0 -0.35712595164133698 -0.37697605471129148 0 -0.34567411131352171 -0.39668841643832548 0 -0.35542719216251412 -0.38982956718873651 0 -0.34793871402074011 -0.38517622622327907 0 -0.34793871402074011 -0.38517622622327907 0 -0.34422703242502378 -0.3759405060804375 0 -0.35712595164133698 -0.37697605471129148 0 -0.32652245132713797 -0.37263639085237671 0 -0.33723928256130398 -0.38644658669760451 0 -0.32540903151610412 -0.390682700114662 0 -0.32652245132713797 -0.37263639085237671 0 -0.34422703242502378 -0.3759405060804375 0 -0.33723928256130398 -0.38644658669760451 0 -0.34793871402074011 -0.38517622622327907 0 -0.34422703242502378 -0.3759405060804375 0 -0.33723928256130398 -0.38644658669760451 0 -0.34567411131352171 -0.39668841643832548 0 -0.34793871402074011 -0.38517622622327907 0 -0.33723928256130398 -0.38644658669760451 0 -0.33723928256130398 -0.38644658669760451 0 -0.33498544474004849 -0.39435584148242597 0 -0.32540903151610412 -0.390682700114662 0 -0.33498544474004849 -0.39435584148242597 0 -0.33112176784410702 -0.40037914754783033 0 -0.32540903151610412 -0.390682700114662 0 -0.34567411131352171 -0.39668841643832548 0 -0.33498544474004849 -0.39435584148242597 0 -0.33906109002417789 -0.40085994410252912 0 -0.34567411131352171 -0.39668841643832548 0 -0.33723928256130398 -0.38644658669760451 0 -0.33498544474004849 -0.39435584148242597 0 -0.34432286466108047 -0.40324692845570398 0 -0.34567411131352171 -0.39668841643832548 0 -0.33906109002417789 -0.40085994410252912 0 -0.34432286466108047 -0.40324692845570398 0 -0.33906109002417789 -0.40085994410252912 0 -0.34096121997864748 -0.40820621062218632 0 -0.33906109002417789 -0.40085994410252912 0 -0.34096121997864748 -0.40820621062218632 0 -0.33378943844545378 -0.4080266657705614 0 -0.33112176784410702 -0.40037914754783033 0 -0.32238737260274969 -0.40404314766021082 0 -0.33378943844545378 -0.4080266657705614 0 -0.33498544474004849 -0.39435584148242597 0 -0.33906109002417789 -0.40085994410252912 0 -0.33112176784410702 -0.40037914754783033 0 -0.33906109002417789 -0.40085994410252912 0 -0.33112176784410702 -0.40037914754783033 0 -0.33378943844545378 -0.4080266657705614 0 -0.32238737260274969 -0.40404314766021082 0 -0.31370994421866788 -0.41191149818446388 0 -0.31189640260715618 -0.39745018269564703 0 -0.32238737260274969 -0.40404314766021082 0 -0.32540903151610412 -0.390682700114662 0 -0.31189640260715618 -0.39745018269564703 0 -0.33112176784410702 -0.40037914754783033 0 -0.32238737260274969 -0.40404314766021082 0 -0.32540903151610412 -0.390682700114662 0 -0.32540903151610412 -0.390682700114662 0 -0.31180528554575399 -0.38101278021034068 0 -0.31189640260715618 -0.39745018269564703 0 -0.32652245132713797 -0.37263639085237671 0 -0.32540903151610412 -0.390682700114662 0 -0.31180528554575399 -0.38101278021034068 0 -0.33643454552996072 -0.43258428945557198 0 -0.34325347876385859 -0.41948589153608301 0 -0.32536541997217472 -0.43652752592524169 0 -0.34012458953605712 -0.41963492309119033 0 -0.34325347876385859 -0.41948589153608301 0 -0.32536541997217472 -0.43652752592524169 0 -0.34325347876385859 -0.41948589153608301 0 -0.32536541997217472 -0.43652752592524169 0 -0.33264534006862662 -0.42212157422277569 0 -0.34012458953605712 -0.41963492309119033 0 -0.32536541997217472 -0.43652752592524169 0 -0.33264534006862662 -0.42212157422277569 0 -0.32645503988806662 -0.42501450284296372 0 -0.32536541997217472 -0.43652752592524169 0 -0.33264534006862662 -0.42212157422277569 0 -0.32812085812534247 -0.41916177838356322 0 -0.32645503988806662 -0.42501450284296372 0 -0.33472104527129509 -0.43950872732504281 0 -0.33643454552996072 -0.43258428945557198 0 -0.32536541997217472 -0.43652752592524169 0 -0.33472104527129509 -0.43950872732504281 0 -0.33643454552996072 -0.43258428945557198 0 -0.34239823811251419 -0.43481501303592041 0 -0.33643454552996072 -0.43258428945557198 0 -0.34239823811251419 -0.43481501303592041 0 -0.34325347876385859 -0.41948589153608301 0 -0.34012458953605712 -0.41963492309119033 0 -0.34325347876385859 -0.41948589153608301 0 -0.34152092121884758 -0.41675650011013032 0 -0.34012458953605712 -0.41963492309119033 0 -0.34325347876385859 -0.41948589153608301 0 -0.34325347876385859 -0.41948589153608301 0 -0.34343766529866587 -0.41471818877021099 0 -0.34152092121884758 -0.41675650011013032 0 -0.34343766529866587 -0.41471818877021099 0 -0.34152092121884758 -0.41675650011013032 0 -0.34110596368814489 -0.4132467626908099 0 -0.34152092121884758 -0.41675650011013032 0 -0.33844339681720848 -0.41602154636269578 0 -0.34110596368814489 -0.4132467626908099 0 -0.34012458953605712 -0.41963492309119033 0 -0.34152092121884758 -0.41675650011013032 0 -0.33844339681720848 -0.41602154636269578 0 -0.33844339681720848 -0.41602154636269578 0 -0.33743683062819541 -0.41176299173012321 0 -0.33374321129059359 -0.41540593257882691 0 -0.33844339681720848 -0.41602154636269578 0 -0.33623913442812142 -0.41829599406387208 0 -0.33374321129059359 -0.41540593257882691 0 -0.33264534006862662 -0.42212157422277569 0 -0.34012458953605712 -0.41963492309119033 0 -0.33623913442812142 -0.41829599406387208 0 -0.34012458953605712 -0.41963492309119033 0 -0.33844339681720848 -0.41602154636269578 0 -0.33623913442812142 -0.41829599406387208 0 -0.34408872996087969 -0.41113433830317692 0 -0.34096121997864748 -0.40820621062218632 0 -0.34110596368814489 -0.4132467626908099 0 -0.34408872996087969 -0.41113433830317692 0 -0.34343766529866587 -0.41471818877021099 0 -0.34110596368814489 -0.4132467626908099 0 -0.34096121997864748 -0.40820621062218632 0 -0.34110596368814489 -0.4132467626908099 0 -0.33743683062819541 -0.41176299173012321 0 -0.33844339681720848 -0.41602154636269578 0 -0.34110596368814489 -0.4132467626908099 0 -0.33743683062819541 -0.41176299173012321 0 -0.34096121997864748 -0.40820621062218632 0 -0.33743683062819541 -0.41176299173012321 0 -0.33378943844545378 -0.4080266657705614 0 -0.33743683062819541 -0.41176299173012321 0 -0.33378943844545378 -0.4080266657705614 0 -0.33374321129059359 -0.41540593257882691 0 -0.33378943844545378 -0.4080266657705614 0 -0.33374321129059359 -0.41540593257882691 0 -0.32628807887263939 -0.41293149172162052 0 -0.33264534006862662 -0.42212157422277569 0 -0.33623913442812142 -0.41829599406387208 0 -0.33374321129059359 -0.41540593257882691 0 -0.33374321129059359 -0.41540593257882691 0 -0.32812085812534247 -0.41916177838356322 0 -0.32628807887263939 -0.41293149172162052 0 -0.33264534006862662 -0.42212157422277569 0 -0.33374321129059359 -0.41540593257882691 0 -0.32812085812534247 -0.41916177838356322 0 -0.32812085812534247 -0.41916177838356322 0 -0.32147262050678638 -0.42033539055162927 0 -0.32645503988806662 -0.42501450284296372 0 -0.32147262050678638 -0.42033539055162927 0 -0.32628807887263939 -0.41293149172162052 0 -0.31370994421866788 -0.41191149818446388 0 -0.32812085812534247 -0.41916177838356322 0 -0.32147262050678638 -0.42033539055162927 0 -0.32628807887263939 -0.41293149172162052 0 -0.32238737260274969 -0.40404314766021082 0 -0.33378943844545378 -0.4080266657705614 0 -0.32628807887263939 -0.41293149172162052 0 -0.32238737260274969 -0.40404314766021082 0 -0.32628807887263939 -0.41293149172162052 0 -0.31370994421866788 -0.41191149818446388 0 -0.32147262050678638 -0.42033539055162927 0 -0.31370994421866788 -0.41191149818446388 0 -0.31176780197977222 -0.42637326769589778 0 -0.32147262050678638 -0.42033539055162927 0 -0.32007483740250348 -0.42894864963416562 0 -0.31176780197977222 -0.42637326769589778 0 -0.32147262050678638 -0.42033539055162927 0 -0.32007483740250348 -0.42894864963416562 0 -0.32645503988806662 -0.42501450284296372 0 -0.32007483740250348 -0.42894864963416562 0 -0.32645503988806662 -0.42501450284296372 0 -0.32536541997217472 -0.43652752592524169 0 -0.32007483740250348 -0.42894864963416562 0 -0.32536541997217472 -0.43652752592524169 0 -0.31659065062894121 -0.43564844466377178 0 -0.32007483740250348 -0.42894864963416562 0 -0.31659065062894121 -0.43564844466377178 0 -0.31176780197977222 -0.42637326769589778 0 -0.31659065062894121 -0.43564844466377178 0 -0.31176780197977222 -0.42637326769589778 0 -0.30103511944087691 -0.44159149037246959 0 -0.31176780197977222 -0.42637326769589778 0 -0.29741926497016019 -0.41952128749243461 0 -0.30103511944087691 -0.44159149037246959 0 -0.31370994421866788 -0.41191149818446388 0 -0.31176780197977222 -0.42637326769589778 0 -0.29741926497016019 -0.41952128749243461 0 -0.31370994421866788 -0.41191149818446388 0 -0.29741926497016019 -0.41952128749243461 0 -0.30163048713378582 -0.40551672864661198 0 -0.28968507011033012 -0.40812173188162121 0 -0.27818748492587458 -0.39926879904584239 0 -0.27929160738491521 -0.42148371174143451 0 -0.29741926497016019 -0.41952128749243461 0 -0.28968507011033012 -0.40812173188162121 0 -0.27929160738491521 -0.42148371174143451 0 -0.29741926497016019 -0.41952128749243461 0 -0.28968507011033012 -0.40812173188162121 0 -0.30163048713378582 -0.40551672864661198 0 -0.29741926497016019 -0.41952128749243461 0 -0.28964158973255488 -0.43212683863537432 0 -0.27929160738491521 -0.42148371174143451 0 -0.29741926497016019 -0.41952128749243461 0 -0.28964158973255488 -0.43212683863537432 0 -0.30103511944087691 -0.44159149037246959 0 -0.28964158973255488 -0.43212683863537432 0 -0.27929160738491521 -0.42148371174143451 0 -0.28039572984395572 -0.44369862443702662 0 -0.31180528554575399 -0.38101278021034068 0 -0.29831742795078797 -0.37587716217801492 0 -0.29643629462587562 -0.39153424135759268 0 -0.31180528554575399 -0.38101278021034068 0 -0.31189640260715618 -0.39745018269564703 0 -0.29643629462587562 -0.39153424135759268 0 -0.31189640260715618 -0.39745018269564703 0 -0.30163048713378582 -0.40551672864661198 0 -0.29643629462587562 -0.39153424135759268 0 -0.31370994421866788 -0.41191149818446388 0 -0.31189640260715618 -0.39745018269564703 0 -0.30163048713378582 -0.40551672864661198 0 -0.28968507011033012 -0.40812173188162121 0 -0.30163048713378582 -0.40551672864661198 0 -0.29643629462587562 -0.39153424135759268 0 -0.28968507011033012 -0.40812173188162121 0 -0.29643629462587562 -0.39153424135759268 0 -0.27818748492587458 -0.39926879904584239 0 -0.29643629462587562 -0.39153424135759268 0 -0.28447771326048021 -0.37688950208321881 0 -0.27818748492587458 -0.39926879904584239 0 -0.29831742795078797 -0.37587716217801492 0 -0.29643629462587562 -0.39153424135759268 0 -0.28447771326048021 -0.37688950208321881 0 -0.27104634788799631 -0.3811146524423274 0 -0.27818748492587458 -0.39926879904584239 0 -0.25908368679367461 -0.38941968995186488 0 -0.28447771326048021 -0.37688950208321881 0 -0.27104634788799631 -0.3811146524423274 0 -0.27818748492587458 -0.39926879904584239 0 -0.25908368679367461 -0.38941968995186488 0 -0.25295000250272159 -0.40690050635947911 0 -0.24063741193811949 -0.38770622293697088 0 -0.27818748492587458 -0.39926879904584239 0 -0.25908368679367461 -0.38941968995186488 0 -0.25295000250272159 -0.40690050635947911 0 -0.26061073661929463 -0.37095704810168839 0 -0.25908368679367461 -0.38941968995186488 0 -0.24887830094792859 -0.3782086094316699 0 -0.26061073661929463 -0.37095704810168839 0 -0.27104634788799631 -0.3811146524423274 0 -0.25908368679367461 -0.38941968995186488 0 -0.27929160738491521 -0.42148371174143451 0 -0.2562624079045423 -0.42752876840302823 0 -0.26679803551909592 -0.43866300905197542 0 -0.27929160738491521 -0.42148371174143451 0 -0.28039572984395572 -0.44369862443702662 0 -0.26679803551909592 -0.43866300905197542 0 -0.27929160738491521 -0.42148371174143451 0 -0.28039572984395572 -0.44369862443702662 0 -0.27818748492587458 -0.39926879904584239 0 -0.27929160738491521 -0.42148371174143451 0 -0.25295000250272159 -0.40690050635947911 0 -0.27818748492587458 -0.39926879904584239 0 -0.27929160738491521 -0.42148371174143451 0 -0.27929160738491521 -0.42148371174143451 0 -0.25295000250272159 -0.40690050635947911 0 -0.2562624079045423 -0.42752876840302823 0 -0.2562624079045423 -0.42752876840302823 0 -0.25215213581594109 -0.44324161340467277 0 -0.26679803551909592 -0.43866300905197542 0 -0.25215213581594109 -0.44324161340467277 0 -0.26682599405946938 -0.45457757526864528 0 -0.26679803551909592 -0.43866300905197542 0 -0.25215213581594109 -0.44324161340467277 0 -0.2504491408358962 -0.46059822757701102 0 -0.26682599405946938 -0.45457757526864528 0 -0.25215213581594109 -0.44324161340467277 0 -0.26682599405946938 -0.45457757526864528 0 -0.2504491408358962 -0.46059822757701102 0 -0.26682599405946938 -0.45457757526864528 0 -0.2623900987067353 -0.47612921568703731 0 -0.28039572984395572 -0.44369862443702662 0 -0.2814998523029969 -0.46591353713261868 0 -0.26682599405946938 -0.45457757526864528 0 -0.2814998523029969 -0.46591353713261868 0 -0.2623900987067353 -0.47612921568703731 0 -0.26682599405946938 -0.45457757526864528 0 -0.28039572984395572 -0.44369862443702662 0 -0.2814998523029969 -0.46591353713261868 0 -0.26682599405946938 -0.45457757526864528 0 -0.2814998523029969 -0.46591353713261868 0 -0.26682599405946938 -0.45457757526864528 0 -0.28039572984395572 -0.44369862443702662 0 -0.26679803551909592 -0.43866300905197542 0 -0.28964158973255488 -0.43212683863537432 0 -0.28039572984395572 -0.44369862443702662 0 -0.30103511944087691 -0.44159149037246959 0 -0.28039572984395572 -0.44369862443702662 0 -0.29829356896374348 -0.45508882063938688 0 -0.30103511944087691 -0.44159149037246959 0 -0.2814998523029969 -0.46591353713261868 0 -0.29829356896374348 -0.45508882063938688 0 -0.30171188236913432 -0.46776856670474981 0 -0.28039572984395572 -0.44369862443702662 0 -0.2814998523029969 -0.46591353713261868 0 -0.29829356896374348 -0.45508882063938688 0 -0.31302935362439799 -0.46258814497423312 0 -0.29829356896374348 -0.45508882063938688 0 -0.30171188236913432 -0.46776856670474981 0 -0.31302935362439799 -0.46258814497423312 0 -0.29829356896374348 -0.45508882063938688 0 -0.31147332820219209 -0.4513403055238403 0 -0.32471007434937887 -0.44480128969108412 0 -0.31147332820219209 -0.4513403055238403 0 -0.30103511944087691 -0.44159149037246959 0 -0.29829356896374348 -0.45508882063938688 0 -0.31147332820219209 -0.4513403055238403 0 -0.30103511944087691 -0.44159149037246959 0 -0.31543545215187507 -0.49212972781222819 0 -0.29846765222743632 -0.47902163247242302 0 -0.31543545215187507 -0.49212972781222819 0 -0.29717313326517408 -0.49112553929321062 0 -0.29846765222743632 -0.47902163247242302 0 -0.31543545215187507 -0.49212972781222819 0 -0.29717313326517408 -0.49112553929321062 0 -0.30898585560736591 -0.5 0 -0.31543545215187507 -0.49212972781222819 0 -0.30898585560736591 -0.5 0 -0.31325631821363747 -0.47741446329944343 0 -0.31543545215187507 -0.49212972781222819 0 -0.29846765222743632 -0.47902163247242302 0 -0.31302935362439799 -0.46258814497423312 0 -0.31325631821363747 -0.47741446329944343 0 -0.30171188236913432 -0.46776856670474981 0 -0.31325631821363747 -0.47741446329944343 0 -0.30171188236913432 -0.46776856670474981 0 -0.29846765222743632 -0.47902163247242302 0 -0.2814998523029969 -0.46591353713261868 0 -0.28242245792442111 -0.48447633618140118 0 -0.2814998523029969 -0.46591353713261868 0 -0.29846765222743632 -0.47902163247242302 0 -0.2814998523029969 -0.46591353713261868 0 -0.29846765222743632 -0.47902163247242302 0 -0.28242245792442111 -0.48447633618140118 0 -0.2814998523029969 -0.46591353713261868 0 -0.30171188236913432 -0.46776856670474981 0 -0.29846765222743632 -0.47902163247242302 0 -0.29717313326517408 -0.49112553929321062 0 -0.29846765222743632 -0.47902163247242302 0 -0.28242245792442111 -0.48447633618140118 0 -0.29717313326517408 -0.49112553929321062 0 -0.30898585560736591 -0.5 0 -0.28055424841477211 -0.5 0 -0.29717313326517408 -0.49112553929321062 0 -0.28242245792442111 -0.48447633618140118 0 -0.28055424841477211 -0.5 0 -0.28055424841477211 -0.5 0 -0.26799600142641627 -0.49061441868922617 0 -0.25212264122217831 -0.5 0 -0.28242245792442111 -0.48447633618140118 0 -0.28055424841477211 -0.5 0 -0.26799600142641627 -0.49061441868922617 0 -0.28242245792442111 -0.48447633618140118 0 -0.26799600142641627 -0.49061441868922617 0 -0.2623900987067353 -0.47612921568703731 0 -0.2814998523029969 -0.46591353713261868 0 -0.28242245792442111 -0.48447633618140118 0 -0.2623900987067353 -0.47612921568703731 0 -0.2623900987067353 -0.47612921568703731 0 -0.25212264122217831 -0.5 0 -0.24581683496037979 -0.4763230521274015 0 -0.2504491408358962 -0.46059822757701102 0 -0.2623900987067353 -0.47612921568703731 0 -0.24581683496037979 -0.4763230521274015 0 -0.26799600142641627 -0.49061441868922617 0 -0.2623900987067353 -0.47612921568703731 0 -0.25212264122217831 -0.5 0 -0.25212264122217831 -0.5 0 -0.237682441808897 -0.48934966351860509 0 -0.22369103402958451 -0.5 0 -0.25212264122217831 -0.5 0 -0.237682441808897 -0.48934966351860509 0 -0.24581683496037979 -0.4763230521274015 0 -0.24581683496037979 -0.4763230521274015 0 -0.22901808639096591 -0.4751890211558934 0 -0.23661567243915069 -0.46454908548442758 0 -0.237682441808897 -0.48934966351860509 0 -0.24581683496037979 -0.4763230521274015 0 -0.22901808639096591 -0.4751890211558934 0 -0.22901808639096591 -0.4751890211558934 0 -0.2164143117698164 -0.45949574465008602 0 -0.21473307564300911 -0.47545666338576059 0 -0.237682441808897 -0.48934966351860509 0 -0.22901808639096591 -0.4751890211558934 0 -0.22279914169883991 -0.48667195209696412 0 -0.22901808639096591 -0.4751890211558934 0 -0.22279914169883991 -0.48667195209696412 0 -0.21473307564300911 -0.47545666338576059 0 -0.22279914169883991 -0.48667195209696412 0 -0.22369103402958451 -0.5 0 -0.20986310102229019 -0.49000229508979609 0 -0.237682441808897 -0.48934966351860509 0 -0.22279914169883991 -0.48667195209696412 0 -0.22369103402958451 -0.5 0 -0.25215213581594109 -0.44324161340467277 0 -0.2504491408358962 -0.46059822757701102 0 -0.23586224266720299 -0.45127000508331 0 -0.25215213581594109 -0.44324161340467277 0 -0.23586224266720299 -0.45127000508331 0 -0.23957818262563341 -0.43573973243351721 0 -0.2504491408358962 -0.46059822757701102 0 -0.24581683496037979 -0.4763230521274015 0 -0.23661567243915069 -0.46454908548442758 0 -0.2504491408358962 -0.46059822757701102 0 -0.23586224266720299 -0.45127000508331 0 -0.23661567243915069 -0.46454908548442758 0 -0.23586224266720299 -0.45127000508331 0 -0.23661567243915069 -0.46454908548442758 0 -0.2164143117698164 -0.45949574465008602 0 -0.22901808639096591 -0.4751890211558934 0 -0.23661567243915069 -0.46454908548442758 0 -0.2164143117698164 -0.45949574465008602 0 -0.23586224266720299 -0.45127000508331 0 -0.2164143117698164 -0.45949574465008602 0 -0.21534484190232739 -0.43090420760733672 0 -0.23586224266720299 -0.45127000508331 0 -0.21534484190232739 -0.43090420760733672 0 -0.23586224266720299 -0.45127000508331 0 -0.21534484190232739 -0.43090420760733672 0 -0.23957818262563341 -0.43573973243351721 0 -0.2164143117698164 -0.45949574465008602 0 -0.19742982577034329 -0.44909519009474619 0 -0.21534484190232739 -0.43090420760733672 0 -0.2164143117698164 -0.45949574465008602 0 -0.21473307564300911 -0.47545666338576059 0 -0.1932091928148546 -0.47120974335840388 0 -0.19742982577034329 -0.44909519009474619 0 -0.1932091928148546 -0.47120974335840388 0 -0.17655528460741901 -0.45241719162701172 0 -0.2164143117698164 -0.45949574465008602 0 -0.19742982577034329 -0.44909519009474619 0 -0.1932091928148546 -0.47120974335840388 0 -0.22369103402958451 -0.5 0 -0.20986310102229019 -0.49000229508979609 0 -0.19525942683699071 -0.5 0 -0.20986310102229019 -0.49000229508979609 0 -0.21473307564300911 -0.47545666338576059 0 -0.1932091928148546 -0.47120974335840388 0 -0.22279914169883991 -0.48667195209696412 0 -0.20986310102229019 -0.49000229508979609 0 -0.21473307564300911 -0.47545666338576059 0 -0.20986310102229019 -0.49000229508979609 0 -0.1932091928148546 -0.47120974335840388 0 -0.18239960193406149 -0.48644765405047391 0 -0.20986310102229019 -0.49000229508979609 0 -0.1932091928148546 -0.47120974335840388 0 -0.20986310102229019 -0.49000229508979609 0 -0.19525942683699071 -0.5 0 -0.18239960193406149 -0.48644765405047391 0 -0.18239960193406149 -0.48644765405047391 0 -0.166827819644397 -0.5 0 -0.16742744433269849 -0.47306847287563109 0 -0.19525942683699071 -0.5 0 -0.18239960193406149 -0.48644765405047391 0 -0.166827819644397 -0.5 0 -0.166827819644397 -0.5 0 -0.16742744433269849 -0.47306847287563109 0 -0.1502476879666301 -0.4831751371424014 0 -0.1932091928148546 -0.47120974335840388 0 -0.18239960193406149 -0.48644765405047391 0 -0.16742744433269849 -0.47306847287563109 0 -0.1932091928148546 -0.47120974335840388 0 -0.16742744433269849 -0.47306847287563109 0 -0.17655528460741901 -0.45241719162701172 0 -0.1932091928148546 -0.47120974335840388 0 -0.17655528460741901 -0.45241719162701172 0 -0.19742982577034329 -0.44909519009474619 0 -0.17655528460741901 -0.45241719162701172 0 -0.18562549775729911 -0.43144906323089238 0 -0.17655528460741901 -0.45241719162701172 0 -0.15990137639998339 -0.4336246398956195 0 -0.18562549775729911 -0.43144906323089238 0 -0.17655528460741901 -0.45241719162701172 0 -0.15816730194609391 -0.45193697189172782 0 -0.15990137639998339 -0.4336246398956195 0 -0.17655528460741901 -0.45241719162701172 0 -0.15990137639998339 -0.4336246398956195 0 -0.16742744433269849 -0.47306847287563109 0 -0.15816730194609391 -0.45193697189172782 0 -0.14512111803616001 -0.46553941860815629 0 -0.16742744433269849 -0.47306847287563109 0 -0.17655528460741901 -0.45241719162701172 0 -0.15816730194609391 -0.45193697189172782 0 -0.15816730194609391 -0.45193697189172782 0 -0.14512111803616001 -0.46553941860815629 0 -0.13868813476204581 -0.44221553282327469 0 -0.15816730194609391 -0.45193697189172782 0 -0.13868813476204581 -0.44221553282327469 0 -0.15990137639998339 -0.4336246398956195 0 -0.13868813476204581 -0.44221553282327469 0 -0.12207330751934641 -0.46414785506074818 0 -0.11651476363668679 -0.44128747241379468 0 -0.14512111803616001 -0.46553941860815629 0 -0.13868813476204581 -0.44221553282327469 0 -0.12207330751934641 -0.46414785506074818 0 -0.14512111803616001 -0.46553941860815629 0 -0.13432469583135759 -0.47870031690077203 0 -0.12207330751934641 -0.46414785506074818 0 -0.13432469583135759 -0.47870031690077203 0 -0.1199076354065251 -0.48751528252079979 0 -0.12207330751934641 -0.46414785506074818 0 -0.1383962124518032 -0.49999999999999911 0 -0.1199076354065251 -0.48751528252079979 0 -0.13432469583135759 -0.47870031690077203 0 -0.1383962124518032 -0.49999999999999911 0 -0.1199076354065251 -0.48751528252079979 0 -0.1383962124518032 -0.49999999999999911 0 -0.1199076354065251 -0.48751528252079979 0 -0.1172874271990063 -0.5 0 -0.166827819644397 -0.5 0 -0.1383962124518032 -0.49999999999999911 0 -0.1502476879666301 -0.4831751371424014 0 -0.13432469583135759 -0.47870031690077203 0 -0.1383962124518032 -0.49999999999999911 0 -0.1502476879666301 -0.4831751371424014 0 -0.14512111803616001 -0.46553941860815629 0 -0.13432469583135759 -0.47870031690077203 0 -0.1502476879666301 -0.4831751371424014 0 -0.16742744433269849 -0.47306847287563109 0 -0.14512111803616001 -0.46553941860815629 0 -0.1502476879666301 -0.4831751371424014 0 -0.13938652197112811 -0.37946147449597328 0 -0.16567581171298609 -0.38160218240169758 0 -0.15617843058116329 -0.37615949274389499 0 -0.13938652197112811 -0.37946147449597328 0 -0.1470242146689833 -0.37126862532301919 0 -0.15617843058116329 -0.37615949274389499 0 -0.13938652197112811 -0.37946147449597328 0 -0.16567581171298609 -0.38160218240169758 0 -0.1504518001788438 -0.39310607454411461 0 -0.13938652197112811 -0.37946147449597328 0 -0.16567581171298609 -0.38160218240169758 0 -0.13938652197112811 -0.37946147449597328 0 -0.11309723222927021 -0.37732076659024738 0 -0.1504518001788438 -0.39310607454411461 0 -0.13938652197112811 -0.37946147449597328 0 -0.12659355998511121 -0.39603953643283568 0 -0.13938652197112811 -0.37946147449597328 0 -0.1227318875366428 -0.38305617443290679 0 -0.11309723222927021 -0.37732076659024738 0 -0.13938652197112811 -0.37946147449597328 0 -0.12704694408505809 -0.37127663210582229 0 -0.11309723222927021 -0.37732076659024738 0 -0.13938652197112811 -0.37946147449597328 0 -0.12659355998511121 -0.39603953643283568 0 -0.1227318875366428 -0.38305617443290679 0 -0.1504518001788438 -0.39310607454411461 0 -0.12659355998511121 -0.39603953643283568 0 -0.12659355998511121 -0.39603953643283568 0 -0.1432474681925478 -0.41483208816422718 0 -0.1504518001788438 -0.39310607454411461 0 -0.12659355998511121 -0.39603953643283568 0 -0.1432474681925478 -0.41483208816422718 0 -0.1432474681925478 -0.41483208816422718 0 -0.124275481484544 -0.42618581527367921 0 -0.1166368604975124 -0.41077218405426152 0 -0.12659355998511121 -0.39603953643283568 0 -0.1432474681925478 -0.41483208816422718 0 -0.1166368604975124 -0.41077218405426152 0 -0.13868813476204581 -0.44221553282327469 0 -0.1432474681925478 -0.41483208816422718 0 -0.124275481484544 -0.42618581527367921 0 -0.13868813476204581 -0.44221553282327469 0 -0.11651476363668679 -0.44128747241379468 0 -0.124275481484544 -0.42618581527367921 0 -0.13868813476204581 -0.44221553282327469 0 -0.1432474681925478 -0.41483208816422718 0 -0.15990137639998339 -0.4336246398956195 0 -0.1432474681925478 -0.41483208816422718 0 -0.15990137639998339 -0.4336246398956195 0 -0.1504518001788438 -0.39310607454411461 0 -0.1432474681925478 -0.41483208816422718 0 -0.16980583991851311 -0.41283066112604311 0 -0.1432474681925478 -0.41483208816422718 0 -0.16980583991851311 -0.41283066112604311 0 -0.15990137639998339 -0.4336246398956195 0 -0.16980583991851311 -0.41283066112604311 0 -0.15990137639998339 -0.4336246398956195 0 -0.18562549775729911 -0.43144906323089238 0 -0.16980583991851311 -0.41283066112604311 0 -0.18562549775729911 -0.43144906323089238 0 -0.19482744113745179 -0.41053841013136327 0 -0.16980583991851311 -0.41283066112604311 0 -0.1743100403725758 -0.39017261265539038 0 -0.19482744113745179 -0.41053841013136327 0 -0.1743100403725758 -0.39017261265539038 0 -0.19482744113745179 -0.41053841013136327 0 -0.1504518001788438 -0.39310607454411461 0 -0.16980583991851311 -0.41283066112604311 0 -0.1743100403725758 -0.39017261265539038 0 -0.1504518001788438 -0.39310607454411461 0 -0.1743100403725758 -0.39017261265539038 0 -0.1504518001788438 -0.39310607454411461 0 -0.16567581171298609 -0.38160218240169758 0 -0.1743100403725758 -0.39017261265539038 0 -0.15617843058116329 -0.37615949274389499 0 -0.1627192674065451 -0.37758507035451783 0 -0.16567581171298609 -0.38160218240169758 0 -0.15617843058116329 -0.37615949274389499 0 -0.1627192674065451 -0.37758507035451783 0 -0.16279571307832411 -0.37552838030133062 0 -0.1627192674065451 -0.37758507035451783 0 -0.16279571307832411 -0.37552838030133062 0 -0.1664551971824747 -0.37727662359277081 0 -0.16567581171298609 -0.38160218240169758 0 -0.1743100403725758 -0.39017261265539038 0 -0.1627192674065451 -0.37758507035451783 0 -0.16567581171298609 -0.38160218240169758 0 -0.1664551971824747 -0.37727662359277081 0 -0.16567581171298609 -0.38160218240169758 0 -0.1664551971824747 -0.37727662359277081 0 -0.17298372832009029 -0.37649694526688698 0 -0.16567581171298609 -0.38160218240169758 0 -0.1892395492205009 -0.38352095159120952 0 -0.16567581171298609 -0.38160218240169758 0 -0.17298372832009029 -0.37649694526688698 0 -0.1892395492205009 -0.38352095159120952 0 -0.1743100403725758 -0.39017261265539038 0 -0.19355666355029591 -0.38780616671805479 0 -0.16567581171298609 -0.38160218240169758 0 -0.1743100403725758 -0.39017261265539038 0 -0.1892395492205009 -0.38352095159120952 0 -0.1743100403725758 -0.39017261265539038 0 -0.19355666355029591 -0.38780616671805479 0 -0.1892395492205009 -0.38352095159120952 0 -0.17298372832009029 -0.37649694526688698 0 -0.1892395492205009 -0.38352095159120952 0 -0.1785868318523402 -0.37015288299220772 0 -0.19355666355029591 -0.38780616671805479 0 -0.1892395492205009 -0.38352095159120952 0 -0.21280328672801599 -0.38543972078071898 0 -0.1892395492205009 -0.38352095159120952 0 -0.21280328672801599 -0.38543972078071898 0 -0.2034267581171483 -0.37053420898039002 0 -0.1892395492205009 -0.38352095159120952 0 -0.21280328672801599 -0.38543972078071898 0 -0.1743100403725758 -0.39017261265539038 0 -0.19355666355029591 -0.38780616671805479 0 -0.19482744113745179 -0.41053841013136327 0 -0.19355666355029591 -0.38780616671805479 0 -0.2107114237475988 -0.40383880467337813 0 -0.19482744113745179 -0.41053841013136327 0 -0.19355666355029591 -0.38780616671805479 0 -0.2107114237475988 -0.40383880467337813 0 -0.21280328672801599 -0.38543972078071898 0 -0.2107114237475988 -0.40383880467337813 0 -0.21280328672801599 -0.38543972078071898 0 -0.22319764286522359 -0.3976481061556687 0 -0.21424880533829829 -0.38555742776889901 0 -0.21247241193018679 -0.37746970488942438 0 -0.21938649696527701 -0.36864588890633759 0 -0.21280328672801599 -0.38543972078071898 0 -0.21424880533829829 -0.38555742776889901 0 -0.21247241193018679 -0.37746970488942438 0 -0.21280328672801599 -0.38543972078071898 0 -0.21424880533829829 -0.38555742776889901 0 -0.22319764286522359 -0.3976481061556687 0 -0.19355666355029591 -0.38780616671805479 0 -0.21280328672801599 -0.38543972078071898 0 -0.21280328672801599 -0.38543972078071898 0 -0.21424880533829829 -0.38555742776889901 0 -0.21280328672801599 -0.38543972078071898 0 -0.21247241193018679 -0.37746970488942438 0 -0.2034267581171483 -0.37053420898039002 0 -0.19742982577034329 -0.44909519009474619 0 -0.18562549775729911 -0.43144906323089238 0 -0.21534484190232739 -0.43090420760733672 0 -0.18562549775729911 -0.43144906323089238 0 -0.19482744113745179 -0.41053841013136327 0 -0.21534484190232739 -0.43090420760733672 0 -0.19482744113745179 -0.41053841013136327 0 -0.21534484190232739 -0.43090420760733672 0 -0.2107114237475988 -0.40383880467337813 0 -0.19482744113745179 -0.41053841013136327 0 -0.21534484190232739 -0.43090420760733672 0 -0.2107114237475988 -0.40383880467337813 0 -0.21534484190232739 -0.43090420760733672 0 -0.22453866630227809 -0.41069621664712569 0 -0.21534484190232739 -0.43090420760733672 0 -0.2383014888204478 -0.42076048195639049 0 -0.23957818262563341 -0.43573973243351721 0 -0.22453866630227809 -0.41069621664712569 0 -0.2383014888204478 -0.42076048195639049 0 -0.2350433709633622 -0.40392263008053592 0 -0.21534484190232739 -0.43090420760733672 0 -0.22453866630227809 -0.41069621664712569 0 -0.2383014888204478 -0.42076048195639049 0 -0.25295000250272159 -0.40690050635947911 0 -0.2562624079045423 -0.42752876840302823 0 -0.2383014888204478 -0.42076048195639049 0 -0.25295000250272159 -0.40690050635947911 0 -0.2383014888204478 -0.42076048195639049 0 -0.2350433709633622 -0.40392263008053592 0 -0.2562624079045423 -0.42752876840302823 0 -0.2383014888204478 -0.42076048195639049 0 -0.23957818262563341 -0.43573973243351721 0 -0.2562624079045423 -0.42752876840302823 0 -0.25215213581594109 -0.44324161340467277 0 -0.23957818262563341 -0.43573973243351721 0 -0.23576110843565551 -0.38730915091406809 0 -0.21938649696527701 -0.36864588890633759 0 -0.21424880533829829 -0.38555742776889901 0 -0.22319764286522359 -0.3976481061556687 0 -0.23576110843565551 -0.38730915091406809 0 -0.23576110843565551 -0.38730915091406809 0 -0.21938649696527701 -0.36864588890633759 0 -0.23182421353939639 -0.36942937872115988 0 -0.21424880533829829 -0.38555742776889901 0 -0.23576110843565551 -0.38730915091406809 0 -0.21424880533829829 -0.38555742776889901 0 -0.23576110843565551 -0.38730915091406809 0 -0.21938649696527701 -0.36864588890633759 0 -0.22319764286522359 -0.3976481061556687 0 -0.2350433709633622 -0.40392263008053592 0 -0.23576110843565551 -0.38730915091406809 0 -0.2107114237475988 -0.40383880467337813 0 -0.22453866630227809 -0.41069621664712569 0 -0.22319764286522359 -0.3976481061556687 0 -0.22453866630227809 -0.41069621664712569 0 -0.22319764286522359 -0.3976481061556687 0 -0.2350433709633622 -0.40392263008053592 0 -0.25295000250272159 -0.40690050635947911 0 -0.24063741193811949 -0.38770622293697088 0 -0.23576110843565551 -0.38730915091406809 0 -0.25295000250272159 -0.40690050635947911 0 -0.2350433709633622 -0.40392263008053592 0 -0.23576110843565551 -0.38730915091406809 0 -0.25295000250272159 -0.40690050635947911 0 -0.23576110843565551 -0.38730915091406809 0 -0.23576110843565551 -0.38730915091406809 0 -0.23926072612202801 -0.37862905574238759 0 -0.23182421353939639 -0.36942937872115988 0 -0.25908368679367461 -0.38941968995186488 0 -0.24063741193811949 -0.38770622293697088 0 -0.24887830094792859 -0.3782086094316699 0 -0.24063741193811949 -0.38770622293697088 0 -0.23576110843565551 -0.38730915091406809 0 -0.23926072612202801 -0.37862905574238759 0 -0.24063741193811949 -0.38770622293697088 0 -0.23576110843565551 -0.38730915091406809 0 -0.24063741193811949 -0.38770622293697088 0 -0.23926072612202801 -0.37862905574238759 0 -0.24887830094792859 -0.3782086094316699 0 -0.23926072612202801 -0.37862905574238759 0 -0.24887830094792859 -0.3782086094316699 0 -0.24100540379808899 -0.3710856928477872 0 -0.24887830094792859 -0.3782086094316699 0 -0.2490005922272184 -0.36507546300933508 0 -0.24100540379808899 -0.3710856928477872 0 -0.2490005922272184 -0.36507546300933508 0 -0.23670640423855699 -0.3605622681658886 0 -0.24100540379808899 -0.3710856928477872 0 -0.2490005922272184 -0.36507546300933508 0 -0.23670640423855699 -0.3605622681658886 0 -0.24945885422899999 -0.35364861686929339 0 -0.23670640423855699 -0.3605622681658886 0 -0.24100540379808899 -0.3710856928477872 0 -0.23182421353939639 -0.36942937872115988 0 -0.23926072612202801 -0.37862905574238759 0 -0.24100540379808899 -0.3710856928477872 0 -0.23182421353939639 -0.36942937872115988 0 -0.21938649696527701 -0.36864588890633759 0 -0.23182421353939639 -0.36942937872115988 0 -0.22315188099448971 -0.35176927848581557 0 -0.23670640423855699 -0.3605622681658886 0 -0.23182421353939639 -0.36942937872115988 0 -0.22315188099448971 -0.35176927848581557 0 -0.23670640423855699 -0.3605622681658886 0 -0.22315188099448971 -0.35176927848581557 0 -0.24053982082965231 -0.33980925640634468 0 -0.23670640423855699 -0.3605622681658886 0 -0.22315188099448971 -0.35176927848581557 0 -0.23670640423855699 -0.3605622681658886 0 -0.24945885422899999 -0.35364861686929339 0 -0.24053982082965231 -0.33980925640634468 0 -0.25282081383457411 -0.32517126459204743 0 -0.24053982082965231 -0.33980925640634468 0 -0.22945246549579981 -0.32185227638314629 0 -0.25282081383457411 -0.32517126459204743 0 -0.22945246549579981 -0.32185227638314629 0 -0.249307573241177 -0.30072826396054958 0 -0.22945246549579981 -0.32185227638314629 0 -0.20959735775042229 -0.34297628880574271 0 -0.22315188099448971 -0.35176927848581557 0 -0.22945246549579981 -0.32185227638314629 0 -0.20959735775042229 -0.34297628880574271 0 -0.22315188099448971 -0.35176927848581557 0 -0.24053982082965231 -0.33980925640634468 0 -0.22945246549579981 -0.32185227638314629 0 -0.22945246549579981 -0.32185227638314629 0 -0.20959735775042229 -0.34297628880574271 0 -0.20255690739786381 -0.32742370538632332 0 -0.22945246549579981 -0.32185227638314629 0 -0.20878180140404731 -0.3171400520839931 0 -0.20255690739786381 -0.32742370538632332 0 -0.22945246549579981 -0.32185227638314629 0 -0.20878180140404731 -0.3171400520839931 0 -0.2128447935382736 -0.3048768022265903 0 -0.20255690739786381 -0.32742370538632332 0 -0.19460103094364251 -0.3219325568176411 0 -0.1854852108464852 -0.32733443589265537 0 -0.20878180140404731 -0.3171400520839931 0 -0.19460103094364251 -0.3219325568176411 0 -0.19855118184411749 -0.31082837607434771 0 -0.20878180140404731 -0.3171400520839931 0 -0.20255690739786381 -0.32742370538632332 0 -0.19460103094364251 -0.3219325568176411 0 -0.19460103094364251 -0.3219325568176411 0 -0.1869174806425416 -0.32088745242445699 0 -0.1854852108464852 -0.32733443589265537 0 -0.19460103094364251 -0.3219325568176411 0 -0.18855236989799731 -0.31633790521216232 0 -0.19855118184411749 -0.31082837607434771 0 -0.19460103094364251 -0.3219325568176411 0 -0.18855236989799731 -0.31633790521216232 0 -0.1869174806425416 -0.32088745242445699 0 -0.20959735775042229 -0.34297628880574271 0 -0.20255690739786381 -0.32742370538632332 0 -0.1854852108464852 -0.32733443589265537 0 -0.20959735775042229 -0.34297628880574271 0 -0.18837938860257691 -0.33330497174797119 0 -0.20301188549489721 -0.34998262689860837 0 -0.18837938860257691 -0.33330497174797119 0 -0.20301188549489721 -0.34998262689860837 0 -0.20959735775042229 -0.34297628880574271 0 -0.1854852108464852 -0.32733443589265537 0 -0.20959735775042229 -0.34297628880574271 0 -0.18837938860257691 -0.33330497174797119 0 -0.1854852108464852 -0.32733443589265537 0 -0.18837938860257691 -0.33330497174797119 0 -0.19310878491693809 -0.3468861108474558 0 -0.20301188549489721 -0.34998262689860837 0 -0.18837938860257691 -0.33330497174797119 0 -0.19310878491693809 -0.3468861108474558 0 -0.18695280400181169 -0.34373670128291289 0 -0.20301188549489721 -0.34998262689860837 0 -0.19608941124787191 -0.35734750418180078 0 -0.2034267581171483 -0.37053420898039002 0 -0.19310878491693809 -0.3468861108474558 0 -0.18723232414461741 -0.35196632045501119 0 -0.18695280400181169 -0.34373670128291289 0 -0.19310878491693809 -0.3468861108474558 0 -0.20301188549489721 -0.34998262689860837 0 -0.19608941124787191 -0.35734750418180078 0 -0.20301188549489721 -0.34998262689860837 0 -0.19608941124787191 -0.35734750418180078 0 -0.19310878491693809 -0.3468861108474558 0 -0.19608941124787191 -0.35734750418180078 0 -0.18723232414461741 -0.35196632045501119 0 -0.19608941124787191 -0.35734750418180078 0 -0.18450933154362731 -0.36103586574941288 0 -0.18723232414461741 -0.35196632045501119 0 -0.19608941124787191 -0.35734750418180078 0 -0.1903703763962977 -0.36851828269900411 0 -0.18450933154362731 -0.36103586574941288 0 -0.1892395492205009 -0.38352095159120952 0 -0.1903703763962977 -0.36851828269900411 0 -0.2034267581171483 -0.37053420898039002 0 -0.19608941124787191 -0.35734750418180078 0 -0.1903703763962977 -0.36851828269900411 0 -0.2034267581171483 -0.37053420898039002 0 -0.21938649696527701 -0.36864588890633759 0 -0.20301188549489721 -0.34998262689860837 0 -0.2034267581171483 -0.37053420898039002 0 -0.21247241193018679 -0.37746970488942438 0 -0.21938649696527701 -0.36864588890633759 0 -0.2034267581171483 -0.37053420898039002 0 -0.21938649696527701 -0.36864588890633759 0 -0.22315188099448971 -0.35176927848581557 0 -0.20301188549489721 -0.34998262689860837 0 -0.22315188099448971 -0.35176927848581557 0 -0.20959735775042229 -0.34297628880574271 0 -0.20301188549489721 -0.34998262689860837 0 -0.21938649696527701 -0.36864588890633759 0 -0.20301188549489721 -0.34998262689860837 0 -0.22315188099448971 -0.35176927848581557 0 -0.20959735775042229 -0.34297628880574271 0 -0.20959735775042229 -0.34297628880574271 0 -0.20301188549489721 -0.34998262689860837 0 -0.2413664876903166 -0.26395794537769351 0 -0.2296679926811287 -0.27639833545659181 0 -0.21662946681070699 -0.252221515782932 0 -0.2413664876903166 -0.26395794537769351 0 -0.21662946681070699 -0.252221515782932 0 -0.2344815788336892 -0.2447345853690264 0 -0.2413664876903166 -0.26395794537769351 0 -0.21662946681070699 -0.252221515782932 0 -0.25930047762213199 -0.25626596742101082 0 -0.2413664876903166 -0.26395794537769351 0 -0.2344815788336892 -0.2447345853690264 0 -0.24733474583734921 -0.27908563338862558 0 -0.2296679926811287 -0.27639833545659181 0 -0.23962629119617759 -0.28582496900436333 0 -0.2413664876903166 -0.26395794537769351 0 -0.24733474583734921 -0.27908563338862558 0 -0.2296679926811287 -0.27639833545659181 0 -0.2296679926811287 -0.27639833545659181 0 -0.21933898418268211 -0.28981392029185371 0 -0.21002704204754991 -0.27384750317362561 0 -0.2296679926811287 -0.27639833545659181 0 -0.21002704204754991 -0.27384750317362561 0 -0.21662946681070699 -0.252221515782932 0 -0.21933898418268211 -0.28981392029185371 0 -0.23256687677703339 -0.291661373636391 0 -0.22530475650172879 -0.30063374131487669 0 -0.2296679926811287 -0.27639833545659181 0 -0.21933898418268211 -0.28981392029185371 0 -0.23256687677703339 -0.291661373636391 0 -0.2296679926811287 -0.27639833545659181 0 -0.23256687677703339 -0.291661373636391 0 -0.23962629119617759 -0.28582496900436333 0 -0.24733474583734921 -0.27908563338862558 0 -0.23962629119617759 -0.28582496900436333 0 -0.2442442335931416 -0.29505171568623761 0 -0.23256687677703339 -0.291661373636391 0 -0.2442442335931416 -0.29505171568623761 0 -0.23587070549097261 -0.30156210457726668 0 -0.23256687677703339 -0.291661373636391 0 -0.23962629119617759 -0.28582496900436333 0 -0.2442442335931416 -0.29505171568623761 0 -0.22945246549579981 -0.32185227638314629 0 -0.249307573241177 -0.30072826396054958 0 -0.22945246549579981 -0.32185227638314629 0 -0.23587070549097261 -0.30156210457726668 0 -0.249307573241177 -0.30072826396054958 0 -0.2442442335931416 -0.29505171568623761 0 -0.23587070549097261 -0.30156210457726668 0 -0.249307573241177 -0.30072826396054958 0 -0.2442442335931416 -0.29505171568623761 0 -0.249307573241177 -0.30072826396054958 0 -0.22945246549579981 -0.32185227638314629 0 -0.22530475650172879 -0.30063374131487669 0 -0.2128447935382736 -0.3048768022265903 0 -0.22945246549579981 -0.32185227638314629 0 -0.23587070549097261 -0.30156210457726668 0 -0.22530475650172879 -0.30063374131487669 0 -0.23256687677703339 -0.291661373636391 0 -0.23587070549097261 -0.30156210457726668 0 -0.22530475650172879 -0.30063374131487669 0 -0.21933898418268211 -0.28981392029185371 0 -0.22530475650172879 -0.30063374131487669 0 -0.2128447935382736 -0.3048768022265903 0 -0.2128447935382736 -0.3048768022265903 0 -0.20279362612160179 -0.30122042717596248 0 -0.20562244355037851 -0.29146576594304729 0 -0.2128447935382736 -0.3048768022265903 0 -0.19855118184411749 -0.31082837607434771 0 -0.20279362612160179 -0.30122042717596248 0 -0.20878180140404731 -0.3171400520839931 0 -0.2128447935382736 -0.3048768022265903 0 -0.19855118184411749 -0.31082837607434771 0 -0.19855118184411749 -0.31082837607434771 0 -0.1941560855536377 -0.29771076445986489 0 -0.18571881115061459 -0.30592084574479811 0 -0.18855236989799731 -0.31633790521216232 0 -0.19855118184411749 -0.31082837607434771 0 -0.18571881115061459 -0.30592084574479811 0 -0.19855118184411749 -0.31082837607434771 0 -0.1941560855536377 -0.29771076445986489 0 -0.20279362612160179 -0.30122042717596248 0 -0.1941560855536377 -0.29771076445986489 0 -0.19153997721098839 -0.28083168296056349 0 -0.18046596534819781 -0.29662376690871511 0 -0.1941560855536377 -0.29771076445986489 0 -0.20562244355037851 -0.29146576594304729 0 -0.19153997721098839 -0.28083168296056349 0 -0.20562244355037851 -0.29146576594304729 0 -0.21002704204754991 -0.27384750317362561 0 -0.19153997721098839 -0.28083168296056349 0 -0.1941560855536377 -0.29771076445986489 0 -0.20279362612160179 -0.30122042717596248 0 -0.20562244355037851 -0.29146576594304729 0 -0.21933898418268211 -0.28981392029185371 0 -0.20562244355037851 -0.29146576594304729 0 -0.21002704204754991 -0.27384750317362561 0 -0.21933898418268211 -0.28981392029185371 0 -0.2128447935382736 -0.3048768022265903 0 -0.20562244355037851 -0.29146576594304729 0 -0.21002704204754991 -0.27384750317362561 0 -0.19153997721098839 -0.28083168296056349 0 -0.1988591731770204 -0.25935252116350421 0 -0.19153997721098839 -0.28083168296056349 0 -0.1988591731770204 -0.25935252116350421 0 -0.18200078196120309 -0.26143269641967359 0 -0.1988591731770204 -0.25935252116350421 0 -0.18200078196120309 -0.26143269641967359 0 -0.19189244593109769 -0.24048508618816991 0 -0.1988591731770204 -0.25935252116350421 0 -0.21662946681070699 -0.252221515782932 0 -0.19189244593109769 -0.24048508618816991 0 -0.21002704204754991 -0.27384750317362561 0 -0.1988591731770204 -0.25935252116350421 0 -0.21662946681070699 -0.252221515782932 0 -0.17558214958253451 -0.25333348684764612 0 -0.15367990469340301 -0.2719299352779424 0 -0.17558214958253451 -0.25333348684764612 0 -0.18200078196120309 -0.26143269641967359 0 -0.15367990469340301 -0.2719299352779424 0 -0.15711605762054401 -0.25572298745427469 0 -0.17558214958253451 -0.25333348684764612 0 -0.16389591667290149 -0.24728257223535971 0 -0.15711605762054401 -0.25572298745427469 0 -0.17558214958253451 -0.25333348684764612 0 -0.15367990469340301 -0.2719299352779424 0 -0.18200078196120309 -0.26143269641967359 0 -0.19189244593109769 -0.24048508618816991 0 -0.17558214958253451 -0.25333348684764612 0 -0.18200078196120309 -0.26143269641967359 0 -0.18617550724072471 -0.24763669436260211 0 -0.19153997721098839 -0.28083168296056349 0 -0.18200078196120309 -0.26143269641967359 0 -0.17210911799130851 -0.2823803066511773 0 -0.18200078196120309 -0.26143269641967359 0 -0.17210911799130851 -0.2823803066511773 0 -0.18200078196120309 -0.26143269641967359 0 -0.17210911799130851 -0.2823803066511773 0 -0.15367990469340301 -0.2719299352779424 0 -0.17210911799130851 -0.2823803066511773 0 -0.17326646555086031 -0.30218189298182951 0 -0.16475037395608111 -0.30304749111742779 0 -0.17210911799130851 -0.2823803066511773 0 -0.16221745402141391 -0.3033279168826809 0 -0.1508326111734877 -0.29056730089904409 0 -0.17210911799130851 -0.2823803066511773 0 -0.16221745402141391 -0.3033279168826809 0 -0.17210911799130851 -0.2823803066511773 0 -0.1508326111734877 -0.29056730089904409 0 -0.15367990469340301 -0.2719299352779424 0 -0.17210911799130851 -0.2823803066511773 0 -0.16475037395608111 -0.30304749111742779 0 -0.16221745402141391 -0.3033279168826809 0 -0.19153997721098839 -0.28083168296056349 0 -0.17210911799130851 -0.2823803066511773 0 -0.18046596534819781 -0.29662376690871511 0 -0.17210911799130851 -0.2823803066511773 0 -0.18046596534819781 -0.29662376690871511 0 -0.17326646555086031 -0.30218189298182951 0 -0.18046596534819781 -0.29662376690871511 0 -0.17326646555086031 -0.30218189298182951 0 -0.1782751181455812 -0.30528094729289129 0 -0.1941560855536377 -0.29771076445986489 0 -0.18046596534819781 -0.29662376690871511 0 -0.18571881115061459 -0.30592084574479811 0 -0.18046596534819781 -0.29662376690871511 0 -0.18571881115061459 -0.30592084574479811 0 -0.1782751181455812 -0.30528094729289129 0 -0.18855236989799731 -0.31633790521216232 0 -0.18571881115061459 -0.30592084574479811 0 -0.18010198910551939 -0.31204766139595619 0 -0.18571881115061459 -0.30592084574479811 0 -0.18010198910551939 -0.31204766139595619 0 -0.1782751181455812 -0.30528094729289129 0 -0.18010198910551939 -0.31204766139595619 0 -0.1782751181455812 -0.30528094729289129 0 -0.17182235957271391 -0.3096305694331577 0 -0.17326646555086031 -0.30218189298182951 0 -0.1782751181455812 -0.30528094729289129 0 -0.17182235957271391 -0.3096305694331577 0 -0.17182235957271391 -0.3096305694331577 0 -0.16475037395608111 -0.30304749111742779 0 -0.16137306394254819 -0.31169258297956831 0 -0.17326646555086031 -0.30218189298182951 0 -0.17182235957271391 -0.3096305694331577 0 -0.16475037395608111 -0.30304749111742779 0 -0.16475037395608111 -0.30304749111742779 0 -0.16221745402141391 -0.3033279168826809 0 -0.16475037395608111 -0.30304749111742779 0 -0.16221745402141391 -0.3033279168826809 0 -0.16137306394254819 -0.31169258297956831 0 -0.16221745402141391 -0.3033279168826809 0 -0.16137306394254819 -0.31169258297956831 0 -0.15564604600376539 -0.31724420985875013 0 -0.16221745402141391 -0.3033279168826809 0 -0.15564604600376539 -0.31724420985875013 0 -0.16221745402141391 -0.3033279168826809 0 -0.13604643446827761 -0.30622537451061033 0 -0.1508326111734877 -0.29056730089904409 0 -0.16221745402141391 -0.3033279168826809 0 -0.13604643446827761 -0.30622537451061033 0 -0.15564604600376539 -0.31724420985875013 0 -0.16221745402141391 -0.3033279168826809 0 -0.13604643446827761 -0.30622537451061033 0 -0.13604643446827761 -0.30622537451061033 0 -0.1317776598042712 -0.29052638370823891 0 -0.10987541491514111 -0.30912283213853708 0 -0.13604643446827761 -0.30622537451061033 0 -0.1317776598042712 -0.29052638370823891 0 -0.1508326111734877 -0.29056730089904409 0 -0.1317776598042712 -0.29052638370823891 0 -0.1508326111734877 -0.29056730089904409 0 -0.15367990469340301 -0.2719299352779424 0 -0.15367990469340301 -0.2719299352779424 0 -0.13562120988402471 -0.27213557560079332 0 -0.14239549570869489 -0.25923561644831511 0 -0.1317776598042712 -0.29052638370823891 0 -0.15367990469340301 -0.2719299352779424 0 -0.1317776598042712 -0.29052638370823891 0 -0.15367990469340301 -0.2719299352779424 0 -0.13562120988402471 -0.27213557560079332 0 -0.13562120988402471 -0.27213557560079332 0 -0.1254761853964321 -0.26106975905527269 0 -0.12379904736653161 -0.27744290535418492 0 -0.1317776598042712 -0.29052638370823891 0 -0.13562120988402471 -0.27213557560079332 0 -0.12379904736653161 -0.27744290535418492 0 -0.13562120988402471 -0.27213557560079332 0 -0.1254761853964321 -0.26106975905527269 0 -0.14239549570869489 -0.25923561644831511 0 -0.1254761853964321 -0.26106975905527269 0 -0.11850194625712369 -0.24699605630446331 0 -0.13440316611009609 -0.24656404119724501 0 -0.1254761853964321 -0.26106975905527269 0 -0.14239549570869489 -0.25923561644831511 0 -0.13440316611009609 -0.24656404119724501 0 -0.14239549570869489 -0.25923561644831511 0 -0.15002682144518639 -0.24683332646211051 0 -0.13440316611009609 -0.24656404119724501 0 -0.15711605762054401 -0.25572298745427469 0 -0.15367990469340301 -0.2719299352779424 0 -0.14239549570869489 -0.25923561644831511 0 -0.15711605762054401 -0.25572298745427469 0 -0.14239549570869489 -0.25923561644831511 0 -0.15002682144518639 -0.24683332646211051 0 -0.16408860137848769 -0.35460143029238622 0 -0.1706824080613481 -0.35649942695235598 0 -0.16777555048831039 -0.35046153099923311 0 -0.16408860137848769 -0.35460143029238622 0 -0.1706824080613481 -0.35649942695235598 0 -0.16450360302509909 -0.36132537541272353 0 -0.1706824080613481 -0.35649942695235598 0 -0.16777555048831039 -0.35046153099923311 0 -0.17362754821937759 -0.34750300591624328 0 -0.16753361065588729 -0.34418926841668912 0 -0.16777555048831039 -0.35046153099923311 0 -0.17362754821937759 -0.34750300591624328 0 -0.16753361065588729 -0.34418926841668912 0 -0.16777555048831039 -0.35046153099923311 0 -0.1624068534445165 -0.34791355333924701 0 -0.16408860137848769 -0.35460143029238622 0 -0.16777555048831039 -0.35046153099923311 0 -0.1624068534445165 -0.34791355333924701 0 -0.16408860137848769 -0.35460143029238622 0 -0.1624068534445165 -0.34791355333924701 0 -0.1581284145272181 -0.35181052930694873 0 -0.1624068534445165 -0.34791355333924701 0 -0.15652232306041761 -0.3459288596696925 0 -0.1618306949411277 -0.33910108328696298 0 -0.1624068534445165 -0.34791355333924701 0 -0.15652232306041761 -0.3459288596696925 0 -0.1581284145272181 -0.35181052930694873 0 -0.16408860137848769 -0.35460143029238622 0 -0.1581284145272181 -0.35181052930694873 0 -0.15824021929901411 -0.35741572032947838 0 -0.16408860137848769 -0.35460143029238622 0 -0.15824021929901411 -0.35741572032947838 0 -0.16450360302509909 -0.36132537541272353 0 -0.1649612516321487 -0.36993208575655068 0 -0.16450360302509909 -0.36132537541272353 0 -0.15431356627017889 -0.36504090466013539 0 -0.15824021929901411 -0.35741572032947838 0 -0.16450360302509909 -0.36132537541272353 0 -0.15431356627017889 -0.36504090466013539 0 -0.15617843058116329 -0.37615949274389499 0 -0.1649612516321487 -0.36993208575655068 0 -0.15431356627017889 -0.36504090466013539 0 -0.15617843058116329 -0.37615949274389499 0 -0.16279571307832411 -0.37552838030133062 0 -0.1649612516321487 -0.36993208575655068 0 -0.1664551971824747 -0.37727662359277081 0 -0.17298372832009029 -0.37649694526688698 0 -0.1649612516321487 -0.36993208575655068 0 -0.16279571307832411 -0.37552838030133062 0 -0.1664551971824747 -0.37727662359277081 0 -0.1649612516321487 -0.36993208575655068 0 -0.1649612516321487 -0.36993208575655068 0 -0.16450360302509909 -0.36132537541272353 0 -0.17367609549039259 -0.36224236428172901 0 -0.1706824080613481 -0.35649942695235598 0 -0.16450360302509909 -0.36132537541272353 0 -0.17367609549039259 -0.36224236428172901 0 -0.17367609549039259 -0.36224236428172901 0 -0.1785868318523402 -0.37015288299220772 0 -0.18450933154362731 -0.36103586574941288 0 -0.17298372832009029 -0.37649694526688698 0 -0.1649612516321487 -0.36993208575655068 0 -0.1785868318523402 -0.37015288299220772 0 -0.1649612516321487 -0.36993208575655068 0 -0.17367609549039259 -0.36224236428172901 0 -0.1785868318523402 -0.37015288299220772 0 -0.1892395492205009 -0.38352095159120952 0 -0.1903703763962977 -0.36851828269900411 0 -0.1785868318523402 -0.37015288299220772 0 -0.1903703763962977 -0.36851828269900411 0 -0.1785868318523402 -0.37015288299220772 0 -0.18450933154362731 -0.36103586574941288 0 -0.18450933154362731 -0.36103586574941288 0 -0.18723232414461741 -0.35196632045501119 0 -0.1788131468277924 -0.35450854882712368 0 -0.17367609549039259 -0.36224236428172901 0 -0.18450933154362731 -0.36103586574941288 0 -0.1788131468277924 -0.35450854882712368 0 -0.1706824080613481 -0.35649942695235598 0 -0.17367609549039259 -0.36224236428172901 0 -0.1788131468277924 -0.35450854882712368 0 -0.1706824080613481 -0.35649942695235598 0 -0.1788131468277924 -0.35450854882712368 0 -0.17362754821937759 -0.34750300591624328 0 -0.1788131468277924 -0.35450854882712368 0 -0.17362754821937759 -0.34750300591624328 0 -0.1830618748416086 -0.34759627524166947 0 -0.17362754821937759 -0.34750300591624328 0 -0.1830618748416086 -0.34759627524166947 0 -0.1773471587246073 -0.34143283498423949 0 -0.18723232414461741 -0.35196632045501119 0 -0.1830618748416086 -0.34759627524166947 0 -0.18695280400181169 -0.34373670128291289 0 -0.18723232414461741 -0.35196632045501119 0 -0.1788131468277924 -0.35450854882712368 0 -0.1830618748416086 -0.34759627524166947 0 -0.1830618748416086 -0.34759627524166947 0 -0.18695280400181169 -0.34373670128291289 0 -0.1829816475033175 -0.3389298281224572 0 -0.1830618748416086 -0.34759627524166947 0 -0.1829816475033175 -0.3389298281224572 0 -0.1773471587246073 -0.34143283498423949 0 -0.18837938860257691 -0.33330497174797119 0 -0.18695280400181169 -0.34373670128291289 0 -0.1829816475033175 -0.3389298281224572 0 -0.18837938860257691 -0.33330497174797119 0 -0.1829816475033175 -0.3389298281224572 0 -0.1828048097379715 -0.33256708219719627 0 -0.18837938860257691 -0.33330497174797119 0 -0.1828048097379715 -0.33256708219719627 0 -0.1854852108464852 -0.32733443589265537 0 -0.1828048097379715 -0.33256708219719627 0 -0.17787960507090839 -0.32965266027732149 0 -0.1854852108464852 -0.32733443589265537 0 -0.1829816475033175 -0.3389298281224572 0 -0.1828048097379715 -0.33256708219719627 0 -0.17767231857998031 -0.33489485841654981 0 -0.1828048097379715 -0.33256708219719627 0 -0.17767231857998031 -0.33489485841654981 0 -0.17787960507090839 -0.32965266027732149 0 -0.17767231857998031 -0.33489485841654981 0 -0.17124389525249639 -0.33871365658459368 0 -0.17164231965610571 -0.33081936475673912 0 -0.17767231857998031 -0.33489485841654981 0 -0.17787960507090839 -0.32965266027732149 0 -0.17164231965610571 -0.33081936475673912 0 -0.17362754821937759 -0.34750300591624328 0 -0.1773471587246073 -0.34143283498423949 0 -0.17124389525249639 -0.33871365658459368 0 -0.17767231857998031 -0.33489485841654981 0 -0.1773471587246073 -0.34143283498423949 0 -0.17124389525249639 -0.33871365658459368 0 -0.1829816475033175 -0.3389298281224572 0 -0.17767231857998031 -0.33489485841654981 0 -0.1773471587246073 -0.34143283498423949 0 -0.16137306394254819 -0.31169258297956831 0 -0.1854852108464852 -0.32733443589265537 0 -0.17904106314099341 -0.31647489467133022 0 -0.16137306394254819 -0.31169258297956831 0 -0.1854852108464852 -0.32733443589265537 0 -0.17098042749070499 -0.32328823185895428 0 -0.16137306394254819 -0.31169258297956831 0 -0.1854852108464852 -0.32733443589265537 0 -0.18855236989799731 -0.31633790521216232 0 -0.1869174806425416 -0.32088745242445699 0 -0.17904106314099341 -0.31647489467133022 0 -0.18855236989799731 -0.31633790521216232 0 -0.18010198910551939 -0.31204766139595619 0 -0.17904106314099341 -0.31647489467133022 0 -0.1869174806425416 -0.32088745242445699 0 -0.1854852108464852 -0.32733443589265537 0 -0.17904106314099341 -0.31647489467133022 0 -0.17787960507090839 -0.32965266027732149 0 -0.1854852108464852 -0.32733443589265537 0 -0.17098042749070499 -0.32328823185895428 0 -0.17787960507090839 -0.32965266027732149 0 -0.17098042749070499 -0.32328823185895428 0 -0.17164231965610571 -0.33081936475673912 0 -0.18010198910551939 -0.31204766139595619 0 -0.17182235957271391 -0.3096305694331577 0 -0.17904106314099341 -0.31647489467133022 0 -0.17182235957271391 -0.3096305694331577 0 -0.16137306394254819 -0.31169258297956831 0 -0.17904106314099341 -0.31647489467133022 0 -0.16137306394254819 -0.31169258297956831 0 -0.17098042749070499 -0.32328823185895428 0 -0.16197722394428751 -0.32274281548921191 0 -0.17098042749070499 -0.32328823185895428 0 -0.16668153123004381 -0.32789617372148733 0 -0.16197722394428751 -0.32274281548921191 0 -0.17098042749070499 -0.32328823185895428 0 -0.16668153123004381 -0.32789617372148733 0 -0.17164231965610571 -0.33081936475673912 0 -0.16197722394428751 -0.32274281548921191 0 -0.15680725276822771 -0.32689059949693777 0 -0.16182015922021101 -0.33079235944398699 0 -0.16668153123004381 -0.32789617372148733 0 -0.16197722394428751 -0.32274281548921191 0 -0.16182015922021101 -0.33079235944398699 0 -0.16197722394428751 -0.32274281548921191 0 -0.15680725276822771 -0.32689059949693777 0 -0.15564604600376539 -0.31724420985875013 0 -0.16137306394254819 -0.31169258297956831 0 -0.16197722394428751 -0.32274281548921191 0 -0.15564604600376539 -0.31724420985875013 0 -0.16753361065588729 -0.34418926841668912 0 -0.17362754821937759 -0.34750300591624328 0 -0.17124389525249639 -0.33871365658459368 0 -0.16753361065588729 -0.34418926841668912 0 -0.17124389525249639 -0.33871365658459368 0 -0.1618306949411277 -0.33910108328696298 0 -0.17124389525249639 -0.33871365658459368 0 -0.1667047112069211 -0.33395321043144682 0 -0.1618306949411277 -0.33910108328696298 0 -0.17124389525249639 -0.33871365658459368 0 -0.17164231965610571 -0.33081936475673912 0 -0.1667047112069211 -0.33395321043144682 0 -0.16668153123004381 -0.32789617372148733 0 -0.17164231965610571 -0.33081936475673912 0 -0.1667047112069211 -0.33395321043144682 0 -0.16668153123004381 -0.32789617372148733 0 -0.1667047112069211 -0.33395321043144682 0 -0.16182015922021101 -0.33079235944398699 0 -0.16182015922021101 -0.33079235944398699 0 -0.1618306949411277 -0.33910108328696298 0 -0.15619342009212789 -0.33305959902874832 0 -0.1667047112069211 -0.33395321043144682 0 -0.16182015922021101 -0.33079235944398699 0 -0.1618306949411277 -0.33910108328696298 0 -0.15680725276822771 -0.32689059949693777 0 -0.16182015922021101 -0.33079235944398699 0 -0.15619342009212789 -0.33305959902874832 0 -0.16753361065588729 -0.34418926841668912 0 -0.1624068534445165 -0.34791355333924701 0 -0.1618306949411277 -0.33910108328696298 0 -0.15652232306041761 -0.3459288596696925 0 -0.1618306949411277 -0.33910108328696298 0 -0.15278480235569661 -0.33844642842268902 0 -0.1618306949411277 -0.33910108328696298 0 -0.15278480235569661 -0.33844642842268902 0 -0.15619342009212789 -0.33305959902874832 0 -0.15278480235569661 -0.33844642842268902 0 -0.12880372350238839 -0.34844018639224361 0 -0.15278480235569661 -0.33844642842268902 0 -0.15619342009212789 -0.33305959902874832 0 -0.14907463798611689 -0.33116050283481918 0 -0.15680725276822771 -0.32689059949693777 0 -0.15619342009212789 -0.33305959902874832 0 -0.14907463798611689 -0.33116050283481918 0 -0.14907463798611689 -0.33116050283481918 0 -0.14124017616393 -0.32147634350123527 0 -0.1381844081666935 -0.33510979103679789 0 -0.15278480235569661 -0.33844642842268902 0 -0.14907463798611689 -0.33116050283481918 0 -0.1381844081666935 -0.33510979103679789 0 -0.13604643446827761 -0.30622537451061033 0 -0.15564604600376539 -0.31724420985875013 0 -0.14124017616393 -0.32147634350123527 0 -0.15680725276822771 -0.32689059949693777 0 -0.14907463798611689 -0.33116050283481918 0 -0.15564604600376539 -0.31724420985875013 0 -0.14907463798611689 -0.33116050283481918 0 -0.15564604600376539 -0.31724420985875013 0 -0.14124017616393 -0.32147634350123527 0 -0.14907463798611689 -0.33116050283481918 0 -0.15564604600376539 -0.31724420985875013 0 -0.13604643446827761 -0.30622537451061033 0 -0.14124017616393 -0.32147634350123527 0 -0.12678511217146449 -0.32687172540598758 0 -0.14124017616393 -0.32147634350123527 0 -0.12678511217146449 -0.32687172540598758 0 -0.1381844081666935 -0.33510979103679789 0 -0.15278480235569661 -0.33844642842268902 0 -0.1381844081666935 -0.33510979103679789 0 -0.12880372350238839 -0.34844018639224361 0 -0.12678511217146449 -0.32687172540598758 0 -0.1381844081666935 -0.33510979103679789 0 -0.12880372350238839 -0.34844018639224361 0 -0.12880372350238839 -0.34844018639224361 0 -0.1382183398534628 -0.36441262939207308 0 -0.12068941934871701 -0.36273850173545119 0 -0.12880372350238839 -0.34844018639224361 0 -0.1482196756930628 -0.35228373064796831 0 -0.1382183398534628 -0.36441262939207308 0 -0.15278480235569661 -0.33844642842268902 0 -0.12880372350238839 -0.34844018639224361 0 -0.1482196756930628 -0.35228373064796831 0 -0.1581284145272181 -0.35181052930694873 0 -0.15824021929901411 -0.35741572032947838 0 -0.1482196756930628 -0.35228373064796831 0 -0.15824021929901411 -0.35741572032947838 0 -0.1482196756930628 -0.35228373064796831 0 -0.15431356627017889 -0.36504090466013539 0 -0.15652232306041761 -0.3459288596696925 0 -0.15278480235569661 -0.33844642842268902 0 -0.1482196756930628 -0.35228373064796831 0 -0.15652232306041761 -0.3459288596696925 0 -0.1581284145272181 -0.35181052930694873 0 -0.1482196756930628 -0.35228373064796831 0 -0.1482196756930628 -0.35228373064796831 0 -0.15431356627017889 -0.36504090466013539 0 -0.1382183398534628 -0.36441262939207308 0 -0.15431356627017889 -0.36504090466013539 0 -0.1470242146689833 -0.37126862532301919 0 -0.1382183398534628 -0.36441262939207308 0 -0.15617843058116329 -0.37615949274389499 0 -0.15431356627017889 -0.36504090466013539 0 -0.1470242146689833 -0.37126862532301919 0 -0.13938652197112811 -0.37946147449597328 0 -0.1470242146689833 -0.37126862532301919 0 -0.1382183398534628 -0.36441262939207308 0 -0.13938652197112811 -0.37946147449597328 0 -0.1382183398534628 -0.36441262939207308 0 -0.12704694408505809 -0.37127663210582229 0 -0.1382183398534628 -0.36441262939207308 0 -0.12704694408505809 -0.37127663210582229 0 -0.12068941934871701 -0.36273850173545119 0 -0.12068941934871701 -0.36273850173545119 0 -0.1122016301228294 -0.36592710322771349 0 -0.10482264464908039 -0.3584339443617981 0 -0.12704694408505809 -0.37127663210582229 0 -0.1178449928219841 -0.37007425551038559 0 -0.11309723222927021 -0.37732076659024738 0 -0.12704694408505809 -0.37127663210582229 0 -0.1178449928219841 -0.37007425551038559 0 -0.12068941934871701 -0.36273850173545119 0 -0.1178449928219841 -0.37007425551038559 0 -0.12068941934871701 -0.36273850173545119 0 -0.1122016301228294 -0.36592710322771349 0 -0.1125657003827755 -0.37208304027956651 0 -0.10783441077873269 -0.36769015585691722 0 -0.1118502359610614 -0.37940292021256861 0 -0.1178449928219841 -0.37007425551038559 0 -0.1125657003827755 -0.37208304027956651 0 -0.11309723222927021 -0.37732076659024738 0 -0.1178449928219841 -0.37007425551038559 0 -0.1122016301228294 -0.36592710322771349 0 -0.1125657003827755 -0.37208304027956651 0 -0.1122016301228294 -0.36592710322771349 0 -0.1125657003827755 -0.37208304027956651 0 -0.10783441077873269 -0.36769015585691722 0 -0.097106911937010709 -0.36276630399230231 0 -0.10482264464908039 -0.3584339443617981 0 -0.080841565795772313 -0.36842770233135258 0 -0.097106911937010709 -0.36276630399230231 0 -0.1118502359610614 -0.37940292021256861 0 -0.10783441077873269 -0.36769015585691722 0 -0.097106911937010709 -0.36276630399230231 0 -0.1118502359610614 -0.37940292021256861 0 -0.097106911937010709 -0.36276630399230231 0 -0.1007277282474669 -0.37286803882186759 0 -0.1118502359610614 -0.37940292021256861 0 -0.1122016301228294 -0.36592710322771349 0 -0.10783441077873269 -0.36769015585691722 0 -0.10482264464908039 -0.3584339443617981 0 -0.10783441077873269 -0.36769015585691722 0 -0.097106911937010709 -0.36276630399230231 0 -0.10482264464908039 -0.3584339443617981 0 -0.097106911937010709 -0.36276630399230231 0 -0.1007277282474669 -0.37286803882186759 0 -0.093554529025158095 -0.37206788058058671 0 -0.1007277282474669 -0.37286803882186759 0 -0.093554529025158095 -0.37206788058058671 0 -0.1003992360666373 -0.37723505050201278 0 -0.1011032923156157 -0.34926033467764173 0 -0.1118877180469902 -0.34345797790217342 0 -0.095292421920548806 -0.34117147417653482 0 -0.1011032923156157 -0.34926033467764173 0 -0.095292421920548806 -0.34117147417653482 0 -0.092410384645843308 -0.35397794227006069 0 -0.1011032923156157 -0.34926033467764173 0 -0.10482264464908039 -0.3584339443617981 0 -0.092410384645843308 -0.35397794227006069 0 -0.1011032923156157 -0.34926033467764173 0 -0.10482264464908039 -0.3584339443617981 0 -0.1118877180469902 -0.34345797790217342 0 -0.12880372350238839 -0.34844018639224361 0 -0.10482264464908039 -0.3584339443617981 0 -0.12880372350238839 -0.34844018639224361 0 -0.10482264464908039 -0.3584339443617981 0 -0.1118877180469902 -0.34345797790217342 0 -0.12880372350238839 -0.34844018639224361 0 -0.12068941934871701 -0.36273850173545119 0 -0.10482264464908039 -0.3584339443617981 0 -0.12678511217146449 -0.32687172540598758 0 -0.12880372350238839 -0.34844018639224361 0 -0.1118877180469902 -0.34345797790217342 0 -0.12678511217146449 -0.32687172540598758 0 -0.1118877180469902 -0.34345797790217342 0 -0.1077643425764002 -0.32847862841711378 0 -0.12678511217146449 -0.32687172540598758 0 -0.1077643425764002 -0.32847862841711378 0 -0.10987541491514111 -0.30912283213853708 0 -0.13604643446827761 -0.30622537451061033 0 -0.12678511217146449 -0.32687172540598758 0 -0.10987541491514111 -0.30912283213853708 0 -0.094981045827857935 -0.32176913246233801 0 -0.1077643425764002 -0.32847862841711378 0 -0.10987541491514111 -0.30912283213853708 0 -0.094981045827857935 -0.32176913246233801 0 -0.10987541491514111 -0.30912283213853708 0 -0.088315022918368929 -0.31150983590525849 0 -0.094981045827857935 -0.32176913246233801 0 -0.10987541491514111 -0.30912283213853708 0 -0.1118877180469902 -0.34345797790217342 0 -0.1077643425764002 -0.32847862841711378 0 -0.095292421920548806 -0.34117147417653482 0 -0.094981045827857935 -0.32176913246233801 0 -0.1077643425764002 -0.32847862841711378 0 -0.095292421920548806 -0.34117147417653482 0 -0.094981045827857935 -0.32176913246233801 0 -0.095292421920548806 -0.34117147417653482 0 -0.080086676740577081 -0.33441543278614178 0 -0.095292421920548806 -0.34117147417653482 0 -0.080086676740577081 -0.33441543278614178 0 -0.080464121268175648 -0.35142156755874709 0 -0.080086676740577081 -0.33441543278614178 0 -0.080464121268175648 -0.35142156755874709 0 -0.079951305031143699 -0.32831612714852648 0 -0.080086676740577081 -0.33441543278614178 0 -0.086309076314173686 -0.32238631181327593 0 -0.079951305031143699 -0.32831612714852648 0 -0.080086676740577081 -0.33441543278614178 0 -0.094981045827857935 -0.32176913246233801 0 -0.086309076314173686 -0.32238631181327593 0 -0.088315022918368929 -0.31150983590525849 0 -0.094981045827857935 -0.32176913246233801 0 -0.080086676740577081 -0.33441543278614178 0 -0.094981045827857935 -0.32176913246233801 0 -0.080086676740577081 -0.33441543278614178 0 -0.086309076314173686 -0.32238631181327593 0 -0.079951305031143699 -0.32831612714852648 0 -0.086309076314173686 -0.32238631181327593 0 -0.079095340693565497 -0.3182331358582785 0 -0.079095340693565497 -0.3182331358582785 0 -0.088315022918368929 -0.31150983590525849 0 -0.079798136378994577 -0.30922925809992668 0 -0.086309076314173686 -0.32238631181327593 0 -0.079095340693565497 -0.3182331358582785 0 -0.088315022918368929 -0.31150983590525849 0 -0.079095340693565497 -0.3182331358582785 0 -0.071301142880188906 -0.32527707833411612 0 -0.066845840956492777 -0.31668208377760282 0 -0.079095340693565497 -0.3182331358582785 0 -0.066845840956492777 -0.31668208377760282 0 -0.079798136378994577 -0.30922925809992668 0 -0.079951305031143699 -0.32831612714852648 0 -0.079095340693565497 -0.3182331358582785 0 -0.071301142880188906 -0.32527707833411612 0 -0.071301142880188906 -0.32527707833411612 0 -0.066845840956492777 -0.31668208377760282 0 -0.059890700596231493 -0.33158193353196319 0 -0.080086676740577081 -0.33441543278614178 0 -0.060424724637950442 -0.35110972509116739 0 -0.080086676740577081 -0.33441543278614178 0 -0.070722527123511084 -0.33157211135420911 0 -0.060424724637950442 -0.35110972509116739 0 -0.070722527123511084 -0.33157211135420911 0 -0.060424724637950442 -0.35110972509116739 0 -0.059890700596231493 -0.33158193353196319 0 -0.079951305031143699 -0.32831612714852648 0 -0.071301142880188906 -0.32527707833411612 0 -0.070722527123511084 -0.33157211135420911 0 -0.079951305031143699 -0.32831612714852648 0 -0.080086676740577081 -0.33441543278614178 0 -0.070722527123511084 -0.33157211135420911 0 -0.071301142880188906 -0.32527707833411612 0 -0.070722527123511084 -0.33157211135420911 0 -0.059890700596231493 -0.33158193353196319 0 -0.080086676740577081 -0.33441543278614178 0 -0.080464121268175648 -0.35142156755874709 0 -0.060424724637950442 -0.35110972509116739 0 -0.069375098585923542 -0.36125187412178322 0 -0.080464121268175648 -0.35142156755874709 0 -0.060424724637950442 -0.35110972509116739 0 -0.069375098585923542 -0.36125187412178322 0 -0.080841565795772313 -0.36842770233135258 0 -0.080464121268175648 -0.35142156755874709 0 -0.066397879310648361 -0.37444689386995778 0 -0.080841565795772313 -0.36842770233135258 0 -0.066397879310648361 -0.37444689386995778 0 -0.080841565795772313 -0.36842770233135258 0 -0.081116054075508731 -0.38079504199954811 0 -0.069375098585923542 -0.36125187412178322 0 -0.066397879310648361 -0.37444689386995778 0 -0.080841565795772313 -0.36842770233135258 0 -0.10482264464908039 -0.3584339443617981 0 -0.080841565795772313 -0.36842770233135258 0 -0.080841565795772313 -0.36842770233135258 0 -0.080464121268175648 -0.35142156755874709 0 -0.097106911937010709 -0.36276630399230231 0 -0.080841565795772313 -0.36842770233135258 0 -0.093554529025158095 -0.37206788058058671 0 -0.10482264464908039 -0.3584339443617981 0 -0.080841565795772313 -0.36842770233135258 0 -0.092410384645843308 -0.35397794227006069 0 -0.080841565795772313 -0.36842770233135258 0 -0.081116054075508731 -0.38079504199954811 0 -0.080841565795772313 -0.36842770233135258 0 -0.093554529025158095 -0.37206788058058671 0 -0.089122849758735023 -0.37824746596501141 0 -0.080841565795772313 -0.36842770233135258 0 -0.092410384645843308 -0.35397794227006069 0 -0.080464121268175648 -0.35142156755874709 0 -0.095292421920548806 -0.34117147417653482 0 -0.092410384645843308 -0.35397794227006069 0 -0.080464121268175648 -0.35142156755874709 0 -0.1001987544100879 -0.25803395683868269 0 -0.105955752031942 -0.24927904771963691 0 -0.095102152263627657 -0.24877684289313559 0 -0.1001987544100879 -0.25803395683868269 0 -0.11220001824951061 -0.25621634486297179 0 -0.11199001323749889 -0.2691548505088891 0 -0.1001987544100879 -0.25803395683868269 0 -0.11220001824951061 -0.25621634486297179 0 -0.105955752031942 -0.24927904771963691 0 -0.11220001824951061 -0.25621634486297179 0 -0.11850194625712369 -0.24699605630446331 0 -0.105955752031942 -0.24927904771963691 0 -0.1254761853964321 -0.26106975905527269 0 -0.11220001824951061 -0.25621634486297179 0 -0.11850194625712369 -0.24699605630446331 0 -0.1254761853964321 -0.26106975905527269 0 -0.11220001824951061 -0.25621634486297179 0 -0.11199001323749889 -0.2691548505088891 0 -0.12379904736653161 -0.27744290535418492 0 -0.11199001323749889 -0.2691548505088891 0 -0.11284239886027191 -0.29160315419572841 0 -0.1254761853964321 -0.26106975905527269 0 -0.12379904736653161 -0.27744290535418492 0 -0.11199001323749889 -0.2691548505088891 0 -0.097687540767390335 -0.26976308775549018 0 -0.11284239886027191 -0.29160315419572841 0 -0.087674870203343053 -0.28175778418692438 0 -0.11199001323749889 -0.2691548505088891 0 -0.097687540767390335 -0.26976308775549018 0 -0.11284239886027191 -0.29160315419572841 0 -0.097687540767390335 -0.26976308775549018 0 -0.11284239886027191 -0.29160315419572841 0 -0.1001987544100879 -0.25803395683868269 0 -0.11199001323749889 -0.2691548505088891 0 -0.097687540767390335 -0.26976308775549018 0 -0.11284239886027191 -0.29160315419572841 0 -0.087674870203343053 -0.28175778418692438 0 -0.092806720120120825 -0.29651550863001108 0 -0.1317776598042712 -0.29052638370823891 0 -0.12379904736653161 -0.27744290535418492 0 -0.11284239886027191 -0.29160315419572841 0 -0.13604643446827761 -0.30622537451061033 0 -0.10987541491514111 -0.30912283213853708 0 -0.1317776598042712 -0.29052638370823891 0 -0.10987541491514111 -0.30912283213853708 0 -0.1317776598042712 -0.29052638370823891 0 -0.11284239886027191 -0.29160315419572841 0 -0.10987541491514111 -0.30912283213853708 0 -0.11284239886027191 -0.29160315419572841 0 -0.10987541491514111 -0.30912283213853708 0 -0.092806720120120825 -0.29651550863001108 0 -0.10987541491514111 -0.30912283213853708 0 -0.088315022918368929 -0.31150983590525849 0 -0.10987541491514111 -0.30912283213853708 0 -0.088315022918368929 -0.31150983590525849 0 -0.092806720120120825 -0.29651550863001108 0 -0.071927757206424844 -0.30320572632848253 0 -0.092806720120120825 -0.29651550863001108 0 -0.079798136378994577 -0.30922925809992668 0 -0.071927757206424844 -0.30320572632848253 0 -0.092806720120120825 -0.29651550863001108 0 -0.088315022918368929 -0.31150983590525849 0 -0.079798136378994577 -0.30922925809992668 0 -0.092806720120120825 -0.29651550863001108 0 -0.066845840956492777 -0.31668208377760282 0 -0.071927757206424844 -0.30320572632848253 0 -0.05104879429272885 -0.30989594402695397 0 -0.071927757206424844 -0.30320572632848253 0 -0.063099176334892801 -0.29193415442575071 0 -0.052756181496012911 -0.29595854612209771 0 -0.066845840956492777 -0.31668208377760282 0 -0.079798136378994577 -0.30922925809992668 0 -0.071927757206424844 -0.30320572632848253 0 -0.073770261913860768 -0.28888436700216408 0 -0.069783541852390774 -0.27652469653569212 0 -0.057090935035739809 -0.28260279293592128 0 -0.063099176334892801 -0.29193415442575071 0 -0.073770261913860768 -0.28888436700216408 0 -0.057090935035739809 -0.28260279293592128 0 -0.073770261913860768 -0.28888436700216408 0 -0.057090935035739809 -0.28260279293592128 0 -0.073770261913860768 -0.28888436700216408 0 -0.087674870203343053 -0.28175778418692438 0 -0.069783541852390774 -0.27652469653569212 0 -0.071927757206424844 -0.30320572632848253 0 -0.063099176334892801 -0.29193415442575071 0 -0.073770261913860768 -0.28888436700216408 0 -0.073770261913860768 -0.28888436700216408 0 -0.087674870203343053 -0.28175778418692438 0 -0.092806720120120825 -0.29651550863001108 0 -0.071927757206424844 -0.30320572632848253 0 -0.073770261913860768 -0.28888436700216408 0 -0.092806720120120825 -0.29651550863001108 0 -0.097687540767390335 -0.26976308775549018 0 -0.087674870203343053 -0.28175778418692438 0 -0.077406863473928736 -0.26616977835823541 0 -0.087674870203343053 -0.28175778418692438 0 -0.069783541852390774 -0.27652469653569212 0 -0.077406863473928736 -0.26616977835823541 0 -0.069783541852390774 -0.27652469653569212 0 -0.064296196825079491 -0.26740230095440037 0 -0.057090935035739809 -0.28260279293592128 0 -0.069783541852390774 -0.27652469653569212 0 -0.064296196825079491 -0.26740230095440037 0 -0.077406863473928736 -0.26616977835823541 0 -0.077406863473928736 -0.26616977835823541 0 -0.063187358888973449 -0.25508965799935279 0 -0.082532682674508598 -0.24792302131525229 0 -0.063187358888973449 -0.25508965799935279 0 -0.082532682674508598 -0.24792302131525229 0 -0.072173487042556342 -0.247427022331493 0 -0.063187358888973449 -0.25508965799935279 0 -0.082532682674508598 -0.24792302131525229 0 -0.064296196825079491 -0.26740230095440037 0 -0.077406863473928736 -0.26616977835823541 0 -0.063187358888973449 -0.25508965799935279 0 -0.097687540767390335 -0.26976308775549018 0 -0.077406863473928736 -0.26616977835823541 0 -0.082532682674508598 -0.24792302131525229 0 -0.097687540767390335 -0.26976308775549018 0 -0.082532682674508598 -0.24792302131525229 0 -0.1001987544100879 -0.25803395683868269 0 -0.082532682674508598 -0.24792302131525229 0 -0.095102152263627657 -0.24877684289313559 0 -0.1001987544100879 -0.25803395683868269 0 -0.097687540767390335 -0.26976308775549018 0 -0.082532682674508598 -0.24792302131525229 0 -0.041901976221870953 -0.25660498446206359 0 -0.053301043118442248 -0.26738109662242332 0 -0.05205399024309583 -0.24895490918885169 0 -0.063187358888973449 -0.25508965799935279 0 -0.053301043118442248 -0.26738109662242332 0 -0.05205399024309583 -0.24895490918885169 0 -0.064296196825079491 -0.26740230095440037 0 -0.063187358888973449 -0.25508965799935279 0 -0.053301043118442248 -0.26738109662242332 0 -0.053301043118442248 -0.26738109662242332 0 -0.040411608157618878 -0.27632121886967859 0 -0.057090935035739809 -0.28260279293592128 0 -0.040411608157618878 -0.27632121886967859 0 -0.057090935035739809 -0.28260279293592128 0 -0.040411608157618878 -0.27632121886967859 0 -0.044645003186132577 -0.28449665195727619 0 -0.057090935035739809 -0.28260279293592128 0 -0.064296196825079491 -0.26740230095440037 0 -0.053301043118442248 -0.26738109662242332 0 -0.057090935035739809 -0.28260279293592128 0 -0.041901976221870953 -0.25660498446206359 0 -0.040411608157618878 -0.27632121886967859 0 -0.016767908982516941 -0.26741680392214318 0 -0.041901976221870953 -0.25660498446206359 0 -0.040411608157618878 -0.27632121886967859 0 -0.041901976221870953 -0.25660498446206359 0 -0.053301043118442248 -0.26738109662242332 0 -0.040411608157618878 -0.27632121886967859 0 -0.040099161676636241 -0.2804546059212637 0 -0.040411608157618878 -0.27632121886967859 0 -0.044645003186132577 -0.28449665195727619 0 -0.040099161676636241 -0.2804546059212637 0 -0.040411608157618878 -0.27632121886967859 0 -0.040099161676636241 -0.2804546059212637 0 -0.040411608157618878 -0.27632121886967859 0 -0.030555352360507861 -0.28015982215192342 0 -0.044645003186132577 -0.28449665195727619 0 -0.052756181496012911 -0.29595854612209771 0 -0.037407417282583517 -0.30054140684135161 0 -0.035612972103623033 -0.29007718617574152 0 -0.044645003186132577 -0.28449665195727619 0 -0.037407417282583517 -0.30054140684135161 0 -0.044645003186132577 -0.28449665195727619 0 -0.037407417282583517 -0.30054140684135161 0 -0.040099161676636241 -0.2804546059212637 0 -0.035612972103623033 -0.29007718617574152 0 -0.030555352360507861 -0.28015982215192342 0 -0.040099161676636241 -0.2804546059212637 0 -0.035612972103623033 -0.29007718617574152 0 -0.044645003186132577 -0.28449665195727619 0 -0.044645003186132577 -0.28449665195727619 0 -0.054397824013194533 -0.28874803636026147 0 -0.057090935035739809 -0.28260279293592128 0 -0.063099176334892801 -0.29193415442575071 0 -0.054397824013194533 -0.28874803636026147 0 -0.057090935035739809 -0.28260279293592128 0 -0.063099176334892801 -0.29193415442575071 0 -0.054397824013194533 -0.28874803636026147 0 -0.052756181496012911 -0.29595854612209771 0 -0.044645003186132577 -0.28449665195727619 0 -0.054397824013194533 -0.28874803636026147 0 -0.052756181496012911 -0.29595854612209771 0 -0.052756181496012911 -0.29595854612209771 0 -0.05104879429272885 -0.30989594402695397 0 -0.037407417282583517 -0.30054140684135161 0 -0.071927757206424844 -0.30320572632848253 0 -0.052756181496012911 -0.29595854612209771 0 -0.05104879429272885 -0.30989594402695397 0 -0.071927757206424844 -0.30320572632848253 0 -0.05104879429272885 -0.30989594402695397 0 -0.037407417282583517 -0.30054140684135161 0 -0.030169831379033129 -0.31658616172542631 0 -0.05104879429272885 -0.30989594402695397 0 -0.037407417282583517 -0.30054140684135161 0 -0.030169831379033129 -0.31658616172542631 0 -0.035612972103623033 -0.29007718617574152 0 -0.037407417282583517 -0.30054140684135161 0 -0.024936785712055421 -0.30093231237137658 0 -0.024936785712055421 -0.30093231237137658 0 -0.030169831379033129 -0.31658616172542631 0 -0.01653468582623897 -0.31280783681474811 0 -0.037407417282583517 -0.30054140684135161 0 -0.024936785712055421 -0.30093231237137658 0 -0.030169831379033129 -0.31658616172542631 0 -0.024936785712055421 -0.30093231237137658 0 -0.010010696798710091 -0.29905198680020351 0 -0.01653468582623897 -0.31280783681474811 0 -0.00070853124548116153 -0.31110418819556168 0 -0.010010696798710091 -0.29905198680020351 0 0.0075191925667170492 -0.29731185884956762 0 -0.00070853124548116153 -0.31110418819556168 0 -0.010010696798710091 -0.29905198680020351 0 -0.01653468582623897 -0.31280783681474811 0 -0.010010696798710091 -0.29905198680020351 0 -0.002289695127394202 -0.27949504580854201 0 0.0075191925667170492 -0.29731185884956762 0 -0.010010696798710091 -0.29905198680020351 0 -0.019885110882144161 -0.28652929587079018 0 -0.002289695127394202 -0.27949504580854201 0 -0.035612972103623033 -0.29007718617574152 0 -0.024936785712055421 -0.30093231237137658 0 -0.019885110882144161 -0.28652929587079018 0 -0.035612972103623033 -0.29007718617574152 0 -0.019885110882144161 -0.28652929587079018 0 -0.030555352360507861 -0.28015982215192342 0 -0.024936785712055421 -0.30093231237137658 0 -0.010010696798710091 -0.29905198680020351 0 -0.019885110882144161 -0.28652929587079018 0 -0.040411608157618878 -0.27632121886967859 0 -0.016767908982516941 -0.26741680392214318 0 -0.019885110882144161 -0.28652929587079018 0 -0.016767908982516941 -0.26741680392214318 0 -0.030555352360507861 -0.28015982215192342 0 -0.040411608157618878 -0.27632121886967859 0 -0.016767908982516941 -0.26741680392214318 0 -0.030555352360507861 -0.28015982215192342 0 -0.019885110882144161 -0.28652929587079018 0 -0.016767908982516941 -0.26741680392214318 0 -0.002289695127394202 -0.27949504580854201 0 -0.016767908982516941 -0.26741680392214318 0 -0.002289695127394202 -0.27949504580854201 0 0.0079134815020535584 -0.26182395992502239 0 -0.016767908982516941 -0.26741680392214318 0 0.0079134815020535584 -0.26182395992502239 0 0.0068757901925850344 -0.25851238897460788 0 -0.016767908982516941 -0.26741680392214318 0 -0.013041696801753769 -0.24735474947598329 0 0.0068757901925850344 -0.25851238897460788 0 -0.016767908982516941 -0.26741680392214318 0 0.0068757901925850344 -0.25851238897460788 0 -0.041901976221870953 -0.25660498446206359 0 -0.016767908982516941 -0.26741680392214318 0 -0.027642287909830279 -0.24809811043664551 0 -0.016767908982516941 -0.26741680392214318 0 -0.027642287909830279 -0.24809811043664551 0 -0.013041696801753769 -0.24735474947598329 0 -0.033169652977226627 -0.34507304732502653 0 -0.040762772535324607 -0.36780401739619401 0 -0.02625843668604402 -0.35645491873510959 0 -0.033169652977226627 -0.34507304732502653 0 -0.040762772535324607 -0.36780401739619401 0 -0.047810574722744817 -0.34351603751341009 0 -0.069375098585923542 -0.36125187412178322 0 -0.040762772535324607 -0.36780401739619401 0 -0.060424724637950442 -0.35110972509116739 0 -0.040762772535324607 -0.36780401739619401 0 -0.060424724637950442 -0.35110972509116739 0 -0.069375098585923542 -0.36125187412178322 0 -0.066397879310648361 -0.37444689386995778 0 -0.040762772535324607 -0.36780401739619401 0 -0.066397879310648361 -0.37444689386995778 0 -0.040762772535324607 -0.36780401739619401 0 -0.0448519367487617 -0.38231729215503468 0 -0.040762772535324607 -0.36780401739619401 0 -0.060424724637950442 -0.35110972509116739 0 -0.047810574722744817 -0.34351603751341009 0 -0.059890700596231493 -0.33158193353196319 0 -0.047810574722744817 -0.34351603751341009 0 -0.042854382274587488 -0.32965180203038791 0 -0.060424724637950442 -0.35110972509116739 0 -0.059890700596231493 -0.33158193353196319 0 -0.047810574722744817 -0.34351603751341009 0 -0.059890700596231493 -0.33158193353196319 0 -0.052898779584194443 -0.3222406722868365 0 -0.042854382274587488 -0.32965180203038791 0 -0.066845840956492777 -0.31668208377760282 0 -0.05104879429272885 -0.30989594402695397 0 -0.052898779584194443 -0.3222406722868365 0 -0.066845840956492777 -0.31668208377760282 0 -0.059890700596231493 -0.33158193353196319 0 -0.052898779584194443 -0.3222406722868365 0 -0.05104879429272885 -0.30989594402695397 0 -0.030169831379033129 -0.31658616172542631 0 -0.05104879429272885 -0.30989594402695397 0 -0.052898779584194443 -0.3222406722868365 0 -0.030169831379033129 -0.31658616172542631 0 -0.042854382274587488 -0.32965180203038791 0 -0.033196944360562308 -0.33390640114731501 0 -0.030169831379033129 -0.31658616172542631 0 -0.052898779584194443 -0.3222406722868365 0 -0.042854382274587488 -0.32965180203038791 0 -0.030169831379033129 -0.31658616172542631 0 -0.047810574722744817 -0.34351603751341009 0 -0.042854382274587488 -0.32965180203038791 0 -0.033196944360562308 -0.33390640114731501 0 -0.033169652977226627 -0.34507304732502653 0 -0.047810574722744817 -0.34351603751341009 0 -0.033196944360562308 -0.33390640114731501 0 -0.033169652977226627 -0.34507304732502653 0 -0.033196944360562308 -0.33390640114731501 0 -0.021109986536353331 -0.33667061968223011 0 -0.033169652977226627 -0.34507304732502653 0 -0.021109986536353331 -0.33667061968223011 0 -0.033196944360562308 -0.33390640114731501 0 -0.021109986536353331 -0.33667061968223011 0 -0.030169831379033129 -0.31658616172542631 0 -0.030169831379033129 -0.31658616172542631 0 -0.0071972271136846282 -0.32394724207559877 0 -0.021109986536353331 -0.33667061968223011 0 -0.030169831379033129 -0.31658616172542631 0 -0.021109986536353331 -0.33667061968223011 0 -0.030169831379033129 -0.31658616172542631 0 -0.0071972271136846282 -0.32394724207559877 0 -0.030169831379033129 -0.31658616172542631 0 -0.01653468582623897 -0.31280783681474811 0 -0.0071972271136846282 -0.32394724207559877 0 -0.00070853124548116153 -0.31110418819556168 0 -0.01653468582623897 -0.31280783681474811 0 -0.0071972271136846282 -0.32394724207559877 0 -0.01653468582623897 -0.31280783681474811 0 -0.0071972271136846282 -0.32394724207559877 0 -0.004218531549578703 -0.32490170144523861 0 -0.0071972271136846282 -0.32394724207559877 0 -0.00070853124548116153 -0.31110418819556168 0 -0.004218531549578703 -0.32490170144523861 0 -0.0071972271136846282 -0.32394724207559877 0 -0.021109986536353331 -0.33667061968223011 0 -0.004218531549578703 -0.32490170144523861 0 -0.004218531549578703 -0.32490170144523861 0 -0.0063395060578380971 -0.34292967992449769 0 0.0058316474928007643 -0.33949043415839791 0 -0.021109986536353331 -0.33667061968223011 0 -0.004218531549578703 -0.32490170144523861 0 -0.0063395060578380971 -0.34292967992449769 0 -0.021109986536353331 -0.33667061968223011 0 -0.004218531549578703 -0.32490170144523861 0 -0.0071972271136846282 -0.32394724207559877 0 -0.021109986536353331 -0.33667061968223011 0 -0.0063395060578380971 -0.34292967992449769 0 -0.013096670209865531 -0.35443506462014768 0 -0.0063395060578380971 -0.34292967992449769 0 -0.013096670209865531 -0.35443506462014768 0 0.0022713826792591049 -0.35819230569133492 0 -0.021109986536353331 -0.33667061968223011 0 -0.013096670209865531 -0.35443506462014768 0 -0.021109986536353331 -0.33667061968223011 0 -0.013096670209865531 -0.35443506462014768 0 -0.02625843668604402 -0.35645491873510959 0 -0.033169652977226627 -0.34507304732502653 0 -0.021109986536353331 -0.33667061968223011 0 -0.02625843668604402 -0.35645491873510959 0 -0.040762772535324607 -0.36780401739619401 0 -0.02625843668604402 -0.35645491873510959 0 -0.020797899046763331 -0.36814853658678198 0 -0.040762772535324607 -0.36780401739619401 0 -0.020797899046763331 -0.36814853658678198 0 -0.021100820432698768 -0.38449830970122062 0 -0.020797899046763331 -0.36814853658678198 0 -0.0050833538833782548 -0.37219950955806552 0 -0.021100820432698768 -0.38449830970122062 0 -0.013096670209865531 -0.35443506462014768 0 -0.02625843668604402 -0.35645491873510959 0 -0.020797899046763331 -0.36814853658678198 0 -0.013096670209865531 -0.35443506462014768 0 -0.020797899046763331 -0.36814853658678198 0 -0.0050833538833782548 -0.37219950955806552 0 -0.013096670209865531 -0.35443506462014768 0 -0.0050833538833782548 -0.37219950955806552 0 -0.013096670209865531 -0.35443506462014768 0 -0.0050833538833782548 -0.37219950955806552 0 0.0022713826792591049 -0.35819230569133492 0 -0.0050833538833782548 -0.37219950955806552 0 -0.0051603854195386581 -0.38696791099738009 0 -0.021100820432698768 -0.38449830970122062 0 -0.0050833538833782548 -0.37219950955806552 0 -0.0051603854195386581 -0.38696791099738009 0 0.0069815009679953409 -0.38998122272398739 0 -0.01437568673041249 -0.40203027355925341 0 -0.001438868330072951 -0.40119260200624718 0 0.007871102384618564 -0.40910868407915851 0 -0.01437568673041249 -0.40203027355925341 0 0.007871102384618564 -0.40910868407915851 0 -0.01437568673041249 -0.40203027355925341 0 -0.001438868330072951 -0.40119260200624718 0 -0.021100820432698768 -0.38449830970122062 0 -0.001438868330072951 -0.40119260200624718 0 -0.021100820432698768 -0.38449830970122062 0 -0.0051603854195386581 -0.38696791099738009 0 -0.001438868330072951 -0.40119260200624718 0 -0.021100820432698768 -0.38449830970122062 0 -0.01437568673041249 -0.40203027355925341 0 -0.036622475845444591 -0.3949518630393517 0 -0.03002134382918804 -0.41832404847141358 0 -0.01437568673041249 -0.40203027355925341 0 -0.036622475845444591 -0.3949518630393517 0 -0.01437568673041249 -0.40203027355925341 0 -0.021100820432698768 -0.38449830970122062 0 -0.036622475845444591 -0.3949518630393517 0 -0.040762772535324607 -0.36780401739619401 0 -0.021100820432698768 -0.38449830970122062 0 -0.0448519367487617 -0.38231729215503468 0 -0.036622475845444591 -0.3949518630393517 0 -0.058869264960476703 -0.38787345251944999 0 -0.040762772535324607 -0.36780401739619401 0 -0.021100820432698768 -0.38449830970122062 0 -0.0448519367487617 -0.38231729215503468 0 -0.021100820432698768 -0.38449830970122062 0 -0.0448519367487617 -0.38231729215503468 0 -0.036622475845444591 -0.3949518630393517 0 -0.036622475845444591 -0.3949518630393517 0 -0.058869264960476703 -0.38787345251944999 0 -0.036622475845444591 -0.3949518630393517 0 -0.055889917414519652 -0.40365708558887781 0 -0.049422261381576418 -0.41817129688955051 0 -0.036622475845444591 -0.3949518630393517 0 -0.055889917414519652 -0.40365708558887781 0 -0.058869264960476703 -0.38787345251944999 0 -0.055889917414519652 -0.40365708558887781 0 -0.058869264960476703 -0.38787345251944999 0 -0.071072364126406884 -0.40286607983022699 0 -0.066397879310648361 -0.37444689386995778 0 -0.0448519367487617 -0.38231729215503468 0 -0.058869264960476703 -0.38787345251944999 0 -0.049422261381576418 -0.41817129688955051 0 -0.043776426135976473 -0.43354810501804858 0 -0.06386970992902348 -0.42759510466849548 0 -0.043776426135976473 -0.43354810501804858 0 -0.055451682831094383 -0.44399033434408841 0 -0.06386970992902348 -0.42759510466849548 0 -0.049422261381576418 -0.41817129688955051 0 -0.062976167504006184 -0.4131558314181647 0 -0.06386970992902348 -0.42759510466849548 0 -0.055889917414519652 -0.40365708558887781 0 -0.049422261381576418 -0.41817129688955051 0 -0.062976167504006184 -0.4131558314181647 0 -0.036622475845444591 -0.3949518630393517 0 -0.049422261381576418 -0.41817129688955051 0 -0.03002134382918804 -0.41832404847141358 0 -0.043776426135976473 -0.43354810501804858 0 -0.03002134382918804 -0.41832404847141358 0 -0.028683844889217821 -0.44104078811751751 0 -0.049422261381576418 -0.41817129688955051 0 -0.043776426135976473 -0.43354810501804858 0 -0.03002134382918804 -0.41832404847141358 0 -0.03002134382918804 -0.41832404847141358 0 -0.01040637125229734 -0.42507473609834062 0 -0.028683844889217821 -0.44104078811751751 0 -0.01040637125229734 -0.42507473609834062 0 -0.028683844889217821 -0.44104078811751751 0 -0.01437568673041249 -0.40203027355925341 0 -0.03002134382918804 -0.41832404847141358 0 -0.01040637125229734 -0.42507473609834062 0 -0.01437568673041249 -0.40203027355925341 0 -0.01040637125229734 -0.42507473609834062 0 0.007871102384618564 -0.40910868407915851 0 -0.01040637125229734 -0.42507473609834062 0 0.007871102384618564 -0.40910868407915851 0 -0.01040637125229734 -0.42507473609834062 0 -0.014861767195181079 -0.4488494742214606 0 0.001606361702675336 -0.44718841881094551 0 -0.01032067760583931 -0.46346049189705968 0 0.001606361702675336 -0.44718841881094551 0 0.0043379866620995716 -0.46754164649138469 0 -0.014861767195181079 -0.4488494742214606 0 -0.01032067760583931 -0.46346049189705968 0 0.001606361702675336 -0.44718841881094551 0 -0.014861767195181079 -0.4488494742214606 0 -0.01032067760583931 -0.46346049189705968 0 -0.02650430393122629 -0.46748293618343961 0 -0.014861767195181079 -0.4488494742214606 0 -0.02650430393122629 -0.46748293618343961 0 -0.028683844889217821 -0.44104078811751751 0 -0.01040637125229734 -0.42507473609834062 0 -0.014861767195181079 -0.4488494742214606 0 -0.028683844889217821 -0.44104078811751751 0 -0.02650430393122629 -0.46748293618343961 0 -0.01080838346194537 -0.48197031945071178 0 -0.028720589394400971 -0.5 0 -0.0012000032819215469 -0.5 0 -0.01080838346194537 -0.48197031945071178 0 0.0073269040725571976 -0.48638821577857322 0 -0.0012000032819215469 -0.5 0 -0.01080838346194537 -0.48197031945071178 0 -0.028720589394400971 -0.5 0 -0.01032067760583931 -0.46346049189705968 0 -0.01080838346194537 -0.48197031945071178 0 0.0043379866620995716 -0.46754164649138469 0 -0.01032067760583931 -0.46346049189705968 0 -0.02650430393122629 -0.46748293618343961 0 -0.01080838346194537 -0.48197031945071178 0 -0.02650430393122629 -0.46748293618343961 0 -0.028720589394400971 -0.5 0 -0.047765567593483611 -0.48117599585639281 0 -0.028720589394400971 -0.5 0 -0.047765567593483611 -0.48117599585639281 0 -0.056241175506880403 -0.5 0 -0.047765567593483611 -0.48117599585639281 0 -0.067562385159137622 -0.48875769730257618 0 -0.065238792163058806 -0.47297289215587118 0 -0.047765567593483611 -0.48117599585639281 0 -0.046961318526138322 -0.4570068401366944 0 -0.065238792163058806 -0.47297289215587118 0 -0.047765567593483611 -0.48117599585639281 0 -0.056241175506880403 -0.5 0 -0.067562385159137622 -0.48875769730257618 0 -0.043776426135976473 -0.43354810501804858 0 -0.028683844889217821 -0.44104078811751751 0 -0.046961318526138322 -0.4570068401366944 0 -0.028683844889217821 -0.44104078811751751 0 -0.046961318526138322 -0.4570068401366944 0 -0.02650430393122629 -0.46748293618343961 0 -0.047765567593483611 -0.48117599585639281 0 -0.046961318526138322 -0.4570068401366944 0 -0.02650430393122629 -0.46748293618343961 0 -0.028683844889217821 -0.44104078811751751 0 -0.046961318526138322 -0.4570068401366944 0 -0.046961318526138322 -0.4570068401366944 0 -0.065238792163058806 -0.47297289215587118 0 -0.046961318526138322 -0.4570068401366944 0 -0.059210718898455722 -0.45680953939747487 0 -0.065238792163058806 -0.47297289215587118 0 -0.055451682831094383 -0.44399033434408841 0 -0.069191082073531363 -0.45326809095324538 0 -0.059210718898455722 -0.45680953939747487 0 -0.055451682831094383 -0.44399033434408841 0 -0.069191082073531363 -0.45326809095324538 0 -0.043776426135976473 -0.43354810501804858 0 -0.046961318526138322 -0.4570068401366944 0 -0.055451682831094383 -0.44399033434408841 0 -0.046961318526138322 -0.4570068401366944 0 -0.059210718898455722 -0.45680953939747487 0 -0.055451682831094383 -0.44399033434408841 0 -0.055451682831094383 -0.44399033434408841 0 -0.070604040280460523 -0.43779476840863812 0 -0.069191082073531363 -0.45326809095324538 0 -0.070604040280460523 -0.43779476840863812 0 -0.069191082073531363 -0.45326809095324538 0 -0.082479402628206341 -0.44222205321325531 0 -0.059210718898455722 -0.45680953939747487 0 -0.069191082073531363 -0.45326809095324538 0 -0.065238792163058806 -0.47297289215587118 0 -0.069191082073531363 -0.45326809095324538 0 -0.082930481315966975 -0.46254584756240452 0 -0.065238792163058806 -0.47297289215587118 0 -0.069191082073531363 -0.45326809095324538 0 -0.082930481315966975 -0.46254584756240452 0 -0.082930481315966975 -0.46254584756240452 0 -0.082479402628206341 -0.44222205321325531 0 -0.082930481315966975 -0.46254584756240452 0 -0.082479402628206341 -0.44222205321325531 0 -0.1006007408980433 -0.45280134013146922 0 -0.069191082073531363 -0.45326809095324538 0 -0.082930481315966975 -0.46254584756240452 0 -0.082479402628206341 -0.44222205321325531 0 -0.082479402628206341 -0.44222205321325531 0 -0.1006007408980433 -0.45280134013146922 0 -0.097393023442810867 -0.4362838599991114 0 -0.056241175506880403 -0.5 0 -0.067562385159137622 -0.48875769730257618 0 -0.083761761619359831 -0.49999999999999728 0 -0.082930481315966975 -0.46254584756240452 0 -0.065238792163058806 -0.47297289215587118 0 -0.083516265799977313 -0.48893894417505052 0 -0.065238792163058806 -0.47297289215587118 0 -0.083516265799977313 -0.48893894417505052 0 -0.067562385159137622 -0.48875769730257618 0 -0.065238792163058806 -0.47297289215587118 0 -0.083516265799977313 -0.48893894417505052 0 -0.082930481315966975 -0.46254584756240452 0 -0.10141905836124671 -0.47503056504160113 0 -0.082930481315966975 -0.46254584756240452 0 -0.083516265799977313 -0.48893894417505052 0 -0.082930481315966975 -0.46254584756240452 0 -0.083516265799977313 -0.48893894417505052 0 -0.10141905836124671 -0.47503056504160113 0 -0.067562385159137622 -0.48875769730257618 0 -0.083516265799977313 -0.48893894417505052 0 -0.083761761619359831 -0.49999999999999728 0 -0.083516265799977313 -0.48893894417505052 0 -0.083761761619359831 -0.49999999999999728 0 -0.096178641946209342 -0.50000000000000089 0 -0.083516265799977313 -0.48893894417505052 0 -0.096178641946209342 -0.50000000000000089 0 -0.083516265799977313 -0.48893894417505052 0 -0.083761761619359831 -0.49999999999999728 0 -0.096178641946209342 -0.50000000000000089 0 -0.1045392996940252 -0.4905742847613358 0 -0.1172874271990063 -0.5 0 -0.083516265799977313 -0.48893894417505052 0 -0.1045392996940252 -0.4905742847613358 0 -0.10141905836124671 -0.47503056504160113 0 -0.083516265799977313 -0.48893894417505052 0 -0.096178641946209342 -0.50000000000000089 0 -0.1045392996940252 -0.4905742847613358 0 -0.1045392996940252 -0.4905742847613358 0 -0.10141905836124671 -0.47503056504160113 0 -0.1199076354065251 -0.48751528252079979 0 -0.10141905836124671 -0.47503056504160113 0 -0.1199076354065251 -0.48751528252079979 0 -0.12207330751934641 -0.46414785506074818 0 -0.10141905836124671 -0.47503056504160113 0 -0.1199076354065251 -0.48751528252079979 0 -0.1045392996940252 -0.4905742847613358 0 -0.1199076354065251 -0.48751528252079979 0 -0.1172874271990063 -0.5 0 -0.1006007408980433 -0.45280134013146922 0 -0.11651476363668679 -0.44128747241379468 0 -0.097393023442810867 -0.4362838599991114 0 -0.10141905836124671 -0.47503056504160113 0 -0.1006007408980433 -0.45280134013146922 0 -0.12207330751934641 -0.46414785506074818 0 -0.082930481315966975 -0.46254584756240452 0 -0.10141905836124671 -0.47503056504160113 0 -0.1006007408980433 -0.45280134013146922 0 -0.1006007408980433 -0.45280134013146922 0 -0.12207330751934641 -0.46414785506074818 0 -0.11651476363668679 -0.44128747241379468 0 -0.11651476363668679 -0.44128747241379468 0 -0.124275481484544 -0.42618581527367921 0 -0.106056557531981 -0.4227701113875646 0 -0.11651476363668679 -0.44128747241379468 0 -0.106056557531981 -0.4227701113875646 0 -0.097393023442810867 -0.4362838599991114 0 -0.106056557531981 -0.4227701113875646 0 -0.097393023442810867 -0.4362838599991114 0 -0.082028323940447095 -0.42189825886410598 0 -0.094217025832781534 -0.41146083244778892 0 -0.1166368604975124 -0.41077218405426152 0 -0.1040854026189002 -0.3988070004738995 0 -0.106056557531981 -0.4227701113875646 0 -0.094217025832781534 -0.41146083244778892 0 -0.082028323940447095 -0.42189825886410598 0 -0.106056557531981 -0.4227701113875646 0 -0.094217025832781534 -0.41146083244778892 0 -0.1166368604975124 -0.41077218405426152 0 -0.124275481484544 -0.42618581527367921 0 -0.106056557531981 -0.4227701113875646 0 -0.1166368604975124 -0.41077218405426152 0 -0.12659355998511121 -0.39603953643283568 0 -0.1040854026189002 -0.3988070004738995 0 -0.12659355998511121 -0.39603953643283568 0 -0.1166368604975124 -0.41077218405426152 0 -0.1040854026189002 -0.3988070004738995 0 -0.12659355998511121 -0.39603953643283568 0 -0.1118502359610614 -0.37940292021256861 0 -0.1040854026189002 -0.3988070004738995 0 -0.12659355998511121 -0.39603953643283568 0 -0.1118502359610614 -0.37940292021256861 0 -0.12659355998511121 -0.39603953643283568 0 -0.1227318875366428 -0.38305617443290679 0 -0.1118502359610614 -0.37940292021256861 0 -0.1227318875366428 -0.38305617443290679 0 -0.1118502359610614 -0.37940292021256861 0 -0.11309723222927021 -0.37732076659024738 0 -0.1125657003827755 -0.37208304027956651 0 -0.1118502359610614 -0.37940292021256861 0 -0.11309723222927021 -0.37732076659024738 0 -0.1118502359610614 -0.37940292021256861 0 -0.1014980219886836 -0.3863743629559524 0 -0.1040854026189002 -0.3988070004738995 0 -0.1118502359610614 -0.37940292021256861 0 -0.1014980219886836 -0.3863743629559524 0 -0.1003992360666373 -0.37723505050201278 0 -0.1007277282474669 -0.37286803882186759 0 -0.1118502359610614 -0.37940292021256861 0 -0.1003992360666373 -0.37723505050201278 0 -0.1014980219886836 -0.3863743629559524 0 -0.095543796217950186 -0.38067235815869249 0 -0.091301438961263512 -0.38872323254285829 0 -0.1014980219886836 -0.3863743629559524 0 -0.095543796217950186 -0.38067235815869249 0 -0.1003992360666373 -0.37723505050201278 0 -0.093554529025158095 -0.37206788058058671 0 -0.095543796217950186 -0.38067235815869249 0 -0.1003992360666373 -0.37723505050201278 0 -0.1014980219886836 -0.3863743629559524 0 -0.1040854026189002 -0.3988070004738995 0 -0.091301438961263512 -0.38872323254285829 0 -0.081577245252688294 -0.40157446451495682 0 -0.081116054075508731 -0.38079504199954811 0 -0.1040854026189002 -0.3988070004738995 0 -0.081577245252688294 -0.40157446451495682 0 -0.081577245252688294 -0.40157446451495682 0 -0.081116054075508731 -0.38079504199954811 0 -0.074053380042882033 -0.39232151168587842 0 -0.1040854026189002 -0.3988070004738995 0 -0.081577245252688294 -0.40157446451495682 0 -0.091301438961263512 -0.38872323254285829 0 -0.094217025832781534 -0.41146083244778892 0 -0.1040854026189002 -0.3988070004738995 0 -0.081577245252688294 -0.40157446451495682 0 -0.081577245252688294 -0.40157446451495682 0 -0.091301438961263512 -0.38872323254285829 0 -0.081116054075508731 -0.38079504199954811 0 -0.089122849758735023 -0.37824746596501141 0 -0.091301438961263512 -0.38872323254285829 0 -0.081116054075508731 -0.38079504199954811 0 -0.095543796217950186 -0.38067235815869249 0 -0.089122849758735023 -0.37824746596501141 0 -0.091301438961263512 -0.38872323254285829 0 -0.093554529025158095 -0.37206788058058671 0 -0.095543796217950186 -0.38067235815869249 0 -0.089122849758735023 -0.37824746596501141 0 -0.089122849758735023 -0.37824746596501141 0 -0.081116054075508731 -0.38079504199954811 0 -0.080841565795772313 -0.36842770233135258 0 -0.089122849758735023 -0.37824746596501141 0 -0.081116054075508731 -0.38079504199954811 0 -0.066397879310648361 -0.37444689386995778 0 -0.058869264960476703 -0.38787345251944999 0 -0.081116054075508731 -0.38079504199954811 0 -0.058869264960476703 -0.38787345251944999 0 -0.081116054075508731 -0.38079504199954811 0 -0.074053380042882033 -0.39232151168587842 0 -0.058869264960476703 -0.38787345251944999 0 -0.081116054075508731 -0.38079504199954811 0 -0.081577245252688294 -0.40157446451495682 0 -0.071072364126406884 -0.40286607983022699 0 -0.074053380042882033 -0.39232151168587842 0 -0.081577245252688294 -0.40157446451495682 0 -0.071072364126406884 -0.40286607983022699 0 -0.081577245252688294 -0.40157446451495682 0 -0.071072364126406884 -0.40286607983022699 0 -0.072968140012797195 -0.41343841707475648 0 -0.058869264960476703 -0.38787345251944999 0 -0.071072364126406884 -0.40286607983022699 0 -0.074053380042882033 -0.39232151168587842 0 -0.072968140012797195 -0.41343841707475648 0 -0.06386970992902348 -0.42759510466849548 0 -0.082028323940447095 -0.42189825886410598 0 -0.071072364126406884 -0.40286607983022699 0 -0.062976167504006184 -0.4131558314181647 0 -0.072968140012797195 -0.41343841707475648 0 -0.055889917414519652 -0.40365708558887781 0 -0.071072364126406884 -0.40286607983022699 0 -0.062976167504006184 -0.4131558314181647 0 -0.062976167504006184 -0.4131558314181647 0 -0.072968140012797195 -0.41343841707475648 0 -0.06386970992902348 -0.42759510466849548 0 -0.055451682831094383 -0.44399033434408841 0 -0.070604040280460523 -0.43779476840863812 0 -0.06386970992902348 -0.42759510466849548 0 -0.070604040280460523 -0.43779476840863812 0 -0.06386970992902348 -0.42759510466849548 0 -0.082028323940447095 -0.42189825886410598 0 -0.082479402628206341 -0.44222205321325531 0 -0.097393023442810867 -0.4362838599991114 0 -0.082028323940447095 -0.42189825886410598 0 -0.082479402628206341 -0.44222205321325531 0 -0.082028323940447095 -0.42189825886410598 0 -0.070604040280460523 -0.43779476840863812 0 -0.082479402628206341 -0.44222205321325531 0 -0.082028323940447095 -0.42189825886410598 0 -0.081577245252688294 -0.40157446451495682 0 -0.072968140012797195 -0.41343841707475648 0 -0.082028323940447095 -0.42189825886410598 0 -0.094217025832781534 -0.41146083244778892 0 -0.081577245252688294 -0.40157446451495682 0 -0.082028323940447095 -0.42189825886410598 0 -0.081577245252688294 -0.40157446451495682 0 -0.082028323940447095 -0.42189825886410598 0 -0.093681550062330754 -0.088136107751059026 0 -0.07729430927188051 -0.088683757447520689 0 -0.080886612565375438 -0.100464514461309 0 -0.086513370999599493 -0.079608862682909065 0 -0.093681550062330754 -0.088136107751059026 0 -0.07729430927188051 -0.088683757447520689 0 -0.086513370999599493 -0.079608862682909065 0 -0.093681550062330754 -0.088136107751059026 0 -0.09729907580109895 -0.071060276381505222 0 -0.086513370999599493 -0.079608862682909065 0 -0.077778548863087743 -0.070555309151551338 0 -0.07729430927188051 -0.088683757447520689 0 -0.086513370999599493 -0.079608862682909065 0 -0.077778548863087743 -0.070555309151551338 0 -0.09729907580109895 -0.071060276381505222 0 -0.077778548863087743 -0.070555309151551338 0 -0.09729907580109895 -0.071060276381505222 0 -0.098917210749102744 -0.051622574852567923 0 -0.077778548863087743 -0.070555309151551338 0 -0.072930104701552728 -0.055833023784549053 0 -0.061060224661641141 -0.067049944919689602 0 -0.077778548863087743 -0.070555309151551338 0 -0.05663988697707277 -0.08948804345053489 0 -0.061060224661641141 -0.067049944919689602 0 -0.077778548863087743 -0.070555309151551338 0 -0.06953241226827421 -0.086969565589150838 0 -0.05663988697707277 -0.08948804345053489 0 -0.077778548863087743 -0.070555309151551338 0 -0.05663988697707277 -0.08948804345053489 0 -0.077778548863087743 -0.070555309151551338 0 -0.07729430927188051 -0.088683757447520689 0 -0.06953241226827421 -0.086969565589150838 0 -0.07729430927188051 -0.088683757447520689 0 -0.06953241226827421 -0.086969565589150838 0 -0.066416903961055762 -0.099151152306996407 0 -0.06953241226827421 -0.086969565589150838 0 -0.066416903961055762 -0.099151152306996407 0 -0.05663988697707277 -0.08948804345053489 0 -0.066416903961055762 -0.099151152306996407 0 -0.0729693598330418 -0.10875799264093031 0 -0.06379304182065218 -0.1150749141632796 0 -0.066416903961055762 -0.099151152306996407 0 -0.0729693598330418 -0.10875799264093031 0 -0.080886612565375438 -0.100464514461309 0 -0.07729430927188051 -0.088683757447520689 0 -0.066416903961055762 -0.099151152306996407 0 -0.080886612565375438 -0.100464514461309 0 -0.06379304182065218 -0.1150749141632796 0 -0.076212871205162666 -0.1191895513894697 0 -0.070071206697342098 -0.1330937617237771 0 -0.0729693598330418 -0.10875799264093031 0 -0.076212871205162666 -0.1191895513894697 0 -0.083271655752978749 -0.1117381083564862 0 -0.0729693598330418 -0.10875799264093031 0 -0.06379304182065218 -0.1150749141632796 0 -0.076212871205162666 -0.1191895513894697 0 -0.076212871205162666 -0.1191895513894697 0 -0.084954907515062905 -0.12456809918808739 0 -0.083943580300343767 -0.1179828371463167 0 -0.076212871205162666 -0.1191895513894697 0 -0.083943580300343767 -0.1179828371463167 0 -0.083271655752978749 -0.1117381083564862 0 -0.083943580300343767 -0.1179828371463167 0 -0.083271655752978749 -0.1117381083564862 0 -0.09133488672817075 -0.1164355896512233 0 -0.083271655752978749 -0.1117381083564862 0 -0.09133488672817075 -0.1164355896512233 0 -0.09168589651096512 -0.1063199682648612 0 -0.084954907515062905 -0.12456809918808739 0 -0.083943580300343767 -0.1179828371463167 0 -0.09133488672817075 -0.1164355896512233 0 -0.093681550062330754 -0.088136107751059026 0 -0.080886612565375438 -0.100464514461309 0 -0.09168589651096512 -0.1063199682648612 0 -0.0729693598330418 -0.10875799264093031 0 -0.083271655752978749 -0.1117381083564862 0 -0.080886612565375438 -0.100464514461309 0 -0.083271655752978749 -0.1117381083564862 0 -0.080886612565375438 -0.100464514461309 0 -0.09168589651096512 -0.1063199682648612 0 -0.093681550062330754 -0.088136107751059026 0 -0.09168589651096512 -0.1063199682648612 0 -0.1014055772725298 -0.1042450542298453 0 -0.093681550062330754 -0.088136107751059026 0 -0.1014055772725298 -0.1042450542298453 0 -0.1105153510258321 -0.099985630939790501 0 -0.1014055772725298 -0.1042450542298453 0 -0.1088437409205857 -0.1184527911710188 0 -0.1105153510258321 -0.099985630939790501 0 -0.09168589651096512 -0.1063199682648612 0 -0.1014055772725298 -0.1042450542298453 0 -0.098453036352389958 -0.11100839668932 0 -0.084954907515062905 -0.12456809918808739 0 -0.1088437409205857 -0.1184527911710188 0 -0.089457473808963378 -0.12577327644739661 0 -0.1088437409205857 -0.1184527911710188 0 -0.089457473808963378 -0.12577327644739661 0 -0.1000432580735057 -0.13010377765222039 0 -0.1088437409205857 -0.1184527911710188 0 -0.089457473808963378 -0.12577327644739661 0 -0.084954907515062905 -0.12456809918808739 0 -0.1088437409205857 -0.1184527911710188 0 -0.09133488672817075 -0.1164355896512233 0 -0.098453036352389958 -0.11100839668932 0 -0.1088437409205857 -0.1184527911710188 0 -0.084954907515062905 -0.12456809918808739 0 -0.09133488672817075 -0.1164355896512233 0 -0.1088437409205857 -0.1184527911710188 0 -0.09133488672817075 -0.1164355896512233 0 -0.09168589651096512 -0.1063199682648612 0 -0.098453036352389958 -0.11100839668932 0 -0.1014055772725298 -0.1042450542298453 0 -0.098453036352389958 -0.11100839668932 0 -0.1088437409205857 -0.1184527911710188 0 -0.1088437409205857 -0.1184527911710188 0 -0.1105153510258321 -0.099985630939790501 0 -0.12618356702853539 -0.1119050663827737 0 -0.1088437409205857 -0.1184527911710188 0 -0.1192076889507475 -0.12903686368196049 0 -0.12618356702853539 -0.1119050663827737 0 -0.1088437409205857 -0.1184527911710188 0 -0.12618356702853539 -0.1119050663827737 0 -0.1088437409205857 -0.1184527911710188 0 -0.1105153510258321 -0.099985630939790501 0 -0.1105153510258321 -0.099985630939790501 0 -0.1282157534094838 -0.094133065870528471 0 -0.12618356702853539 -0.1119050663827737 0 -0.1105153510258321 -0.099985630939790501 0 -0.11207319014771371 -0.08277535888647547 0 -0.1282157534094838 -0.094133065870528471 0 -0.11207319014771371 -0.08277535888647547 0 -0.1308590504900663 -0.077299703695700633 0 -0.11207319014771371 -0.08277535888647547 0 -0.1308590504900663 -0.077299703695700633 0 -0.1282157534094838 -0.094133065870528471 0 -0.1105153510258321 -0.099985630939790501 0 -0.11207319014771371 -0.08277535888647547 0 -0.093681550062330754 -0.088136107751059026 0 -0.1105153510258321 -0.099985630939790501 0 -0.11207319014771371 -0.08277535888647547 0 -0.093681550062330754 -0.088136107751059026 0 -0.11207319014771371 -0.08277535888647547 0 -0.093681550062330754 -0.088136107751059026 0 -0.11207319014771371 -0.08277535888647547 0 -0.09729907580109895 -0.071060276381505222 0 -0.11207319014771371 -0.08277535888647547 0 -0.09729907580109895 -0.071060276381505222 0 -0.1057623162371369 -0.064638324993244428 0 -0.11207319014771371 -0.08277535888647547 0 -0.1057623162371369 -0.064638324993244428 0 -0.1147597882506332 -0.053095089852429167 0 -0.11207319014771371 -0.08277535888647547 0 -0.1147597882506332 -0.053095089852429167 0 -0.11207319014771371 -0.08277535888647547 0 -0.1147597882506332 -0.053095089852429167 0 -0.13220234954152571 -0.062459569178676948 0 -0.1147597882506332 -0.053095089852429167 0 -0.13220234954152571 -0.062459569178676948 0 -0.12595257954408401 -0.050505077155697208 0 -0.1147597882506332 -0.053095089852429167 0 -0.13220234954152571 -0.062459569178676948 0 -0.1147597882506332 -0.053095089852429167 0 -0.11598390793443519 -0.039571592792811472 0 -0.12595257954408401 -0.050505077155697208 0 -0.1147597882506332 -0.053095089852429167 0 -0.11598390793443519 -0.039571592792811472 0 -0.11598390793443519 -0.039571592792811472 0 -0.094777689051065886 -0.035276847189158828 0 -0.094165629209164825 -0.042038595718967703 0 -0.11598390793443519 -0.039571592792811472 0 -0.094777689051065886 -0.035276847189158828 0 -0.11598390793443519 -0.039571592792811472 0 -0.094777689051065886 -0.035276847189158828 0 -0.1033234186926814 -0.023035833733044561 0 -0.1147597882506332 -0.053095089852429167 0 -0.11598390793443519 -0.039571592792811472 0 -0.094165629209164825 -0.042038595718967703 0 -0.1147597882506332 -0.053095089852429167 0 -0.094165629209164825 -0.042038595718967703 0 -0.09729907580109895 -0.071060276381505222 0 -0.1057623162371369 -0.064638324993244428 0 -0.098917210749102744 -0.051622574852567923 0 -0.1057623162371369 -0.064638324993244428 0 -0.1147597882506332 -0.053095089852429167 0 -0.098917210749102744 -0.051622574852567923 0 -0.1147597882506332 -0.053095089852429167 0 -0.094165629209164825 -0.042038595718967703 0 -0.098917210749102744 -0.051622574852567923 0 -0.094165629209164825 -0.042038595718967703 0 -0.098917210749102744 -0.051622574852567923 0 -0.088913578356923456 -0.048584579006586782 0 -0.1199914485239682 -0.00059886477107955281 0 -0.11773615198526639 -0.02021362675191277 0 -0.12684198873082661 -0.020822019530428209 0 -0.1199914485239682 -0.00059886477107955281 0 -0.11773615198526639 -0.02021362675191277 0 -0.1073853388170036 -0.0095184041967628953 0 -0.1199914485239682 -0.00059886477107955281 0 -0.11773615198526639 -0.02021362675191277 0 -0.1199914485239682 -0.00059886477107955281 0 -0.12684198873082661 -0.020822019530428209 0 -0.1199914485239682 -0.00059886477107955281 0 -0.1073853388170036 -0.0095184041967628953 0 -0.10885487443822189 -0.00043438220934547919 0 -0.11598390793443519 -0.039571592792811472 0 -0.11773615198526639 -0.02021362675191277 0 -0.12684198873082661 -0.020822019530428209 0 -0.11598390793443519 -0.039571592792811472 0 -0.11773615198526639 -0.02021362675191277 0 -0.1033234186926814 -0.023035833733044561 0 -0.11598390793443519 -0.039571592792811472 0 -0.11773615198526639 -0.02021362675191277 0 -0.11773615198526639 -0.02021362675191277 0 -0.1033234186926814 -0.023035833733044561 0 -0.1073853388170036 -0.0095184041967628953 0 -0.1033234186926814 -0.023035833733044561 0 -0.1073853388170036 -0.0095184041967628953 0 -0.093620069156946734 -0.0038576206878846849 0 -0.1073853388170036 -0.0095184041967628953 0 -0.10885487443822189 -0.00043438220934547919 0 -0.093620069156946734 -0.0038576206878846849 0 -0.1033234186926814 -0.023035833733044561 0 -0.093620069156946734 -0.0038576206878846849 0 -0.082835150371120506 -0.01847411668482429 0 -0.093620069156946734 -0.0038576206878846849 0 -0.06617624525521773 -0.001472083466967122 0 -0.093620069156946734 -0.0038576206878846849 0 -0.082835150371120506 -0.01847411668482429 0 -0.06617624525521773 -0.001472083466967122 0 -0.094777689051065886 -0.035276847189158828 0 -0.1033234186926814 -0.023035833733044561 0 -0.082835150371120506 -0.01847411668482429 0 -0.094777689051065886 -0.035276847189158828 0 -0.082835150371120506 -0.01847411668482429 0 -0.073571470167696551 -0.030982101585506079 0 -0.082835150371120506 -0.01847411668482429 0 -0.073571470167696551 -0.030982101585506079 0 -0.065542009903114803 -0.01622021344638476 0 -0.082835150371120506 -0.01847411668482429 0 -0.065542009903114803 -0.01622021344638476 0 -0.06617624525521773 -0.001472083466967122 0 -0.077778548863087743 -0.070555309151551338 0 -0.098917210749102744 -0.051622574852567923 0 -0.077778548863087743 -0.070555309151551338 0 -0.098917210749102744 -0.051622574852567923 0 -0.082743933524190627 -0.054365721392882031 0 -0.098917210749102744 -0.051622574852567923 0 -0.082743933524190627 -0.054365721392882031 0 -0.088913578356923456 -0.048584579006586782 0 -0.082743933524190627 -0.054365721392882031 0 -0.088913578356923456 -0.048584579006586782 0 -0.079827539945235698 -0.046311424061929472 0 -0.082743933524190627 -0.054365721392882031 0 -0.079827539945235698 -0.046311424061929472 0 -0.072930104701552728 -0.055833023784549053 0 -0.094165629209164825 -0.042038595718967703 0 -0.073571470167696551 -0.030982101585506079 0 -0.094777689051065886 -0.035276847189158828 0 -0.073571470167696551 -0.030982101585506079 0 -0.094165629209164825 -0.042038595718967703 0 -0.088913578356923456 -0.048584579006586782 0 -0.079827539945235698 -0.046311424061929472 0 -0.094165629209164825 -0.042038595718967703 0 -0.073571470167696551 -0.030982101585506079 0 -0.079827539945235698 -0.046311424061929472 0 -0.094777689051065886 -0.035276847189158828 0 -0.094165629209164825 -0.042038595718967703 0 -0.073571470167696551 -0.030982101585506079 0 -0.073571470167696551 -0.030982101585506079 0 -0.065480562346209442 -0.044611846388844252 0 -0.0531141486029785 -0.040128165960652093 0 -0.073571470167696551 -0.030982101585506079 0 -0.079827539945235698 -0.046311424061929472 0 -0.065480562346209442 -0.044611846388844252 0 -0.077778548863087743 -0.070555309151551338 0 -0.082743933524190627 -0.054365721392882031 0 -0.072930104701552728 -0.055833023784549053 0 -0.065480562346209442 -0.044611846388844252 0 -0.072930104701552728 -0.055833023784549053 0 -0.061060224661641141 -0.067049944919689602 0 -0.065480562346209442 -0.044611846388844252 0 -0.061060224661641141 -0.067049944919689602 0 -0.079827539945235698 -0.046311424061929472 0 -0.065480562346209442 -0.044611846388844252 0 -0.072930104701552728 -0.055833023784549053 0 -0.065480562346209442 -0.044611846388844252 0 -0.05735273459195394 -0.053540722619487863 0 -0.061060224661641141 -0.067049944919689602 0 -0.05735273459195394 -0.053540722619487863 0 -0.041227351579161589 -0.061963843754105297 0 -0.044774193706715051 -0.049538141187259702 0 -0.05735273459195394 -0.053540722619487863 0 -0.0531141486029785 -0.040128165960652093 0 -0.044774193706715051 -0.049538141187259702 0 -0.073571470167696551 -0.030982101585506079 0 -0.0531141486029785 -0.040128165960652093 0 -0.047798955474383849 -0.025762576370617438 0 -0.065480562346209442 -0.044611846388844252 0 -0.05735273459195394 -0.053540722619487863 0 -0.0531141486029785 -0.040128165960652093 0 -0.0531141486029785 -0.040128165960652093 0 -0.040130259325484113 -0.039339875992535772 0 -0.047798955474383849 -0.025762576370617438 0 -0.0531141486029785 -0.040128165960652093 0 -0.040130259325484113 -0.039339875992535772 0 -0.044774193706715051 -0.049538141187259702 0 -0.040130259325484113 -0.039339875992535772 0 -0.044774193706715051 -0.049538141187259702 0 -0.028225857548232609 -0.047473047875073962 0 -0.040130259325484113 -0.039339875992535772 0 -0.047798955474383849 -0.025762576370617438 0 -0.02918162364236505 -0.033754495385545973 0 -0.040130259325484113 -0.039339875992535772 0 -0.028225857548232609 -0.047473047875073962 0 -0.02918162364236505 -0.033754495385545973 0 -0.041227351579161589 -0.061963843754105297 0 -0.044774193706715051 -0.049538141187259702 0 -0.028225857548232609 -0.047473047875073962 0 -0.041227351579161589 -0.061963843754105297 0 -0.025642399153910169 -0.062279378409630937 0 -0.028225857548232609 -0.047473047875073962 0 -0.06617624525521773 -0.001472083466967122 0 -0.05455946646409815 -0.0084795006800773946 0 -0.03873242135348863 0.00091345375395045138 0 -0.065542009903114803 -0.01622021344638476 0 -0.05455946646409815 -0.0084795006800773946 0 -0.047787189344571449 -0.017139159560908151 0 -0.06617624525521773 -0.001472083466967122 0 -0.03873242135348863 0.00091345375395045138 0 -0.05455946646409815 -0.0084795006800773946 0 -0.047787189344571449 -0.017139159560908151 0 -0.03873242135348863 0.00091345375395045138 0 -0.065542009903114803 -0.01622021344638476 0 -0.06617624525521773 -0.001472083466967122 0 -0.05455946646409815 -0.0084795006800773946 0 -0.073571470167696551 -0.030982101585506079 0 -0.047787189344571449 -0.017139159560908151 0 -0.073571470167696551 -0.030982101585506079 0 -0.047798955474383849 -0.025762576370617438 0 -0.073571470167696551 -0.030982101585506079 0 -0.047787189344571449 -0.017139159560908151 0 -0.047798955474383849 -0.025762576370617438 0 -0.073571470167696551 -0.030982101585506079 0 -0.065542009903114803 -0.01622021344638476 0 -0.047787189344571449 -0.017139159560908151 0 -0.047787189344571449 -0.017139159560908151 0 -0.047798955474383849 -0.025762576370617438 0 -0.022026440781071192 -0.020543051155729099 0 -0.047798955474383849 -0.025762576370617438 0 -0.022026440781071192 -0.020543051155729099 0 -0.02918162364236505 -0.033754495385545973 0 -0.047798955474383849 -0.025762576370617438 0 -0.022026440781071192 -0.020543051155729099 0 -0.047787189344571449 -0.017139159560908151 0 -0.022002908521446499 -0.003296217536309987 0 -0.047787189344571449 -0.017139159560908151 0 -0.022002908521446499 -0.003296217536309987 0 -0.03873242135348863 0.00091345375395045138 0 -0.047787189344571449 -0.017139159560908151 0 -0.022002908521446499 -0.003296217536309987 0 -0.022026440781071192 -0.020543051155729099 0 -0.022002908521446499 -0.003296217536309987 0 -0.022026440781071192 -0.020543051155729099 0 -0.0091254757721494061 -0.0071540175361478938 0 -0.022002908521446499 -0.003296217536309987 0 -0.01093729165058907 0.0026446382067872851 0 -0.022026440781071192 -0.020543051155729099 0 -0.02918162364236505 -0.033754495385545973 0 -0.01420549347956444 -0.037753456556065608 0 -0.01420549347956444 -0.037753456556065608 0 0.003746073912241465 -0.01532352594084075 0 0.0089674979323732702 -0.035150491006571347 0 -0.022026440781071192 -0.020543051155729099 0 0.003746073912241465 -0.01532352594084075 0 -0.022026440781071192 -0.020543051155729099 0 -0.01420549347956444 -0.037753456556065608 0 0.003746073912241465 -0.01532352594084075 0 -0.022026440781071192 -0.020543051155729099 0 -0.0091254757721494061 -0.0071540175361478938 0 0.003746073912241465 -0.01532352594084075 0 -0.0091254757721494061 -0.0071540175361478938 0 0.0037813723016785969 0.010546724488288259 0 0.003746073912241465 -0.01532352594084075 0 -0.022002908521446499 -0.003296217536309987 0 -0.0091254757721494061 -0.0071540175361478938 0 -0.01093729165058907 0.0026446382067872851 0 -0.025642399153910169 -0.062279378409630937 0 -0.028225857548232609 -0.047473047875073962 0 -0.0037790930622907649 -0.053522268974112629 0 -0.028225857548232609 -0.047473047875073962 0 -0.02918162364236505 -0.033754495385545973 0 -0.01420549347956444 -0.037753456556065608 0 -0.028225857548232609 -0.047473047875073962 0 -0.01420549347956444 -0.037753456556065608 0 -0.0037790930622907649 -0.053522268974112629 0 -0.01420549347956444 -0.037753456556065608 0 -0.0037790930622907649 -0.053522268974112629 0 0.0089674979323732702 -0.035150491006571347 0 -0.025642399153910169 -0.062279378409630937 0 -0.0037790930622907649 -0.053522268974112629 0 -0.01229307534139468 -0.06886317078187848 0 -0.0037790930622907649 -0.053522268974112629 0 0.0031800212141037572 -0.078085814380940699 0 -0.0037790930622907649 -0.053522268974112629 0 -0.01229307534139468 -0.06886317078187848 0 0.0031800212141037572 -0.078085814380940699 0 -0.01229307534139468 -0.06886317078187848 0 -0.01184563662309438 -0.080349939238849227 0 0.0031800212141037572 -0.078085814380940699 0 -0.01184563662309438 -0.080349939238849227 0 -0.013733012643120931 -0.095427553989591074 0 0.0031800212141037572 -0.078085814380940699 0 -0.013733012643120931 -0.095427553989591074 0 0.0083525901003755742 -0.09634340085841693 0 0.0031800212141037572 -0.078085814380940699 0 -0.013733012643120931 -0.095427553989591074 0 0.0031800212141037572 -0.078085814380940699 0 -0.01184563662309438 -0.080349939238849227 0 -0.024229049323856122 -0.089579546212333189 0 -0.013733012643120931 -0.095427553989591074 0 -0.01184563662309438 -0.080349939238849227 0 -0.024229049323856122 -0.089579546212333189 0 -0.024754718265737479 -0.076213235486977685 0 -0.024229049323856122 -0.089579546212333189 0 -0.024754718265737479 -0.076213235486977685 0 -0.035263259797476867 -0.087047099158866423 0 -0.024229049323856122 -0.089579546212333189 0 -0.035263259797476867 -0.087047099158866423 0 -0.032155648588405472 -0.097004934794962625 0 -0.025642399153910169 -0.062279378409630937 0 -0.01229307534139468 -0.06886317078187848 0 -0.024754718265737479 -0.076213235486977685 0 -0.01229307534139468 -0.06886317078187848 0 -0.01184563662309438 -0.080349939238849227 0 -0.024754718265737479 -0.076213235486977685 0 -0.025642399153910169 -0.062279378409630937 0 -0.024754718265737479 -0.076213235486977685 0 -0.037353150765866573 -0.074357401974959172 0 -0.041227351579161589 -0.061963843754105297 0 -0.025642399153910169 -0.062279378409630937 0 -0.037353150765866573 -0.074357401974959172 0 -0.041227351579161589 -0.061963843754105297 0 -0.037353150765866573 -0.074357401974959172 0 -0.049662324188625179 -0.078083030583325011 0 -0.035263259797476867 -0.087047099158866423 0 -0.049662324188625179 -0.078083030583325011 0 -0.041971913785298083 -0.1026253385471628 0 -0.049662324188625179 -0.078083030583325011 0 -0.041971913785298083 -0.1026253385471628 0 -0.024754718265737479 -0.076213235486977685 0 -0.037353150765866573 -0.074357401974959172 0 -0.035263259797476867 -0.087047099158866423 0 -0.037353150765866573 -0.074357401974959172 0 -0.035263259797476867 -0.087047099158866423 0 -0.049662324188625179 -0.078083030583325011 0 -0.05663988697707277 -0.08948804345053489 0 -0.061060224661641141 -0.067049944919689602 0 -0.049662324188625179 -0.078083030583325011 0 -0.05663988697707277 -0.08948804345053489 0 -0.061060224661641141 -0.067049944919689602 0 -0.054381606048103028 -0.091510661203312124 0 -0.049662324188625179 -0.078083030583325011 0 -0.041971913785298083 -0.1026253385471628 0 -0.054381606048103028 -0.091510661203312124 0 -0.05663988697707277 -0.08948804345053489 0 -0.049662324188625179 -0.078083030583325011 0 -0.054381606048103028 -0.091510661203312124 0 -0.05663988697707277 -0.08948804345053489 0 -0.05735273459195394 -0.053540722619487863 0 -0.041227351579161589 -0.061963843754105297 0 -0.049662324188625179 -0.078083030583325011 0 -0.05735273459195394 -0.053540722619487863 0 -0.049662324188625179 -0.078083030583325011 0 -0.05735273459195394 -0.053540722619487863 0 -0.061060224661641141 -0.067049944919689602 0 -0.049662324188625179 -0.078083030583325011 0 -0.050019120451125262 -0.1230957499788299 0 -0.053223669762648237 -0.1068291209721997 0 -0.051954304674185249 -0.1236216839861789 0 -0.053223669762648237 -0.1068291209721997 0 -0.051954304674185249 -0.1236216839861789 0 -0.050019120451125262 -0.1230957499788299 0 -0.053223669762648237 -0.1068291209721997 0 -0.06379304182065218 -0.1150749141632796 0 -0.051954304674185249 -0.1236216839861789 0 -0.053223669762648237 -0.1068291209721997 0 -0.06379304182065218 -0.1150749141632796 0 -0.051954304674185249 -0.1236216839861789 0 -0.070071206697342098 -0.1330937617237771 0 -0.047671667928687177 -0.1160402448882889 0 -0.050019120451125262 -0.1230957499788299 0 -0.053223669762648237 -0.1068291209721997 0 -0.047671667928687177 -0.1160402448882889 0 -0.053223669762648237 -0.1068291209721997 0 -0.044311804099681593 -0.1135224355332952 0 -0.047671667928687177 -0.1160402448882889 0 -0.050019120451125262 -0.1230957499788299 0 -0.043132077401293427 -0.1207136730688308 0 -0.05663988697707277 -0.08948804345053489 0 -0.053223669762648237 -0.1068291209721997 0 -0.054381606048103028 -0.091510661203312124 0 -0.05663988697707277 -0.08948804345053489 0 -0.053223669762648237 -0.1068291209721997 0 -0.066416903961055762 -0.099151152306996407 0 -0.06379304182065218 -0.1150749141632796 0 -0.053223669762648237 -0.1068291209721997 0 -0.066416903961055762 -0.099151152306996407 0 -0.05663988697707277 -0.08948804345053489 0 -0.053223669762648237 -0.1068291209721997 0 -0.054381606048103028 -0.091510661203312124 0 -0.053223669762648237 -0.1068291209721997 0 -0.054381606048103028 -0.091510661203312124 0 -0.053223669762648237 -0.1068291209721997 0 -0.041971913785298083 -0.1026253385471628 0 -0.054381606048103028 -0.091510661203312124 0 -0.041971913785298083 -0.1026253385471628 0 -0.053223669762648237 -0.1068291209721997 0 -0.041971913785298083 -0.1026253385471628 0 -0.044311804099681593 -0.1135224355332952 0 -0.035263259797476867 -0.087047099158866423 0 -0.041971913785298083 -0.1026253385471628 0 -0.032155648588405472 -0.097004934794962625 0 -0.041971913785298083 -0.1026253385471628 0 -0.032155648588405472 -0.097004934794962625 0 -0.032981787371483468 -0.10362585835660949 0 -0.041971913785298083 -0.1026253385471628 0 -0.032981787371483468 -0.10362585835660949 0 -0.031281388113567489 -0.11220025313498661 0 -0.041971913785298083 -0.1026253385471628 0 -0.031281388113567489 -0.11220025313498661 0 -0.041971913785298083 -0.1026253385471628 0 -0.031281388113567489 -0.11220025313498661 0 -0.03392474018593758 -0.1161310944810419 0 -0.041971913785298083 -0.1026253385471628 0 -0.044311804099681593 -0.1135224355332952 0 -0.035938569147329853 -0.12187947381318461 0 -0.041971913785298083 -0.1026253385471628 0 -0.03392474018593758 -0.1161310944810419 0 -0.035938569147329853 -0.12187947381318461 0 -0.041971913785298083 -0.1026253385471628 0 -0.035938569147329853 -0.12187947381318461 0 -0.031281388113567489 -0.11220025313498661 0 -0.032440449485218487 -0.1146091804913523 0 -0.03392474018593758 -0.1161310944810419 0 -0.032440449485218487 -0.1146091804913523 0 -0.03392474018593758 -0.1161310944810419 0 -0.031281388113567489 -0.11220025313498661 0 -0.032440449485218487 -0.1146091804913523 0 -0.047671667928687177 -0.1160402448882889 0 -0.044311804099681593 -0.1135224355332952 0 -0.043132077401293427 -0.1207136730688308 0 -0.044311804099681593 -0.1135224355332952 0 -0.043132077401293427 -0.1207136730688308 0 -0.035938569147329853 -0.12187947381318461 0 -0.032440449485218487 -0.1146091804913523 0 -0.03392474018593758 -0.1161310944810419 0 -0.035938569147329853 -0.12187947381318461 0 -0.032440449485218487 -0.1146091804913523 0 -0.035938569147329853 -0.12187947381318461 0 -0.031281388113567489 -0.11220025313498661 0 -0.022282400556485459 -0.12026015027023169 0 -0.0085479565991443043 -0.1135269043086076 0 -0.032440449485218487 -0.1146091804913523 0 -0.035938569147329853 -0.12187947381318461 0 -0.022282400556485459 -0.12026015027023169 0 -0.031281388113567489 -0.11220025313498661 0 -0.022282400556485459 -0.12026015027023169 0 -0.031281388113567489 -0.11220025313498661 0 -0.032440449485218487 -0.1146091804913523 0 -0.022282400556485459 -0.12026015027023169 0 -0.031281388113567489 -0.11220025313498661 0 -0.013733012643120931 -0.095427553989591074 0 -0.031281388113567489 -0.11220025313498661 0 -0.013733012643120931 -0.095427553989591074 0 -0.0085479565991443043 -0.1135269043086076 0 -0.031281388113567489 -0.11220025313498661 0 -0.026022288772657949 -0.1012700396173617 0 -0.013733012643120931 -0.095427553989591074 0 -0.024229049323856122 -0.089579546212333189 0 -0.032155648588405472 -0.097004934794962625 0 -0.026022288772657949 -0.1012700396173617 0 -0.032155648588405472 -0.097004934794962625 0 -0.032981787371483468 -0.10362585835660949 0 -0.026022288772657949 -0.1012700396173617 0 -0.032981787371483468 -0.10362585835660949 0 -0.031281388113567489 -0.11220025313498661 0 -0.026022288772657949 -0.1012700396173617 0 -0.031281388113567489 -0.11220025313498661 0 -0.026022288772657949 -0.1012700396173617 0 -0.024229049323856122 -0.089579546212333189 0 -0.026022288772657949 -0.1012700396173617 0 -0.013733012643120931 -0.095427553989591074 0 -0.013733012643120931 -0.095427553989591074 0 -0.0085479565991443043 -0.1135269043086076 0 0.0083525901003755742 -0.09634340085841693 0 -0.0133285289950786 -0.12432189483442491 0 -0.0085479565991443043 -0.1135269043086076 0 -0.0022308274732921948 -0.12926666779896781 0 -0.022282400556485459 -0.12026015027023169 0 -0.0133285289950786 -0.12432189483442491 0 -0.0085479565991443043 -0.1135269043086076 0 -0.0022308274732921948 -0.12926666779896781 0 -0.02025293135139242 -0.1342338569598924 0 -0.01798681393323124 -0.14393234826203871 0 -0.0022308274732921948 -0.12926666779896781 0 -0.01798681393323124 -0.14393234826203871 0 -0.0022308274732921948 -0.12926666779896781 0 -0.01798681393323124 -0.14393234826203871 0 -0.0083874457181671216 -0.1448173143881808 0 -0.0133285289950786 -0.12432189483442491 0 -0.0022308274732921948 -0.12926666779896781 0 -0.02025293135139242 -0.1342338569598924 0 -0.0022308274732921948 -0.12926666779896781 0 -0.0083874457181671216 -0.1448173143881808 0 0.003124973466612863 -0.141162190487363 0 -0.035938569147329853 -0.12187947381318461 0 -0.022282400556485459 -0.12026015027023169 0 -0.02025293135139242 -0.1342338569598924 0 -0.035938569147329853 -0.12187947381318461 0 -0.02025293135139242 -0.1342338569598924 0 -0.02737212985556926 -0.1492174415191474 0 -0.022282400556485459 -0.12026015027023169 0 -0.0133285289950786 -0.12432189483442491 0 -0.02025293135139242 -0.1342338569598924 0 -0.02025293135139242 -0.1342338569598924 0 -0.01798681393323124 -0.14393234826203871 0 -0.026534990038919879 -0.1518889950659052 0 -0.02737212985556926 -0.1492174415191474 0 -0.026534990038919879 -0.1518889950659052 0 -0.024734762886112139 -0.15021334268759701 0 -0.02737212985556926 -0.1492174415191474 0 -0.026534990038919879 -0.1518889950659052 0 -0.024734762886112139 -0.15021334268759701 0 -0.024734762886112139 -0.15021334268759701 0 -0.02737212985556926 -0.1492174415191474 0 -0.028487410348248358 -0.15370630891414119 0 -0.03137774613140526 -0.15597258826801 0 -0.0327500974266954 -0.15297842510626261 0 -0.026534990038919879 -0.1518889950659052 0 -0.028487410348248358 -0.15370630891414119 0 -0.026534990038919879 -0.1518889950659052 0 -0.028487410348248358 -0.15370630891414119 0 -0.02910466095908908 -0.15940512002777721 0 -0.026534990038919879 -0.1518889950659052 0 -0.028487410348248358 -0.15370630891414119 0 -0.02737212985556926 -0.1492174415191474 0 -0.028487410348248358 -0.15370630891414119 0 -0.02737212985556926 -0.1492174415191474 0 -0.0327500974266954 -0.15297842510626261 0 -0.02025293135139242 -0.1342338569598924 0 -0.02737212985556926 -0.1492174415191474 0 -0.01798681393323124 -0.14393234826203871 0 -0.024734762886112139 -0.15021334268759701 0 -0.01798681393323124 -0.14393234826203871 0 -0.024734762886112139 -0.15021334268759701 0 -0.02737212985556926 -0.1492174415191474 0 -0.01798681393323124 -0.14393234826203871 0 -0.026534990038919879 -0.1518889950659052 0 -0.015724201766723511 -0.15361583784700489 0 -0.01380531689277701 -0.1618282491327574 0 -0.026534990038919879 -0.1518889950659052 0 -0.024734762886112139 -0.15021334268759701 0 -0.015724201766723511 -0.15361583784700489 0 -0.01798681393323124 -0.14393234826203871 0 -0.015724201766723511 -0.15361583784700489 0 -0.024734762886112139 -0.15021334268759701 0 -0.01798681393323124 -0.14393234826203871 0 -0.015724201766723511 -0.15361583784700489 0 -0.024734762886112139 -0.15021334268759701 0 -0.015724201766723511 -0.15361583784700489 0 -0.015724201766723511 -0.15361583784700489 0 -0.009120358884200274 -0.15610952754552929 0 -0.0083874457181671216 -0.1448173143881808 0 -0.015724201766723511 -0.15361583784700489 0 -0.009120358884200274 -0.15610952754552929 0 -0.01798681393323124 -0.14393234826203871 0 -0.015724201766723511 -0.15361583784700489 0 -0.0083874457181671216 -0.1448173143881808 0 -0.009120358884200274 -0.15610952754552929 0 -0.0083874457181671216 -0.1448173143881808 0 0.003124973466612863 -0.141162190487363 0 -0.009120358884200274 -0.15610952754552929 0 0.003124973466612863 -0.141162190487363 0 -0.009120358884200274 -0.15610952754552929 0 0.002663853123961456 -0.1529426494532633 0 0.003124973466612863 -0.141162190487363 0 -0.009120358884200274 -0.15610952754552929 0 0.0077849110001112637 -0.1624931587298514 0 -0.009120358884200274 -0.15610952754552929 0 -0.005223704370383303 -0.16456766706358791 0 0.0077849110001112637 -0.1624931587298514 0 -0.005223704370383303 -0.16456766706358791 0 -0.01050868113510979 -0.17593713553286741 0 0.00074115522763627817 -0.16843668964381511 0 -0.01380531689277701 -0.1618282491327574 0 -0.01050868113510979 -0.17593713553286741 0 -0.0207602544428729 -0.17031783461738781 0 -0.01380531689277701 -0.1618282491327574 0 -0.01050868113510979 -0.17593713553286741 0 -0.005223704370383303 -0.16456766706358791 0 -0.01380531689277701 -0.1618282491327574 0 -0.01050868113510979 -0.17593713553286741 0 -0.009120358884200274 -0.15610952754552929 0 -0.005223704370383303 -0.16456766706358791 0 -0.01380531689277701 -0.1618282491327574 0 -0.015724201766723511 -0.15361583784700489 0 -0.009120358884200274 -0.15610952754552929 0 -0.01380531689277701 -0.1618282491327574 0 -0.015724201766723511 -0.15361583784700489 0 -0.01380531689277701 -0.1618282491327574 0 -0.009120358884200274 -0.15610952754552929 0 -0.01380531689277701 -0.1618282491327574 0 -0.01050868113510979 -0.17593713553286741 0 -0.0045890132953122897 -0.2012720306251759 0 0.0029389475103934371 -0.18109004508303289 0 -0.01050868113510979 -0.17593713553286741 0 -0.017532110673635769 -0.18061976837398691 0 -0.0045890132953122897 -0.2012720306251759 0 -0.01050868113510979 -0.17593713553286741 0 0.00074115522763627817 -0.16843668964381511 0 0.0029389475103934371 -0.18109004508303289 0 -0.01050868113510979 -0.17593713553286741 0 0.00074115522763627817 -0.16843668964381511 0 -0.01050868113510979 -0.17593713553286741 0 -0.017532110673635769 -0.18061976837398691 0 -0.0207602544428729 -0.17031783461738781 0 -0.031786172518244761 -0.16740741812647861 0 -0.032001716791305722 -0.18403979184442451 0 -0.017532110673635769 -0.18061976837398691 0 -0.0207602544428729 -0.17031783461738781 0 -0.032001716791305722 -0.18403979184442451 0 -0.01050868113510979 -0.17593713553286741 0 -0.017532110673635769 -0.18061976837398691 0 -0.0207602544428729 -0.17031783461738781 0 -0.017532110673635769 -0.18061976837398691 0 -0.0207602544428729 -0.17031783461738781 0 -0.0207602544428729 -0.17031783461738781 0 -0.032001716791305722 -0.18403979184442451 0 -0.017532110673635769 -0.18061976837398691 0 -0.03038764490668612 -0.18919075872272559 0 -0.017532110673635769 -0.18061976837398691 0 -0.032001716791305722 -0.18403979184442451 0 -0.03038764490668612 -0.18919075872272559 0 -0.026534990038919879 -0.1518889950659052 0 -0.0207602544428729 -0.17031783461738781 0 -0.026534990038919879 -0.1518889950659052 0 -0.01380531689277701 -0.1618282491327574 0 -0.0207602544428729 -0.17031783461738781 0 -0.026534990038919879 -0.1518889950659052 0 -0.0207602544428729 -0.17031783461738781 0 -0.02910466095908908 -0.15940512002777721 0 -0.01380531689277701 -0.1618282491327574 0 -0.0207602544428729 -0.17031783461738781 0 -0.0207602544428729 -0.17031783461738781 0 -0.02910466095908908 -0.15940512002777721 0 -0.031786172518244761 -0.16740741812647861 0 -0.028487410348248358 -0.15370630891414119 0 -0.02910466095908908 -0.15940512002777721 0 -0.03137774613140526 -0.15597258826801 0 -0.035168815791588197 -0.15780049902385879 0 -0.031786172518244761 -0.16740741812647861 0 -0.040531012362533897 -0.1624576155765321 0 -0.02910466095908908 -0.15940512002777721 0 -0.035168815791588197 -0.15780049902385879 0 -0.03137774613140526 -0.15597258826801 0 -0.031786172518244761 -0.16740741812647861 0 -0.040531012362533897 -0.1624576155765321 0 -0.048047267807580403 -0.17530828177959401 0 -0.02910466095908908 -0.15940512002777721 0 -0.035168815791588197 -0.15780049902385879 0 -0.031786172518244761 -0.16740741812647861 0 -0.040531012362533897 -0.1624576155765321 0 -0.048047267807580403 -0.17530828177959401 0 -0.049893609348647061 -0.15088283715734341 0 -0.035168815791588197 -0.15780049902385879 0 -0.040531012362533897 -0.1624576155765321 0 -0.041147579361795777 -0.15549187909818751 0 -0.040531012362533897 -0.1624576155765321 0 -0.049893609348647061 -0.15088283715734341 0 -0.041147579361795777 -0.15549187909818751 0 -0.031786172518244761 -0.16740741812647861 0 -0.032001716791305722 -0.18403979184442451 0 -0.048047267807580403 -0.17530828177959401 0 -0.032001716791305722 -0.18403979184442451 0 -0.048047267807580403 -0.17530828177959401 0 -0.043243179139737943 -0.1977617490714618 0 -0.048047267807580403 -0.17530828177959401 0 -0.054256885103391633 -0.1870567588232567 0 -0.063869832424801307 -0.1799302257860336 0 -0.048047267807580403 -0.17530828177959401 0 -0.056881720886724482 -0.16540653147168841 0 -0.063869832424801307 -0.1799302257860336 0 -0.048047267807580403 -0.17530828177959401 0 -0.054256885103391633 -0.1870567588232567 0 -0.046200926266512302 -0.1997337264018445 0 -0.056881720886724482 -0.16540653147168841 0 -0.063869832424801307 -0.1799302257860336 0 -0.054256885103391633 -0.1870567588232567 0 -0.058909513914670371 -0.1932548013255547 0 -0.063869832424801307 -0.1799302257860336 0 -0.048047267807580403 -0.17530828177959401 0 -0.056881720886724482 -0.16540653147168841 0 -0.049893609348647061 -0.15088283715734341 0 -0.048047267807580403 -0.17530828177959401 0 -0.049893609348647061 -0.15088283715734341 0 -0.056881720886724482 -0.16540653147168841 0 -0.049893609348647061 -0.15088283715734341 0 -0.056881720886724482 -0.16540653147168841 0 -0.058846067207567437 -0.1558583272045371 0 -0.049893609348647061 -0.15088283715734341 0 -0.056881720886724482 -0.16540653147168841 0 -0.058846067207567437 -0.1558583272045371 0 -0.071443317772056023 -0.16649812516727619 0 -0.058846067207567437 -0.1558583272045371 0 -0.059200335752792203 -0.14609650993206519 0 -0.06723984317839922 -0.15022018337949269 0 -0.058846067207567437 -0.1558583272045371 0 -0.049893609348647061 -0.15088283715734341 0 -0.059200335752792203 -0.14609650993206519 0 -0.049893609348647061 -0.15088283715734341 0 -0.04575274607173991 -0.14227670199427611 0 -0.049893609348647061 -0.15088283715734341 0 -0.050684939585720998 -0.140414247000158 0 -0.049893609348647061 -0.15088283715734341 0 -0.050684939585720998 -0.140414247000158 0 -0.04575274607173991 -0.14227670199427611 0 -0.049893609348647061 -0.15088283715734341 0 -0.059200335752792203 -0.14609650993206519 0 -0.050684939585720998 -0.140414247000158 0 -0.050684939585720998 -0.140414247000158 0 -0.04575274607173991 -0.14227670199427611 0 -0.051954304674185249 -0.1236216839861789 0 -0.050684939585720998 -0.140414247000158 0 -0.070071206697342098 -0.1330937617237771 0 -0.051954304674185249 -0.1236216839861789 0 -0.050684939585720998 -0.140414247000158 0 -0.050019120451125262 -0.1230957499788299 0 -0.050684939585720998 -0.140414247000158 0 -0.04575274607173991 -0.14227670199427611 0 -0.050684939585720998 -0.140414247000158 0 -0.070071206697342098 -0.1330937617237771 0 -0.059200335752792203 -0.14609650993206519 0 -0.050684939585720998 -0.140414247000158 0 -0.070071206697342098 -0.1330937617237771 0 -0.051954304674185249 -0.1236216839861789 0 -0.050019120451125262 -0.1230957499788299 0 -0.050684939585720998 -0.140414247000158 0 -0.050019120451125262 -0.1230957499788299 0 -0.043132077401293427 -0.1207136730688308 0 -0.04575274607173991 -0.14227670199427611 0 -0.035938569147329853 -0.12187947381318461 0 -0.04575274607173991 -0.14227670199427611 0 -0.035938569147329853 -0.12187947381318461 0 -0.02737212985556926 -0.1492174415191474 0 -0.043132077401293427 -0.1207136730688308 0 -0.035938569147329853 -0.12187947381318461 0 -0.04575274607173991 -0.14227670199427611 0 -0.035938569147329853 -0.12187947381318461 0 -0.02737212985556926 -0.1492174415191474 0 -0.04575274607173991 -0.14227670199427611 0 -0.02737212985556926 -0.1492174415191474 0 -0.038996879944413393 -0.1508265646350157 0 -0.04575274607173991 -0.14227670199427611 0 -0.02737212985556926 -0.1492174415191474 0 -0.04575274607173991 -0.14227670199427611 0 -0.02737212985556926 -0.1492174415191474 0 -0.0327500974266954 -0.15297842510626261 0 -0.038996879944413393 -0.1508265646350157 0 -0.035168815791588197 -0.15780049902385879 0 -0.03137774613140526 -0.15597258826801 0 -0.0327500974266954 -0.15297842510626261 0 -0.035168815791588197 -0.15780049902385879 0 -0.0327500974266954 -0.15297842510626261 0 -0.038996879944413393 -0.1508265646350157 0 -0.035168815791588197 -0.15780049902385879 0 -0.038996879944413393 -0.1508265646350157 0 -0.041147579361795777 -0.15549187909818751 0 -0.049893609348647061 -0.15088283715734341 0 -0.038996879944413393 -0.1508265646350157 0 -0.041147579361795777 -0.15549187909818751 0 -0.049893609348647061 -0.15088283715734341 0 -0.038996879944413393 -0.1508265646350157 0 -0.04575274607173991 -0.14227670199427611 0 -0.027642287909830279 -0.24809811043664551 0 -0.013041696801753769 -0.24735474947598329 0 -0.023107513256886709 -0.23222526426858869 0 -0.013041696801753769 -0.24735474947598329 0 -0.002822682227650451 -0.22756177848272879 0 -0.023107513256886709 -0.23222526426858869 0 -0.013041696801753769 -0.24735474947598329 0 0.0068757901925850344 -0.25851238897460788 0 0.002026553982466667 -0.2430370837286685 0 -0.013041696801753769 -0.24735474947598329 0 -0.002822682227650451 -0.22756177848272879 0 0.002026553982466667 -0.2430370837286685 0 -0.002822682227650451 -0.22756177848272879 0 0.002026553982466667 -0.2430370837286685 0 -0.002822682227650451 -0.22756177848272879 0 -0.023107513256886709 -0.23222526426858869 0 -0.002822682227650451 -0.22756177848272879 0 -0.016621930506379411 -0.21878751057239851 0 -0.023107513256886709 -0.23222526426858869 0 -0.002822682227650451 -0.22756177848272879 0 -0.01017739645064294 -0.2040907734283578 0 0.001330654544487601 -0.226606925717484 0 -0.002822682227650451 -0.22756177848272879 0 0.001330654544487601 -0.226606925717484 0 -0.016621930506379411 -0.21878751057239851 0 -0.023107513256886709 -0.23222526426858869 0 -0.030380130090337569 -0.21127222610991839 0 -0.016621930506379411 -0.21878751057239851 0 -0.030380130090337569 -0.21127222610991839 0 -0.01017739645064294 -0.2040907734283578 0 -0.030380130090337569 -0.21127222610991839 0 -0.01017739645064294 -0.2040907734283578 0 -0.032361487893275212 -0.2002236255106743 0 -0.01017739645064294 -0.2040907734283578 0 -0.0045890132953122897 -0.2012720306251759 0 0.001330654544487601 -0.226606925717484 0 -0.0045890132953122897 -0.2012720306251759 0 0.001330654544487601 -0.226606925717484 0 -0.002822682227650451 -0.22756177848272879 0 -0.01017739645064294 -0.2040907734283578 0 -0.002822682227650451 -0.22756177848272879 0 -0.016621930506379411 -0.21878751057239851 0 -0.01017739645064294 -0.2040907734283578 0 -0.01050868113510979 -0.17593713553286741 0 -0.0045890132953122897 -0.2012720306251759 0 -0.017532110673635769 -0.18061976837398691 0 -0.01017739645064294 -0.2040907734283578 0 -0.017532110673635769 -0.18061976837398691 0 -0.01017739645064294 -0.2040907734283578 0 -0.0045890132953122897 -0.2012720306251759 0 -0.01017739645064294 -0.2040907734283578 0 -0.03038764490668612 -0.18919075872272559 0 -0.032361487893275212 -0.2002236255106743 0 -0.017532110673635769 -0.18061976837398691 0 -0.01017739645064294 -0.2040907734283578 0 -0.03038764490668612 -0.18919075872272559 0 -0.048047267807580403 -0.17530828177959401 0 -0.046200926266512302 -0.1997337264018445 0 -0.043243179139737943 -0.1977617490714618 0 -0.032001716791305722 -0.18403979184442451 0 -0.03038764490668612 -0.18919075872272559 0 -0.043243179139737943 -0.1977617490714618 0 -0.03038764490668612 -0.18919075872272559 0 -0.043243179139737943 -0.1977617490714618 0 -0.032001716791305722 -0.18403979184442451 0 -0.043243179139737943 -0.1977617490714618 0 -0.03038764490668612 -0.18919075872272559 0 -0.032361487893275212 -0.2002236255106743 0 -0.043243179139737943 -0.1977617490714618 0 -0.032361487893275212 -0.2002236255106743 0 -0.046087539323654683 -0.20123373408303949 0 -0.043243179139737943 -0.1977617490714618 0 -0.046087539323654683 -0.20123373408303949 0 -0.043243179139737943 -0.1977617490714618 0 -0.046200926266512302 -0.1997337264018445 0 -0.046087539323654683 -0.20123373408303949 0 -0.043243179139737943 -0.1977617490714618 0 -0.046200926266512302 -0.1997337264018445 0 -0.046087539323654683 -0.20123373408303949 0 -0.046200926266512302 -0.1997337264018445 0 -0.043243179139737943 -0.1977617490714618 0 -0.054256885103391633 -0.1870567588232567 0 -0.046200926266512302 -0.1997337264018445 0 -0.058909513914670371 -0.1932548013255547 0 -0.048047267807580403 -0.17530828177959401 0 -0.046200926266512302 -0.1997337264018445 0 -0.058909513914670371 -0.1932548013255547 0 -0.0571654287663345 -0.20068632977696721 0 -0.064317701473406222 -0.2013339906183689 0 -0.046200926266512302 -0.1997337264018445 0 -0.058909513914670371 -0.1932548013255547 0 -0.0571654287663345 -0.20068632977696721 0 -0.046200926266512302 -0.1997337264018445 0 -0.0571654287663345 -0.20068632977696721 0 -0.059233573410746941 -0.2084228007621006 0 -0.046200926266512302 -0.1997337264018445 0 -0.046087539323654683 -0.20123373408303949 0 -0.059233573410746941 -0.2084228007621006 0 -0.046087539323654683 -0.20123373408303949 0 -0.057928914255126113 -0.215687978138005 0 -0.046087539323654683 -0.20123373408303949 0 -0.057928914255126113 -0.215687978138005 0 -0.044739941804889119 -0.21906124206874411 0 -0.046087539323654683 -0.20123373408303949 0 -0.059233573410746941 -0.2084228007621006 0 -0.057928914255126113 -0.215687978138005 0 -0.046200926266512302 -0.1997337264018445 0 -0.059233573410746941 -0.2084228007621006 0 -0.0571654287663345 -0.20068632977696721 0 -0.059233573410746941 -0.2084228007621006 0 -0.064317701473406222 -0.2013339906183689 0 -0.046087539323654683 -0.20123373408303949 0 -0.044739941804889119 -0.21906124206874411 0 -0.030380130090337569 -0.21127222610991839 0 -0.046087539323654683 -0.20123373408303949 0 -0.044739941804889119 -0.21906124206874411 0 -0.030380130090337569 -0.21127222610991839 0 -0.032361487893275212 -0.2002236255106743 0 -0.046087539323654683 -0.20123373408303949 0 -0.044739941804889119 -0.21906124206874411 0 -0.043392344286123041 -0.23688875005444859 0 -0.023107513256886709 -0.23222526426858869 0 -0.044739941804889119 -0.21906124206874411 0 -0.043392344286123041 -0.23688875005444859 0 -0.023107513256886709 -0.23222526426858869 0 -0.030380130090337569 -0.21127222610991839 0 -0.044739941804889119 -0.21906124206874411 0 -0.057928914255126113 -0.215687978138005 0 -0.044739941804889119 -0.21906124206874411 0 -0.052915086069053388 -0.22343540526427849 0 -0.044739941804889119 -0.21906124206874411 0 -0.052915086069053388 -0.22343540526427849 0 -0.043392344286123041 -0.23688875005444859 0 -0.057928914255126113 -0.215687978138005 0 -0.052915086069053388 -0.22343540526427849 0 -0.062716274533653513 -0.2232694368598353 0 -0.052915086069053388 -0.22343540526427849 0 -0.058035279004635593 -0.2304443572876225 0 -0.062716274533653513 -0.2232694368598353 0 -0.052915086069053388 -0.22343540526427849 0 -0.058035279004635593 -0.2304443572876225 0 -0.043392344286123041 -0.23688875005444859 0 -0.062122083630955657 -0.24119472002193801 0 -0.05205399024309583 -0.24895490918885169 0 -0.043392344286123041 -0.23688875005444859 0 -0.062122083630955657 -0.24119472002193801 0 -0.043392344286123041 -0.23688875005444859 0 -0.058035279004635593 -0.2304443572876225 0 -0.062122083630955657 -0.24119472002193801 0 -0.043392344286123041 -0.23688875005444859 0 -0.063187358888973449 -0.25508965799935279 0 -0.062122083630955657 -0.24119472002193801 0 -0.05205399024309583 -0.24895490918885169 0 -0.041901976221870953 -0.25660498446206359 0 -0.05205399024309583 -0.24895490918885169 0 -0.043392344286123041 -0.23688875005444859 0 -0.027642287909830279 -0.24809811043664551 0 -0.023107513256886709 -0.23222526426858869 0 -0.043392344286123041 -0.23688875005444859 0 -0.041901976221870953 -0.25660498446206359 0 -0.043392344286123041 -0.23688875005444859 0 -0.041901976221870953 -0.25660498446206359 0 -0.027642287909830279 -0.24809811043664551 0 -0.043392344286123041 -0.23688875005444859 0 -0.023107513256886709 -0.23222526426858869 0 -0.043392344286123041 -0.23688875005444859 0 -0.085923825490996031 -0.24666674415085549 0 -0.082532682674508598 -0.24792302131525229 0 -0.095102152263627657 -0.24877684289313559 0 -0.085923825490996031 -0.24666674415085549 0 -0.095102152263627657 -0.24877684289313559 0 -0.085323155585419919 -0.23766557852223519 0 -0.085923825490996031 -0.24666674415085549 0 -0.09392658106698562 -0.23425828247671091 0 -0.085323155585419919 -0.23766557852223519 0 -0.080851822975788135 -0.24550068998942851 0 -0.080295754406673664 -0.2319578080540238 0 -0.085323155585419919 -0.23766557852223519 0 -0.080851822975788135 -0.24550068998942851 0 -0.085923825490996031 -0.24666674415085549 0 -0.080851822975788135 -0.24550068998942851 0 -0.082532682674508598 -0.24792302131525229 0 -0.072173487042556342 -0.247427022331493 0 -0.080851822975788135 -0.24550068998942851 0 -0.085923825490996031 -0.24666674415085549 0 -0.080851822975788135 -0.24550068998942851 0 -0.085923825490996031 -0.24666674415085549 0 -0.082532682674508598 -0.24792302131525229 0 -0.085923825490996031 -0.24666674415085549 0 -0.082532682674508598 -0.24792302131525229 0 -0.080851822975788135 -0.24550068998942851 0 -0.082532682674508598 -0.24792302131525229 0 -0.080851822975788135 -0.24550068998942851 0 -0.069496715574050363 -0.22913654467245859 0 -0.080295754406673664 -0.2319578080540238 0 -0.080851822975788135 -0.24550068998942851 0 -0.069496715574050363 -0.22913654467245859 0 -0.062122083630955657 -0.24119472002193801 0 -0.080851822975788135 -0.24550068998942851 0 -0.062122083630955657 -0.24119472002193801 0 -0.080851822975788135 -0.24550068998942851 0 -0.072173487042556342 -0.247427022331493 0 -0.062122083630955657 -0.24119472002193801 0 -0.080851822975788135 -0.24550068998942851 0 -0.069496715574050363 -0.22913654467245859 0 -0.063187358888973449 -0.25508965799935279 0 -0.062122083630955657 -0.24119472002193801 0 -0.072173487042556342 -0.247427022331493 0 -0.069496715574050363 -0.22913654467245859 0 -0.080540172450688799 -0.2220507494781645 0 -0.080295754406673664 -0.2319578080540238 0 -0.058035279004635593 -0.2304443572876225 0 -0.069496715574050363 -0.22913654467245859 0 -0.062716274533653513 -0.2232694368598353 0 -0.058035279004635593 -0.2304443572876225 0 -0.062122083630955657 -0.24119472002193801 0 -0.069496715574050363 -0.22913654467245859 0 -0.069496715574050363 -0.22913654467245859 0 -0.062716274533653513 -0.2232694368598353 0 -0.072266220554984092 -0.217111875122353 0 -0.069496715574050363 -0.22913654467245859 0 -0.080540172450688799 -0.2220507494781645 0 -0.072266220554984092 -0.217111875122353 0 -0.080540172450688799 -0.2220507494781645 0 -0.08894504292937902 -0.226433660800091 0 -0.087182523991300429 -0.21138484244462569 0 -0.085323155585419919 -0.23766557852223519 0 -0.080295754406673664 -0.2319578080540238 0 -0.08894504292937902 -0.226433660800091 0 -0.080540172450688799 -0.2220507494781645 0 -0.080295754406673664 -0.2319578080540238 0 -0.08894504292937902 -0.226433660800091 0 -0.085323155585419919 -0.23766557852223519 0 -0.08894504292937902 -0.226433660800091 0 -0.09392658106698562 -0.23425828247671091 0 -0.08894504292937902 -0.226433660800091 0 -0.087182523991300429 -0.21138484244462569 0 -0.10263590662670249 -0.22159428079315591 0 -0.080540172450688799 -0.2220507494781645 0 -0.087182523991300429 -0.21138484244462569 0 -0.072266220554984092 -0.217111875122353 0 -0.059233573410746941 -0.2084228007621006 0 -0.057928914255126113 -0.215687978138005 0 -0.072266220554984092 -0.217111875122353 0 -0.057928914255126113 -0.215687978138005 0 -0.062716274533653513 -0.2232694368598353 0 -0.072266220554984092 -0.217111875122353 0 -0.059233573410746941 -0.2084228007621006 0 -0.072266220554984092 -0.217111875122353 0 -0.068282464298447879 -0.20896876805726919 0 -0.059233573410746941 -0.2084228007621006 0 -0.072266220554984092 -0.217111875122353 0 -0.068282464298447879 -0.20896876805726919 0 -0.074257564140779012 -0.20320666862357861 0 -0.064317701473406222 -0.2013339906183689 0 -0.059233573410746941 -0.2084228007621006 0 -0.068282464298447879 -0.20896876805726919 0 -0.064317701473406222 -0.2013339906183689 0 -0.072266220554984092 -0.217111875122353 0 -0.068282464298447879 -0.20896876805726919 0 -0.074257564140779012 -0.20320666862357861 0 -0.087182523991300429 -0.21138484244462569 0 -0.072266220554984092 -0.217111875122353 0 -0.074257564140779012 -0.20320666862357861 0 -0.074257564140779012 -0.20320666862357861 0 -0.064317701473406222 -0.2013339906183689 0 -0.068931716524589903 -0.19307963684617571 0 -0.058909513914670371 -0.1932548013255547 0 -0.064317701473406222 -0.2013339906183689 0 -0.068931716524589903 -0.19307963684617571 0 -0.058909513914670371 -0.1932548013255547 0 -0.068931716524589903 -0.19307963684617571 0 -0.063869832424801307 -0.1799302257860336 0 -0.074257564140779012 -0.20320666862357861 0 -0.068931716524589903 -0.19307963684617571 0 -0.082221723878368749 -0.18845203361313409 0 -0.087182523991300429 -0.21138484244462569 0 -0.074257564140779012 -0.20320666862357861 0 -0.082221723878368749 -0.18845203361313409 0 -0.087182523991300429 -0.21138484244462569 0 -0.082221723878368749 -0.18845203361313409 0 -0.10855820886317399 -0.20094732572215451 0 -0.082221723878368749 -0.18845203361313409 0 -0.10855820886317399 -0.20094732572215451 0 -0.10059679923711499 -0.18087602821780741 0 -0.082221723878368749 -0.18845203361313409 0 -0.10855820886317399 -0.20094732572215451 0 -0.10855820886317399 -0.20094732572215451 0 -0.10059679923711499 -0.18087602821780741 0 -0.1164203905689891 -0.18236450214764391 0 -0.10855820886317399 -0.20094732572215451 0 -0.1164203905689891 -0.18236450214764391 0 -0.12817360663102359 -0.19493745323674211 0 -0.10855820886317399 -0.20094732572215451 0 -0.13489469384797931 -0.21344261783117499 0 -0.12817360663102359 -0.19493745323674211 0 -0.10855820886317399 -0.20094732572215451 0 -0.1169898026438508 -0.22012995137721619 0 -0.13489469384797931 -0.21344261783117499 0 -0.10855820886317399 -0.20094732572215451 0 -0.13489469384797931 -0.21344261783117499 0 -0.10855820886317399 -0.20094732572215451 0 -0.10263590662670249 -0.22159428079315591 0 -0.1169898026438508 -0.22012995137721619 0 -0.087182523991300429 -0.21138484244462569 0 -0.10855820886317399 -0.20094732572215451 0 -0.10263590662670249 -0.22159428079315591 0 -0.09392658106698562 -0.23425828247671091 0 -0.10263590662670249 -0.22159428079315591 0 -0.1068049747024308 -0.2389311481172173 0 -0.10263590662670249 -0.22159428079315591 0 -0.1169898026438508 -0.22012995137721619 0 -0.1068049747024308 -0.2389311481172173 0 -0.08894504292937902 -0.226433660800091 0 -0.09392658106698562 -0.23425828247671091 0 -0.10263590662670249 -0.22159428079315591 0 -0.1169898026438508 -0.22012995137721619 0 -0.1068049747024308 -0.2389311481172173 0 -0.1276861239138658 -0.23119555208357939 0 -0.11850194625712369 -0.24699605630446331 0 -0.1068049747024308 -0.2389311481172173 0 -0.1276861239138658 -0.23119555208357939 0 -0.1068049747024308 -0.2389311481172173 0 -0.1276861239138658 -0.23119555208357939 0 -0.11850194625712369 -0.24699605630446331 0 -0.105955752031942 -0.24927904771963691 0 -0.1068049747024308 -0.2389311481172173 0 -0.085923825490996031 -0.24666674415085549 0 -0.1068049747024308 -0.2389311481172173 0 -0.095102152263627657 -0.24877684289313559 0 -0.085923825490996031 -0.24666674415085549 0 -0.1068049747024308 -0.2389311481172173 0 -0.105955752031942 -0.24927904771963691 0 -0.1068049747024308 -0.2389311481172173 0 -0.095102152263627657 -0.24877684289313559 0 -0.085923825490996031 -0.24666674415085549 0 -0.09392658106698562 -0.23425828247671091 0 -0.1068049747024308 -0.2389311481172173 0 -0.080748113664706578 -0.1431747477818118 0 -0.090563477552068686 -0.1558262216759215 0 -0.077655792054199091 -0.15384773953871869 0 -0.080748113664706578 -0.1431747477818118 0 -0.090563477552068686 -0.1558262216759215 0 -0.094568185067415766 -0.1407218601609479 0 -0.083372846061307238 -0.12896214583387219 0 -0.094568185067415766 -0.1407218601609479 0 -0.089457473808963378 -0.12577327644739661 0 -0.083372846061307238 -0.12896214583387219 0 -0.070071206697342098 -0.1330937617237771 0 -0.089457473808963378 -0.12577327644739661 0 -0.070071206697342098 -0.1330937617237771 0 -0.084954907515062905 -0.12456809918808739 0 -0.089457473808963378 -0.12577327644739661 0 -0.070071206697342098 -0.1330937617237771 0 -0.080748113664706578 -0.1431747477818118 0 -0.083372846061307238 -0.12896214583387219 0 -0.094568185067415766 -0.1407218601609479 0 -0.089457473808963378 -0.12577327644739661 0 -0.083372846061307238 -0.12896214583387219 0 -0.094568185067415766 -0.1407218601609479 0 -0.080748113664706578 -0.1431747477818118 0 -0.083372846061307238 -0.12896214583387219 0 -0.070071206697342098 -0.1330937617237771 0 -0.076212871205162666 -0.1191895513894697 0 -0.084954907515062905 -0.12456809918808739 0 -0.070071206697342098 -0.1330937617237771 0 -0.059200335752792203 -0.14609650993206519 0 -0.070071206697342098 -0.1330937617237771 0 -0.06723984317839922 -0.15022018337949269 0 -0.080748113664706578 -0.1431747477818118 0 -0.070071206697342098 -0.1330937617237771 0 -0.06723984317839922 -0.15022018337949269 0 -0.080748113664706578 -0.1431747477818118 0 -0.077655792054199091 -0.15384773953871869 0 -0.06723984317839922 -0.15022018337949269 0 -0.077655792054199091 -0.15384773953871869 0 -0.06723984317839922 -0.15022018337949269 0 -0.071443317772056023 -0.16649812516727619 0 -0.058846067207567437 -0.1558583272045371 0 -0.06723984317839922 -0.15022018337949269 0 -0.071443317772056023 -0.16649812516727619 0 -0.056881720886724482 -0.16540653147168841 0 -0.071443317772056023 -0.16649812516727619 0 -0.063869832424801307 -0.1799302257860336 0 -0.077655792054199091 -0.15384773953871869 0 -0.071443317772056023 -0.16649812516727619 0 -0.082217768909730926 -0.1621200047968914 0 -0.082221723878368749 -0.18845203361313409 0 -0.071443317772056023 -0.16649812516727619 0 -0.063869832424801307 -0.1799302257860336 0 -0.068931716524589903 -0.19307963684617571 0 -0.082221723878368749 -0.18845203361313409 0 -0.063869832424801307 -0.1799302257860336 0 -0.082221723878368749 -0.18845203361313409 0 -0.08940881714658086 -0.17270231728012411 0 -0.10059679923711499 -0.18087602821780741 0 -0.082221723878368749 -0.18845203361313409 0 -0.071443317772056023 -0.16649812516727619 0 -0.08940881714658086 -0.17270231728012411 0 -0.071443317772056023 -0.16649812516727619 0 -0.08940881714658086 -0.17270231728012411 0 -0.082217768909730926 -0.1621200047968914 0 -0.090563477552068686 -0.1558262216759215 0 -0.08940881714658086 -0.17270231728012411 0 -0.082217768909730926 -0.1621200047968914 0 -0.090563477552068686 -0.1558262216759215 0 -0.077655792054199091 -0.15384773953871869 0 -0.082217768909730926 -0.1621200047968914 0 -0.090563477552068686 -0.1558262216759215 0 -0.104401633782899 -0.16752709624905879 0 -0.10576352407352491 -0.15248157448802299 0 -0.090563477552068686 -0.1558262216759215 0 -0.08940881714658086 -0.17270231728012411 0 -0.104401633782899 -0.16752709624905879 0 -0.104401633782899 -0.16752709624905879 0 -0.10576352407352491 -0.15248157448802299 0 -0.104401633782899 -0.16752709624905879 0 -0.10059679923711499 -0.18087602821780741 0 -0.1164203905689891 -0.18236450214764391 0 -0.08940881714658086 -0.17270231728012411 0 -0.104401633782899 -0.16752709624905879 0 -0.10059679923711499 -0.18087602821780741 0 -0.1164203905689891 -0.18236450214764391 0 -0.1196570624191096 -0.1670755087893615 0 -0.13355060076469499 -0.18166944309069949 0 -0.104401633782899 -0.16752709624905879 0 -0.1164203905689891 -0.18236450214764391 0 -0.1196570624191096 -0.1670755087893615 0 -0.1196570624191096 -0.1670755087893615 0 -0.10576352407352491 -0.15248157448802299 0 -0.104401633782899 -0.16752709624905879 0 -0.1196570624191096 -0.1670755087893615 0 -0.10576352407352491 -0.15248157448802299 0 -0.1196570624191096 -0.1670755087893615 0 -0.1193788073559163 -0.15772571723681561 0 -0.10576352407352491 -0.15248157448802299 0 -0.1196570624191096 -0.1670755087893615 0 -0.1193788073559163 -0.15772571723681561 0 -0.1291407116751572 -0.163734335761552 0 -0.1235907915831813 -0.14103609427396779 0 -0.11487393758428641 -0.14741490625486631 0 -0.1073036324970589 -0.13546718282952119 0 -0.1193788073559163 -0.15772571723681561 0 -0.1235907915831813 -0.14103609427396779 0 -0.11487393758428641 -0.14741490625486631 0 -0.1193788073559163 -0.15772571723681561 0 -0.11487393758428641 -0.14741490625486631 0 -0.10576352407352491 -0.15248157448802299 0 -0.10576352407352491 -0.15248157448802299 0 -0.094568185067415766 -0.1407218601609479 0 -0.1073036324970589 -0.13546718282952119 0 -0.10576352407352491 -0.15248157448802299 0 -0.1073036324970589 -0.13546718282952119 0 -0.11487393758428641 -0.14741490625486631 0 -0.10576352407352491 -0.15248157448802299 0 -0.1073036324970589 -0.13546718282952119 0 -0.10576352407352491 -0.15248157448802299 0 -0.094568185067415766 -0.1407218601609479 0 -0.090563477552068686 -0.1558262216759215 0 -0.10576352407352491 -0.15248157448802299 0 -0.094568185067415766 -0.1407218601609479 0 -0.1088437409205857 -0.1184527911710188 0 -0.1000432580735057 -0.13010377765222039 0 -0.1073036324970589 -0.13546718282952119 0 -0.1088437409205857 -0.1184527911710188 0 -0.1073036324970589 -0.13546718282952119 0 -0.089457473808963378 -0.12577327644739661 0 -0.094568185067415766 -0.1407218601609479 0 -0.1000432580735057 -0.13010377765222039 0 -0.094568185067415766 -0.1407218601609479 0 -0.1000432580735057 -0.13010377765222039 0 -0.1073036324970589 -0.13546718282952119 0 -0.1235907915831813 -0.14103609427396779 0 -0.1073036324970589 -0.13546718282952119 0 -0.1192076889507475 -0.12903686368196049 0 -0.1088437409205857 -0.1184527911710188 0 -0.1073036324970589 -0.13546718282952119 0 -0.1192076889507475 -0.12903686368196049 0 -0.1235907915831813 -0.14103609427396779 0 -0.1192076889507475 -0.12903686368196049 0 -0.130187695615824 -0.1321692505783468 0 -0.1235907915831813 -0.14103609427396779 0 -0.130187695615824 -0.1321692505783468 0 -0.14062164333882399 -0.13853921336970601 0 -0.1192076889507475 -0.12903686368196049 0 -0.130187695615824 -0.1321692505783468 0 -0.13048044756701799 -0.12459360680970109 0 -0.130187695615824 -0.1321692505783468 0 -0.13703790663934939 -0.1276404747563987 0 -0.13048044756701799 -0.12459360680970109 0 -0.130187695615824 -0.1321692505783468 0 -0.14062164333882399 -0.13853921336970601 0 -0.13703790663934939 -0.1276404747563987 0 -0.14062164333882399 -0.13853921336970601 0 -0.1618644793217317 -0.1193527095025964 0 -0.1458129637163513 -0.1229338878565784 0 -0.14062164333882399 -0.13853921336970601 0 -0.1581729362054827 -0.13321337155862831 0 -0.1618644793217317 -0.1193527095025964 0 -0.14062164333882399 -0.13853921336970601 0 -0.13703790663934939 -0.1276404747563987 0 -0.1458129637163513 -0.1229338878565784 0 -0.14062164333882399 -0.13853921336970601 0 -0.15019681682939151 -0.14322527080199221 0 -0.1581729362054827 -0.13321337155862831 0 -0.14062164333882399 -0.13853921336970601 0 -0.1618644793217317 -0.1193527095025964 0 -0.15019681682939151 -0.14322527080199221 0 -0.14809366368753379 -0.15755752316990571 0 -0.15880941325300349 -0.14960533522185751 0 -0.14062164333882399 -0.13853921336970601 0 -0.15019681682939151 -0.14322527080199221 0 -0.14045446783868959 -0.14953429120278219 0 -0.15019681682939151 -0.14322527080199221 0 -0.14045446783868959 -0.14953429120278219 0 -0.14809366368753379 -0.15755752316990571 0 -0.14045446783868959 -0.14953429120278219 0 -0.13701054380149311 -0.15780107209363381 0 -0.14809366368753379 -0.15755752316990571 0 -0.1193788073559163 -0.15772571723681561 0 -0.14045446783868959 -0.14953429120278219 0 -0.13701054380149311 -0.15780107209363381 0 -0.1193788073559163 -0.15772571723681561 0 -0.14062164333882399 -0.13853921336970601 0 -0.1193788073559163 -0.15772571723681561 0 -0.14062164333882399 -0.13853921336970601 0 -0.14045446783868959 -0.14953429120278219 0 -0.1193788073559163 -0.15772571723681561 0 -0.1235907915831813 -0.14103609427396779 0 -0.14062164333882399 -0.13853921336970601 0 -0.1193788073559163 -0.15772571723681561 0 -0.1291407116751572 -0.163734335761552 0 -0.13701054380149311 -0.15780107209363381 0 -0.1291407116751572 -0.163734335761552 0 -0.1395237822047235 -0.16710137176888801 0 -0.13355060076469499 -0.18166944309069949 0 -0.1196570624191096 -0.1670755087893615 0 -0.1291407116751572 -0.163734335761552 0 -0.13355060076469499 -0.18166944309069949 0 -0.1291407116751572 -0.163734335761552 0 -0.1395237822047235 -0.16710137176888801 0 -0.13701054380149311 -0.15780107209363381 0 -0.1164203905689891 -0.18236450214764391 0 -0.13355060076469499 -0.18166944309069949 0 -0.12817360663102359 -0.19493745323674211 0 -0.1196570624191096 -0.1670755087893615 0 -0.13355060076469499 -0.18166944309069949 0 -0.1395237822047235 -0.16710137176888801 0 -0.13355060076469499 -0.18166944309069949 0 -0.1498233910947385 -0.17474448472864901 0 -0.1498233910947385 -0.17474448472864901 0 -0.16033745357630949 -0.18551278579606489 0 -0.14744413911028029 -0.19626337739203761 0 -0.13355060076469499 -0.18166944309069949 0 -0.1498233910947385 -0.17474448472864901 0 -0.14744413911028029 -0.19626337739203761 0 -0.1395237822047235 -0.16710137176888801 0 -0.1498233910947385 -0.17474448472864901 0 -0.14809366368753379 -0.15755752316990571 0 -0.1498233910947385 -0.17474448472864901 0 -0.14809366368753379 -0.15755752316990571 0 -0.1624152379709384 -0.16103528299915701 0 -0.1395237822047235 -0.16710137176888801 0 -0.13701054380149311 -0.15780107209363381 0 -0.14809366368753379 -0.15755752316990571 0 -0.1624152379709384 -0.16103528299915701 0 -0.1782565957858826 -0.15929936477092249 0 -0.16757987995159551 -0.15142188192655071 0 -0.1498233910947385 -0.17474448472864901 0 -0.1624152379709384 -0.16103528299915701 0 -0.1688130407919694 -0.17372623560650161 0 -0.1624152379709384 -0.16103528299915701 0 -0.1688130407919694 -0.17372623560650161 0 -0.1782565957858826 -0.15929936477092249 0 -0.1498233910947385 -0.17474448472864901 0 -0.16033745357630949 -0.18551278579606489 0 -0.1688130407919694 -0.17372623560650161 0 -0.16033745357630949 -0.18551278579606489 0 -0.1688130407919694 -0.17372623560650161 0 -0.17713106873271511 -0.18541918870948679 0 -0.17713106873271511 -0.18541918870948679 0 -0.1837674841126849 -0.17327765750270269 0 -0.19536821886466099 -0.1868640397804843 0 -0.1688130407919694 -0.17372623560650161 0 -0.17713106873271511 -0.18541918870948679 0 -0.1837674841126849 -0.17327765750270269 0 -0.1837674841126849 -0.17327765750270269 0 -0.1782565957858826 -0.15929936477092249 0 -0.19926849638819641 -0.16107945864611861 0 -0.1688130407919694 -0.17372623560650161 0 -0.1837674841126849 -0.17327765750270269 0 -0.1782565957858826 -0.15929936477092249 0 -0.1782565957858826 -0.15929936477092249 0 -0.17853470785127651 -0.14642023363545781 0 -0.18774166728755209 -0.14851460341762751 0 -0.17853470785127651 -0.14642023363545781 0 -0.17285848421567401 -0.134361931562819 0 -0.16757987995159551 -0.15142188192655071 0 -0.1782565957858826 -0.15929936477092249 0 -0.17853470785127651 -0.14642023363545781 0 -0.16757987995159551 -0.15142188192655071 0 -0.17853470785127651 -0.14642023363545781 0 -0.18623691201567821 -0.13850338649936919 0 -0.18774166728755209 -0.14851460341762751 0 -0.18623691201567821 -0.13850338649936919 0 -0.17285848421567401 -0.134361931562819 0 -0.1955201516019564 -0.12549859232364591 0 -0.1803717857871221 -0.12705755739576449 0 -0.17285848421567401 -0.134361931562819 0 -0.1955201516019564 -0.12549859232364591 0 -0.17285848421567401 -0.134361931562819 0 -0.1955201516019564 -0.12549859232364591 0 -0.1803717857871221 -0.12705755739576449 0 -0.17285848421567401 -0.134361931562819 0 -0.17527927478453029 -0.11896361030084721 0 -0.17853470785127651 -0.14642023363545781 0 -0.18623691201567821 -0.13850338649936919 0 -0.17285848421567401 -0.134361931562819 0 -0.15019681682939151 -0.14322527080199221 0 -0.17285848421567401 -0.134361931562819 0 -0.1581729362054827 -0.13321337155862831 0 -0.15019681682939151 -0.14322527080199221 0 -0.17285848421567401 -0.134361931562819 0 -0.17285848421567401 -0.134361931562819 0 -0.1581729362054827 -0.13321337155862831 0 -0.1618644793217317 -0.1193527095025964 0 -0.15019681682939151 -0.14322527080199221 0 -0.17285848421567401 -0.134361931562819 0 -0.15880941325300349 -0.14960533522185751 0 -0.17285848421567401 -0.134361931562819 0 -0.15880941325300349 -0.14960533522185751 0 -0.16757987995159551 -0.15142188192655071 0 -0.14809366368753379 -0.15755752316990571 0 -0.1624152379709384 -0.16103528299915701 0 -0.15880941325300349 -0.14960533522185751 0 -0.1624152379709384 -0.16103528299915701 0 -0.15880941325300349 -0.14960533522185751 0 -0.16757987995159551 -0.15142188192655071 0 -0.15002682144518639 -0.24683332646211051 0 -0.14360468047210639 -0.23691202070509959 0 -0.15734001776608289 -0.23650722773262139 0 -0.15002682144518639 -0.24683332646211051 0 -0.14360468047210639 -0.23691202070509959 0 -0.13440316611009609 -0.24656404119724501 0 -0.11850194625712369 -0.24699605630446331 0 -0.13440316611009609 -0.24656404119724501 0 -0.1276861239138658 -0.23119555208357939 0 -0.14360468047210639 -0.23691202070509959 0 -0.13440316611009609 -0.24656404119724501 0 -0.1276861239138658 -0.23119555208357939 0 -0.1276861239138658 -0.23119555208357939 0 -0.1485672731253008 -0.22345995604994159 0 -0.14360468047210639 -0.23691202070509959 0 -0.1276861239138658 -0.23119555208357939 0 -0.1485672731253008 -0.22345995604994159 0 -0.1276861239138658 -0.23119555208357939 0 -0.1485672731253008 -0.22345995604994159 0 -0.13489469384797931 -0.21344261783117499 0 -0.1169898026438508 -0.22012995137721619 0 -0.1276861239138658 -0.23119555208357939 0 -0.13489469384797931 -0.21344261783117499 0 -0.13489469384797931 -0.21344261783117499 0 -0.16123117883278479 -0.22593790994019541 0 -0.1485672731253008 -0.22345995604994159 0 -0.13489469384797931 -0.21344261783117499 0 -0.16123117883278479 -0.22593790994019541 0 -0.1485672731253008 -0.22345995604994159 0 -0.16123117883278479 -0.22593790994019541 0 -0.15734001776608289 -0.23650722773262139 0 -0.14360468047210639 -0.23691202070509959 0 -0.1485672731253008 -0.22345995604994159 0 -0.15734001776608289 -0.23650722773262139 0 -0.15431416826901781 -0.21090964386027669 0 -0.13489469384797931 -0.21344261783117499 0 -0.14744413911028029 -0.19626337739203761 0 -0.15431416826901781 -0.21090964386027669 0 -0.13489469384797931 -0.21344261783117499 0 -0.16123117883278479 -0.22593790994019541 0 -0.13489469384797931 -0.21344261783117499 0 -0.12817360663102359 -0.19493745323674211 0 -0.14744413911028029 -0.19626337739203761 0 -0.13355060076469499 -0.18166944309069949 0 -0.12817360663102359 -0.19493745323674211 0 -0.14744413911028029 -0.19626337739203761 0 -0.13355060076469499 -0.18166944309069949 0 -0.14744413911028029 -0.19626337739203761 0 -0.15431416826901781 -0.21090964386027669 0 -0.14744413911028029 -0.19626337739203761 0 -0.1594465195091358 -0.1973417027012484 0 -0.16033745357630949 -0.18551278579606489 0 -0.14744413911028029 -0.19626337739203761 0 -0.1594465195091358 -0.1973417027012484 0 -0.16033745357630949 -0.18551278579606489 0 -0.17713106873271511 -0.18541918870948679 0 -0.170771242502191 -0.19766448935980999 0 -0.16033745357630949 -0.18551278579606489 0 -0.1594465195091358 -0.1973417027012484 0 -0.170771242502191 -0.19766448935980999 0 -0.1594465195091358 -0.1973417027012484 0 -0.170771242502191 -0.19766448935980999 0 -0.166001203922228 -0.20665714975394051 0 -0.17713106873271511 -0.18541918870948679 0 -0.1867238967313786 -0.19874374174650719 0 -0.19536821886466099 -0.1868640397804843 0 -0.17713106873271511 -0.18541918870948679 0 -0.170771242502191 -0.19766448935980999 0 -0.1867238967313786 -0.19874374174650719 0 -0.170771242502191 -0.19766448935980999 0 -0.1867238967313786 -0.19874374174650719 0 -0.17676017078717829 -0.20981245877158849 0 -0.1867238967313786 -0.19874374174650719 0 -0.17676017078717829 -0.20981245877158849 0 -0.18499889922103149 -0.21108203167129849 0 -0.17676017078717829 -0.20981245877158849 0 -0.18499889922103149 -0.21108203167129849 0 -0.1822874904859223 -0.2193081765617505 0 -0.18499889922103149 -0.21108203167129849 0 -0.18658049871641741 -0.2203680077992787 0 -0.1822874904859223 -0.2193081765617505 0 -0.17676017078717829 -0.20981245877158849 0 -0.17652869684920591 -0.21763255004545831 0 -0.16871391854361709 -0.21755745407677879 0 -0.17676017078717829 -0.20981245877158849 0 -0.17652869684920591 -0.21763255004545831 0 -0.1822874904859223 -0.2193081765617505 0 -0.17676017078717829 -0.20981245877158849 0 -0.16871391854361709 -0.21755745407677879 0 -0.166001203922228 -0.20665714975394051 0 -0.170771242502191 -0.19766448935980999 0 -0.17676017078717829 -0.20981245877158849 0 -0.166001203922228 -0.20665714975394051 0 -0.15431416826901781 -0.21090964386027669 0 -0.1594465195091358 -0.1973417027012484 0 -0.166001203922228 -0.20665714975394051 0 -0.15431416826901781 -0.21090964386027669 0 -0.16871391854361709 -0.21755745407677879 0 -0.166001203922228 -0.20665714975394051 0 -0.15431416826901781 -0.21090964386027669 0 -0.16871391854361709 -0.21755745407677879 0 -0.16123117883278479 -0.22593790994019541 0 -0.16123117883278479 -0.22593790994019541 0 -0.17144725757397519 -0.23836079759288639 0 -0.15734001776608289 -0.23650722773262139 0 -0.16871391854361709 -0.21755745407677879 0 -0.16123117883278479 -0.22593790994019541 0 -0.17396649219352439 -0.22644516920947641 0 -0.17652869684920591 -0.21763255004545831 0 -0.16871391854361709 -0.21755745407677879 0 -0.17835320758010581 -0.22385211077171541 0 -0.18658049871641741 -0.2203680077992787 0 -0.1822874904859223 -0.2193081765617505 0 -0.18756766381759021 -0.23843320204921581 0 -0.16871391854361709 -0.21755745407677879 0 -0.17396649219352439 -0.22644516920947641 0 -0.17835320758010581 -0.22385211077171541 0 -0.17835320758010581 -0.22385211077171541 0 -0.1822874904859223 -0.2193081765617505 0 -0.18756766381759021 -0.23843320204921581 0 -0.16123117883278479 -0.22593790994019541 0 -0.17396649219352439 -0.22644516920947641 0 -0.18756766381759021 -0.23843320204921581 0 -0.16123117883278479 -0.22593790994019541 0 -0.17144725757397519 -0.23836079759288639 0 -0.18756766381759021 -0.23843320204921581 0 -0.16123117883278479 -0.22593790994019541 0 -0.18756766381759021 -0.23843320204921581 0 -0.17652869684920591 -0.21763255004545831 0 -0.17835320758010581 -0.22385211077171541 0 -0.1822874904859223 -0.2193081765617505 0 -0.17396649219352439 -0.22644516920947641 0 -0.17835320758010581 -0.22385211077171541 0 -0.18756766381759021 -0.23843320204921581 0 -0.17866092505800091 -0.24473403409367139 0 -0.17144725757397519 -0.23836079759288639 0 -0.18756766381759021 -0.23843320204921581 0 -0.18200078196120309 -0.26143269641967359 0 -0.18617550724072471 -0.24763669436260211 0 -0.19189244593109769 -0.24048508618816991 0 -0.18617550724072471 -0.24763669436260211 0 -0.17866092505800091 -0.24473403409367139 0 -0.18756766381759021 -0.23843320204921581 0 -0.17558214958253451 -0.25333348684764612 0 -0.18617550724072471 -0.24763669436260211 0 -0.17866092505800091 -0.24473403409367139 0 -0.18617550724072471 -0.24763669436260211 0 -0.18756766381759021 -0.23843320204921581 0 -0.17558214958253451 -0.25333348684764612 0 -0.17866092505800091 -0.24473403409367139 0 -0.17253204707517991 -0.24590598961600679 0 -0.17866092505800091 -0.24473403409367139 0 -0.17253204707517991 -0.24590598961600679 0 -0.17144725757397519 -0.23836079759288639 0 -0.17558214958253451 -0.25333348684764612 0 -0.17253204707517991 -0.24590598961600679 0 -0.16389591667290149 -0.24728257223535971 0 -0.17253204707517991 -0.24590598961600679 0 -0.17144725757397519 -0.23836079759288639 0 -0.16389591667290149 -0.24728257223535971 0 -0.17144725757397519 -0.23836079759288639 0 -0.15734001776608289 -0.23650722773262139 0 -0.16389591667290149 -0.24728257223535971 0 -0.15711605762054401 -0.25572298745427469 0 -0.15002682144518639 -0.24683332646211051 0 -0.16389591667290149 -0.24728257223535971 0 -0.15002682144518639 -0.24683332646211051 0 -0.15734001776608289 -0.23650722773262139 0 -0.16389591667290149 -0.24728257223535971 0 -0.21662946681070699 -0.252221515782932 0 -0.19189244593109769 -0.24048508618816991 0 -0.21662946681070699 -0.252221515782932 0 -0.19189244593109769 -0.24048508618816991 0 -0.2099937214463368 -0.23427027963532659 0 -0.18756766381759021 -0.23843320204921581 0 -0.19189244593109769 -0.24048508618816991 0 -0.19242544649898211 -0.22598073317884701 0 -0.18617550724072471 -0.24763669436260211 0 -0.18756766381759021 -0.23843320204921581 0 -0.19189244593109769 -0.24048508618816991 0 -0.18756766381759021 -0.23843320204921581 0 -0.19189244593109769 -0.24048508618816991 0 -0.19189244593109769 -0.24048508618816991 0 -0.2032923682564958 -0.2163434321379869 0 -0.18658049871641741 -0.2203680077992787 0 -0.18756766381759021 -0.23843320204921581 0 -0.1914679413411256 -0.21264862091485009 0 -0.19189244593109769 -0.24048508618816991 0 -0.2099937214463368 -0.23427027963532659 0 -0.2032923682564958 -0.2163434321379869 0 -0.18756766381759021 -0.23843320204921581 0 -0.1914679413411256 -0.21264862091485009 0 -0.18756766381759021 -0.23843320204921581 0 -0.19242544649898211 -0.22598073317884701 0 -0.1914679413411256 -0.21264862091485009 0 -0.19189244593109769 -0.24048508618816991 0 -0.19242544649898211 -0.22598073317884701 0 -0.2032923682564958 -0.2163434321379869 0 -0.19242544649898211 -0.22598073317884701 0 -0.2032923682564958 -0.2163434321379869 0 -0.19551091306220869 -0.21695256543464261 0 -0.2099937214463368 -0.23427027963532659 0 -0.2032923682564958 -0.2163434321379869 0 -0.22770315953977269 -0.22649026462638641 0 -0.2032923682564958 -0.2163434321379869 0 -0.22770315953977269 -0.22649026462638641 0 -0.20709406928870169 -0.20829255700901661 0 -0.2032923682564958 -0.2163434321379869 0 -0.22239802251968349 -0.20726183832648351 0 -0.2032923682564958 -0.2163434321379869 0 -0.22239802251968349 -0.20726183832648351 0 -0.22770315953977269 -0.22649026462638641 0 -0.20709406928870169 -0.20829255700901661 0 -0.2032923682564958 -0.2163434321379869 0 -0.1914679413411256 -0.21264862091485009 0 -0.1948578961522314 -0.21283747550688639 0 -0.19536821886466099 -0.1868640397804843 0 -0.2032923682564958 -0.2163434321379869 0 -0.1948578961522314 -0.21283747550688639 0 -0.20709406928870169 -0.20829255700901661 0 -0.2032923682564958 -0.2163434321379869 0 -0.1948578961522314 -0.21283747550688639 0 -0.2032923682564958 -0.2163434321379869 0 -0.19551091306220869 -0.21695256543464261 0 -0.1948578961522314 -0.21283747550688639 0 -0.19242544649898211 -0.22598073317884701 0 -0.19551091306220869 -0.21695256543464261 0 -0.1914679413411256 -0.21264862091485009 0 -0.18499889922103149 -0.21108203167129849 0 -0.18658049871641741 -0.2203680077992787 0 -0.1914679413411256 -0.21264862091485009 0 -0.19551091306220869 -0.21695256543464261 0 -0.1914679413411256 -0.21264862091485009 0 -0.1948578961522314 -0.21283747550688639 0 -0.1867238967313786 -0.19874374174650719 0 -0.18499889922103149 -0.21108203167129849 0 -0.1914679413411256 -0.21264862091485009 0 -0.1867238967313786 -0.19874374174650719 0 -0.1914679413411256 -0.21264862091485009 0 -0.19536821886466099 -0.1868640397804843 0 -0.1914679413411256 -0.21264862091485009 0 -0.19536821886466099 -0.1868640397804843 0 -0.20709406928870169 -0.20829255700901661 0 -0.1948578961522314 -0.21283747550688639 0 -0.19536821886466099 -0.1868640397804843 0 -0.20709406928870169 -0.20829255700901661 0 -0.21506338385674739 -0.19079269286985839 0 -0.22239802251968349 -0.20726183832648351 0 -0.20709406928870169 -0.20829255700901661 0 -0.21506338385674739 -0.19079269286985839 0 -0.19536821886466099 -0.1868640397804843 0 -0.23411914242939511 -0.18902941508946741 0 -0.23810688821773249 -0.20676612649869461 0 -0.22239802251968349 -0.20726183832648351 0 -0.21506338385674739 -0.19079269286985839 0 -0.23411914242939511 -0.18902941508946741 0 -0.22239802251968349 -0.20726183832648351 0 -0.23411914242939511 -0.18902941508946741 0 -0.23810688821773249 -0.20676612649869461 0 -0.2504659962307943 -0.19526348424371451 0 -0.23810688821773249 -0.20676612649869461 0 -0.22770315953977269 -0.22649026462638641 0 -0.255848120369017 -0.215785630207421 0 -0.23810688821773249 -0.20676612649869461 0 -0.255848120369017 -0.215785630207421 0 -0.2504659962307943 -0.19526348424371451 0 -0.23810688821773249 -0.20676612649869461 0 -0.22239802251968349 -0.20726183832648351 0 -0.22770315953977269 -0.22649026462638641 0 -0.22770315953977269 -0.22649026462638641 0 -0.2521139508230501 -0.23663709711478501 0 -0.255848120369017 -0.215785630207421 0 -0.22770315953977269 -0.22649026462638641 0 -0.2521139508230501 -0.23663709711478501 0 -0.22770315953977269 -0.22649026462638641 0 -0.2344815788336892 -0.2447345853690264 0 -0.2521139508230501 -0.23663709711478501 0 -0.25930047762213199 -0.25626596742101082 0 -0.2344815788336892 -0.2447345853690264 0 -0.2521139508230501 -0.23663709711478501 0 -0.21662946681070699 -0.252221515782932 0 -0.2099937214463368 -0.23427027963532659 0 -0.2344815788336892 -0.2447345853690264 0 -0.2099937214463368 -0.23427027963532659 0 -0.22770315953977269 -0.22649026462638641 0 -0.2344815788336892 -0.2447345853690264 0 -0.21443255790405999 -0.14045138628973661 0 -0.19833207365180919 -0.14101676561364829 0 -0.19926849638819641 -0.16107945864611861 0 -0.21443255790405999 -0.14045138628973661 0 -0.1955201516019564 -0.12549859232364591 0 -0.21818181898823891 -0.1166352530844727 0 -0.21443255790405999 -0.14045138628973661 0 -0.1955201516019564 -0.12549859232364591 0 -0.19833207365180919 -0.14101676561364829 0 -0.18623691201567821 -0.13850338649936919 0 -0.1955201516019564 -0.12549859232364591 0 -0.19833207365180919 -0.14101676561364829 0 -0.19833207365180919 -0.14101676561364829 0 -0.18774166728755209 -0.14851460341762751 0 -0.19926849638819641 -0.16107945864611861 0 -0.18623691201567821 -0.13850338649936919 0 -0.19833207365180919 -0.14101676561364829 0 -0.18774166728755209 -0.14851460341762751 0 -0.1782565957858826 -0.15929936477092249 0 -0.18774166728755209 -0.14851460341762751 0 -0.19926849638819641 -0.16107945864611861 0 -0.1837674841126849 -0.17327765750270269 0 -0.19926849638819641 -0.16107945864611861 0 -0.19536821886466099 -0.1868640397804843 0 -0.19926849638819641 -0.16107945864611861 0 -0.19536821886466099 -0.1868640397804843 0 -0.21506338385674739 -0.19079269286985839 0 -0.19536821886466099 -0.1868640397804843 0 -0.2161553432292749 -0.17115167425614911 0 -0.19926849638819641 -0.16107945864611861 0 -0.19536821886466099 -0.1868640397804843 0 -0.2161553432292749 -0.17115167425614911 0 -0.21443255790405999 -0.14045138628973661 0 -0.19926849638819641 -0.16107945864611861 0 -0.2161553432292749 -0.17115167425614911 0 -0.21443255790405999 -0.14045138628973661 0 -0.2161553432292749 -0.17115167425614911 0 -0.23517784898194349 -0.1630635057543095 0 -0.21506338385674739 -0.19079269286985839 0 -0.23411914242939511 -0.18902941508946741 0 -0.2161553432292749 -0.17115167425614911 0 -0.23411914242939511 -0.18902941508946741 0 -0.2161553432292749 -0.17115167425614911 0 -0.23517784898194349 -0.1630635057543095 0 -0.23411914242939511 -0.18902941508946741 0 -0.2504659962307943 -0.19526348424371451 0 -0.25662270240741353 -0.17293267399812839 0 -0.23411914242939511 -0.18902941508946741 0 -0.23517784898194349 -0.1630635057543095 0 -0.25662270240741353 -0.17293267399812839 0 -0.23517784898194349 -0.1630635057543095 0 -0.25662270240741353 -0.17293267399812839 0 -0.2579956790398209 -0.14650854198852661 0 -0.23517784898194349 -0.1630635057543095 0 -0.2380106676782324 -0.1354177097998045 0 -0.2579956790398209 -0.14650854198852661 0 -0.23517784898194349 -0.1630635057543095 0 -0.2380106676782324 -0.1354177097998045 0 -0.21443255790405999 -0.14045138628973661 0 -0.23517784898194349 -0.1630635057543095 0 -0.2380106676782324 -0.1354177097998045 0 -0.21443255790405999 -0.14045138628973661 0 -0.2380106676782324 -0.1354177097998045 0 -0.21818181898823891 -0.1166352530844727 0 -0.2380106676782324 -0.1354177097998045 0 -0.25154060515602011 -0.123099588568314 0 -0.2579956790398209 -0.14650854198852661 0 -0.2380106676782324 -0.1354177097998045 0 -0.2408434863745213 -0.10777191384529949 0 -0.25154060515602011 -0.123099588568314 0 -0.2408434863745213 -0.10777191384529949 0 -0.25154060515602011 -0.123099588568314 0 -0.25599843970803449 -0.1018445700952066 0 -0.2380106676782324 -0.1354177097998045 0 -0.2408434863745213 -0.10777191384529949 0 -0.2408434863745213 -0.10777191384529949 0 -0.2236296755882955 -0.099101332229009645 0 -0.24264739451557499 -0.090167371608419505 0 -0.2408434863745213 -0.10777191384529949 0 -0.24264739451557499 -0.090167371608419505 0 -0.2408434863745213 -0.10777191384529949 0 -0.25599843970803449 -0.1018445700952066 0 -0.2408434863745213 -0.10777191384529949 0 -0.24264739451557499 -0.090167371608419505 0 -0.25599843970803449 -0.1018445700952066 0 -0.2408434863745213 -0.10777191384529949 0 -0.2236296755882955 -0.099101332229009645 0 -0.21818181898823891 -0.1166352530844727 0 -0.2408434863745213 -0.10777191384529949 0 -0.21818181898823891 -0.1166352530844727 0 -0.2380106676782324 -0.1354177097998045 0 -0.2408434863745213 -0.10777191384529949 0 -0.21818181898823891 -0.1166352530844727 0 -0.23962002754040421 -0.069070108306494002 0 -0.24445130265662901 -0.0725628293715396 0 -0.22672209996977791 -0.073940519321308129 0 -0.23962002754040421 -0.069070108306494002 0 -0.24423540036030689 -0.065545460943815179 0 -0.23385335540786409 -0.0657681655130712 0 -0.24423540036030689 -0.065545460943815179 0 -0.24789017795411239 -0.064186032517440164 0 -0.24747569534767619 -0.06818122514798429 0 -0.24789017795411239 -0.064186032517440164 0 -0.24747569534767619 -0.06818122514798429 0 -0.2522119815795939 -0.063233152680473761 0 -0.24423540036030689 -0.065545460943815179 0 -0.24789017795411239 -0.064186032517440164 0 -0.2476376345288728 -0.059784291297487441 0 -0.23962002754040421 -0.069070108306494002 0 -0.24398047181175739 -0.068499651215787952 0 -0.24445130265662901 -0.0725628293715396 0 -0.23962002754040421 -0.069070108306494002 0 -0.24423540036030689 -0.065545460943815179 0 -0.24398047181175739 -0.068499651215787952 0 -0.24747569534767619 -0.06818122514798429 0 -0.24398047181175739 -0.068499651215787952 0 -0.24445130265662901 -0.0725628293715396 0 -0.24423540036030689 -0.065545460943815179 0 -0.24747569534767619 -0.06818122514798429 0 -0.24398047181175739 -0.068499651215787952 0 -0.24445130265662901 -0.0725628293715396 0 -0.24264739451557499 -0.090167371608419505 0 -0.24445130265662901 -0.0725628293715396 0 -0.24264739451557499 -0.090167371608419505 0 -0.25524330975025311 -0.085725418028175016 0 -0.24445130265662901 -0.0725628293715396 0 -0.24264739451557499 -0.090167371608419505 0 -0.22324661408888549 -0.07792339449956312 0 -0.2236296755882955 -0.099101332229009645 0 -0.24264739451557499 -0.090167371608419505 0 -0.22324661408888549 -0.07792339449956312 0 -0.24423540036030689 -0.065545460943815179 0 -0.2194058923277431 -0.060516916201812689 0 -0.24445130265662901 -0.0725628293715396 0 -0.22324661408888549 -0.07792339449956312 0 -0.24445130265662901 -0.0725628293715396 0 -0.22672209996977791 -0.073940519321308129 0 -0.22324661408888549 -0.07792339449956312 0 -0.24423540036030689 -0.065545460943815179 0 -0.23385335540786409 -0.0657681655130712 0 -0.2194058923277431 -0.060516916201812689 0 -0.23962002754040421 -0.069070108306494002 0 -0.22672209996977791 -0.073940519321308129 0 -0.22672209996977791 -0.073940519321308129 0 -0.22324661408888549 -0.07792339449956312 0 -0.22672209996977791 -0.073940519321308129 0 -0.23385335540786409 -0.0657681655130712 0 -0.23962002754040421 -0.069070108306494002 0 -0.22672209996977791 -0.073940519321308129 0 -0.23385335540786409 -0.0657681655130712 0 -0.22672209996977791 -0.073940519321308129 0 -0.23385335540786409 -0.0657681655130712 0 -0.2194058923277431 -0.060516916201812689 0 -0.22672209996977791 -0.073940519321308129 0 -0.2074812290676418 -0.06973064948531775 0 -0.2194058923277431 -0.060516916201812689 0 -0.22672209996977791 -0.073940519321308129 0 -0.2074812290676418 -0.06973064948531775 0 -0.20185033507307121 -0.08333239387227942 0 -0.2074812290676418 -0.06973064948531775 0 -0.20070174292269069 -0.062775883643773886 0 -0.2194058923277431 -0.060516916201812689 0 -0.22672209996977791 -0.073940519321308129 0 -0.20185033507307121 -0.08333239387227942 0 -0.2236296755882955 -0.099101332229009645 0 -0.22324661408888549 -0.07792339449956312 0 -0.208955004654965 -0.09430144879829748 0 -0.22324661408888549 -0.07792339449956312 0 -0.20185033507307121 -0.08333239387227942 0 -0.208955004654965 -0.09430144879829748 0 -0.22324661408888549 -0.07792339449956312 0 -0.208955004654965 -0.09430144879829748 0 -0.22324661408888549 -0.07792339449956312 0 -0.20185033507307121 -0.08333239387227942 0 -0.22672209996977791 -0.073940519321308129 0 -0.22324661408888549 -0.07792339449956312 0 -0.20185033507307121 -0.08333239387227942 0 -0.20185033507307121 -0.08333239387227942 0 -0.18378616165808209 -0.090153640827818959 0 -0.18093105844155849 -0.088620806595534563 0 -0.20185033507307121 -0.08333239387227942 0 -0.18378616165808209 -0.090153640827818959 0 -0.20185033507307121 -0.08333239387227942 0 -0.1915340689428125 -0.094313300431678349 0 -0.18378616165808209 -0.090153640827818959 0 -0.20185033507307121 -0.08333239387227942 0 -0.18093105844155849 -0.088620806595534563 0 -0.20185033507307121 -0.08333239387227942 0 -0.18093105844155849 -0.088620806595534563 0 -0.1846722171184203 -0.076158025179442923 0 -0.20185033507307121 -0.08333239387227942 0 -0.1983871532066426 -0.095685664831055783 0 -0.1915340689428125 -0.094313300431678349 0 -0.20185033507307121 -0.08333239387227942 0 -0.208955004654965 -0.09430144879829748 0 -0.1983871532066426 -0.095685664831055783 0 -0.1915340689428125 -0.094313300431678349 0 -0.18378616165808209 -0.090153640827818959 0 -0.20185033507307121 -0.08333239387227942 0 -0.19324772795441611 -0.069425981885829949 0 -0.1846722171184203 -0.076158025179442923 0 -0.2074812290676418 -0.06973064948531775 0 -0.20185033507307121 -0.08333239387227942 0 -0.19324772795441611 -0.069425981885829949 0 -0.19324772795441611 -0.069425981885829949 0 -0.20070174292269069 -0.062775883643773886 0 -0.19045251481363731 -0.059929551021664793 0 -0.2074812290676418 -0.06973064948531775 0 -0.19324772795441611 -0.069425981885829949 0 -0.20070174292269069 -0.062775883643773886 0 -0.1955201516019564 -0.12549859232364591 0 -0.21818181898823891 -0.1166352530844727 0 -0.2079037349075874 -0.10780861153800669 0 -0.1955201516019564 -0.12549859232364591 0 -0.21818181898823891 -0.1166352530844727 0 -0.2236296755882955 -0.099101332229009645 0 -0.21818181898823891 -0.1166352530844727 0 -0.2079037349075874 -0.10780861153800669 0 -0.2079037349075874 -0.10780861153800669 0 -0.208955004654965 -0.09430144879829748 0 -0.19466339522104359 -0.11067950309703101 0 -0.2236296755882955 -0.099101332229009645 0 -0.2079037349075874 -0.10780861153800669 0 -0.208955004654965 -0.09430144879829748 0 -0.208955004654965 -0.09430144879829748 0 -0.1983871532066426 -0.095685664831055783 0 -0.19466339522104359 -0.11067950309703101 0 -0.208955004654965 -0.09430144879829748 0 -0.19466339522104359 -0.11067950309703101 0 -0.1983871532066426 -0.095685664831055783 0 -0.1915340689428125 -0.094313300431678349 0 -0.19024937718781601 -0.10267104724098911 0 -0.1915340689428125 -0.094313300431678349 0 -0.19024937718781601 -0.10267104724098911 0 -0.1831073153046395 -0.1001662056354868 0 -0.1983871532066426 -0.095685664831055783 0 -0.19024937718781601 -0.10267104724098911 0 -0.19466339522104359 -0.11067950309703101 0 -0.19024937718781601 -0.10267104724098911 0 -0.19466339522104359 -0.11067950309703101 0 -0.18355495326394189 -0.1125105622096936 0 -0.1803717857871221 -0.12705755739576449 0 -0.19466339522104359 -0.11067950309703101 0 -0.1955201516019564 -0.12549859232364591 0 -0.2079037349075874 -0.10780861153800669 0 -0.19466339522104359 -0.11067950309703101 0 -0.1803717857871221 -0.12705755739576449 0 -0.1955201516019564 -0.12549859232364591 0 -0.19466339522104359 -0.11067950309703101 0 -0.1803717857871221 -0.12705755739576449 0 -0.19466339522104359 -0.11067950309703101 0 -0.18355495326394189 -0.1125105622096936 0 -0.17527927478453029 -0.11896361030084721 0 -0.1618644793217317 -0.1193527095025964 0 -0.1831073153046395 -0.1001662056354868 0 -0.1803717857871221 -0.12705755739576449 0 -0.18355495326394189 -0.1125105622096936 0 -0.17527927478453029 -0.11896361030084721 0 -0.1618644793217317 -0.1193527095025964 0 -0.1831073153046395 -0.1001662056354868 0 -0.18355495326394189 -0.1125105622096936 0 -0.17527927478453029 -0.11896361030084721 0 -0.1831073153046395 -0.1001662056354868 0 -0.17285848421567401 -0.134361931562819 0 -0.17527927478453029 -0.11896361030084721 0 -0.1618644793217317 -0.1193527095025964 0 -0.1618644793217317 -0.1193527095025964 0 -0.15251333638307221 -0.117407631871014 0 -0.15523296291542499 -0.11230509948386749 0 -0.1618644793217317 -0.1193527095025964 0 -0.16495060996369151 -0.1061516264592841 0 -0.15523296291542499 -0.11230509948386749 0 -0.1618644793217317 -0.1193527095025964 0 -0.16495060996369151 -0.1061516264592841 0 -0.1831073153046395 -0.1001662056354868 0 -0.1599629954950951 -0.1015300016616662 0 -0.1645852967815663 -0.097404116012803382 0 -0.14538443190505079 -0.1046545911977885 0 -0.16495060996369151 -0.1061516264592841 0 -0.1645852967815663 -0.097404116012803382 0 -0.1831073153046395 -0.1001662056354868 0 -0.1599629954950951 -0.1015300016616662 0 -0.16495060996369151 -0.1061516264592841 0 -0.15523296291542499 -0.11230509948386749 0 -0.1599629954950951 -0.1015300016616662 0 -0.16495060996369151 -0.1061516264592841 0 -0.1645852967815663 -0.097404116012803382 0 -0.1645852967815663 -0.097404116012803382 0 -0.18378616165808209 -0.090153640827818959 0 -0.1645852967815663 -0.097404116012803382 0 -0.1831073153046395 -0.1001662056354868 0 -0.18378616165808209 -0.090153640827818959 0 -0.19024937718781601 -0.10267104724098911 0 -0.18355495326394189 -0.1125105622096936 0 -0.1831073153046395 -0.1001662056354868 0 -0.1915340689428125 -0.094313300431678349 0 -0.1831073153046395 -0.1001662056354868 0 -0.18378616165808209 -0.090153640827818959 0 -0.18093105844155849 -0.088620806595534563 0 -0.1746586692371839 -0.075993607266635121 0 -0.16382336710818329 -0.07943611065899979 0 -0.1645852967815663 -0.097404116012803382 0 -0.18378616165808209 -0.090153640827818959 0 -0.17164724241626969 -0.09350833933124067 0 -0.18093105844155849 -0.088620806595534563 0 -0.16382336710818329 -0.07943611065899979 0 -0.18093105844155849 -0.088620806595534563 0 -0.1773641098565194 -0.089522534538264531 0 -0.16382336710818329 -0.07943611065899979 0 -0.18378616165808209 -0.090153640827818959 0 -0.18093105844155849 -0.088620806595534563 0 -0.1773641098565194 -0.089522534538264531 0 -0.18378616165808209 -0.090153640827818959 0 -0.18093105844155849 -0.088620806595534563 0 -0.18093105844155849 -0.088620806595534563 0 -0.1846722171184203 -0.076158025179442923 0 -0.1746586692371839 -0.075993607266635121 0 -0.18378616165808209 -0.090153640827818959 0 -0.1773641098565194 -0.089522534538264531 0 -0.17164724241626969 -0.09350833933124067 0 -0.18093105844155849 -0.088620806595534563 0 -0.1773641098565194 -0.089522534538264531 0 -0.19324772795441611 -0.069425981885829949 0 -0.1846722171184203 -0.076158025179442923 0 -0.17432832873103571 -0.064629388112501157 0 -0.19324772795441611 -0.069425981885829949 0 -0.17432832873103571 -0.064629388112501157 0 -0.19045251481363731 -0.059929551021664793 0 -0.1846722171184203 -0.076158025179442923 0 -0.1746586692371839 -0.075993607266635121 0 -0.17432832873103571 -0.064629388112501157 0 -0.17432832873103571 -0.064629388112501157 0 -0.1582041426484341 -0.069329225203337175 0 -0.1746586692371839 -0.075993607266635121 0 -0.17432832873103571 -0.064629388112501157 0 -0.1582041426484341 -0.069329225203337175 0 -0.17432832873103571 -0.064629388112501157 0 -0.1582041426484341 -0.069329225203337175 0 -0.1629996549168663 -0.058735947988262753 0 -0.1746586692371839 -0.075993607266635121 0 -0.1582041426484341 -0.069329225203337175 0 -0.16382336710818329 -0.07943611065899979 0 -0.1582041426484341 -0.069329225203337175 0 -0.16382336710818329 -0.07943611065899979 0 -0.1496449108324184 -0.071824048504924243 0 -0.1582041426484341 -0.069329225203337175 0 -0.16382336710818329 -0.07943611065899979 0 -0.16382336710818329 -0.07943611065899979 0 -0.1496449108324184 -0.071824048504924243 0 -0.1645852967815663 -0.097404116012803382 0 -0.17164724241626969 -0.09350833933124067 0 -0.16382336710818329 -0.07943611065899979 0 -0.1645852967815663 -0.097404116012803382 0 -0.16382336710818329 -0.07943611065899979 0 -0.14690322565739941 -0.087505322751846054 0 -0.17164724241626969 -0.09350833933124067 0 -0.16382336710818329 -0.07943611065899979 0 -0.1773641098565194 -0.089522534538264531 0 -0.17164724241626969 -0.09350833933124067 0 -0.16382336710818329 -0.07943611065899979 0 -0.14690322565739941 -0.087505322751846054 0 -0.1496449108324184 -0.071824048504924243 0 -0.1308590504900663 -0.077299703695700633 0 -0.16382336710818329 -0.07943611065899979 0 -0.14690322565739941 -0.087505322751846054 0 -0.1496449108324184 -0.071824048504924243 0 -0.1496449108324184 -0.071824048504924243 0 -0.13220234954152571 -0.062459569178676948 0 -0.1496449108324184 -0.071824048504924243 0 -0.14423396267478089 -0.062907810044477472 0 -0.13220234954152571 -0.062459569178676948 0 -0.1582041426484341 -0.069329225203337175 0 -0.1496449108324184 -0.071824048504924243 0 -0.14423396267478089 -0.062907810044477472 0 -0.1582041426484341 -0.069329225203337175 0 -0.14423396267478089 -0.062907810044477472 0 -0.14450641319077201 -0.05689842296350766 0 -0.1582041426484341 -0.069329225203337175 0 -0.1496449108324184 -0.071824048504924243 0 -0.1496449108324184 -0.071824048504924243 0 -0.1308590504900663 -0.077299703695700633 0 -0.13220234954152571 -0.062459569178676948 0 -0.1496449108324184 -0.071824048504924243 0 -0.1308590504900663 -0.077299703695700633 0 -0.11207319014771371 -0.08277535888647547 0 -0.1308590504900663 -0.077299703695700633 0 -0.13220234954152571 -0.062459569178676948 0 -0.14690322565739941 -0.087505322751846054 0 -0.1308590504900663 -0.077299703695700633 0 -0.1282157534094838 -0.094133065870528471 0 -0.1282157534094838 -0.094133065870528471 0 -0.12618356702853539 -0.1119050663827737 0 -0.14538443190505079 -0.1046545911977885 0 -0.14690322565739941 -0.087505322751846054 0 -0.1282157534094838 -0.094133065870528471 0 -0.14538443190505079 -0.1046545911977885 0 -0.12618356702853539 -0.1119050663827737 0 -0.14538443190505079 -0.1046545911977885 0 -0.12618356702853539 -0.1119050663827737 0 -0.14307328126181529 -0.10671753402222001 0 -0.12618356702853539 -0.1119050663827737 0 -0.14538443190505079 -0.1046545911977885 0 -0.14307328126181529 -0.10671753402222001 0 -0.1192076889507475 -0.12903686368196049 0 -0.12618356702853539 -0.1119050663827737 0 -0.13048044756701799 -0.12459360680970109 0 -0.12618356702853539 -0.1119050663827737 0 -0.1367227409132773 -0.1161300358302846 0 -0.14307328126181529 -0.10671753402222001 0 -0.12618356702853539 -0.1119050663827737 0 -0.13048044756701799 -0.12459360680970109 0 -0.1367227409132773 -0.1161300358302846 0 -0.13703790663934939 -0.1276404747563987 0 -0.13048044756701799 -0.12459360680970109 0 -0.1367227409132773 -0.1161300358302846 0 -0.13703790663934939 -0.1276404747563987 0 -0.1367227409132773 -0.1161300358302846 0 -0.1458129637163513 -0.1229338878565784 0 -0.1367227409132773 -0.1161300358302846 0 -0.14425609758103239 -0.1114808205124273 0 -0.14307328126181529 -0.10671753402222001 0 -0.1367227409132773 -0.1161300358302846 0 -0.14425609758103239 -0.1114808205124273 0 -0.14714293957878091 -0.1150388306410135 0 -0.1618644793217317 -0.1193527095025964 0 -0.1458129637163513 -0.1229338878565784 0 -0.15251333638307221 -0.117407631871014 0 -0.14425609758103239 -0.1114808205124273 0 -0.14714293957878091 -0.1150388306410135 0 -0.14995051905574369 -0.109261393296678 0 -0.1367227409132773 -0.1161300358302846 0 -0.14714293957878091 -0.1150388306410135 0 -0.1458129637163513 -0.1229338878565784 0 -0.14714293957878091 -0.1150388306410135 0 -0.1458129637163513 -0.1229338878565784 0 -0.15251333638307221 -0.117407631871014 0 -0.14714293957878091 -0.1150388306410135 0 -0.15251333638307221 -0.117407631871014 0 -0.15523296291542499 -0.11230509948386749 0 -0.14714293957878091 -0.1150388306410135 0 -0.15523296291542499 -0.11230509948386749 0 -0.14995051905574369 -0.109261393296678 0 -0.1599629954950951 -0.1015300016616662 0 -0.15523296291542499 -0.11230509948386749 0 -0.14995051905574369 -0.109261393296678 0 -0.1645852967815663 -0.097404116012803382 0 -0.14690322565739941 -0.087505322751846054 0 -0.14538443190505079 -0.1046545911977885 0 -0.1645852967815663 -0.097404116012803382 0 -0.14538443190505079 -0.1046545911977885 0 -0.1599629954950951 -0.1015300016616662 0 -0.14995051905574369 -0.109261393296678 0 -0.14307328126181529 -0.10671753402222001 0 -0.1599629954950951 -0.1015300016616662 0 -0.14307328126181529 -0.10671753402222001 0 -0.1599629954950951 -0.1015300016616662 0 -0.14538443190505079 -0.1046545911977885 0 -0.14307328126181529 -0.10671753402222001 0 -0.14425609758103239 -0.1114808205124273 0 -0.14995051905574369 -0.109261393296678 0 -0.14307328126181529 -0.10671753402222001 0 -0.15461477650747879 -0.010693291973686 0 -0.13179254015392661 -0.021824619714692121 0 -0.1586039466821893 -0.026787536453052731 0 -0.15461477650747879 -0.010693291973686 0 -0.14206650454917771 -0.0016540903967830469 0 -0.13179254015392661 -0.021824619714692121 0 -0.15461477650747879 -0.010693291973686 0 -0.14206650454917771 -0.0016540903967830469 0 -0.15420495068470361 0.0077122560408214658 0 -0.14206650454917771 -0.0016540903967830469 0 -0.13179254015392661 -0.021824619714692121 0 -0.1313148881743523 0.0036871420341860442 0 -0.1199914485239682 -0.00059886477107955281 0 -0.13179254015392661 -0.021824619714692121 0 -0.1199914485239682 -0.00059886477107955281 0 -0.13179254015392661 -0.021824619714692121 0 -0.12684198873082661 -0.020822019530428209 0 -0.1199914485239682 -0.00059886477107955281 0 -0.13179254015392661 -0.021824619714692121 0 -0.1313148881743523 0.0036871420341860442 0 -0.13179254015392661 -0.021824619714692121 0 -0.12684198873082661 -0.020822019530428209 0 -0.13501626538385239 -0.043426081607277588 0 -0.13179254015392661 -0.021824619714692121 0 -0.13501626538385239 -0.043426081607277588 0 -0.14491736823005211 -0.045431281975805468 0 -0.12684198873082661 -0.020822019530428209 0 -0.13501626538385239 -0.043426081607277588 0 -0.11598390793443519 -0.039571592792811472 0 -0.13501626538385239 -0.043426081607277588 0 -0.13179254015392661 -0.021824619714692121 0 -0.14491736823005211 -0.045431281975805468 0 -0.11598390793443519 -0.039571592792811472 0 -0.13501626538385239 -0.043426081607277588 0 -0.12595257954408401 -0.050505077155697208 0 -0.11598390793443519 -0.039571592792811472 0 -0.12684198873082661 -0.020822019530428209 0 -0.13501626538385239 -0.043426081607277588 0 -0.13501626538385239 -0.043426081607277588 0 -0.13739590993665421 -0.050006435499810958 0 -0.14491736823005211 -0.045431281975805468 0 -0.13501626538385239 -0.043426081607277588 0 -0.14491736823005211 -0.045431281975805468 0 -0.13501626538385239 -0.043426081607277588 0 -0.13739590993665421 -0.050006435499810958 0 -0.13220234954152571 -0.062459569178676948 0 -0.12595257954408401 -0.050505077155697208 0 -0.13275414312223749 -0.053294405796180437 0 -0.13501626538385239 -0.043426081607277588 0 -0.12595257954408401 -0.050505077155697208 0 -0.13275414312223749 -0.053294405796180437 0 -0.13501626538385239 -0.043426081607277588 0 -0.13275414312223749 -0.053294405796180437 0 -0.13739590993665421 -0.050006435499810958 0 -0.13739590993665421 -0.050006435499810958 0 -0.13778068246393871 -0.056817362094107433 0 -0.14450641319077201 -0.05689842296350766 0 -0.13275414312223749 -0.053294405796180437 0 -0.13739590993665421 -0.050006435499810958 0 -0.13778068246393871 -0.056817362094107433 0 -0.13220234954152571 -0.062459569178676948 0 -0.13275414312223749 -0.053294405796180437 0 -0.13778068246393871 -0.056817362094107433 0 -0.14423396267478089 -0.062907810044477472 0 -0.13220234954152571 -0.062459569178676948 0 -0.13778068246393871 -0.056817362094107433 0 -0.1582041426484341 -0.069329225203337175 0 -0.14450641319077201 -0.05689842296350766 0 -0.14491736823005211 -0.045431281975805468 0 -0.1582041426484341 -0.069329225203337175 0 -0.14491736823005211 -0.045431281975805468 0 -0.1629996549168663 -0.058735947988262753 0 -0.1582041426484341 -0.069329225203337175 0 -0.14491736823005211 -0.045431281975805468 0 -0.14423396267478089 -0.062907810044477472 0 -0.13778068246393871 -0.056817362094107433 0 -0.14450641319077201 -0.05689842296350766 0 -0.13739590993665421 -0.050006435499810958 0 -0.14450641319077201 -0.05689842296350766 0 -0.14491736823005211 -0.045431281975805468 0 -0.14491736823005211 -0.045431281975805468 0 -0.1611336727776578 -0.039987230345846059 0 -0.1586039466821893 -0.026787536453052731 0 -0.13179254015392661 -0.021824619714692121 0 -0.14491736823005211 -0.045431281975805468 0 -0.1586039466821893 -0.026787536453052731 0 -0.14491736823005211 -0.045431281975805468 0 -0.1611336727776578 -0.039987230345846059 0 -0.1697468762626157 -0.050459826717807722 0 -0.1611336727776578 -0.039987230345846059 0 -0.17478191950431901 -0.037230062953703263 0 -0.1586039466821893 -0.026787536453052731 0 -0.1611336727776578 -0.039987230345846059 0 -0.1697468762626157 -0.050459826717807722 0 -0.17478191950431901 -0.037230062953703263 0 -0.14491736823005211 -0.045431281975805468 0 -0.1697468762626157 -0.050459826717807722 0 -0.14491736823005211 -0.045431281975805468 0 -0.1629996549168663 -0.058735947988262753 0 -0.1697468762626157 -0.050459826717807722 0 -0.17432832873103571 -0.064629388112501157 0 -0.1629996549168663 -0.058735947988262753 0 -0.1697468762626157 -0.050459826717807722 0 -0.1697468762626157 -0.050459826717807722 0 -0.183327035655549 -0.047164168351029788 0 -0.1945763842951794 -0.055488371459810192 0 -0.1697468762626157 -0.050459826717807722 0 -0.19045251481363731 -0.059929551021664793 0 -0.1945763842951794 -0.055488371459810192 0 -0.17432832873103571 -0.064629388112501157 0 -0.19045251481363731 -0.059929551021664793 0 -0.1697468762626157 -0.050459826717807722 0 -0.1945763842951794 -0.055488371459810192 0 -0.17432832873103571 -0.064629388112501157 0 -0.1697468762626157 -0.050459826717807722 0 -0.19045251481363731 -0.059929551021664793 0 -0.1697468762626157 -0.050459826717807722 0 -0.183327035655549 -0.047164168351029788 0 -0.17478191950431901 -0.037230062953703263 0 -0.183327035655549 -0.047164168351029788 0 -0.17478191950431901 -0.037230062953703263 0 -0.186496662483109 -0.040913861257886458 0 -0.183327035655549 -0.047164168351029788 0 -0.186496662483109 -0.040913861257886458 0 -0.19182535704020581 -0.046648867120577517 0 -0.17478191950431901 -0.037230062953703263 0 -0.186496662483109 -0.040913861257886458 0 -0.18804893808603729 -0.031837003162657397 0 -0.18718085391616821 -0.01935535839951796 0 -0.17532939782640691 -0.022713227386484069 0 -0.18804893808603729 -0.031837003162657397 0 -0.18718085391616821 -0.01935535839951796 0 -0.17532939782640691 -0.022713227386484069 0 -0.1783372779639604 -0.0088131497605437384 0 -0.17478191950431901 -0.037230062953703263 0 -0.17532939782640691 -0.022713227386484069 0 -0.18804893808603729 -0.031837003162657397 0 -0.17532939782640691 -0.022713227386484069 0 -0.1586039466821893 -0.026787536453052731 0 -0.1669653234103233 -0.012961576639782431 0 -0.17478191950431901 -0.037230062953703263 0 -0.17532939782640691 -0.022713227386484069 0 -0.1586039466821893 -0.026787536453052731 0 -0.15461477650747879 -0.010693291973686 0 -0.1586039466821893 -0.026787536453052731 0 -0.1669653234103233 -0.012961576639782431 0 -0.15461477650747879 -0.010693291973686 0 -0.16825079159897091 -0.0011451825768485999 0 -0.15420495068470361 0.0077122560408214658 0 -0.15461477650747879 -0.010693291973686 0 -0.1669653234103233 -0.012961576639782431 0 -0.16825079159897091 -0.0011451825768485999 0 -0.1669653234103233 -0.012961576639782431 0 -0.16825079159897091 -0.0011451825768485999 0 -0.1783372779639604 -0.0088131497605437384 0 -0.16825079159897091 -0.0011451825768485999 0 -0.1783372779639604 -0.0088131497605437384 0 -0.18468055927599911 0.0082189516755516844 0 -0.1783372779639604 -0.0088131497605437384 0 -0.19012565735093781 -0.007671016353986199 0 -0.18468055927599911 0.0082189516755516844 0 -0.17532939782640691 -0.022713227386484069 0 -0.1669653234103233 -0.012961576639782431 0 -0.1783372779639604 -0.0088131497605437384 0 -0.18718085391616821 -0.01935535839951796 0 -0.1783372779639604 -0.0088131497605437384 0 -0.19012565735093781 -0.007671016353986199 0 -0.19012565735093781 -0.007671016353986199 0 -0.20329299641229159 -0.0086189978314693879 0 -0.1986904174999404 0.00057849008061604224 0 -0.19012565735093781 -0.007671016353986199 0 -0.1970251518030092 -0.016523335480850221 0 -0.20329299641229159 -0.0086189978314693879 0 -0.1970251518030092 -0.016523335480850221 0 -0.20658020938073021 -0.01977328923069854 0 -0.20329299641229159 -0.0086189978314693879 0 -0.18718085391616821 -0.01935535839951796 0 -0.19012565735093781 -0.007671016353986199 0 -0.1970251518030092 -0.016523335480850221 0 -0.18718085391616821 -0.01935535839951796 0 -0.19851258655646639 -0.026721914786108789 0 -0.1970251518030092 -0.016523335480850221 0 -0.18718085391616821 -0.01935535839951796 0 -0.19851258655646639 -0.026721914786108789 0 -0.18804893808603729 -0.031837003162657397 0 -0.19851258655646639 -0.026721914786108789 0 -0.2097721415053144 -0.029957289035967762 0 -0.20100837013725481 -0.036462798227144377 0 -0.19851258655646639 -0.026721914786108789 0 -0.1970251518030092 -0.016523335480850221 0 -0.20658020938073021 -0.01977328923069854 0 -0.19851258655646639 -0.026721914786108789 0 -0.20658020938073021 -0.01977328923069854 0 -0.2097721415053144 -0.029957289035967762 0 -0.20658020938073021 -0.01977328923069854 0 -0.2097721415053144 -0.029957289035967762 0 -0.21470084775600079 -0.021536450398179911 0 -0.2097721415053144 -0.029957289035967762 0 -0.21470084775600079 -0.021536450398179911 0 -0.2196896362122352 -0.027925943543471402 0 -0.21470084775600079 -0.021536450398179911 0 -0.2217796780766986 -0.01851184380756097 0 -0.2196896362122352 -0.027925943543471402 0 -0.20658020938073021 -0.01977328923069854 0 -0.21470084775600079 -0.021536450398179911 0 -0.2145073079030653 -0.01174391552911217 0 -0.21470084775600079 -0.021536450398179911 0 -0.2145073079030653 -0.01174391552911217 0 -0.2217796780766986 -0.01851184380756097 0 -0.21068513587953391 -0.0001849702778100685 0 -0.21876877817985291 -0.0045986095705858477 0 -0.22167695897805001 0.0026357239995207279 0 -0.2145073079030653 -0.01174391552911217 0 -0.21068513587953391 -0.0001849702778100685 0 -0.21876877817985291 -0.0045986095705858477 0 -0.2145073079030653 -0.01174391552911217 0 -0.21068513587953391 -0.0001849702778100685 0 -0.20329299641229159 -0.0086189978314693879 0 -0.21068513587953391 -0.0001849702778100685 0 -0.20329299641229159 -0.0086189978314693879 0 -0.1986904174999404 0.00057849008061604224 0 -0.20658020938073021 -0.01977328923069854 0 -0.2145073079030653 -0.01174391552911217 0 -0.20329299641229159 -0.0086189978314693879 0 -0.20070174292269069 -0.062775883643773886 0 -0.19045251481363731 -0.059929551021664793 0 -0.1945763842951794 -0.055488371459810192 0 -0.183327035655549 -0.047164168351029788 0 -0.1945763842951794 -0.055488371459810192 0 -0.19182535704020581 -0.046648867120577517 0 -0.1945763842951794 -0.055488371459810192 0 -0.1994397338810899 -0.04724114283153813 0 -0.19182535704020581 -0.046648867120577517 0 -0.1945763842951794 -0.055488371459810192 0 -0.1994397338810899 -0.04724114283153813 0 -0.20691266351785989 -0.05143008385600463 0 -0.1994397338810899 -0.04724114283153813 0 -0.19450006212943391 -0.041689204701464373 0 -0.20100837013725481 -0.036462798227144377 0 -0.1994397338810899 -0.04724114283153813 0 -0.20100837013725481 -0.036462798227144377 0 -0.20651201742121161 -0.045530898444452461 0 -0.186496662483109 -0.040913861257886458 0 -0.19182535704020581 -0.046648867120577517 0 -0.19450006212943391 -0.041689204701464373 0 -0.1994397338810899 -0.04724114283153813 0 -0.19182535704020581 -0.046648867120577517 0 -0.19450006212943391 -0.041689204701464373 0 -0.19450006212943391 -0.041689204701464373 0 -0.18804893808603729 -0.031837003162657397 0 -0.20100837013725481 -0.036462798227144377 0 -0.186496662483109 -0.040913861257886458 0 -0.19450006212943391 -0.041689204701464373 0 -0.18804893808603729 -0.031837003162657397 0 -0.19851258655646639 -0.026721914786108789 0 -0.18804893808603729 -0.031837003162657397 0 -0.20100837013725481 -0.036462798227144377 0 -0.2097721415053144 -0.029957289035967762 0 -0.20100837013725481 -0.036462798227144377 0 -0.2094426501009613 -0.039490661568676838 0 -0.2097721415053144 -0.029957289035967762 0 -0.21822584337231049 -0.037837888238309331 0 -0.2196896362122352 -0.027925943543471402 0 -0.2097721415053144 -0.029957289035967762 0 -0.21822584337231049 -0.037837888238309331 0 -0.2094426501009613 -0.039490661568676838 0 -0.21822584337231049 -0.037837888238309331 0 -0.21364183518494409 -0.046292431867460758 0 -0.2226840576024503 -0.048229763203283697 0 -0.21822584337231049 -0.037837888238309331 0 -0.21364183518494409 -0.046292431867460758 0 -0.2094426501009613 -0.039490661568676838 0 -0.20100837013725481 -0.036462798227144377 0 -0.2094426501009613 -0.039490661568676838 0 -0.20651201742121161 -0.045530898444452461 0 -0.21364183518494409 -0.046292431867460758 0 -0.2094426501009613 -0.039490661568676838 0 -0.20651201742121161 -0.045530898444452461 0 -0.1945763842951794 -0.055488371459810192 0 -0.2194058923277431 -0.060516916201812689 0 -0.20070174292269069 -0.062775883643773886 0 -0.1945763842951794 -0.055488371459810192 0 -0.2194058923277431 -0.060516916201812689 0 -0.1945763842951794 -0.055488371459810192 0 -0.20691266351785989 -0.05143008385600463 0 -0.2194058923277431 -0.060516916201812689 0 -0.1994397338810899 -0.04724114283153813 0 -0.20651201742121161 -0.045530898444452461 0 -0.20691266351785989 -0.05143008385600463 0 -0.21364183518494409 -0.046292431867460758 0 -0.20651201742121161 -0.045530898444452461 0 -0.20691266351785989 -0.05143008385600463 0 -0.21364183518494409 -0.046292431867460758 0 -0.2194058923277431 -0.060516916201812689 0 -0.2226840576024503 -0.048229763203283697 0 -0.21364183518494409 -0.046292431867460758 0 -0.20691266351785989 -0.05143008385600463 0 -0.2194058923277431 -0.060516916201812689 0 -0.24423540036030689 -0.065545460943815179 0 -0.23016661289974111 -0.057834842091741008 0 -0.2194058923277431 -0.060516916201812689 0 -0.23016661289974111 -0.057834842091741008 0 -0.2194058923277431 -0.060516916201812689 0 -0.2226840576024503 -0.048229763203283697 0 -0.23016661289974111 -0.057834842091741008 0 -0.2226840576024503 -0.048229763203283697 0 -0.2308068164106635 -0.048310542409797617 0 -0.23016661289974111 -0.057834842091741008 0 -0.2308068164106635 -0.048310542409797617 0 -0.23665615237987081 -0.053780186492779061 0 -0.2226840576024503 -0.048229763203283697 0 -0.2308068164106635 -0.048310542409797617 0 -0.22647560451826171 -0.04091120248616098 0 -0.2308068164106635 -0.048310542409797617 0 -0.23408806370679691 -0.040569515268472078 0 -0.23684711300857059 -0.04898286225350916 0 -0.2308068164106635 -0.048310542409797617 0 -0.23408806370679691 -0.040569515268472078 0 -0.22647560451826171 -0.04091120248616098 0 -0.21822584337231049 -0.037837888238309331 0 -0.2226840576024503 -0.048229763203283697 0 -0.22647560451826171 -0.04091120248616098 0 -0.21822584337231049 -0.037837888238309331 0 -0.22647560451826171 -0.04091120248616098 0 -0.22840969827762611 -0.032760761158189697 0 -0.21822584337231049 -0.037837888238309331 0 -0.22840969827762611 -0.032760761158189697 0 -0.2196896362122352 -0.027925943543471402 0 -0.23408806370679691 -0.040569515268472078 0 -0.22647560451826171 -0.04091120248616098 0 -0.22840969827762611 -0.032760761158189697 0 -0.23408806370679691 -0.040569515268472078 0 -0.22840969827762611 -0.032760761158189697 0 -0.23823430762574591 -0.033187059729803993 0 -0.23823430762574591 -0.033187059729803993 0 -0.2443144789183751 -0.035973345012772863 0 -0.24353048450313949 -0.02785049430097318 0 -0.23408806370679691 -0.040569515268472078 0 -0.23823430762574591 -0.033187059729803993 0 -0.24061983010770291 -0.038356155494360812 0 -0.23823430762574591 -0.033187059729803993 0 -0.24061983010770291 -0.038356155494360812 0 -0.2443144789183751 -0.035973345012772863 0 -0.2443144789183751 -0.035973345012772863 0 -0.2464390569220449 -0.040210560712375318 0 -0.25274871543324229 -0.040262454826351032 0 -0.2443144789183751 -0.035973345012772863 0 -0.24353048450313949 -0.02785049430097318 0 -0.25274871543324229 -0.040262454826351032 0 -0.24061983010770291 -0.038356155494360812 0 -0.2443144789183751 -0.035973345012772863 0 -0.2464390569220449 -0.040210560712375318 0 -0.24643629324421781 -0.045543636395710851 0 -0.24795936685807909 -0.051623353783005498 0 -0.25274871543324229 -0.040262454826351032 0 -0.24061983010770291 -0.038356155494360812 0 -0.2464390569220449 -0.040210560712375318 0 -0.2410933758757467 -0.044105723545713543 0 -0.2464390569220449 -0.040210560712375318 0 -0.24643629324421781 -0.045543636395710851 0 -0.25274871543324229 -0.040262454826351032 0 -0.2464390569220449 -0.040210560712375318 0 -0.24643629324421781 -0.045543636395710851 0 -0.2410933758757467 -0.044105723545713543 0 -0.24643629324421781 -0.045543636395710851 0 -0.2410933758757467 -0.044105723545713543 0 -0.242129898265147 -0.050971611149853033 0 -0.23408806370679691 -0.040569515268472078 0 -0.2410933758757467 -0.044105723545713543 0 -0.23684711300857059 -0.04898286225350916 0 -0.23408806370679691 -0.040569515268472078 0 -0.24061983010770291 -0.038356155494360812 0 -0.2410933758757467 -0.044105723545713543 0 -0.2308068164106635 -0.048310542409797617 0 -0.23684711300857059 -0.04898286225350916 0 -0.23665615237987081 -0.053780186492779061 0 -0.23684711300857059 -0.04898286225350916 0 -0.23665615237987081 -0.053780186492779061 0 -0.242129898265147 -0.050971611149853033 0 -0.23665615237987081 -0.053780186492779061 0 -0.242129898265147 -0.050971611149853033 0 -0.24193351414956771 -0.055667850628624838 0 -0.2410933758757467 -0.044105723545713543 0 -0.23684711300857059 -0.04898286225350916 0 -0.242129898265147 -0.050971611149853033 0 -0.24643629324421781 -0.045543636395710851 0 -0.242129898265147 -0.050971611149853033 0 -0.24795936685807909 -0.051623353783005498 0 -0.242129898265147 -0.050971611149853033 0 -0.24795936685807909 -0.051623353783005498 0 -0.24479927389795411 -0.055346905123322201 0 -0.242129898265147 -0.050971611149853033 0 -0.24479927389795411 -0.055346905123322201 0 -0.24193351414956771 -0.055667850628624838 0 -0.24479927389795411 -0.055346905123322201 0 -0.24193351414956771 -0.055667850628624838 0 -0.24083330497539229 -0.058198742615636227 0 -0.24795936685807909 -0.051623353783005498 0 -0.24479927389795411 -0.055346905123322201 0 -0.2476376345288728 -0.059784291297487441 0 -0.24479927389795411 -0.055346905123322201 0 -0.2476376345288728 -0.059784291297487441 0 -0.24083330497539229 -0.058198742615636227 0 -0.24795936685807909 -0.051623353783005498 0 -0.2476376345288728 -0.059784291297487441 0 -0.25214428948763068 -0.057366473879533419 0 -0.24789017795411239 -0.064186032517440164 0 -0.2476376345288728 -0.059784291297487441 0 -0.2522119815795939 -0.063233152680473761 0 -0.24423540036030689 -0.065545460943815179 0 -0.2476376345288728 -0.059784291297487441 0 -0.24083330497539229 -0.058198742615636227 0 -0.23016661289974111 -0.057834842091741008 0 -0.23665615237987081 -0.053780186492779061 0 -0.24083330497539229 -0.058198742615636227 0 -0.24423540036030689 -0.065545460943815179 0 -0.23016661289974111 -0.057834842091741008 0 -0.24083330497539229 -0.058198742615636227 0 -0.23665615237987081 -0.053780186492779061 0 -0.24193351414956771 -0.055667850628624838 0 -0.24083330497539229 -0.058198742615636227 0 -0.2341733463056492 -0.012699701628678801 0 -0.22549866261510779 -0.0090311703282953352 0 -0.22828709972487349 -0.01696119052537132 0 -0.2341733463056492 -0.012699701628678801 0 -0.22549866261510779 -0.0090311703282953352 0 -0.23484298993803321 -0.003506961314131665 0 -0.22549866261510779 -0.0090311703282953352 0 -0.23484298993803321 -0.003506961314131665 0 -0.2283345506662004 0.0001012563434392566 0 -0.21876877817985291 -0.0045986095705858477 0 -0.2283345506662004 0.0001012563434392566 0 -0.22167695897805001 0.0026357239995207279 0 -0.21876877817985291 -0.0045986095705858477 0 -0.22549866261510779 -0.0090311703282953352 0 -0.2283345506662004 0.0001012563434392566 0 -0.2145073079030653 -0.01174391552911217 0 -0.22549866261510779 -0.0090311703282953352 0 -0.2217796780766986 -0.01851184380756097 0 -0.2145073079030653 -0.01174391552911217 0 -0.21876877817985291 -0.0045986095705858477 0 -0.22549866261510779 -0.0090311703282953352 0 -0.22549866261510779 -0.0090311703282953352 0 -0.2217796780766986 -0.01851184380756097 0 -0.22828709972487349 -0.01696119052537132 0 -0.2217796780766986 -0.01851184380756097 0 -0.22730662702118451 -0.024555476226093189 0 -0.22828709972487349 -0.01696119052537132 0 -0.2217796780766986 -0.01851184380756097 0 -0.2196896362122352 -0.027925943543471402 0 -0.22730662702118451 -0.024555476226093189 0 -0.22840969827762611 -0.032760761158189697 0 -0.2196896362122352 -0.027925943543471402 0 -0.22730662702118451 -0.024555476226093189 0 -0.22840969827762611 -0.032760761158189697 0 -0.23823430762574591 -0.033187059729803993 0 -0.23473002125872339 -0.026348974571725959 0 -0.22840969827762611 -0.032760761158189697 0 -0.22730662702118451 -0.024555476226093189 0 -0.23473002125872339 -0.026348974571725959 0 -0.22730662702118451 -0.024555476226093189 0 -0.23267718460572731 -0.020007760636228309 0 -0.23473002125872339 -0.026348974571725959 0 -0.22730662702118451 -0.024555476226093189 0 -0.22828709972487349 -0.01696119052537132 0 -0.23267718460572731 -0.020007760636228309 0 -0.2341733463056492 -0.012699701628678801 0 -0.22828709972487349 -0.01696119052537132 0 -0.23267718460572731 -0.020007760636228309 0 -0.23822182551891721 -0.019732295379067361 0 -0.24353048450313949 -0.02785049430097318 0 -0.2435314120370089 -0.01238981693211519 0 -0.24353048450313949 -0.02785049430097318 0 -0.2435314120370089 -0.01238981693211519 0 -0.25274871543324229 -0.040262454826351032 0 -0.2435314120370089 -0.01238981693211519 0 -0.25047727589877961 -0.018083406483951889 0 -0.25274871543324229 -0.040262454826351032 0 -0.2435314120370089 -0.01238981693211519 0 -0.25274871543324229 -0.040262454826351032 0 -0.2341733463056492 -0.012699701628678801 0 -0.23267718460572731 -0.020007760636228309 0 -0.23822182551891721 -0.019732295379067361 0 -0.23267718460572731 -0.020007760636228309 0 -0.23822182551891721 -0.019732295379067361 0 -0.23473002125872339 -0.026348974571725959 0 -0.23822182551891721 -0.019732295379067361 0 -0.23473002125872339 -0.026348974571725959 0 -0.24353048450313949 -0.02785049430097318 0 -0.23823430762574591 -0.033187059729803993 0 -0.23473002125872339 -0.026348974571725959 0 -0.24353048450313949 -0.02785049430097318 0 -0.25047727589877961 -0.018083406483951889 0 -0.25641909062978541 0.00032834929142378817 0 -0.2418175348705924 0.0062054284786509503 0 -0.25047727589877961 -0.018083406483951889 0 -0.2418175348705924 0.0062054284786509503 0 -0.2435314120370089 -0.01238981693211519 0 -0.25047727589877961 -0.018083406483951889 0 -0.2418175348705924 0.0062054284786509503 0 -0.2435314120370089 -0.01238981693211519 0 -0.23484298993803321 -0.003506961314131665 0 -0.2418175348705924 0.0062054284786509503 0 -0.2341733463056492 -0.012699701628678801 0 -0.2435314120370089 -0.01238981693211519 0 -0.23484298993803321 -0.003506961314131665 0 -0.2341733463056492 -0.012699701628678801 0 -0.23822182551891721 -0.019732295379067361 0 -0.2435314120370089 -0.01238981693211519 0 -0.26547665563961409 -0.012414552080823279 0 -0.25047727589877961 -0.018083406483951889 0 -0.25641909062978541 0.00032834929142378817 0 -0.26547665563961409 -0.012414552080823279 0 -0.25047727589877961 -0.018083406483951889 0 -0.26706375607489607 -0.02305182566933818 0 -0.25047727589877961 -0.018083406483951889 0 -0.25913701692696678 -0.04237224144655493 0 -0.25047727589877961 -0.018083406483951889 0 -0.26706375607489607 -0.02305182566933818 0 -0.25913701692696678 -0.04237224144655493 0 -0.26547665563961409 -0.012414552080823279 0 -0.26706375607489607 -0.02305182566933818 0 -0.27391638239404742 -0.01592739725273196 0 -0.26706375607489607 -0.02305182566933818 0 -0.27391638239404742 -0.01592739725273196 0 -0.27927559462723461 -0.02189264659009307 0 -0.27391638239404742 -0.01592739725273196 0 -0.27858345254434752 -0.016897329886341631 0 -0.27927559462723461 -0.02189264659009307 0 -0.27391638239404742 -0.01592739725273196 0 -0.27858345254434752 -0.016897329886341631 0 -0.2795264387764933 -0.014280135555954841 0 -0.27858345254434752 -0.016897329886341631 0 -0.27927559462723461 -0.02189264659009307 0 -0.28180790798364252 -0.017355551522757771 0 -0.27858345254434752 -0.016897329886341631 0 -0.2795264387764933 -0.014280135555954841 0 -0.28180790798364252 -0.017355551522757771 0 -0.27927559462723461 -0.02189264659009307 0 -0.28296894031948983 -0.026936026249457779 0 -0.27466119391398602 -0.031417258307971437 0 -0.28296894031948983 -0.026936026249457779 0 -0.28360240243032447 -0.033781630432129957 0 -0.27466119391398602 -0.031417258307971437 0 -0.26706375607489607 -0.02305182566933818 0 -0.27927559462723461 -0.02189264659009307 0 -0.27466119391398602 -0.031417258307971437 0 -0.27946948584104619 -0.0089493605764560478 0 -0.25641909062978541 0.00032834929142378817 0 -0.26547665563961409 -0.012414552080823279 0 -0.27946948584104619 -0.0089493605764560478 0 -0.25641909062978541 0.00032834929142378817 0 -0.26547665563961409 -0.012414552080823279 0 -0.27391638239404742 -0.01592739725273196 0 -0.27946948584104619 -0.0089493605764560478 0 -0.27391638239404742 -0.01592739725273196 0 -0.2795264387764933 -0.014280135555954841 0 -0.27946948584104619 -0.0089493605764560478 0 -0.2795264387764933 -0.014280135555954841 0 -0.27946948584104619 -0.0089493605764560478 0 -0.28187768068121499 -0.01410825428416216 0 -0.2795264387764933 -0.014280135555954841 0 -0.28187768068121499 -0.01410825428416216 0 -0.28180790798364252 -0.017355551522757771 0 -0.27946948584104619 -0.0089493605764560478 0 -0.2910107240562656 -0.017109016951740819 0 -0.30334750018806739 -0.020812326535607242 0 -0.27946948584104619 -0.0089493605764560478 0 -0.30334750018806739 -0.020812326535607242 0 -0.27946948584104619 -0.0089493605764560478 0 -0.30251988105230709 -0.018227070444335799 0 -0.27946948584104619 -0.0089493605764560478 0 -0.30251988105230709 -0.018227070444335799 0 -0.30088490035534832 0.0002042146101533974 0 -0.27946948584104619 -0.0089493605764560478 0 -0.28472407489267632 -0.01489755627619942 0 -0.2910107240562656 -0.017109016951740819 0 -0.27946948584104619 -0.0089493605764560478 0 -0.28472407489267632 -0.01489755627619942 0 -0.28187768068121499 -0.01410825428416216 0 -0.28472407489267632 -0.01489755627619942 0 -0.28187768068121499 -0.01410825428416216 0 -0.28180790798364252 -0.017355551522757771 0 -0.28180790798364252 -0.017355551522757771 0 -0.2840042967928102 -0.021304294450035469 0 -0.28519042644937093 -0.017754218914387079 0 -0.27946948584104619 -0.0089493605764560478 0 -0.30251988105230709 -0.018227070444335799 0 -0.30334750018806739 -0.020812326535607242 0 -0.28472407489267632 -0.01489755627619942 0 -0.28180790798364252 -0.017355551522757771 0 -0.28519042644937093 -0.017754218914387079 0 -0.27927559462723461 -0.02189264659009307 0 -0.28180790798364252 -0.017355551522757771 0 -0.2840042967928102 -0.021304294450035469 0 -0.27927559462723461 -0.02189264659009307 0 -0.2840042967928102 -0.021304294450035469 0 -0.28296894031948983 -0.026936026249457779 0 -0.28792150924513232 -0.01946200142157235 0 -0.28812526344075151 -0.023574702716831021 0 -0.28992374849023111 -0.020577056164351348 0 -0.2840042967928102 -0.021304294450035469 0 -0.28792150924513232 -0.01946200142157235 0 -0.28812526344075151 -0.023574702716831021 0 -0.28472407489267632 -0.01489755627619942 0 -0.2873071509334626 -0.017270190028012649 0 -0.2910107240562656 -0.017109016951740819 0 -0.2840042967928102 -0.021304294450035469 0 -0.28792150924513232 -0.01946200142157235 0 -0.28519042644937093 -0.017754218914387079 0 -0.28792150924513232 -0.01946200142157235 0 -0.2873071509334626 -0.017270190028012649 0 -0.2910107240562656 -0.017109016951740819 0 -0.28472407489267632 -0.01489755627619942 0 -0.2873071509334626 -0.017270190028012649 0 -0.28519042644937093 -0.017754218914387079 0 -0.28792150924513232 -0.01946200142157235 0 -0.2873071509334626 -0.017270190028012649 0 -0.28519042644937093 -0.017754218914387079 0 -0.28296894031948983 -0.026936026249457779 0 -0.28879248232478949 -0.029046845752205609 0 -0.28360240243032447 -0.033781630432129957 0 -0.2840042967928102 -0.021304294450035469 0 -0.28296894031948983 -0.026936026249457779 0 -0.28812526344075151 -0.023574702716831021 0 -0.28296894031948983 -0.026936026249457779 0 -0.28812526344075151 -0.023574702716831021 0 -0.28879248232478949 -0.029046845752205609 0 -0.28879248232478949 -0.029046845752205609 0 -0.29379755564536031 -0.027970602340212789 0 -0.29387810737692882 -0.035738035671961647 0 -0.28879248232478949 -0.029046845752205609 0 -0.29083819965741908 -0.025688663594127661 0 -0.29379755564536031 -0.027970602340212789 0 -0.28812526344075151 -0.023574702716831021 0 -0.29083819965741908 -0.025688663594127661 0 -0.29263749721877502 -0.022162503567261221 0 -0.29083819965741908 -0.025688663594127661 0 -0.29379755564536031 -0.027970602340212789 0 -0.29263749721877502 -0.022162503567261221 0 -0.28812526344075151 -0.023574702716831021 0 -0.28879248232478949 -0.029046845752205609 0 -0.29083819965741908 -0.025688663594127661 0 -0.29379755564536031 -0.027970602340212789 0 -0.29263749721877502 -0.022162503567261221 0 -0.29745279926728729 -0.023466743277470899 0 -0.29379755564536031 -0.027970602340212789 0 -0.29939801503998797 -0.02863993638204515 0 -0.29387810737692882 -0.035738035671961647 0 -0.28792150924513232 -0.01946200142157235 0 -0.2910107240562656 -0.017109016951740819 0 -0.28992374849023111 -0.020577056164351348 0 -0.28812526344075151 -0.023574702716831021 0 -0.28992374849023111 -0.020577056164351348 0 -0.29263749721877502 -0.022162503567261221 0 -0.2910107240562656 -0.017109016951740819 0 -0.28992374849023111 -0.020577056164351348 0 -0.29263749721877502 -0.022162503567261221 0 -0.2910107240562656 -0.017109016951740819 0 -0.29263749721877502 -0.022162503567261221 0 -0.29745279926728729 -0.023466743277470899 0 -0.30251988105230709 -0.018227070444335799 0 -0.30334750018806739 -0.020812326535607242 0 -0.32557027626356833 -0.027504780312214719 0 -0.2910107240562656 -0.017109016951740819 0 -0.30334750018806739 -0.020812326535607242 0 -0.29745279926728729 -0.023466743277470899 0 -0.30334750018806739 -0.020812326535607242 0 -0.30664060963266238 -0.032753004461773559 0 -0.32557027626356833 -0.027504780312214719 0 -0.30334750018806739 -0.020812326535607242 0 -0.29939801503998797 -0.02863993638204515 0 -0.29745279926728729 -0.023466743277470899 0 -0.30334750018806739 -0.020812326535607242 0 -0.29939801503998797 -0.02863993638204515 0 -0.30664060963266238 -0.032753004461773559 0 -0.29379755564536031 -0.027970602340212789 0 -0.29939801503998797 -0.02863993638204515 0 -0.29745279926728729 -0.023466743277470899 0 -0.30251988105230709 -0.018227070444335799 0 -0.32820792537928828 -0.0011953754489517771 0 -0.30088490035534832 0.0002042146101533974 0 -0.29892207375701929 -0.056545861870611371 0 -0.3027352429589022 -0.042830482768427443 0 -0.29191714010660841 -0.04769715101477634 0 -0.29892207375701929 -0.056545861870611371 0 -0.30964460327576121 -0.050594734016377367 0 -0.3027352429589022 -0.042830482768427443 0 -0.29892207375701929 -0.056545861870611371 0 -0.30964460327576121 -0.050594734016377367 0 -0.30976335739671618 -0.063851904854223332 0 -0.30964460327576121 -0.050594734016377367 0 -0.3027352429589022 -0.042830482768427443 0 -0.31337442049738401 -0.040871584237787917 0 -0.30664060963266238 -0.032753004461773559 0 -0.3027352429589022 -0.042830482768427443 0 -0.31337442049738401 -0.040871584237787917 0 -0.30664060963266238 -0.032753004461773559 0 -0.3027352429589022 -0.042830482768427443 0 -0.29387810737692882 -0.035738035671961647 0 -0.29939801503998797 -0.02863993638204515 0 -0.30664060963266238 -0.032753004461773559 0 -0.29387810737692882 -0.035738035671961647 0 -0.3027352429589022 -0.042830482768427443 0 -0.29387810737692882 -0.035738035671961647 0 -0.29191714010660841 -0.04769715101477634 0 -0.29387810737692882 -0.035738035671961647 0 -0.28514400444389892 -0.042254742678301579 0 -0.29191714010660841 -0.04769715101477634 0 -0.29387810737692882 -0.035738035671961647 0 -0.28360240243032447 -0.033781630432129957 0 -0.28514400444389892 -0.042254742678301579 0 -0.28879248232478949 -0.029046845752205609 0 -0.29387810737692882 -0.035738035671961647 0 -0.28360240243032447 -0.033781630432129957 0 -0.28360240243032447 -0.033781630432129957 0 -0.28514400444389892 -0.042254742678301579 0 -0.27591848131576951 -0.043123917890202229 0 -0.29892207375701929 -0.056545861870611371 0 -0.29191714010660841 -0.04769715101477634 0 -0.28228317651740059 -0.05524394694840401 0 -0.28514400444389892 -0.042254742678301579 0 -0.29191714010660841 -0.04769715101477634 0 -0.28228317651740059 -0.05524394694840401 0 -0.29892207375701929 -0.056545861870611371 0 -0.28228317651740059 -0.05524394694840401 0 -0.30071319464830681 -0.073427947688242054 0 -0.28228317651740059 -0.05524394694840401 0 -0.27041677150668969 -0.053871861383703881 0 -0.27314401378912639 -0.059668629961804123 0 -0.27041677150668969 -0.053871861383703881 0 -0.25913701692696678 -0.04237224144655493 0 -0.26779675795515379 -0.066661076409157971 0 -0.28228317651740059 -0.05524394694840401 0 -0.27314401378912639 -0.059668629961804123 0 -0.27691463979883679 -0.064840172245459557 0 -0.28228317651740059 -0.05524394694840401 0 -0.27041677150668969 -0.053871861383703881 0 -0.27591848131576951 -0.043123917890202229 0 -0.27041677150668969 -0.053871861383703881 0 -0.27314401378912639 -0.059668629961804123 0 -0.26779675795515379 -0.066661076409157971 0 -0.27041677150668969 -0.053871861383703881 0 -0.27591848131576951 -0.043123917890202229 0 -0.25913701692696678 -0.04237224144655493 0 -0.27466119391398602 -0.031417258307971437 0 -0.27591848131576951 -0.043123917890202229 0 -0.25913701692696678 -0.04237224144655493 0 -0.26706375607489607 -0.02305182566933818 0 -0.27466119391398602 -0.031417258307971437 0 -0.25913701692696678 -0.04237224144655493 0 -0.28360240243032447 -0.033781630432129957 0 -0.27466119391398602 -0.031417258307971437 0 -0.27591848131576951 -0.043123917890202229 0 -0.28514400444389892 -0.042254742678301579 0 -0.28228317651740059 -0.05524394694840401 0 -0.27591848131576951 -0.043123917890202229 0 -0.25047727589877961 -0.018083406483951889 0 -0.25913701692696678 -0.04237224144655493 0 -0.25274871543324229 -0.040262454826351032 0 -0.25274871543324229 -0.040262454826351032 0 -0.26196601882947529 -0.068135092720586848 0 -0.25913701692696678 -0.04237224144655493 0 -0.26196601882947529 -0.068135092720586848 0 -0.26779675795515379 -0.066661076409157971 0 -0.25913701692696678 -0.04237224144655493 0 -0.26779675795515379 -0.066661076409157971 0 -0.25913701692696678 -0.04237224144655493 0 -0.25274871543324229 -0.040262454826351032 0 -0.26196601882947529 -0.068135092720586848 0 -0.24795936685807909 -0.051623353783005498 0 -0.25274871543324229 -0.040262454826351032 0 -0.25214428948763068 -0.057366473879533419 0 -0.25274871543324229 -0.040262454826351032 0 -0.25214428948763068 -0.057366473879533419 0 -0.26196601882947529 -0.068135092720586848 0 -0.2476376345288728 -0.059784291297487441 0 -0.25214428948763068 -0.057366473879533419 0 -0.2522119815795939 -0.063233152680473761 0 -0.24747569534767619 -0.06818122514798429 0 -0.24445130265662901 -0.0725628293715396 0 -0.26196601882947529 -0.068135092720586848 0 -0.24445130265662901 -0.0725628293715396 0 -0.26196601882947529 -0.068135092720586848 0 -0.25524330975025311 -0.085725418028175016 0 -0.25214428948763068 -0.057366473879533419 0 -0.2522119815795939 -0.063233152680473761 0 -0.26196601882947529 -0.068135092720586848 0 -0.24747569534767619 -0.06818122514798429 0 -0.2522119815795939 -0.063233152680473761 0 -0.26196601882947529 -0.068135092720586848 0 -0.24445130265662901 -0.0725628293715396 0 -0.26196601882947529 -0.068135092720586848 0 -0.26196601882947529 -0.068135092720586848 0 -0.26779675795515379 -0.066661076409157971 0 -0.26196601882947529 -0.068135092720586848 0 -0.25524330975025311 -0.085725418028175016 0 -0.27115339304155128 -0.095917226345122827 0 -0.24264739451557499 -0.090167371608419505 0 -0.25524330975025311 -0.085725418028175016 0 -0.25599843970803449 -0.1018445700952066 0 -0.26196601882947529 -0.068135092720586848 0 -0.27451263057639469 -0.081859544537075141 0 -0.27115339304155128 -0.095917226345122827 0 -0.26196601882947529 -0.068135092720586848 0 -0.27115339304155128 -0.095917226345122827 0 -0.27451263057639469 -0.081859544537075141 0 -0.27115339304155128 -0.095917226345122827 0 -0.28626050389826219 -0.090008594550089221 0 -0.27115339304155128 -0.095917226345122827 0 -0.28626050389826219 -0.090008594550089221 0 -0.27451263057639469 -0.081859544537075141 0 -0.28247750447586489 -0.078548696871110685 0 -0.28626050389826219 -0.090008594550089221 0 -0.27451263057639469 -0.081859544537075141 0 -0.27551560806759351 -0.074752029615988244 0 -0.28247750447586489 -0.078548696871110685 0 -0.27551560806759351 -0.074752029615988244 0 -0.27892643619084601 -0.071363165263633482 0 -0.28247750447586489 -0.078548696871110685 0 -0.27551560806759351 -0.074752029615988244 0 -0.27892643619084601 -0.071363165263633482 0 -0.27412240573921909 -0.069645788228662991 0 -0.27892643619084601 -0.071363165263633482 0 -0.27691463979883679 -0.064840172245459557 0 -0.28515460976880752 -0.067781910937067077 0 -0.27314401378912639 -0.059668629961804123 0 -0.27691463979883679 -0.064840172245459557 0 -0.2712492367799505 -0.065788286529019024 0 -0.27691463979883679 -0.064840172245459557 0 -0.27412240573921909 -0.069645788228662991 0 -0.2712492367799505 -0.065788286529019024 0 -0.27892643619084601 -0.071363165263633482 0 -0.27691463979883679 -0.064840172245459557 0 -0.27412240573921909 -0.069645788228662991 0 -0.27412240573921909 -0.069645788228662991 0 -0.2712492367799505 -0.065788286529019024 0 -0.26958098904207972 -0.071665486386826585 0 -0.2712492367799505 -0.065788286529019024 0 -0.26779675795515379 -0.066661076409157971 0 -0.26958098904207972 -0.071665486386826585 0 -0.27314401378912639 -0.059668629961804123 0 -0.2712492367799505 -0.065788286529019024 0 -0.26779675795515379 -0.066661076409157971 0 -0.2712492367799505 -0.065788286529019024 0 -0.26779675795515379 -0.066661076409157971 0 -0.26779675795515379 -0.066661076409157971 0 -0.26958098904207972 -0.071665486386826585 0 -0.26196601882947529 -0.068135092720586848 0 -0.26779675795515379 -0.066661076409157971 0 -0.26958098904207972 -0.071665486386826585 0 -0.26196601882947529 -0.068135092720586848 0 -0.27451263057639469 -0.081859544537075141 0 -0.26958098904207972 -0.071665486386826585 0 -0.27451263057639469 -0.081859544537075141 0 -0.27551560806759351 -0.074752029615988244 0 -0.26958098904207972 -0.071665486386826585 0 -0.27551560806759351 -0.074752029615988244 0 -0.27412240573921909 -0.069645788228662991 0 -0.26958098904207972 -0.071665486386826585 0 -0.25154060515602011 -0.123099588568314 0 -0.26482772694123391 -0.1180519946548949 0 -0.26789248509332392 -0.13219347803423689 0 -0.26482772694123391 -0.1180519946548949 0 -0.25599843970803449 -0.1018445700952066 0 -0.26755194007276872 -0.1082812153138541 0 -0.25154060515602011 -0.123099588568314 0 -0.26482772694123391 -0.1180519946548949 0 -0.25599843970803449 -0.1018445700952066 0 -0.25524330975025311 -0.085725418028175016 0 -0.25599843970803449 -0.1018445700952066 0 -0.27115339304155128 -0.095917226345122827 0 -0.25599843970803449 -0.1018445700952066 0 -0.27115339304155128 -0.095917226345122827 0 -0.26755194007276872 -0.1082812153138541 0 -0.25599843970803449 -0.1018445700952066 0 -0.27115339304155128 -0.095917226345122827 0 -0.27115339304155128 -0.095917226345122827 0 -0.27822820060025522 -0.117311070160192 0 -0.27115339304155128 -0.095917226345122827 0 -0.27822820060025522 -0.117311070160192 0 -0.28758713184570028 -0.1036046721401728 0 -0.27115339304155128 -0.095917226345122827 0 -0.26755194007276872 -0.1082812153138541 0 -0.27822820060025522 -0.117311070160192 0 -0.26482772694123391 -0.1180519946548949 0 -0.26755194007276872 -0.1082812153138541 0 -0.27822820060025522 -0.117311070160192 0 -0.27822820060025522 -0.117311070160192 0 -0.2830406125105458 -0.13186354921043869 0 -0.26482772694123391 -0.1180519946548949 0 -0.27822820060025522 -0.117311070160192 0 -0.26789248509332392 -0.13219347803423689 0 -0.26482772694123391 -0.1180519946548949 0 -0.27822820060025522 -0.117311070160192 0 -0.27822820060025522 -0.117311070160192 0 -0.28758713184570028 -0.1036046721401728 0 -0.30187316750793808 -0.1160278182659422 0 -0.27822820060025522 -0.117311070160192 0 -0.30187316750793808 -0.1160278182659422 0 -0.27822820060025522 -0.117311070160192 0 -0.30187316750793808 -0.1160278182659422 0 -0.29486309596438842 -0.13122192326331369 0 -0.27115339304155128 -0.095917226345122827 0 -0.28758713184570028 -0.1036046721401728 0 -0.28626050389826219 -0.090008594550089221 0 -0.28758713184570028 -0.1036046721401728 0 -0.30042172263264788 -0.098782677968210636 0 -0.30187316750793808 -0.1160278182659422 0 -0.28758713184570028 -0.1036046721401728 0 -0.30042172263264788 -0.098782677968210636 0 -0.28626050389826219 -0.090008594550089221 0 -0.30042172263264788 -0.098782677968210636 0 -0.30955430613032647 -0.1053944747394117 0 -0.31914321277921232 -0.091611948428080639 0 -0.30042172263264788 -0.098782677968210636 0 -0.30955430613032647 -0.1053944747394117 0 -0.30187316750793808 -0.1160278182659422 0 -0.30187316750793808 -0.1160278182659422 0 -0.3167804500536624 -0.1151794808841065 0 -0.31518947459245278 -0.13104877042951341 0 -0.30187316750793808 -0.1160278182659422 0 -0.3167804500536624 -0.1151794808841065 0 -0.30955430613032647 -0.1053944747394117 0 -0.30187316750793808 -0.1160278182659422 0 -0.3167804500536624 -0.1151794808841065 0 -0.30187316750793808 -0.1160278182659422 0 -0.29486309596438842 -0.13122192326331369 0 -0.28228317651740059 -0.05524394694840401 0 -0.30071319464830681 -0.073427947688242054 0 -0.28228317651740059 -0.05524394694840401 0 -0.28515460976880752 -0.067781910937067077 0 -0.30071319464830681 -0.073427947688242054 0 -0.28693560168864718 -0.07403432253959627 0 -0.29271424643344601 -0.079274524720281819 0 -0.30071319464830681 -0.073427947688242054 0 -0.28515460976880752 -0.067781910937067077 0 -0.28693560168864718 -0.07403432253959627 0 -0.30071319464830681 -0.073427947688242054 0 -0.28228317651740059 -0.05524394694840401 0 -0.27691463979883679 -0.064840172245459557 0 -0.28515460976880752 -0.067781910937067077 0 -0.27892643619084601 -0.071363165263633482 0 -0.28693560168864718 -0.07403432253959627 0 -0.28247750447586489 -0.078548696871110685 0 -0.28693560168864718 -0.07403432253959627 0 -0.28247750447586489 -0.078548696871110685 0 -0.29271424643344601 -0.079274524720281819 0 -0.27892643619084601 -0.071363165263633482 0 -0.28515460976880752 -0.067781910937067077 0 -0.28693560168864718 -0.07403432253959627 0 -0.28247750447586489 -0.078548696871110685 0 -0.28626050389826219 -0.090008594550089221 0 -0.29271424643344601 -0.079274524720281819 0 -0.28626050389826219 -0.090008594550089221 0 -0.30136761475497659 -0.084099962755064817 0 -0.30042172263264788 -0.098782677968210636 0 -0.28626050389826219 -0.090008594550089221 0 -0.30136761475497659 -0.084099962755064817 0 -0.28626050389826219 -0.090008594550089221 0 -0.29271424643344601 -0.079274524720281819 0 -0.30136761475497659 -0.084099962755064817 0 -0.30071319464830681 -0.073427947688242054 0 -0.31914321277921232 -0.091611948428080639 0 -0.30136761475497659 -0.084099962755064817 0 -0.30071319464830681 -0.073427947688242054 0 -0.31914321277921232 -0.091611948428080639 0 -0.29271424643344601 -0.079274524720281819 0 -0.30136761475497659 -0.084099962755064817 0 -0.30071319464830681 -0.073427947688242054 0 -0.30042172263264788 -0.098782677968210636 0 -0.30136761475497659 -0.084099962755064817 0 -0.31914321277921232 -0.091611948428080639 0 -0.30071319464830681 -0.073427947688242054 0 -0.30976335739671618 -0.063851904854223332 0 -0.32128556727399782 -0.070242892389458661 0 -0.29892207375701929 -0.056545861870611371 0 -0.30071319464830681 -0.073427947688242054 0 -0.30976335739671618 -0.063851904854223332 0 -0.32128556727399782 -0.070242892389458661 0 -0.31914321277921232 -0.091611948428080639 0 -0.33842395447595058 -0.079845887254301293 0 -0.30071319464830681 -0.073427947688242054 0 -0.32128556727399782 -0.070242892389458661 0 -0.31914321277921232 -0.091611948428080639 0 -0.32128556727399782 -0.070242892389458661 0 -0.31914321277921232 -0.091611948428080639 0 -0.31914321277921232 -0.091611948428080639 0 -0.33517373031081232 -0.093592952384820349 0 -0.33842395447595058 -0.079845887254301293 0 -0.33517373031081232 -0.093592952384820349 0 -0.33842395447595058 -0.079845887254301293 0 -0.3464362396632919 -0.093313816518739726 0 -0.32128556727399782 -0.070242892389458661 0 -0.33842395447595058 -0.079845887254301293 0 -0.33702738461003928 -0.063162121748731481 0 -0.33842395447595058 -0.079845887254301293 0 -0.33702738461003928 -0.063162121748731481 0 -0.35294369278348059 -0.071062110634696682 0 -0.3167804500536624 -0.1151794808841065 0 -0.32991535187108162 -0.12272785173335 0 -0.31518947459245278 -0.13104877042951341 0 -0.3167804500536624 -0.1151794808841065 0 -0.31518947459245278 -0.13104877042951341 0 -0.31914321277921232 -0.091611948428080639 0 -0.3167804500536624 -0.1151794808841065 0 -0.31914321277921232 -0.091611948428080639 0 -0.3167804500536624 -0.1151794808841065 0 -0.330389946746251 -0.10270855274635959 0 -0.30955430613032647 -0.1053944747394117 0 -0.31914321277921232 -0.091611948428080639 0 -0.3167804500536624 -0.1151794808841065 0 -0.31914321277921232 -0.091611948428080639 0 -0.330389946746251 -0.10270855274635959 0 -0.31914321277921232 -0.091611948428080639 0 -0.33517373031081232 -0.093592952384820349 0 -0.330389946746251 -0.10270855274635959 0 -0.33517373031081232 -0.093592952384820349 0 -0.34189994410879221 -0.1033843965320537 0 -0.330389946746251 -0.10270855274635959 0 -0.33517373031081232 -0.093592952384820349 0 -0.34189994410879221 -0.1033843965320537 0 -0.3464362396632919 -0.093313816518739726 0 -0.34189994410879221 -0.1033843965320537 0 -0.330389946746251 -0.10270855274635959 0 -0.34163668071328968 -0.1138051570646387 0 -0.330389946746251 -0.10270855274635959 0 -0.34163668071328968 -0.1138051570646387 0 -0.3167804500536624 -0.1151794808841065 0 -0.330389946746251 -0.10270855274635959 0 -0.34163668071328968 -0.1138051570646387 0 -0.3167804500536624 -0.1151794808841065 0 -0.34163668071328968 -0.1138051570646387 0 -0.3167804500536624 -0.1151794808841065 0 -0.34163668071328968 -0.1138051570646387 0 -0.32991535187108162 -0.12272785173335 0 -0.34189994410879221 -0.1033843965320537 0 -0.34163668071328968 -0.1138051570646387 0 -0.34636974593528452 -0.1135434615419834 0 -0.34163668071328968 -0.1138051570646387 0 -0.32991535187108162 -0.12272785173335 0 -0.34211355484634348 -0.12519859365202529 0 -0.35706381250868918 -0.1112592778992266 0 -0.35507663473732698 -0.1332182447844375 0 -0.35429340554841282 -0.12629293065938479 0 -0.35706381250868918 -0.1112592778992266 0 -0.35507663473732698 -0.1332182447844375 0 -0.34163668071328968 -0.1138051570646387 0 -0.34211355484634348 -0.12519859365202529 0 -0.35429340554841282 -0.12629293065938479 0 -0.34163668071328968 -0.1138051570646387 0 -0.34636974593528452 -0.1135434615419834 0 -0.35429340554841282 -0.12629293065938479 0 -0.34163668071328968 -0.1138051570646387 0 -0.35429340554841282 -0.12629293065938479 0 -0.34163668071328968 -0.1138051570646387 0 -0.34636974593528452 -0.1135434615419834 0 -0.34636974593528452 -0.1135434615419834 0 -0.35706381250868918 -0.1112592778992266 0 -0.35139332128382428 -0.1033424389357801 0 -0.34636974593528452 -0.1135434615419834 0 -0.35706381250868918 -0.1112592778992266 0 -0.35429340554841282 -0.12629293065938479 0 -0.35706381250868918 -0.1112592778992266 0 -0.35931795280354939 -0.1030580158459256 0 -0.35139332128382428 -0.1033424389357801 0 -0.34189994410879221 -0.1033843965320537 0 -0.34636974593528452 -0.1135434615419834 0 -0.35139332128382428 -0.1033424389357801 0 -0.34189994410879221 -0.1033843965320537 0 -0.35139332128382428 -0.1033424389357801 0 -0.3464362396632919 -0.093313816518739726 0 -0.35139332128382428 -0.1033424389357801 0 -0.3588946105467013 -0.094876163824527293 0 -0.3464362396632919 -0.093313816518739726 0 -0.35931795280354939 -0.1030580158459256 0 -0.35139332128382428 -0.1033424389357801 0 -0.3588946105467013 -0.094876163824527293 0 -0.36806550003891769 -0.11711827369180119 0 -0.38105436534050829 -0.10101830259916469 0 -0.36807696853404392 -0.1038380707936304 0 -0.36806550003891769 -0.11711827369180119 0 -0.38105436534050829 -0.10101830259916469 0 -0.3588946105467013 -0.094876163824527293 0 -0.36807696853404392 -0.1038380707936304 0 -0.37029364707931228 -0.092352390776046844 0 -0.35931795280354939 -0.1030580158459256 0 -0.3588946105467013 -0.094876163824527293 0 -0.36807696853404392 -0.1038380707936304 0 -0.36807696853404392 -0.1038380707936304 0 -0.37029364707931228 -0.092352390776046844 0 -0.38105436534050829 -0.10101830259916469 0 -0.35706381250868918 -0.1112592778992266 0 -0.35931795280354939 -0.1030580158459256 0 -0.36807696853404392 -0.1038380707936304 0 -0.36806550003891769 -0.11711827369180119 0 -0.36918338689671398 -0.1205818143586764 0 -0.35507663473732698 -0.1332182447844375 0 -0.35706381250868918 -0.1112592778992266 0 -0.36806550003891769 -0.11711827369180119 0 -0.35507663473732698 -0.1332182447844375 0 -0.35706381250868918 -0.1112592778992266 0 -0.36807696853404392 -0.1038380707936304 0 -0.36806550003891769 -0.11711827369180119 0 -0.36806550003891769 -0.11711827369180119 0 -0.36918338689671398 -0.1205818143586764 0 -0.38351095757570047 -0.1055052667831399 0 -0.33702738461003928 -0.063162121748731481 0 -0.35294369278348059 -0.071062110634696682 0 -0.34818031289774409 -0.058409206793291313 0 -0.35294369278348059 -0.071062110634696682 0 -0.35883637073067248 -0.059157197418011738 0 -0.34818031289774409 -0.058409206793291313 0 -0.33842395447595058 -0.079845887254301293 0 -0.3464362396632919 -0.093313816518739726 0 -0.3521248370447726 -0.084192268483566146 0 -0.33842395447595058 -0.079845887254301293 0 -0.35294369278348059 -0.071062110634696682 0 -0.3521248370447726 -0.084192268483566146 0 -0.3588946105467013 -0.094876163824527293 0 -0.3464362396632919 -0.093313816518739726 0 -0.3521248370447726 -0.084192268483566146 0 -0.3588946105467013 -0.094876163824527293 0 -0.3521248370447726 -0.084192268483566146 0 -0.36392568775443862 -0.08186336418556571 0 -0.35294369278348059 -0.071062110634696682 0 -0.3521248370447726 -0.084192268483566146 0 -0.36392568775443862 -0.08186336418556571 0 -0.3588946105467013 -0.094876163824527293 0 -0.36392568775443862 -0.08186336418556571 0 -0.37029364707931228 -0.092352390776046844 0 -0.36392568775443862 -0.08186336418556571 0 -0.37029364707931228 -0.092352390776046844 0 -0.37823644080673863 -0.080692911399009873 0 -0.35294369278348059 -0.071062110634696682 0 -0.36392568775443862 -0.08186336418556571 0 -0.36873537574042969 -0.069745815800592831 0 -0.36873537574042969 -0.069745815800592831 0 -0.372961924037777 -0.055880556014879748 0 -0.37823644080673863 -0.080692911399009873 0 -0.35294369278348059 -0.071062110634696682 0 -0.36873537574042969 -0.069745815800592831 0 -0.35883637073067248 -0.059157197418011738 0 -0.36392568775443862 -0.08186336418556571 0 -0.36873537574042969 -0.069745815800592831 0 -0.37823644080673863 -0.080692911399009873 0 -0.36873537574042969 -0.069745815800592831 0 -0.36684408127074303 -0.061592472921674857 0 -0.35883637073067248 -0.059157197418011738 0 -0.36873537574042969 -0.069745815800592831 0 -0.372961924037777 -0.055880556014879748 0 -0.36684408127074303 -0.061592472921674857 0 -0.372961924037777 -0.055880556014879748 0 -0.36195271936537188 -0.049121191869211392 0 -0.36684408127074303 -0.061592472921674857 0 -0.36195271936537188 -0.049121191869211392 0 -0.36684408127074303 -0.061592472921674857 0 -0.35883637073067248 -0.059157197418011738 0 -0.35883637073067248 -0.059157197418011738 0 -0.3497643088680718 -0.047845021293246463 0 -0.34818031289774409 -0.058409206793291313 0 -0.36195271936537188 -0.049121191869211392 0 -0.35883637073067248 -0.059157197418011738 0 -0.3497643088680718 -0.047845021293246463 0 -0.3497643088680718 -0.047845021293246463 0 -0.34818031289774409 -0.058409206793291313 0 -0.33865390455309369 -0.049557638570889032 0 -0.35466969981362462 -0.038754701355536603 0 -0.36768740726881549 -0.03106820063074963 0 -0.3512018318656514 -0.027652520262264581 0 -0.35466969981362462 -0.038754701355536603 0 -0.3512018318656514 -0.027652520262264581 0 -0.34274223170021217 -0.038086572722210922 0 -0.3512018318656514 -0.027652520262264581 0 -0.341918371705558 -0.02828791986998223 0 -0.34274223170021217 -0.038086572722210922 0 -0.3497643088680718 -0.047845021293246463 0 -0.35466969981362462 -0.038754701355536603 0 -0.34274223170021217 -0.038086572722210922 0 -0.36195271936537188 -0.049121191869211392 0 -0.3497643088680718 -0.047845021293246463 0 -0.35466969981362462 -0.038754701355536603 0 -0.372961924037777 -0.055880556014879748 0 -0.37435476911897531 -0.046676356823293567 0 -0.36768740726881549 -0.03106820063074963 0 -0.372961924037777 -0.055880556014879748 0 -0.36195271936537188 -0.049121191869211392 0 -0.36768740726881549 -0.03106820063074963 0 -0.36195271936537188 -0.049121191869211392 0 -0.35466969981362462 -0.038754701355536603 0 -0.36768740726881549 -0.03106820063074963 0 -0.372961924037777 -0.055880556014879748 0 -0.36768740726881549 -0.03106820063074963 0 -0.37435476911897531 -0.046676356823293567 0 -0.36768740726881549 -0.03106820063074963 0 -0.3788695889919827 -0.035214426459559557 0 -0.36768740726881549 -0.03106820063074963 0 -0.36241289049985392 -0.0062558452466195437 0 -0.3512018318656514 -0.027652520262264581 0 -0.36768740726881549 -0.03106820063074963 0 -0.36241289049985392 -0.0062558452466195437 0 -0.36768740726881549 -0.03106820063074963 0 -0.37792324328799282 -0.023668158184560681 0 -0.3788695889919827 -0.035214426459559557 0 -0.36768740726881549 -0.03106820063074963 0 -0.36241289049985392 -0.0062558452466195437 0 -0.37792324328799282 -0.023668158184560681 0 -0.36241289049985392 -0.0062558452466195437 0 -0.34115950104333043 -0.01709047122208561 0 -0.34422902683036433 0.0071513329548001077 0 -0.36241289049985392 -0.0062558452466195437 0 -0.3512018318656514 -0.027652520262264581 0 -0.34115950104333043 -0.01709047122208561 0 -0.3512018318656514 -0.027652520262264581 0 -0.341918371705558 -0.02828791986998223 0 -0.34115950104333043 -0.01709047122208561 0 -0.341918371705558 -0.02828791986998223 0 -0.34115950104333043 -0.01709047122208561 0 -0.33256992221303788 -0.030322115273367822 0 -0.34115950104333043 -0.01709047122208561 0 -0.33256992221303788 -0.030322115273367822 0 -0.32557027626356833 -0.027504780312214719 0 -0.33256992221303788 -0.030322115273367822 0 -0.32557027626356833 -0.027504780312214719 0 -0.34115950104333043 -0.01709047122208561 0 -0.32820792537928828 -0.0011953754489517771 0 -0.32557027626356833 -0.027504780312214719 0 -0.34115950104333043 -0.01709047122208561 0 -0.32820792537928828 -0.0011953754489517771 0 -0.34422902683036433 0.0071513329548001077 0 -0.32820792537928828 -0.0011953754489517771 0 -0.32557027626356833 -0.027504780312214719 0 -0.30251988105230709 -0.018227070444335799 0 -0.32820792537928828 -0.0011953754489517771 0 -0.32557027626356833 -0.027504780312214719 0 -0.30251988105230709 -0.018227070444335799 0 -0.32557027626356833 -0.027504780312214719 0 -0.32557027626356833 -0.027504780312214719 0 -0.3234279217687846 -0.048873836350836843 0 -0.32557027626356833 -0.027504780312214719 0 -0.3234279217687846 -0.048873836350836843 0 -0.33207525592087439 -0.039469012609079153 0 -0.32557027626356833 -0.027504780312214719 0 -0.31337442049738401 -0.040871584237787917 0 -0.3234279217687846 -0.048873836350836843 0 -0.30664060963266238 -0.032753004461773559 0 -0.32557027626356833 -0.027504780312214719 0 -0.31337442049738401 -0.040871584237787917 0 -0.30964460327576121 -0.050594734016377367 0 -0.31337442049738401 -0.040871584237787917 0 -0.3234279217687846 -0.048873836350836843 0 -0.30976335739671618 -0.063851904854223332 0 -0.32128556727399782 -0.070242892389458661 0 -0.3234279217687846 -0.048873836350836843 0 -0.32128556727399782 -0.070242892389458661 0 -0.3234279217687846 -0.048873836350836843 0 -0.32128556727399782 -0.070242892389458661 0 -0.33702738461003928 -0.063162121748731481 0 -0.3234279217687846 -0.048873836350836843 0 -0.30964460327576121 -0.050594734016377367 0 -0.30976335739671618 -0.063851904854223332 0 -0.3234279217687846 -0.048873836350836843 0 -0.33702738461003928 -0.063162121748731481 0 -0.3234279217687846 -0.048873836350836843 0 -0.33865390455309369 -0.049557638570889032 0 -0.33702738461003928 -0.063162121748731481 0 -0.34818031289774409 -0.058409206793291313 0 -0.33865390455309369 -0.049557638570889032 0 -0.33865390455309369 -0.049557638570889032 0 -0.34274223170021217 -0.038086572722210922 0 -0.33207525592087439 -0.039469012609079153 0 -0.3497643088680718 -0.047845021293246463 0 -0.33865390455309369 -0.049557638570889032 0 -0.34274223170021217 -0.038086572722210922 0 -0.341918371705558 -0.02828791986998223 0 -0.33256992221303788 -0.030322115273367822 0 -0.34274223170021217 -0.038086572722210922 0 -0.33256992221303788 -0.030322115273367822 0 -0.32557027626356833 -0.027504780312214719 0 -0.33207525592087439 -0.039469012609079153 0 -0.33256992221303788 -0.030322115273367822 0 -0.34274223170021217 -0.038086572722210922 0 -0.33207525592087439 -0.039469012609079153 0 -0.3234279217687846 -0.048873836350836843 0 -0.33865390455309369 -0.049557638570889032 0 -0.33207525592087439 -0.039469012609079153 0 -0.30093553338960499 -0.25693076209158228 0 -0.30839492602666368 -0.24280208433148109 0 -0.29553499267591848 -0.23576570411026981 0 -0.30839492602666368 -0.24280208433148109 0 -0.29553499267591848 -0.23576570411026981 0 -0.31416865122060439 -0.22599309166184309 0 -0.29553499267591848 -0.23576570411026981 0 -0.29853829591388858 -0.21690303053839571 0 -0.31416865122060439 -0.22599309166184309 0 -0.28574450929501899 -0.2188657179051457 0 -0.29553499267591848 -0.23576570411026981 0 -0.26879418935424132 -0.2288641663578809 0 -0.28574450929501899 -0.2188657179051457 0 -0.29553499267591848 -0.23576570411026981 0 -0.29853829591388858 -0.21690303053839571 0 -0.30093553338960499 -0.25693076209158228 0 -0.29553499267591848 -0.23576570411026981 0 -0.27652474210632749 -0.2467839296031836 0 -0.29553499267591848 -0.23576570411026981 0 -0.27652474210632749 -0.2467839296031836 0 -0.26879418935424132 -0.2288641663578809 0 -0.27652474210632749 -0.2467839296031836 0 -0.2521139508230501 -0.23663709711478501 0 -0.26879418935424132 -0.2288641663578809 0 -0.27652474210632749 -0.2467839296031836 0 -0.2521139508230501 -0.23663709711478501 0 -0.25930047762213199 -0.25626596742101082 0 -0.27652474210632749 -0.2467839296031836 0 -0.2521139508230501 -0.23663709711478501 0 -0.2521139508230501 -0.23663709711478501 0 -0.26879418935424132 -0.2288641663578809 0 -0.255848120369017 -0.215785630207421 0 -0.28574450929501899 -0.2188657179051457 0 -0.26879418935424132 -0.2288641663578809 0 -0.2741525496843184 -0.20886023002261339 0 -0.26879418935424132 -0.2288641663578809 0 -0.2741525496843184 -0.20886023002261339 0 -0.255848120369017 -0.215785630207421 0 -0.2741525496843184 -0.20886023002261339 0 -0.255848120369017 -0.215785630207421 0 -0.2665164217196242 -0.1926624295585091 0 -0.255848120369017 -0.215785630207421 0 -0.2665164217196242 -0.1926624295585091 0 -0.255848120369017 -0.215785630207421 0 -0.2504659962307943 -0.19526348424371451 0 -0.2665164217196242 -0.1926624295585091 0 -0.2741525496843184 -0.20886023002261339 0 -0.2665164217196242 -0.1926624295585091 0 -0.28478498029293198 -0.1913087424964125 0 -0.28478498029293198 -0.1913087424964125 0 -0.30539677562068201 -0.1994674038614572 0 -0.29662490002075942 -0.1729417160610712 0 -0.2741525496843184 -0.20886023002261339 0 -0.28478498029293198 -0.1913087424964125 0 -0.29045597095165809 -0.2057749862215969 0 -0.28478498029293198 -0.1913087424964125 0 -0.29045597095165809 -0.2057749862215969 0 -0.30539677562068201 -0.1994674038614572 0 -0.28574450929501899 -0.2188657179051457 0 -0.2741525496843184 -0.20886023002261339 0 -0.29045597095165809 -0.2057749862215969 0 -0.28574450929501899 -0.2188657179051457 0 -0.29045597095165809 -0.2057749862215969 0 -0.29853829591388858 -0.21690303053839571 0 -0.30539677562068201 -0.1994674038614572 0 -0.31416865122060439 -0.22599309166184309 0 -0.29045597095165809 -0.2057749862215969 0 -0.29853829591388858 -0.21690303053839571 0 -0.30539677562068201 -0.1994674038614572 0 -0.29853829591388858 -0.21690303053839571 0 -0.30539677562068201 -0.1994674038614572 0 -0.31416865122060439 -0.22599309166184309 0 -0.30539677562068201 -0.1994674038614572 0 -0.31102887433170551 -0.18781636808155469 0 -0.30921556785335419 -0.18368446428204119 0 -0.30539677562068201 -0.1994674038614572 0 -0.31319153569733321 -0.19512334783332039 0 -0.31866928751184631 -0.20043099522835869 0 -0.30539677562068201 -0.1994674038614572 0 -0.31102887433170551 -0.18781636808155469 0 -0.31319153569733321 -0.19512334783332039 0 -0.30539677562068201 -0.1994674038614572 0 -0.29662490002075942 -0.1729417160610712 0 -0.30539677562068201 -0.1994674038614572 0 -0.30921556785335419 -0.18368446428204119 0 -0.29662490002075942 -0.1729417160610712 0 -0.30921556785335419 -0.18368446428204119 0 -0.30908401573856098 -0.1684582174070868 0 -0.29662490002075942 -0.1729417160610712 0 -0.30908401573856098 -0.1684582174070868 0 -0.29662490002075942 -0.1729417160610712 0 -0.30086606599805299 -0.15615881514665131 0 -0.30908401573856098 -0.1684582174070868 0 -0.30086606599805299 -0.15615881514665131 0 -0.31064355085012169 -0.15011442837787051 0 -0.29662490002075942 -0.1729417160610712 0 -0.28785302442083771 -0.14641602826068481 0 -0.29662490002075942 -0.1729417160610712 0 -0.27718472307023151 -0.16953922890959719 0 -0.28785302442083771 -0.14641602826068481 0 -0.29662490002075942 -0.1729417160610712 0 -0.28785302442083771 -0.14641602826068481 0 -0.30086606599805299 -0.15615881514665131 0 -0.27718472307023151 -0.16953922890959719 0 -0.28785302442083771 -0.14641602826068481 0 -0.28478498029293198 -0.1913087424964125 0 -0.29662490002075942 -0.1729417160610712 0 -0.27718472307023151 -0.16953922890959719 0 -0.2665164217196242 -0.1926624295585091 0 -0.28478498029293198 -0.1913087424964125 0 -0.27718472307023151 -0.16953922890959719 0 -0.2665164217196242 -0.1926624295585091 0 -0.25662270240741353 -0.17293267399812839 0 -0.27718472307023151 -0.16953922890959719 0 -0.2665164217196242 -0.1926624295585091 0 -0.27718472307023151 -0.16953922890959719 0 -0.2504659962307943 -0.19526348424371451 0 -0.2665164217196242 -0.1926624295585091 0 -0.25662270240741353 -0.17293267399812839 0 -0.25662270240741353 -0.17293267399812839 0 -0.27118069358420638 -0.15551569420452041 0 -0.2579956790398209 -0.14650854198852661 0 -0.27718472307023151 -0.16953922890959719 0 -0.27118069358420638 -0.15551569420452041 0 -0.28785302442083771 -0.14641602826068481 0 -0.25662270240741353 -0.17293267399812839 0 -0.27718472307023151 -0.16953922890959719 0 -0.27118069358420638 -0.15551569420452041 0 -0.27118069358420638 -0.15551569420452041 0 -0.27555626233420222 -0.1422646354317873 0 -0.2579956790398209 -0.14650854198852661 0 -0.27118069358420638 -0.15551569420452041 0 -0.27555626233420222 -0.1422646354317873 0 -0.28785302442083771 -0.14641602826068481 0 -0.25154060515602011 -0.123099588568314 0 -0.2579956790398209 -0.14650854198852661 0 -0.26789248509332392 -0.13219347803423689 0 -0.27555626233420222 -0.1422646354317873 0 -0.2579956790398209 -0.14650854198852661 0 -0.26789248509332392 -0.13219347803423689 0 -0.27555626233420222 -0.1422646354317873 0 -0.26789248509332392 -0.13219347803423689 0 -0.2830406125105458 -0.13186354921043869 0 -0.27822820060025522 -0.117311070160192 0 -0.26789248509332392 -0.13219347803423689 0 -0.2830406125105458 -0.13186354921043869 0 -0.27822820060025522 -0.117311070160192 0 -0.2830406125105458 -0.13186354921043869 0 -0.29486309596438842 -0.13122192326331369 0 -0.29486309596438842 -0.13122192326331369 0 -0.28785302442083771 -0.14641602826068481 0 -0.29486309596438842 -0.13122192326331369 0 -0.28785302442083771 -0.14641602826068481 0 -0.30012483895998582 -0.14286368562654289 0 -0.2830406125105458 -0.13186354921043869 0 -0.29486309596438842 -0.13122192326331369 0 -0.28785302442083771 -0.14641602826068481 0 -0.2830406125105458 -0.13186354921043869 0 -0.28785302442083771 -0.14641602826068481 0 -0.27555626233420222 -0.1422646354317873 0 -0.2830406125105458 -0.13186354921043869 0 -0.28785302442083771 -0.14641602826068481 0 -0.28785302442083771 -0.14641602826068481 0 -0.30012483895998582 -0.14286368562654289 0 -0.30086606599805299 -0.15615881514665131 0 -0.30012483895998582 -0.14286368562654289 0 -0.31064355085012169 -0.15011442837787051 0 -0.31518947459245278 -0.13104877042951341 0 -0.30012483895998582 -0.14286368562654289 0 -0.30086606599805299 -0.15615881514665131 0 -0.31064355085012169 -0.15011442837787051 0 -0.30187316750793808 -0.1160278182659422 0 -0.29486309596438842 -0.13122192326331369 0 -0.31518947459245278 -0.13104877042951341 0 -0.29486309596438842 -0.13122192326331369 0 -0.30012483895998582 -0.14286368562654289 0 -0.31518947459245278 -0.13104877042951341 0 -0.327007103767815 -0.1325173823906993 0 -0.31518947459245278 -0.13104877042951341 0 -0.32605266073260059 -0.14365432430417219 0 -0.32991535187108162 -0.12272785173335 0 -0.327007103767815 -0.1325173823906993 0 -0.31518947459245278 -0.13104877042951341 0 -0.31064355085012169 -0.15011442837787051 0 -0.31518947459245278 -0.13104877042951341 0 -0.32605266073260059 -0.14365432430417219 0 -0.31064355085012169 -0.15011442837787051 0 -0.32605266073260059 -0.14365432430417219 0 -0.3236685252553444 -0.1684759753650831 0 -0.32605266073260059 -0.14365432430417219 0 -0.34328595257501332 -0.14783304273391509 0 -0.33687092787512513 -0.13263858309576179 0 -0.32605266073260059 -0.14365432430417219 0 -0.34328595257501332 -0.14783304273391509 0 -0.3236685252553444 -0.1684759753650831 0 -0.34328595257501332 -0.14783304273391509 0 -0.33687092787512513 -0.13263858309576179 0 -0.34632809511644419 -0.13303627898510489 0 -0.327007103767815 -0.1325173823906993 0 -0.32605266073260059 -0.14365432430417219 0 -0.33687092787512513 -0.13263858309576179 0 -0.32991535187108162 -0.12272785173335 0 -0.327007103767815 -0.1325173823906993 0 -0.33687092787512513 -0.13263858309576179 0 -0.33687092787512513 -0.13263858309576179 0 -0.34211355484634348 -0.12519859365202529 0 -0.34632809511644419 -0.13303627898510489 0 -0.32991535187108162 -0.12272785173335 0 -0.33687092787512513 -0.13263858309576179 0 -0.34211355484634348 -0.12519859365202529 0 -0.34211355484634348 -0.12519859365202529 0 -0.34632809511644419 -0.13303627898510489 0 -0.35429340554841282 -0.12629293065938479 0 -0.34328595257501332 -0.14783304273391509 0 -0.35485581621772683 -0.13565836193421191 0 -0.35507663473732698 -0.1332182447844375 0 -0.34328595257501332 -0.14783304273391509 0 -0.35507663473732698 -0.1332182447844375 0 -0.34328595257501332 -0.14783304273391509 0 -0.34632809511644419 -0.13303627898510489 0 -0.35507663473732698 -0.1332182447844375 0 -0.35485581621772683 -0.13565836193421191 0 -0.35507663473732698 -0.1332182447844375 0 -0.34632809511644419 -0.13303627898510489 0 -0.35507663473732698 -0.1332182447844375 0 -0.35429340554841282 -0.12629293065938479 0 -0.36918338689671398 -0.1205818143586764 0 -0.35485581621772683 -0.13565836193421191 0 -0.37081165623143553 -0.1351415007090265 0 -0.36918338689671398 -0.1205818143586764 0 -0.35485581621772683 -0.13565836193421191 0 -0.36806550003891769 -0.11711827369180119 0 -0.35507663473732698 -0.1332182447844375 0 -0.36918338689671398 -0.1205818143586764 0 -0.35485581621772683 -0.13565836193421191 0 -0.35507663473732698 -0.1332182447844375 0 -0.35485581621772683 -0.13565836193421191 0 -0.37081165623143553 -0.1351415007090265 0 -0.37018649584126723 -0.1529005940183831 0 -0.35485581621772683 -0.13565836193421191 0 -0.37018649584126723 -0.1529005940183831 0 -0.35310394096511333 -0.1550171587230719 0 -0.35485581621772683 -0.13565836193421191 0 -0.35310394096511333 -0.1550171587230719 0 -0.34328595257501332 -0.14783304273391509 0 -0.35485581621772683 -0.13565836193421191 0 -0.35310394096511333 -0.1550171587230719 0 -0.34328595257501332 -0.14783304273391509 0 -0.35485581621772683 -0.13565836193421191 0 -0.34328595257501332 -0.14783304273391509 0 -0.35310394096511333 -0.1550171587230719 0 -0.34528126096113299 -0.1620175574809776 0 -0.35310394096511333 -0.1550171587230719 0 -0.34528126096113299 -0.1620175574809776 0 -0.35135206571250022 -0.1743759555119318 0 -0.35310394096511333 -0.1550171587230719 0 -0.35135206571250022 -0.1743759555119318 0 -0.37018649584126723 -0.1529005940183831 0 -0.35310394096511333 -0.1550171587230719 0 -0.35135206571250022 -0.1743759555119318 0 -0.34528126096113299 -0.1620175574809776 0 -0.35135206571250022 -0.1743759555119318 0 -0.34197087996099812 -0.17139414037501099 0 -0.37018649584126723 -0.1529005940183831 0 -0.36834173830478162 -0.16970257135162251 0 -0.38201135888776849 -0.16404083518277129 0 -0.37018649584126723 -0.1529005940183831 0 -0.36834173830478162 -0.16970257135162251 0 -0.35135206571250022 -0.1743759555119318 0 -0.37018649584126723 -0.1529005940183831 0 -0.35135206571250022 -0.1743759555119318 0 -0.36834173830478162 -0.16970257135162251 0 -0.36297410922020701 -0.1791637711848352 0 -0.35135206571250022 -0.1743759555119318 0 -0.36297410922020701 -0.1791637711848352 0 -0.34988445778088922 -0.1905935050614305 0 -0.36828902176036049 -0.19033433958965981 0 -0.36297410922020701 -0.1791637711848352 0 -0.36828902176036049 -0.19033433958965981 0 -0.37518466186216459 -0.17803170086019121 0 -0.36834173830478162 -0.16970257135162251 0 -0.36297410922020701 -0.1791637711848352 0 -0.37518466186216459 -0.17803170086019121 0 -0.35135206571250022 -0.1743759555119318 0 -0.34279773915058648 -0.1841297550160835 0 -0.34988445778088922 -0.1905935050614305 0 -0.35135206571250022 -0.1743759555119318 0 -0.34988445778088922 -0.1905935050614305 0 -0.36297410922020701 -0.1791637711848352 0 -0.35135206571250022 -0.1743759555119318 0 -0.34988445778088922 -0.1905935050614305 0 -0.35135206571250022 -0.1743759555119318 0 -0.34291460574217097 -0.17685195153602609 0 -0.34197087996099812 -0.17139414037501099 0 -0.35135206571250022 -0.1743759555119318 0 -0.34279773915058648 -0.1841297550160835 0 -0.34291460574217097 -0.17685195153602609 0 -0.35135206571250022 -0.1743759555119318 0 -0.34279773915058648 -0.1841297550160835 0 -0.34279773915058648 -0.1841297550160835 0 -0.34988445778088922 -0.1905935050614305 0 -0.34279773915058648 -0.1841297550160835 0 -0.33836114812616502 -0.18918843719532141 0 -0.34279773915058648 -0.1841297550160835 0 -0.33538674394625562 -0.18499536468636529 0 -0.33553773814459797 -0.1775079552410794 0 -0.34279773915058648 -0.1841297550160835 0 -0.33553773814459797 -0.1775079552410794 0 -0.34279773915058648 -0.1841297550160835 0 -0.33538674394625562 -0.18499536468636529 0 -0.33836114812616502 -0.18918843719532141 0 -0.33538674394625562 -0.18499536468636529 0 -0.33836114812616502 -0.18918843719532141 0 -0.33538674394625562 -0.18499536468636529 0 -0.33553773814459797 -0.1775079552410794 0 -0.33538674394625562 -0.18499536468636529 0 -0.32805192424880919 -0.18311788123064651 0 -0.32912566597994569 -0.19059039027613259 0 -0.33538674394625562 -0.18499536468636529 0 -0.33364833956732182 -0.17578464706748509 0 -0.33553773814459797 -0.1775079552410794 0 -0.33538674394625562 -0.18499536468636529 0 -0.33364833956732182 -0.17578464706748509 0 -0.32505506665256151 -0.17043060838183091 0 -0.33538674394625562 -0.18499536468636529 0 -0.32505506665256151 -0.17043060838183091 0 -0.32805192424880919 -0.18311788123064651 0 -0.33538674394625562 -0.18499536468636529 0 -0.32505506665256151 -0.17043060838183091 0 -0.33364833956732182 -0.17578464706748509 0 -0.33553773814459797 -0.1775079552410794 0 -0.33578071487973971 -0.1654593711120157 0 -0.33364833956732182 -0.17578464706748509 0 -0.33553773814459797 -0.1775079552410794 0 -0.34279773915058648 -0.1841297550160835 0 -0.33553773814459797 -0.1775079552410794 0 -0.34291460574217097 -0.17685195153602609 0 -0.33553773814459797 -0.1775079552410794 0 -0.34291460574217097 -0.17685195153602609 0 -0.34197087996099812 -0.17139414037501099 0 -0.34328595257501332 -0.14783304273391509 0 -0.3236685252553444 -0.1684759753650831 0 -0.34328595257501332 -0.14783304273391509 0 -0.34528126096113299 -0.1620175574809776 0 -0.33578071487973971 -0.1654593711120157 0 -0.34328595257501332 -0.14783304273391509 0 -0.33578071487973971 -0.1654593711120157 0 -0.32505506665256151 -0.17043060838183091 0 -0.34528126096113299 -0.1620175574809776 0 -0.34197087996099812 -0.17139414037501099 0 -0.33578071487973971 -0.1654593711120157 0 -0.33553773814459797 -0.1775079552410794 0 -0.34197087996099812 -0.17139414037501099 0 -0.33578071487973971 -0.1654593711120157 0 -0.34328595257501332 -0.14783304273391509 0 -0.32505506665256151 -0.17043060838183091 0 -0.3236685252553444 -0.1684759753650831 0 -0.34328595257501332 -0.14783304273391509 0 -0.32505506665256151 -0.17043060838183091 0 -0.33364833956732182 -0.17578464706748509 0 -0.33578071487973971 -0.1654593711120157 0 -0.32505506665256151 -0.17043060838183091 0 -0.33553773814459797 -0.1775079552410794 0 -0.33578071487973971 -0.1654593711120157 0 -0.31064355085012169 -0.15011442837787051 0 -0.3236685252553444 -0.1684759753650831 0 -0.30908401573856098 -0.1684582174070868 0 -0.31064355085012169 -0.15011442837787051 0 -0.3236685252553444 -0.1684759753650831 0 -0.32505506665256151 -0.17043060838183091 0 -0.3236685252553444 -0.1684759753650831 0 -0.30921556785335419 -0.18368446428204119 0 -0.32505506665256151 -0.17043060838183091 0 -0.3236685252553444 -0.1684759753650831 0 -0.31102887433170551 -0.18781636808155469 0 -0.32505506665256151 -0.17043060838183091 0 -0.32264022041647272 -0.1864551615782582 0 -0.31102887433170551 -0.18781636808155469 0 -0.30921556785335419 -0.18368446428204119 0 -0.32505506665256151 -0.17043060838183091 0 -0.32505506665256151 -0.17043060838183091 0 -0.32264022041647272 -0.1864551615782582 0 -0.32805192424880919 -0.18311788123064651 0 -0.31102887433170551 -0.18781636808155469 0 -0.32505506665256151 -0.17043060838183091 0 -0.30921556785335419 -0.18368446428204119 0 -0.3236685252553444 -0.1684759753650831 0 -0.30921556785335419 -0.18368446428204119 0 -0.30908401573856098 -0.1684582174070868 0 -0.3236685252553444 -0.1684759753650831 0 -0.32264022041647272 -0.1864551615782582 0 -0.32805192424880919 -0.18311788123064651 0 -0.32912566597994569 -0.19059039027613259 0 -0.32770981423765899 -0.20066809949882339 0 -0.32422193408200312 -0.19495496516302149 0 -0.33207162305431093 -0.19635986864386251 0 -0.32411424532322403 -0.20038404910476479 0 -0.32422193408200312 -0.19495496516302149 0 -0.31866928751184631 -0.20043099522835869 0 -0.32411424532322403 -0.20038404910476479 0 -0.31866928751184631 -0.20043099522835869 0 -0.32585594546138752 -0.20548213652885569 0 -0.32411424532322403 -0.20038404910476479 0 -0.32770981423765899 -0.20066809949882339 0 -0.32585594546138752 -0.20548213652885569 0 -0.32411424532322403 -0.20038404910476479 0 -0.32770981423765899 -0.20066809949882339 0 -0.32422193408200312 -0.19495496516302149 0 -0.32264022041647272 -0.1864551615782582 0 -0.32422193408200312 -0.19495496516302149 0 -0.31767120532509902 -0.19277862416191091 0 -0.32264022041647272 -0.1864551615782582 0 -0.32422193408200312 -0.19495496516302149 0 -0.32912566597994569 -0.19059039027613259 0 -0.31102887433170551 -0.18781636808155469 0 -0.32264022041647272 -0.1864551615782582 0 -0.31767120532509902 -0.19277862416191091 0 -0.31102887433170551 -0.18781636808155469 0 -0.31767120532509902 -0.19277862416191091 0 -0.31319153569733321 -0.19512334783332039 0 -0.31767120532509902 -0.19277862416191091 0 -0.31319153569733321 -0.19512334783332039 0 -0.31866928751184631 -0.20043099522835869 0 -0.32422193408200312 -0.19495496516302149 0 -0.31767120532509902 -0.19277862416191091 0 -0.31866928751184631 -0.20043099522835869 0 -0.32087371421187261 -0.21233418011767721 0 -0.33483985241031528 -0.21211429307400759 0 -0.32648849762585219 -0.2311558083019907 0 -0.30539677562068201 -0.1994674038614572 0 -0.31866928751184631 -0.20043099522835869 0 -0.32087371421187261 -0.21233418011767721 0 -0.30539677562068201 -0.1994674038614572 0 -0.32087371421187261 -0.21233418011767721 0 -0.31416865122060439 -0.22599309166184309 0 -0.31866928751184631 -0.20043099522835869 0 -0.32087371421187261 -0.21233418011767721 0 -0.32585594546138752 -0.20548213652885569 0 -0.32087371421187261 -0.21233418011767721 0 -0.32585594546138752 -0.20548213652885569 0 -0.33483985241031528 -0.21211429307400759 0 -0.32770981423765899 -0.20066809949882339 0 -0.32585594546138752 -0.20548213652885569 0 -0.33483985241031528 -0.21211429307400759 0 -0.33483985241031528 -0.21211429307400759 0 -0.34135513185497313 -0.20888265694096711 0 -0.33523019112878327 -0.19275841159220061 0 -0.33483985241031528 -0.21211429307400759 0 -0.35056791727109382 -0.22372516448017599 0 -0.33483985241031528 -0.21211429307400759 0 -0.34135513185497313 -0.20888265694096711 0 -0.35056791727109382 -0.22372516448017599 0 -0.32585594546138752 -0.20548213652885569 0 -0.33483985241031528 -0.21211429307400759 0 -0.33483985241031528 -0.21211429307400759 0 -0.33207162305431093 -0.19635986864386251 0 -0.33523019112878327 -0.19275841159220061 0 -0.32770981423765899 -0.20066809949882339 0 -0.33483985241031528 -0.21211429307400759 0 -0.33207162305431093 -0.19635986864386251 0 -0.34135513185497313 -0.20888265694096711 0 -0.33523019112878327 -0.19275841159220061 0 -0.33836114812616502 -0.18918843719532141 0 -0.33483985241031528 -0.21211429307400759 0 -0.33523019112878327 -0.19275841159220061 0 -0.32422193408200312 -0.19495496516302149 0 -0.33207162305431093 -0.19635986864386251 0 -0.32912566597994569 -0.19059039027613259 0 -0.33207162305431093 -0.19635986864386251 0 -0.32912566597994569 -0.19059039027613259 0 -0.33523019112878327 -0.19275841159220061 0 -0.33207162305431093 -0.19635986864386251 0 -0.33523019112878327 -0.19275841159220061 0 -0.33538674394625562 -0.18499536468636529 0 -0.33523019112878327 -0.19275841159220061 0 -0.33538674394625562 -0.18499536468636529 0 -0.32912566597994569 -0.19059039027613259 0 -0.33523019112878327 -0.19275841159220061 0 -0.34279773915058648 -0.1841297550160835 0 -0.33836114812616502 -0.18918843719532141 0 -0.34988445778088922 -0.1905935050614305 0 -0.33538674394625562 -0.18499536468636529 0 -0.33523019112878327 -0.19275841159220061 0 -0.33836114812616502 -0.18918843719532141 0 -0.33523019112878327 -0.19275841159220061 0 -0.33836114812616502 -0.18918843719532141 0 -0.34135513185497313 -0.20888265694096711 0 -0.33836114812616502 -0.18918843719532141 0 -0.35289258986943639 -0.20967367901307141 0 -0.34947835998385929 -0.1950810190652805 0 -0.34988445778088922 -0.1905935050614305 0 -0.37225933641571352 -0.21100148657378159 0 -0.33836114812616502 -0.18918843719532141 0 -0.34947835998385929 -0.1950810190652805 0 -0.35289258986943639 -0.20967367901307141 0 -0.33836114812616502 -0.18918843719532141 0 -0.35289258986943639 -0.20967367901307141 0 -0.33836114812616502 -0.18918843719532141 0 -0.34947835998385929 -0.1950810190652805 0 -0.34988445778088922 -0.1905935050614305 0 -0.34947835998385929 -0.1950810190652805 0 -0.34988445778088922 -0.1905935050614305 0 -0.36828902176036049 -0.19033433958965981 0 -0.37225933641571352 -0.21100148657378159 0 -0.38074352764696773 -0.19473702802013521 0 -0.34988445778088922 -0.1905935050614305 0 -0.37225933641571352 -0.21100148657378159 0 -0.36828902176036049 -0.19033433958965981 0 -0.38074352764696773 -0.19473702802013521 0 -0.37518466186216459 -0.17803170086019121 0 -0.34988445778088922 -0.1905935050614305 0 -0.36828902176036049 -0.19033433958965981 0 -0.37225933641571352 -0.21100148657378159 0 -0.37225933641571352 -0.21100148657378159 0 -0.35289258986943639 -0.20967367901307141 0 -0.36169620246733147 -0.22208429429294771 0 -0.37225933641571352 -0.21100148657378159 0 -0.35289258986943639 -0.20967367901307141 0 -0.35289258986943639 -0.20967367901307141 0 -0.36169620246733147 -0.22208429429294771 0 -0.34947835998385929 -0.1950810190652805 0 -0.37225933641571352 -0.21100148657378159 0 -0.35289258986943639 -0.20967367901307141 0 -0.35289258986943639 -0.20967367901307141 0 -0.35056791727109382 -0.22372516448017599 0 -0.36169620246733147 -0.22208429429294771 0 -0.34135513185497313 -0.20888265694096711 0 -0.35289258986943639 -0.20967367901307141 0 -0.34135513185497313 -0.20888265694096711 0 -0.35289258986943639 -0.20967367901307141 0 -0.35056791727109382 -0.22372516448017599 0 -0.35056791727109382 -0.22372516448017599 0 -0.36629598213187292 -0.23533603588634369 0 -0.35056791727109382 -0.22372516448017599 0 -0.36629598213187292 -0.23533603588634369 0 -0.35026909902306691 -0.23854278394703429 0 -0.35056791727109382 -0.22372516448017599 0 -0.36169620246733147 -0.22208429429294771 0 -0.36629598213187292 -0.23533603588634369 0 -0.36169620246733147 -0.22208429429294771 0 -0.370499815065226 -0.23449490957282451 0 -0.36169620246733147 -0.22208429429294771 0 -0.370499815065226 -0.23449490957282451 0 -0.36629598213187292 -0.23533603588634369 0 -0.36169620246733147 -0.22208429429294771 0 -0.37438048060663309 -0.22439007956664339 0 -0.370499815065226 -0.23449490957282451 0 -0.37225933641571352 -0.21100148657378159 0 -0.36169620246733147 -0.22208429429294771 0 -0.37438048060663309 -0.22439007956664339 0 -0.36363464454726269 -0.25129442847850902 0 -0.36629598213187292 -0.23533603588634369 0 -0.35183251286180067 -0.24514162027338809 0 -0.36363464454726269 -0.25129442847850902 0 -0.36629598213187292 -0.23533603588634369 0 -0.37957403109299931 -0.24513824107669269 0 -0.36629598213187292 -0.23533603588634369 0 -0.37957403109299931 -0.24513824107669269 0 -0.37204878481201659 -0.2366785208339767 0 -0.36629598213187292 -0.23533603588634369 0 -0.37957403109299931 -0.24513824107669269 0 -0.37204878481201659 -0.2366785208339767 0 -0.370499815065226 -0.23449490957282451 0 -0.370499815065226 -0.23449490957282451 0 -0.36629598213187292 -0.23533603588634369 0 -0.37204878481201659 -0.2366785208339767 0 -0.370499815065226 -0.23449490957282451 0 -0.36629598213187292 -0.23533603588634369 0 -0.36629598213187292 -0.23533603588634369 0 -0.35183251286180067 -0.24514162027338809 0 -0.35026909902306691 -0.23854278394703429 0 -0.35056791727109382 -0.22372516448017599 0 -0.35026909902306691 -0.23854278394703429 0 -0.33424221591426101 -0.241749532007725 0 -0.36629598213187292 -0.23533603588634369 0 -0.35026909902306691 -0.23854278394703429 0 -0.35026909902306691 -0.23854278394703429 0 -0.34801208405323197 -0.23953865432562341 0 -0.33424221591426101 -0.241749532007725 0 -0.35183251286180067 -0.24514162027338809 0 -0.35026909902306691 -0.23854278394703429 0 -0.34801208405323197 -0.23953865432562341 0 -0.35183251286180067 -0.24514162027338809 0 -0.34801208405323197 -0.23953865432562341 0 -0.34754853253990409 -0.24760991465529891 0 -0.35259320444334402 -0.25375996778655208 0 -0.35183251286180067 -0.24514162027338809 0 -0.34754853253990409 -0.24760991465529891 0 -0.33775632880124001 -0.25199941623563199 0 -0.34801208405323197 -0.23953865432562341 0 -0.34754853253990409 -0.24760991465529891 0 -0.33775632880124001 -0.25199941623563199 0 -0.34801208405323197 -0.23953865432562341 0 -0.33775632880124001 -0.25199941623563199 0 -0.34801208405323197 -0.23953865432562341 0 -0.33424221591426101 -0.241749532007725 0 -0.35026909902306691 -0.23854278394703429 0 -0.33424221591426101 -0.241749532007725 0 -0.32294052682052687 -0.25251877946222911 0 -0.33405263136615698 -0.25115053649489533 0 -0.33186602517753278 -0.2422249734884617 0 -0.33405263136615698 -0.25115053649489533 0 -0.33775632880124001 -0.25199941623563199 0 -0.33424221591426101 -0.241749532007725 0 -0.33405263136615698 -0.25115053649489533 0 -0.33424221591426101 -0.241749532007725 0 -0.33405263136615698 -0.25115053649489533 0 -0.33186602517753278 -0.2422249734884617 0 -0.33424221591426101 -0.241749532007725 0 -0.33186602517753278 -0.2422249734884617 0 -0.33424221591426101 -0.241749532007725 0 -0.32648849762585219 -0.2311558083019907 0 -0.33186602517753278 -0.2422249734884617 0 -0.33424221591426101 -0.241749532007725 0 -0.33483985241031528 -0.21211429307400759 0 -0.33424221591426101 -0.241749532007725 0 -0.32648849762585219 -0.2311558083019907 0 -0.33483985241031528 -0.21211429307400759 0 -0.33424221591426101 -0.241749532007725 0 -0.33483985241031528 -0.21211429307400759 0 -0.35056791727109382 -0.22372516448017599 0 -0.33424221591426101 -0.241749532007725 0 -0.32087371421187261 -0.21233418011767721 0 -0.31416865122060439 -0.22599309166184309 0 -0.32648849762585219 -0.2311558083019907 0 -0.32294052682052687 -0.25251877946222911 0 -0.31416865122060439 -0.22599309166184309 0 -0.32648849762585219 -0.2311558083019907 0 -0.32294052682052687 -0.25251877946222911 0 -0.30839492602666368 -0.24280208433148109 0 -0.31416865122060439 -0.22599309166184309 0 -0.32294052682052687 -0.25251877946222911 0 -0.33186602517753278 -0.2422249734884617 0 -0.32648849762585219 -0.2311558083019907 0 -0.32294052682052687 -0.25251877946222911 0 -0.31416865122060439 -0.22599309166184309 0 -0.43248890343704932 -0.2570147486180836 0 -0.42470883081946659 -0.2439208821782331 0 -0.43726740685516402 -0.23770667617288069 0 -0.42470883081946659 -0.2439208821782331 0 -0.43726740685516402 -0.23770667617288069 0 -0.42439005535542318 -0.23193891577560349 0 -0.43726740685516402 -0.23770667617288069 0 -0.43695207153269888 -0.22289316196742981 0 -0.42439005535542318 -0.23193891577560349 0 -0.43695207153269888 -0.22289316196742981 0 -0.42629867505235619 -0.2209476218376128 0 -0.42439005535542318 -0.23193891577560349 0 -0.42629867505235619 -0.2209476218376128 0 -0.42439005535542318 -0.23193891577560349 0 -0.41918491823942061 -0.2247537228973803 0 -0.42629867505235619 -0.2209476218376128 0 -0.41918491823942061 -0.2247537228973803 0 -0.42015746477576832 -0.2142854401706496 0 -0.42439005535542318 -0.23193891577560349 0 -0.4140477595079099 -0.231000358909876 0 -0.41514287703214969 -0.2393279232541165 0 -0.42439005535542318 -0.23193891577560349 0 -0.41918491823942061 -0.2247537228973803 0 -0.4140477595079099 -0.231000358909876 0 -0.41500651894152102 -0.2190862142601504 0 -0.41918491823942061 -0.2247537228973803 0 -0.42015746477576832 -0.2142854401706496 0 -0.41500651894152102 -0.2190862142601504 0 -0.40453375056418389 -0.22768521014979859 0 -0.41055898584846989 -0.21362735684929951 0 -0.41918491823942061 -0.2247537228973803 0 -0.40453375056418389 -0.22768521014979859 0 -0.40453375056418389 -0.22768521014979859 0 -0.41055898584846989 -0.21362735684929951 0 -0.41500651894152102 -0.2190862142601504 0 -0.41918491823942061 -0.2247537228973803 0 -0.40453375056418389 -0.22768521014979859 0 -0.4140477595079099 -0.231000358909876 0 -0.4067491197975015 -0.2332553252400747 0 -0.40453375056418389 -0.22768521014979859 0 -0.41918491823942061 -0.2247537228973803 0 -0.4140477595079099 -0.231000358909876 0 -0.40453375056418389 -0.22768521014979859 0 -0.4140477595079099 -0.231000358909876 0 -0.4067491197975015 -0.2332553252400747 0 -0.40913859878800007 -0.23661563500946159 0 -0.4140477595079099 -0.231000358909876 0 -0.40913859878800007 -0.23661563500946159 0 -0.41514287703214969 -0.2393279232541165 0 -0.4067491197975015 -0.2332553252400747 0 -0.40913859878800007 -0.23661563500946159 0 -0.40459948401137691 -0.2366054754571302 0 -0.40913859878800007 -0.23661563500946159 0 -0.40885318032841839 -0.2408304477665773 0 -0.40498635100848579 -0.24022972644510041 0 -0.40885318032841839 -0.2408304477665773 0 -0.4059379867607521 -0.2431974854848741 0 -0.40498635100848579 -0.24022972644510041 0 -0.40913859878800007 -0.23661563500946159 0 -0.40885318032841839 -0.2408304477665773 0 -0.41514287703214969 -0.2393279232541165 0 -0.40885318032841839 -0.2408304477665773 0 -0.41514287703214969 -0.2393279232541165 0 -0.41176805117335219 -0.2434712817483263 0 -0.42470883081946659 -0.2439208821782331 0 -0.42439005535542318 -0.23193891577560349 0 -0.41514287703214969 -0.2393279232541165 0 -0.42470883081946659 -0.2439208821782331 0 -0.41514287703214969 -0.2393279232541165 0 -0.41573061849258908 -0.2466548038147931 0 -0.42051649998989837 -0.25337860450162181 0 -0.42470883081946659 -0.2439208821782331 0 -0.41573061849258908 -0.2466548038147931 0 -0.41514287703214969 -0.2393279232541165 0 -0.41573061849258908 -0.2466548038147931 0 -0.41176805117335219 -0.2434712817483263 0 -0.41241795348262938 -0.25239008067578411 0 -0.41573061849258908 -0.2466548038147931 0 -0.40960637812677442 -0.24751359326307329 0 -0.41573061849258908 -0.2466548038147931 0 -0.41176805117335219 -0.2434712817483263 0 -0.40960637812677442 -0.24751359326307329 0 -0.41176805117335219 -0.2434712817483263 0 -0.40828325010745758 -0.24424977729419661 0 -0.40960637812677442 -0.24751359326307329 0 -0.40885318032841839 -0.2408304477665773 0 -0.41176805117335219 -0.2434712817483263 0 -0.40828325010745758 -0.24424977729419661 0 -0.40828325010745758 -0.24424977729419661 0 -0.40960637812677442 -0.24751359326307329 0 -0.40603964947250393 -0.2457272524077011 0 -0.40828325010745758 -0.24424977729419661 0 -0.40603964947250393 -0.2457272524077011 0 -0.4059379867607521 -0.2431974854848741 0 -0.40885318032841839 -0.2408304477665773 0 -0.40828325010745758 -0.24424977729419661 0 -0.4059379867607521 -0.2431974854848741 0 -0.40960637812677442 -0.24751359326307329 0 -0.40552083553578339 -0.2486331788375164 0 -0.40603964947250393 -0.2457272524077011 0 -0.40816199467824738 -0.25137677441514578 0 -0.40960637812677442 -0.24751359326307329 0 -0.40552083553578339 -0.2486331788375164 0 -0.39285208005412858 -0.25494044626703749 0 -0.40060384186461068 -0.23685432593969191 0 -0.38762906126040358 -0.24071823238888371 0 -0.39285208005412858 -0.25494044626703749 0 -0.40220520894203721 -0.24485821986274481 0 -0.40060384186461068 -0.23685432593969191 0 -0.40203411032449582 -0.25204981142732441 0 -0.40552083553578339 -0.2486331788375164 0 -0.40220520894203721 -0.24485821986274481 0 -0.39285208005412858 -0.25494044626703749 0 -0.40060384186461068 -0.23685432593969191 0 -0.40552083553578339 -0.2486331788375164 0 -0.40603964947250393 -0.2457272524077011 0 -0.40220520894203721 -0.24485821986274481 0 -0.40603964947250393 -0.2457272524077011 0 -0.4059379867607521 -0.2431974854848741 0 -0.40220520894203721 -0.24485821986274481 0 -0.4059379867607521 -0.2431974854848741 0 -0.40220520894203721 -0.24485821986274481 0 -0.40498635100848579 -0.24022972644510041 0 -0.40220520894203721 -0.24485821986274481 0 -0.40498635100848579 -0.24022972644510041 0 -0.40060384186461068 -0.23685432593969191 0 -0.4067491197975015 -0.2332553252400747 0 -0.40459948401137691 -0.2366054754571302 0 -0.40060384186461068 -0.23685432593969191 0 -0.40459948401137691 -0.2366054754571302 0 -0.40498635100848579 -0.24022972644510041 0 -0.40060384186461068 -0.23685432593969191 0 -0.40913859878800007 -0.23661563500946159 0 -0.40459948401137691 -0.2366054754571302 0 -0.40498635100848579 -0.24022972644510041 0 -0.40060384186461068 -0.23685432593969191 0 -0.38762906126040358 -0.24071823238888371 0 -0.39306656847826149 -0.22997962782701889 0 -0.37204878481201659 -0.2366785208339767 0 -0.38762906126040358 -0.24071823238888371 0 -0.39306656847826149 -0.22997962782701889 0 -0.39285208005412858 -0.25494044626703749 0 -0.38762906126040358 -0.24071823238888371 0 -0.37957403109299931 -0.24513824107669269 0 -0.37204878481201659 -0.2366785208339767 0 -0.38762906126040358 -0.24071823238888371 0 -0.37957403109299931 -0.24513824107669269 0 -0.370499815065226 -0.23449490957282451 0 -0.39306656847826149 -0.22997962782701889 0 -0.37225933641571352 -0.21100148657378159 0 -0.37438048060663309 -0.22439007956664339 0 -0.39306656847826149 -0.22997962782701889 0 -0.37225933641571352 -0.21100148657378159 0 -0.39306656847826149 -0.22997962782701889 0 -0.37204878481201659 -0.2366785208339767 0 -0.370499815065226 -0.23449490957282451 0 -0.39306656847826149 -0.22997962782701889 0 -0.37438048060663309 -0.22439007956664339 0 -0.370499815065226 -0.23449490957282451 0 -0.39306656847826149 -0.22997962782701889 0 -0.39306656847826149 -0.22997962782701889 0 -0.40453375056418389 -0.22768521014979859 0 -0.3914091611320919 -0.21231442171153889 0 -0.40060384186461068 -0.23685432593969191 0 -0.39306656847826149 -0.22997962782701889 0 -0.40060384186461068 -0.23685432593969191 0 -0.40453375056418389 -0.22768521014979859 0 -0.40060384186461068 -0.23685432593969191 0 -0.39306656847826149 -0.22997962782701889 0 -0.40453375056418389 -0.22768521014979859 0 -0.4067491197975015 -0.2332553252400747 0 -0.40060384186461068 -0.23685432593969191 0 -0.40453375056418389 -0.22768521014979859 0 -0.39306656847826149 -0.22997962782701889 0 -0.40453375056418389 -0.22768521014979859 0 -0.40453375056418389 -0.22768521014979859 0 -0.3914091611320919 -0.21231442171153889 0 -0.41055898584846989 -0.21362735684929951 0 -0.3914091611320919 -0.21231442171153889 0 -0.41055898584846989 -0.21362735684929951 0 -0.40357732646100752 -0.205736866610948 0 -0.3914091611320919 -0.21231442171153889 0 -0.41055898584846989 -0.21362735684929951 0 -0.40357732646100752 -0.205736866610948 0 -0.3914091611320919 -0.21231442171153889 0 -0.39482138247904958 -0.19963854919263491 0 -0.37225933641571352 -0.21100148657378159 0 -0.39306656847826149 -0.22997962782701889 0 -0.3914091611320919 -0.21231442171153889 0 -0.37225933641571352 -0.21100148657378159 0 -0.3914091611320919 -0.21231442171153889 0 -0.37225933641571352 -0.21100148657378159 0 -0.3914091611320919 -0.21231442171153889 0 -0.38074352764696773 -0.19473702802013521 0 -0.3914091611320919 -0.21231442171153889 0 -0.38074352764696773 -0.19473702802013521 0 -0.39482138247904958 -0.19963854919263491 0 -0.39782080778727769 -0.18819253555669299 0 -0.40525917838792552 -0.197809706363822 0 -0.41499729344575598 -0.1893382597010092 0 -0.38074352764696773 -0.19473702802013521 0 -0.39782080778727769 -0.18819253555669299 0 -0.39482138247904958 -0.19963854919263491 0 -0.40357732646100752 -0.205736866610948 0 -0.40525917838792552 -0.197809706363822 0 -0.4089480787469108 -0.2028832878766092 0 -0.40357732646100752 -0.205736866610948 0 -0.39482138247904958 -0.19963854919263491 0 -0.40525917838792552 -0.197809706363822 0 -0.39782080778727769 -0.18819253555669299 0 -0.39482138247904958 -0.19963854919263491 0 -0.40525917838792552 -0.197809706363822 0 -0.41499729344575598 -0.1893382597010092 0 -0.41400675519068042 -0.19993564138954231 0 -0.42465010226871952 -0.20082518715164699 0 -0.41400675519068042 -0.19993564138954231 0 -0.42029768499430209 -0.20683883781636819 0 -0.42465010226871952 -0.20082518715164699 0 -0.40525917838792552 -0.197809706363822 0 -0.41499729344575598 -0.1893382597010092 0 -0.41400675519068042 -0.19993564138954231 0 -0.40525917838792552 -0.197809706363822 0 -0.41400675519068042 -0.19993564138954231 0 -0.4089480787469108 -0.2028832878766092 0 -0.40357732646100752 -0.205736866610948 0 -0.41294905494803003 -0.20805093714212461 0 -0.41055898584846989 -0.21362735684929951 0 -0.40357732646100752 -0.205736866610948 0 -0.4089480787469108 -0.2028832878766092 0 -0.41294905494803003 -0.20805093714212461 0 -0.41400675519068042 -0.19993564138954231 0 -0.4089480787469108 -0.2028832878766092 0 -0.41294905494803003 -0.20805093714212461 0 -0.41294905494803003 -0.20805093714212461 0 -0.41055898584846989 -0.21362735684929951 0 -0.41294905494803003 -0.20805093714212461 0 -0.41055898584846989 -0.21362735684929951 0 -0.42015746477576832 -0.2142854401706496 0 -0.41500651894152102 -0.2190862142601504 0 -0.41055898584846989 -0.21362735684929951 0 -0.42015746477576832 -0.2142854401706496 0 -0.41055898584846989 -0.21362735684929951 0 -0.42015746477576832 -0.2142854401706496 0 -0.41400675519068042 -0.19993564138954231 0 -0.41294905494803003 -0.20805093714212461 0 -0.42029768499430209 -0.20683883781636819 0 -0.41294905494803003 -0.20805093714212461 0 -0.42015746477576832 -0.2142854401706496 0 -0.42029768499430209 -0.20683883781636819 0 -0.42015746477576832 -0.2142854401706496 0 -0.42029768499430209 -0.20683883781636819 0 -0.43080886535847018 -0.2108668683770008 0 -0.42029768499430209 -0.20683883781636819 0 -0.43080886535847018 -0.2108668683770008 0 -0.42465010226871952 -0.20082518715164699 0 -0.43080886535847018 -0.2108668683770008 0 -0.43603541651200722 -0.19236555300660771 0 -0.44440724364209988 -0.21054001104216311 0 -0.42629867505235619 -0.2209476218376128 0 -0.42015746477576832 -0.2142854401706496 0 -0.43080886535847018 -0.2108668683770008 0 -0.43695207153269888 -0.22289316196742981 0 -0.42629867505235619 -0.2209476218376128 0 -0.43080886535847018 -0.2108668683770008 0 -0.43695207153269888 -0.22289316196742981 0 -0.43080886535847018 -0.2108668683770008 0 -0.44440724364209988 -0.21054001104216311 0 -0.43080886535847018 -0.2108668683770008 0 -0.43603541651200722 -0.19236555300660771 0 -0.42465010226871952 -0.20082518715164699 0 -0.41499729344575598 -0.1893382597010092 0 -0.43603541651200722 -0.19236555300660771 0 -0.42465010226871952 -0.20082518715164699 0 -0.43603541651200722 -0.19236555300660771 0 -0.42276068900743019 -0.17098282577451909 0 -0.44527493547477182 -0.16712461366167289 0 -0.41499729344575598 -0.1893382597010092 0 -0.43603541651200722 -0.19236555300660771 0 -0.42276068900743019 -0.17098282577451909 0 -0.42276068900743019 -0.17098282577451909 0 -0.42649064200626308 -0.14898017897697491 0 -0.44527493547477182 -0.16712461366167289 0 -0.42276068900743019 -0.17098282577451909 0 -0.40494597942347288 -0.17343180270564479 0 -0.40911601556802452 -0.1520622854683592 0 -0.42276068900743019 -0.17098282577451909 0 -0.40911601556802452 -0.1520622854683592 0 -0.42649064200626308 -0.14898017897697491 0 -0.41499729344575598 -0.1893382597010092 0 -0.42276068900743019 -0.17098282577451909 0 -0.40494597942347288 -0.17343180270564479 0 -0.39782080778727769 -0.18819253555669299 0 -0.40494597942347288 -0.17343180270564479 0 -0.38929476138751878 -0.17723441409881591 0 -0.39782080778727769 -0.18819253555669299 0 -0.41499729344575598 -0.1893382597010092 0 -0.40494597942347288 -0.17343180270564479 0 -0.38074352764696773 -0.19473702802013521 0 -0.38929476138751878 -0.17723441409881591 0 -0.37518466186216459 -0.17803170086019121 0 -0.38074352764696773 -0.19473702802013521 0 -0.39782080778727769 -0.18819253555669299 0 -0.38929476138751878 -0.17723441409881591 0 -0.38929476138751878 -0.17723441409881591 0 -0.37518466186216459 -0.17803170086019121 0 -0.38201135888776849 -0.16404083518277129 0 -0.38201135888776849 -0.16404083518277129 0 -0.39568630934483068 -0.1627804956344725 0 -0.3923536176574311 -0.14710286407965331 0 -0.36834173830478162 -0.16970257135162251 0 -0.37518466186216459 -0.17803170086019121 0 -0.38201135888776849 -0.16404083518277129 0 -0.38929476138751878 -0.17723441409881591 0 -0.38201135888776849 -0.16404083518277129 0 -0.39568630934483068 -0.1627804956344725 0 -0.40494597942347288 -0.17343180270564479 0 -0.38929476138751878 -0.17723441409881591 0 -0.39568630934483068 -0.1627804956344725 0 -0.40494597942347288 -0.17343180270564479 0 -0.39568630934483068 -0.1627804956344725 0 -0.40911601556802452 -0.1520622854683592 0 -0.3923536176574311 -0.14710286407965331 0 -0.40322049128353582 -0.13659978385660521 0 -0.40911601556802452 -0.1520622854683592 0 -0.39568630934483068 -0.1627804956344725 0 -0.3923536176574311 -0.14710286407965331 0 -0.40911601556802452 -0.1520622854683592 0 -0.39568630934483068 -0.1627804956344725 0 -0.3923536176574311 -0.14710286407965331 0 -0.37018649584126723 -0.1529005940183831 0 -0.38201135888776849 -0.16404083518277129 0 -0.3923536176574311 -0.14710286407965331 0 -0.37018649584126723 -0.1529005940183831 0 -0.3923536176574311 -0.14710286407965331 0 -0.38902092597003363 -0.13142523252483379 0 -0.37018649584126723 -0.1529005940183831 0 -0.38902092597003363 -0.13142523252483379 0 -0.37081165623143553 -0.1351415007090265 0 -0.37018649584126723 -0.1529005940183831 0 -0.38902092597003363 -0.13142523252483379 0 -0.36918338689671398 -0.1205818143586764 0 -0.37081165623143553 -0.1351415007090265 0 -0.38902092597003363 -0.13142523252483379 0 -0.38902092597003363 -0.13142523252483379 0 -0.40322049128353582 -0.13659978385660521 0 -0.40706142644661603 -0.1108551241323678 0 -0.3923536176574311 -0.14710286407965331 0 -0.38902092597003363 -0.13142523252483379 0 -0.3923536176574311 -0.14710286407965331 0 -0.38902092597003363 -0.13142523252483379 0 -0.40322049128353582 -0.13659978385660521 0 -0.41677603422644088 -0.12991765155467061 0 -0.42649064200626308 -0.14898017897697491 0 -0.40322049128353582 -0.13659978385660521 0 -0.41677603422644088 -0.12991765155467061 0 -0.40706142644661603 -0.1108551241323678 0 -0.40322049128353582 -0.13659978385660521 0 -0.41677603422644088 -0.12991765155467061 0 -0.40911601556802452 -0.1520622854683592 0 -0.41677603422644088 -0.12991765155467061 0 -0.40911601556802452 -0.1520622854683592 0 -0.42649064200626308 -0.14898017897697491 0 -0.41677603422644088 -0.12991765155467061 0 -0.42649064200626308 -0.14898017897697491 0 -0.43983068694193711 -0.130267650719257 0 -0.43983068694193711 -0.130267650719257 0 -0.45451445443753641 -0.14188367431673801 0 -0.46375397340030089 -0.11664273497180309 0 -0.42649064200626308 -0.14898017897697491 0 -0.43983068694193711 -0.130267650719257 0 -0.45451445443753641 -0.14188367431673801 0 -0.42649064200626308 -0.14898017897697491 0 -0.45451445443753641 -0.14188367431673801 0 -0.44527493547477182 -0.16712461366167289 0 -0.45451445443753641 -0.14188367431673801 0 -0.44527493547477182 -0.16712461366167289 0 -0.45451445443753641 -0.14188367431673801 0 -0.46682117901646758 -0.155951151887565 0 -0.47151720414934001 -0.1403774895364529 0 -0.45451445443753641 -0.14188367431673801 0 -0.46682117901646758 -0.155951151887565 0 -0.44527493547477182 -0.16712461366167289 0 -0.45451445443753641 -0.14188367431673801 0 -0.47151720414934001 -0.1403774895364529 0 -0.46375397340030089 -0.11664273497180309 0 -0.45451445443753641 -0.14188367431673801 0 -0.46375397340030089 -0.11664273497180309 0 -0.47151720414934001 -0.1403774895364529 0 -0.48106845187745478 -0.1280925595709658 0 -0.46375397340030089 -0.11664273497180309 0 -0.47151720414934001 -0.1403774895364529 0 -0.48106845187745478 -0.1280925595709658 0 -0.48595640868649531 -0.14943167510095001 0 -0.48595640868649531 -0.14943167510095001 0 -0.50000000000000178 -0.12305511340624289 0 -0.48595640868649531 -0.14943167510095001 0 -0.5 -0.14872534084026329 0 -0.50000000000000178 -0.12305511340624289 0 -0.48106845187745478 -0.1280925595709658 0 -0.48595640868649531 -0.14943167510095001 0 -0.50000000000000178 -0.12305511340624289 0 -0.46682117901646758 -0.155951151887565 0 -0.47151720414934001 -0.1403774895364529 0 -0.48595640868649531 -0.14943167510095001 0 -0.46682117901646758 -0.155951151887565 0 -0.48595640868649531 -0.14943167510095001 0 -0.47191281737298763 -0.1758082367956566 0 -0.48595640868649531 -0.14943167510095001 0 -0.47191281737298763 -0.1758082367956566 0 -0.48595640868649531 -0.14943167510095001 0 -0.5 -0.17439556827428371 0 -0.47191281737298763 -0.1758082367956566 0 -0.48595640868649531 -0.14943167510095001 0 -0.5 -0.14872534084026329 0 -0.5 -0.17439556827428371 0 -0.5 -0.17439556827428371 0 -0.47191281737298763 -0.1758082367956566 0 -0.48177423581017093 -0.1930134310263541 0 -0.47191281737298763 -0.1758082367956566 0 -0.44527493547477182 -0.16712461366167289 0 -0.45283155037182138 -0.18420228044672801 0 -0.47191281737298763 -0.1758082367956566 0 -0.45283155037182138 -0.18420228044672801 0 -0.45786922605947977 -0.20218479849036311 0 -0.46682117901646758 -0.155951151887565 0 -0.47191281737298763 -0.1758082367956566 0 -0.44527493547477182 -0.16712461366167289 0 -0.43603541651200722 -0.19236555300660771 0 -0.44527493547477182 -0.16712461366167289 0 -0.43603541651200722 -0.19236555300660771 0 -0.44527493547477182 -0.16712461366167289 0 -0.45283155037182138 -0.18420228044672801 0 -0.5 -0.2714214834046913 0 -0.49999999999999911 -0.20006579570830421 0 -0.47915166179685958 -0.23774051823811371 0 -0.43603541651200722 -0.19236555300660771 0 -0.45283155037182138 -0.18420228044672801 0 -0.45786922605947977 -0.20218479849036311 0 -0.43603541651200722 -0.19236555300660771 0 -0.44440724364209988 -0.21054001104216311 0 -0.45786922605947977 -0.20218479849036311 0 -0.45786922605947977 -0.20218479849036311 0 -0.47908913561838717 -0.21261275586316269 0 -0.45817827123677562 -0.2251597160180217 0 -0.44440724364209988 -0.21054001104216311 0 -0.45786922605947977 -0.20218479849036311 0 -0.45817827123677562 -0.2251597160180217 0 -0.47191281737298763 -0.1758082367956566 0 -0.45786922605947977 -0.20218479849036311 0 -0.45786922605947977 -0.20218479849036311 0 -0.48177423581017093 -0.1930134310263541 0 -0.47908913561838717 -0.21261275586316269 0 -0.47191281737298763 -0.1758082367956566 0 -0.45786922605947977 -0.20218479849036311 0 -0.48177423581017093 -0.1930134310263541 0 -0.49999999999999911 -0.20006579570830421 0 -0.47908913561838717 -0.21261275586316269 0 -0.47915166179685958 -0.23774051823811371 0 -0.48177423581017093 -0.1930134310263541 0 -0.49999999999999911 -0.20006579570830421 0 -0.47908913561838717 -0.21261275586316269 0 -0.5 -0.17439556827428371 0 -0.48177423581017093 -0.1930134310263541 0 -0.49999999999999911 -0.20006579570830421 0 -0.49999999999999911 -0.20006579570830421 0 -0.47908913561838717 -0.21261275586316269 0 -0.47908913561838717 -0.21261275586316269 0 -0.47915166179685958 -0.23774051823811371 0 -0.45817827123677562 -0.2251597160180217 0 -0.46574271158712788 -0.2545539550302931 0 -0.47915166179685958 -0.23774051823811371 0 -0.45811703466634629 -0.24198872844300201 0 -0.47915166179685958 -0.23774051823811371 0 -0.45811703466634629 -0.24198872844300201 0 -0.45817827123677562 -0.2251597160180217 0 -0.47908913561838717 -0.21261275586316269 0 -0.45817827123677562 -0.2251597160180217 0 -0.43726740685516402 -0.23770667617288069 0 -0.45817827123677562 -0.2251597160180217 0 -0.43726740685516402 -0.23770667617288069 0 -0.43695207153269888 -0.22289316196742981 0 -0.45817827123677562 -0.2251597160180217 0 -0.43695207153269888 -0.22289316196742981 0 -0.44440724364209988 -0.21054001104216311 0 -0.45817827123677562 -0.2251597160180217 0 -0.45024512185580401 -0.25478277675570082 0 -0.43248890343704932 -0.2570147486180836 0 -0.43726740685516402 -0.23770667617288069 0 -0.45024512185580401 -0.25478277675570082 0 -0.43726740685516402 -0.23770667617288069 0 -0.45811703466634629 -0.24198872844300201 0 -0.43726740685516402 -0.23770667617288069 0 -0.45811703466634629 -0.24198872844300201 0 -0.45817827123677562 -0.2251597160180217 0 -0.40873280923950189 -0.033934306706182117 0 -0.42323298963409789 -0.045469210690070032 0 -0.4196573140823312 -0.02910829117136202 0 -0.40873280923950189 -0.033934306706182117 0 -0.42323298963409789 -0.045469210690070032 0 -0.40032148561033992 -0.048506189927129843 0 -0.42323298963409789 -0.045469210690070032 0 -0.40032148561033992 -0.048506189927129843 0 -0.41707249326220219 -0.07018929446497843 0 -0.42323298963409789 -0.045469210690070032 0 -0.41707249326220219 -0.07018929446497843 0 -0.43836630726526871 -0.058341085938702027 0 -0.42323298963409789 -0.045469210690070032 0 -0.44404786551913578 -0.039424431467948662 0 -0.43836630726526871 -0.058341085938702027 0 -0.42323298963409789 -0.045469210690070032 0 -0.43647040446841839 -0.021425699657674682 0 -0.44404786551913578 -0.039424431467948662 0 -0.42323298963409789 -0.045469210690070032 0 -0.43647040446841839 -0.021425699657674682 0 -0.42323298963409789 -0.045469210690070032 0 -0.43647040446841839 -0.021425699657674682 0 -0.4196573140823312 -0.02910829117136202 0 -0.43647040446841839 -0.021425699657674682 0 -0.41019305298730718 -0.01560394763152159 0 -0.4196573140823312 -0.02910829117136202 0 -0.43647040446841839 -0.021425699657674682 0 -0.41019305298730718 -0.01560394763152159 0 -0.43936404878132668 -0.0098509768218109361 0 -0.42106354543924202 0.0076870672853556494 0 -0.42380146610807928 -0.0077730592163261477 0 -0.43936404878132668 -0.0098509768218109361 0 -0.42106354543924202 0.0076870672853556494 0 -0.43647040446841839 -0.021425699657674682 0 -0.42380146610807928 -0.0077730592163261477 0 -0.41019305298730718 -0.01560394763152159 0 -0.43647040446841839 -0.021425699657674682 0 -0.42380146610807928 -0.0077730592163261477 0 -0.43936404878132668 -0.0098509768218109361 0 -0.41019305298730718 -0.01560394763152159 0 -0.4136504257935108 -0.0030353177519624442 0 -0.399543638639415 0.0035486685546423109 0 -0.42380146610807928 -0.0077730592163261477 0 -0.4136504257935108 -0.0030353177519624442 0 -0.42106354543924202 0.0076870672853556494 0 -0.42380146610807928 -0.0077730592163261477 0 -0.41019305298730718 -0.01560394763152159 0 -0.4136504257935108 -0.0030353177519624442 0 -0.40873280923950189 -0.033934306706182117 0 -0.41019305298730718 -0.01560394763152159 0 -0.4196573140823312 -0.02910829117136202 0 -0.40873280923950189 -0.033934306706182117 0 -0.41019305298730718 -0.01560394763152159 0 -0.38856386458454523 -0.031323970449036002 0 -0.41019305298730718 -0.01560394763152159 0 -0.38494724126267749 -0.01024081242787377 0 -0.38856386458454523 -0.031323970449036002 0 -0.41019305298730718 -0.01560394763152159 0 -0.38494724126267749 -0.01024081242787377 0 -0.399543638639415 0.0035486685546423109 0 -0.36241289049985392 -0.0062558452466195437 0 -0.38494724126267749 -0.01024081242787377 0 -0.37792324328799282 -0.023668158184560681 0 -0.36241289049985392 -0.0062558452466195437 0 -0.38494724126267749 -0.01024081242787377 0 -0.37969360624332338 0.014499645279223129 0 -0.38494724126267749 -0.01024081242787377 0 -0.37792324328799282 -0.023668158184560681 0 -0.38856386458454523 -0.031323970449036002 0 -0.37792324328799282 -0.023668158184560681 0 -0.3788695889919827 -0.035214426459559557 0 -0.38856386458454523 -0.031323970449036002 0 -0.37435476911897531 -0.046676356823293567 0 -0.3788695889919827 -0.035214426459559557 0 -0.38581866069958459 -0.043335446210157919 0 -0.3788695889919827 -0.035214426459559557 0 -0.38581866069958459 -0.043335446210157919 0 -0.38856386458454523 -0.031323970449036002 0 -0.40873280923950189 -0.033934306706182117 0 -0.38856386458454523 -0.031323970449036002 0 -0.40032148561033992 -0.048506189927129843 0 -0.38581866069958459 -0.043335446210157919 0 -0.38856386458454523 -0.031323970449036002 0 -0.40032148561033992 -0.048506189927129843 0 -0.40032148561033992 -0.048506189927129843 0 -0.39796903505877268 -0.063657230847174714 0 -0.41707249326220219 -0.07018929446497843 0 -0.38581866069958459 -0.043335446210157919 0 -0.40032148561033992 -0.048506189927129843 0 -0.38874586386122478 -0.053898300951324418 0 -0.38874586386122478 -0.053898300951324418 0 -0.38571039656339329 -0.068958981553270432 0 -0.39796903505877268 -0.063657230847174714 0 -0.40032148561033992 -0.048506189927129843 0 -0.38874586386122478 -0.053898300951324418 0 -0.39796903505877268 -0.063657230847174714 0 -0.37435476911897531 -0.046676356823293567 0 -0.38874586386122478 -0.053898300951324418 0 -0.38571039656339329 -0.068958981553270432 0 -0.372961924037777 -0.055880556014879748 0 -0.37435476911897531 -0.046676356823293567 0 -0.38571039656339329 -0.068958981553270432 0 -0.37435476911897531 -0.046676356823293567 0 -0.38571039656339329 -0.068958981553270432 0 -0.37435476911897531 -0.046676356823293567 0 -0.38581866069958459 -0.043335446210157919 0 -0.38874586386122478 -0.053898300951324418 0 -0.372961924037777 -0.055880556014879748 0 -0.37823644080673863 -0.080692911399009873 0 -0.372961924037777 -0.055880556014879748 0 -0.38571039656339329 -0.068958981553270432 0 -0.37823644080673863 -0.080692911399009873 0 -0.38571039656339329 -0.068958981553270432 0 -0.37823644080673863 -0.080692911399009873 0 -0.39706602400781149 -0.091241606283247068 0 -0.37029364707931228 -0.092352390776046844 0 -0.37823644080673863 -0.080692911399009873 0 -0.38105436534050829 -0.10101830259916469 0 -0.37823644080673863 -0.080692911399009873 0 -0.39706602400781149 -0.091241606283247068 0 -0.38351095757570047 -0.1055052667831399 0 -0.37823644080673863 -0.080692911399009873 0 -0.38351095757570047 -0.1055052667831399 0 -0.39706602400781149 -0.091241606283247068 0 -0.39903747258694722 -0.074432238016311325 0 -0.41707249326220219 -0.07018929446497843 0 -0.38571039656339329 -0.068958981553270432 0 -0.39706602400781149 -0.091241606283247068 0 -0.38571039656339329 -0.068958981553270432 0 -0.39706602400781149 -0.091241606283247068 0 -0.39903747258694722 -0.074432238016311325 0 -0.39903747258694722 -0.074432238016311325 0 -0.39796903505877268 -0.063657230847174714 0 -0.41707249326220219 -0.07018929446497843 0 -0.38571039656339329 -0.068958981553270432 0 -0.39903747258694722 -0.074432238016311325 0 -0.39796903505877268 -0.063657230847174714 0 -0.38902092597003363 -0.13142523252483379 0 -0.38351095757570047 -0.1055052667831399 0 -0.36918338689671398 -0.1205818143586764 0 -0.38902092597003363 -0.13142523252483379 0 -0.38351095757570047 -0.1055052667831399 0 -0.36918338689671398 -0.1205818143586764 0 -0.38351095757570047 -0.1055052667831399 0 -0.37823644080673863 -0.080692911399009873 0 -0.38351095757570047 -0.1055052667831399 0 -0.38105436534050829 -0.10101830259916469 0 -0.36806550003891769 -0.11711827369180119 0 -0.38351095757570047 -0.1055052667831399 0 -0.38105436534050829 -0.10101830259916469 0 -0.39706602400781149 -0.091241606283247068 0 -0.38351095757570047 -0.1055052667831399 0 -0.39706602400781149 -0.091241606283247068 0 -0.40706142644661603 -0.1108551241323678 0 -0.39706602400781149 -0.091241606283247068 0 -0.38351095757570047 -0.1055052667831399 0 -0.40706142644661603 -0.1108551241323678 0 -0.38902092597003363 -0.13142523252483379 0 -0.40706142644661603 -0.1108551241323678 0 -0.38902092597003363 -0.13142523252483379 0 -0.38351095757570047 -0.1055052667831399 0 -0.40706142644661603 -0.1108551241323678 0 -0.41677603422644088 -0.12991765155467061 0 -0.40706142644661603 -0.1108551241323678 0 -0.41677603422644088 -0.12991765155467061 0 -0.40706142644661603 -0.1108551241323678 0 -0.42283709783028928 -0.1074175763858032 0 -0.39706602400781149 -0.091241606283247068 0 -0.40706142644661603 -0.1108551241323678 0 -0.42418698243282138 -0.091328252171423055 0 -0.40706142644661603 -0.1108551241323678 0 -0.42283709783028928 -0.1074175763858032 0 -0.42418698243282138 -0.091328252171423055 0 -0.40706142644661603 -0.1108551241323678 0 -0.42418698243282138 -0.091328252171423055 0 -0.42283709783028928 -0.1074175763858032 0 -0.42418698243282138 -0.091328252171423055 0 -0.43761833063914402 -0.11391401377609869 0 -0.42418698243282138 -0.091328252171423055 0 -0.44741427871698652 -0.092801966773122788 0 -0.43761833063914402 -0.11391401377609869 0 -0.41677603422644088 -0.12991765155467061 0 -0.43983068694193711 -0.130267650719257 0 -0.43761833063914402 -0.11391401377609869 0 -0.41677603422644088 -0.12991765155467061 0 -0.42283709783028928 -0.1074175763858032 0 -0.43761833063914402 -0.11391401377609869 0 -0.39706602400781149 -0.091241606283247068 0 -0.41707249326220219 -0.07018929446497843 0 -0.42418698243282138 -0.091328252171423055 0 -0.39706602400781149 -0.091241606283247068 0 -0.41707249326220219 -0.07018929446497843 0 -0.42418698243282138 -0.091328252171423055 0 -0.43588728470240218 -0.076545611091135557 0 -0.44741427871698652 -0.092801966773122788 0 -0.41707249326220219 -0.07018929446497843 0 -0.42418698243282138 -0.091328252171423055 0 -0.43588728470240218 -0.076545611091135557 0 -0.41707249326220219 -0.07018929446497843 0 -0.43588728470240218 -0.076545611091135557 0 -0.43836630726526871 -0.058341085938702027 0 -0.43588728470240218 -0.076545611091135557 0 -0.4523963618347322 -0.070067456107451562 0 -0.43836630726526871 -0.058341085938702027 0 -0.43588728470240218 -0.076545611091135557 0 -0.4523963618347322 -0.070067456107451562 0 -0.44741427871698652 -0.092801966773122788 0 -0.4523963618347322 -0.070067456107451562 0 -0.44741427871698652 -0.092801966773122788 0 -0.47225464183310029 -0.090568280731781983 0 -0.4523963618347322 -0.070067456107451562 0 -0.47499467344653468 -0.068234985027650033 0 -0.47225464183310029 -0.090568280731781983 0 -0.43983068694193711 -0.130267650719257 0 -0.43761833063914402 -0.11391401377609869 0 -0.46375397340030089 -0.11664273497180309 0 -0.44741427871698652 -0.092801966773122788 0 -0.43761833063914402 -0.11391401377609869 0 -0.46375397340030089 -0.11664273497180309 0 -0.44741427871698652 -0.092801966773122788 0 -0.46375397340030089 -0.11664273497180309 0 -0.47225464183310029 -0.090568280731781983 0 -0.48106845187745478 -0.1280925595709658 0 -0.46375397340030089 -0.11664273497180309 0 -0.48319958621508913 -0.11001452487556029 0 -0.46375397340030089 -0.11664273497180309 0 -0.48319958621508913 -0.11001452487556029 0 -0.47225464183310029 -0.090568280731781983 0 -0.48319958621508913 -0.11001452487556029 0 -0.5 -0.097081539704915509 0 -0.47225464183310029 -0.090568280731781983 0 -0.48106845187745478 -0.1280925595709658 0 -0.48319958621508913 -0.11001452487556029 0 -0.50000000000000178 -0.12305511340624289 0 -0.48319958621508913 -0.11001452487556029 0 -0.5 -0.097081539704915509 0 -0.50000000000000178 -0.12305511340624289 0 -0.47499467344653468 -0.068234985027650033 0 -0.47225464183310029 -0.090568280731781983 0 -0.48583804437056649 -0.079727621242200467 0 -0.5 -0.097081539704915509 0 -0.48583804437056649 -0.079727621242200467 0 -0.49999999999999728 -0.071107966003588235 0 -0.5 -0.097081539704915509 0 -0.47225464183310029 -0.090568280731781983 0 -0.48583804437056649 -0.079727621242200467 0 -0.47499467344653468 -0.068234985027650033 0 -0.49999999999999728 -0.071107966003588235 0 -0.48078555604521228 -0.049047366012631217 0 -0.47499467344653468 -0.068234985027650033 0 -0.48583804437056649 -0.079727621242200467 0 -0.49999999999999728 -0.071107966003588235 0 -0.49999999999999728 -0.071107966003588235 0 -0.48078555604521228 -0.049047366012631217 0 -0.49999999999999728 -0.071107966003588235 0 -0.5 -0.041488134385767587 0 -0.48078555604521228 -0.049047366012631217 0 -0.49890995447659581 -0.035259193380727499 0 -0.48024053328351352 -0.031122979701198001 0 -0.5 -0.041488134385767587 0 -0.49890995447659581 -0.035259193380727499 0 -0.48078555604521228 -0.049047366012631217 0 -0.49890995447659581 -0.035259193380727499 0 -0.48078555604521228 -0.049047366012631217 0 -0.48024053328351352 -0.031122979701198001 0 -0.48078555604521228 -0.049047366012631217 0 -0.4615711120904305 -0.02698676602167123 0 -0.48078555604521228 -0.049047366012631217 0 -0.4615711120904305 -0.02698676602167123 0 -0.48024053328351352 -0.031122979701198001 0 -0.47499467344653468 -0.068234985027650033 0 -0.48078555604521228 -0.049047366012631217 0 -0.45869343659559669 -0.048891220068246762 0 -0.4523963618347322 -0.070067456107451562 0 -0.47499467344653468 -0.068234985027650033 0 -0.45869343659559669 -0.048891220068246762 0 -0.48078555604521228 -0.049047366012631217 0 -0.45869343659559669 -0.048891220068246762 0 -0.4615711120904305 -0.02698676602167123 0 -0.45869343659559669 -0.048891220068246762 0 -0.44404786551913578 -0.039424431467948662 0 -0.4615711120904305 -0.02698676602167123 0 -0.4523963618347322 -0.070067456107451562 0 -0.45869343659559669 -0.048891220068246762 0 -0.43836630726526871 -0.058341085938702027 0 -0.45869343659559669 -0.048891220068246762 0 -0.44404786551913578 -0.039424431467948662 0 -0.43836630726526871 -0.058341085938702027 0 -0.44431592750303361 -0.0071756423769572617 0 -0.43936404878132668 -0.0098509768218109361 0 -0.43045429797072809 0.0087392529515088052 0 -0.44431592750303361 -0.0071756423769572617 0 -0.45740829525514709 -0.01100560150071592 0 -0.45672633337157259 0.00044263225446872603 0 -0.43647040446841839 -0.021425699657674682 0 -0.44431592750303361 -0.0071756423769572617 0 -0.43647040446841839 -0.021425699657674682 0 -0.44431592750303361 -0.0071756423769572617 0 -0.43936404878132668 -0.0098509768218109361 0 -0.43647040446841839 -0.021425699657674682 0 -0.44404786551913578 -0.039424431467948662 0 -0.4615711120904305 -0.02698676602167123 0 -0.44431592750303361 -0.0071756423769572617 0 -0.4615711120904305 -0.02698676602167123 0 -0.43647040446841839 -0.021425699657674682 0 -0.44431592750303361 -0.0071756423769572617 0 -0.4615711120904305 -0.02698676602167123 0 -0.43647040446841839 -0.021425699657674682 0 -0.4615711120904305 -0.02698676602167123 0 -0.4615711120904305 -0.02698676602167123 0 -0.46473200266016462 -0.01521370089580722 0 -0.45740829525514709 -0.01100560150071592 0 -0.4615711120904305 -0.02698676602167123 0 -0.46473200266016462 -0.01521370089580722 0 -0.47516517600866509 -0.01613105879531478 0 -0.44431592750303361 -0.0071756423769572617 0 -0.4615711120904305 -0.02698676602167123 0 -0.45740829525514709 -0.01100560150071592 0 -0.46473200266016462 -0.01521370089580722 0 -0.46478342728641742 -0.0067313772655254733 0 -0.47516517600866509 -0.01613105879531478 0 -0.46473200266016462 -0.01521370089580722 0 -0.45740829525514709 -0.01100560150071592 0 -0.46478342728641742 -0.0067313772655254733 0 -0.45740829525514709 -0.01100560150071592 0 -0.46478342728641742 -0.0067313772655254733 0 -0.45672633337157259 0.00044263225446872603 0 -0.46478342728641742 -0.0067313772655254733 0 -0.45672633337157259 0.00044263225446872603 0 -0.46411690277825107 0.001973172095711055 0 -0.46478342728641742 -0.0067313772655254733 0 -0.47319967387936163 -0.00033094440380276082 0 -0.46411690277825107 0.001973172095711055 0 -0.48375921363686891 -0.0039832062559164291 0 -0.47319967387936163 -0.00033094440380276082 0 -0.47516517600866509 -0.01613105879531478 0 -0.46478342728641742 -0.0067313772655254733 0 -0.47319967387936163 -0.00033094440380276082 0 -0.47516517600866509 -0.01613105879531478 0 -0.48375921363686891 -0.0039832062559164291 0 -0.47516517600866509 -0.01613105879531478 0 -0.48761497548112859 -0.019672948180220709 0 -0.4615711120904305 -0.02698676602167123 0 -0.48024053328351352 -0.031122979701198001 0 -0.4615711120904305 -0.02698676602167123 0 -0.47516517600866509 -0.01613105879531478 0 -0.48024053328351352 -0.031122979701198001 0 -0.47516517600866509 -0.01613105879531478 0 -0.48024053328351352 -0.031122979701198001 0 -0.48761497548112859 -0.019672948180220709 0 -0.49890995447659581 -0.035259193380727499 0 -0.48024053328351352 -0.031122979701198001 0 -0.48761497548112859 -0.019672948180220709 0 -0.49890995447659581 -0.035259193380727499 0 -0.48761497548112859 -0.019672948180220709 0 -0.5 -0.011868302767946809 0 -0.5 -0.041488134385767587 0 -0.49890995447659581 -0.035259193380727499 0 -0.5 -0.011868302767946809 0 -0.48375921363686891 -0.0039832062559164291 0 -0.48761497548112859 -0.019672948180220709 0 -0.5 -0.011868302767946809 0 -0.48375921363686891 -0.0039832062559164291 0 -0.5 -0.011868302767946809 0 -0.5 0.01775152884987391 0 -0.48375921363686891 -0.0039832062559164291 0 -0.5 0.01775152884987391 0 -0.47904757083238309 0.012255902039401559 0 -0.5 0.01775152884987391 0 -0.48278030691080359 0.030690418195129118 0 -0.47904757083238309 0.012255902039401559 0 -0.48278030691080359 0.030690418195129118 0 -0.47904757083238309 0.012255902039401559 0 -0.46645920613155739 0.020017131460660292 0 -0.48278030691080359 0.030690418195129118 0 -0.46650199450563301 0.033121572254369153 0 -0.46645920613155739 0.020017131460660292 0 -0.48375921363686891 -0.0039832062559164291 0 -0.47319967387936163 -0.00033094440380276082 0 -0.47904757083238309 0.012255902039401559 0 -0.47904757083238309 0.012255902039401559 0 -0.46746933035555033 0.0092353589707936373 0 -0.46645920613155739 0.020017131460660292 0 -0.47319967387936163 -0.00033094440380276082 0 -0.47904757083238309 0.012255902039401559 0 -0.46746933035555033 0.0092353589707936373 0 -0.5 0.047371360467694627 0 -0.49142948359323019 0.061680896710041733 0 -0.47759502800693299 0.053270179570032113 0 -0.5 0.047371360467694627 0 -0.49142948359323019 0.061680896710041733 0 -0.5 0.076991192085515359 0 -0.5 0.01775152884987391 0 -0.48278030691080359 0.030690418195129118 0 -0.5 0.047371360467694627 0 -0.48278030691080359 0.030690418195129118 0 -0.5 0.047371360467694627 0 -0.47759502800693299 0.053270179570032113 0 -0.47759502800693299 0.053270179570032113 0 -0.46306277177674338 0.050489335524804689 0 -0.46650199450563301 0.033121572254369153 0 -0.48278030691080359 0.030690418195129118 0 -0.47759502800693299 0.053270179570032113 0 -0.46650199450563301 0.033121572254369153 0 -0.47759502800693299 0.053270179570032113 0 -0.46650199450563301 0.033121572254369153 0 -0.47759502800693299 0.053270179570032113 0 -0.46306277177674338 0.050489335524804689 0 -0.47640155753413388 0.067055256031993513 0 -0.46306277177674338 0.050489335524804689 0 -0.45313062435197549 0.062055602608097261 0 -0.4627906790570166 0.070318997642363754 0 -0.46306277177674338 0.050489335524804689 0 -0.45313062435197549 0.062055602608097261 0 -0.44821910782708257 0.043372305554531532 0 -0.46306277177674338 0.050489335524804689 0 -0.46650199450563301 0.033121572254369153 0 -0.44821910782708257 0.043372305554531532 0 -0.44821910782708257 0.043372305554531532 0 -0.43753169705562678 0.032975396165010398 0 -0.43158784680885109 0.048882541534934668 0 -0.44821910782708257 0.043372305554531532 0 -0.43753169705562678 0.032975396165010398 0 -0.44772260909787082 0.018888163985219541 0 -0.44821910782708257 0.043372305554531532 0 -0.4335061699713858 0.059470041528235283 0 -0.43158784680885109 0.048882541534934668 0 -0.44821910782708257 0.043372305554531532 0 -0.44022666177934799 0.071153305611538209 0 -0.45313062435197549 0.062055602608097261 0 -0.44821910782708257 0.043372305554531532 0 -0.44022666177934799 0.071153305611538209 0 -0.44821910782708257 0.043372305554531532 0 -0.4335061699713858 0.059470041528235283 0 -0.44022666177934799 0.071153305611538209 0 -0.45540896100433281 0.01297296493870617 0 -0.46098825508230618 0.0076855541735063697 0 -0.46258143814343661 0.012477752385916609 0 -0.45621155387481732 0.01559130549752488 0 -0.45540896100433281 0.01297296493870617 0 -0.45168383431639941 0.014362213648747121 0 -0.45540896100433281 0.01297296493870617 0 -0.45672633337157259 0.00044263225446872603 0 -0.46098825508230618 0.0076855541735063697 0 -0.45672633337157259 0.00044263225446872603 0 -0.46098825508230618 0.0076855541735063697 0 -0.46411690277825107 0.001973172095711055 0 -0.47319967387936163 -0.00033094440380276082 0 -0.46411690277825107 0.001973172095711055 0 -0.46746933035555033 0.0092353589707936373 0 -0.46098825508230618 0.0076855541735063697 0 -0.46411690277825107 0.001973172095711055 0 -0.46746933035555033 0.0092353589707936373 0 -0.45540896100433281 0.01297296493870617 0 -0.46258143814343661 0.012477752385916609 0 -0.46645920613155739 0.020017131460660292 0 -0.46746933035555033 0.0092353589707936373 0 -0.46258143814343661 0.012477752385916609 0 -0.46645920613155739 0.020017131460660292 0 -0.46098825508230618 0.0076855541735063697 0 -0.46746933035555033 0.0092353589707936373 0 -0.46258143814343661 0.012477752385916609 0 -0.46650199450563301 0.033121572254369153 0 -0.44821910782708257 0.043372305554531532 0 -0.45621155387481732 0.01559130549752488 0 -0.46650199450563301 0.033121572254369153 0 -0.45540896100433281 0.01297296493870617 0 -0.46650199450563301 0.033121572254369153 0 -0.45540896100433281 0.01297296493870617 0 -0.46645920613155739 0.020017131460660292 0 -0.46650199450563301 0.033121572254369153 0 -0.45621155387481732 0.01559130549752488 0 -0.45540896100433281 0.01297296493870617 0 -0.44821910782708257 0.043372305554531532 0 -0.45621155387481732 0.01559130549752488 0 -0.44821910782708257 0.043372305554531532 0 -0.45621155387481732 0.01559130549752488 0 -0.44772260909787082 0.018888163985219541 0 -0.45621155387481732 0.01559130549752488 0 -0.44772260909787082 0.018888163985219541 0 -0.45168383431639941 0.014362213648747121 0 -0.43753169705562678 0.032975396165010398 0 -0.44772260909787082 0.018888163985219541 0 -0.43939446758447109 0.018990916693822212 0 -0.44772260909787082 0.018888163985219541 0 -0.43939446758447109 0.018990916693822212 0 -0.44232043293211237 0.01376255742850793 0 -0.43939446758447109 0.018990916693822212 0 -0.44232043293211237 0.01376255742850793 0 -0.43637727504469692 0.0135201671309205 0 -0.44431592750303361 -0.0071756423769572617 0 -0.45540896100433281 0.01297296493870617 0 -0.44431592750303361 -0.0071756423769572617 0 -0.44085056910240111 0.0074863562413322628 0 -0.43045429797072809 0.0087392529515088052 0 -0.44431592750303361 -0.0071756423769572617 0 -0.45540896100433281 0.01297296493870617 0 -0.45672633337157259 0.00044263225446872603 0 -0.44431592750303361 -0.0071756423769572617 0 -0.45540896100433281 0.01297296493870617 0 -0.44739221328857648 0.0099964201735378844 0 -0.44431592750303361 -0.0071756423769572617 0 -0.44739221328857648 0.0099964201735378844 0 -0.44085056910240111 0.0074863562413322628 0 -0.44232043293211237 0.01376255742850793 0 -0.44085056910240111 0.0074863562413322628 0 -0.43637727504469692 0.0135201671309205 0 -0.44232043293211237 0.01376255742850793 0 -0.44739221328857648 0.0099964201735378844 0 -0.44085056910240111 0.0074863562413322628 0 -0.44772260909787082 0.018888163985219541 0 -0.44739221328857648 0.0099964201735378844 0 -0.45168383431639941 0.014362213648747121 0 -0.44772260909787082 0.018888163985219541 0 -0.44232043293211237 0.01376255742850793 0 -0.44739221328857648 0.0099964201735378844 0 -0.45540896100433281 0.01297296493870617 0 -0.44739221328857648 0.0099964201735378844 0 -0.45168383431639941 0.014362213648747121 0 -0.44431592750303361 -0.0071756423769572617 0 -0.43045429797072809 0.0087392529515088052 0 -0.43936404878132668 -0.0098509768218109361 0 -0.43045429797072809 0.0087392529515088052 0 -0.42106354543924202 0.0076870672853556494 0 -0.43045429797072809 0.0087392529515088052 0 -0.43637727504469692 0.0135201671309205 0 -0.43078425368528628 0.01960547280464656 0 -0.44085056910240111 0.0074863562413322628 0 -0.43045429797072809 0.0087392529515088052 0 -0.43637727504469692 0.0135201671309205 0 -0.43045429797072809 0.0087392529515088052 0 -0.42106354543924202 0.0076870672853556494 0 -0.43078425368528628 0.01960547280464656 0 -0.42106354543924202 0.0076870672853556494 0 -0.399543638639415 0.0035486685546423109 0 -0.4027630420971573 0.025225111392522231 0 -0.4136504257935108 -0.0030353177519624442 0 -0.42106354543924202 0.0076870672853556494 0 -0.399543638639415 0.0035486685546423109 0 -0.42106354543924202 0.0076870672853556494 0 -0.42265469626768831 0.025422846795848469 0 -0.4027630420971573 0.025225111392522231 0 -0.42106354543924202 0.0076870672853556494 0 -0.4027630420971573 0.025225111392522231 0 -0.42265469626768831 0.025422846795848469 0 -0.42046159609281603 0.039881488302233273 0 -0.4027630420971573 0.025225111392522231 0 -0.42106354543924202 0.0076870672853556494 0 -0.42265469626768831 0.025422846795848469 0 -0.43078425368528628 0.01960547280464656 0 -0.43939446758447109 0.018990916693822212 0 -0.43637727504469692 0.0135201671309205 0 -0.43078425368528628 0.01960547280464656 0 -0.43753169705562678 0.032975396165010398 0 -0.42265469626768831 0.025422846795848469 0 -0.43078425368528628 0.01960547280464656 0 -0.43753169705562678 0.032975396165010398 0 -0.43939446758447109 0.018990916693822212 0 -0.43078425368528628 0.01960547280464656 0 -0.43753169705562678 0.032975396165010398 0 -0.42265469626768831 0.025422846795848469 0 -0.42046159609281603 0.039881488302233273 0 -0.43753169705562678 0.032975396165010398 0 -0.43158784680885109 0.048882541534934668 0 -0.42046159609281603 0.039881488302233273 0 -0.43158784680885109 0.048882541534934668 0 -0.42018963864734249 0.059930627672897863 0 -0.42046159609281603 0.039881488302233273 0 -0.4335061699713858 0.059470041528235283 0 -0.43158784680885109 0.048882541534934668 0 -0.42018963864734249 0.059930627672897863 0 -0.42018963864734249 0.059930627672897863 0 -0.40804265568023029 0.046852406252186 0 -0.40681788114439521 0.06908108434760564 0 -0.42018963864734249 0.059930627672897863 0 -0.40804265568023029 0.046852406252186 0 -0.42046159609281603 0.039881488302233273 0 -0.40804265568023029 0.046852406252186 0 -0.42046159609281603 0.039881488302233273 0 -0.4027630420971573 0.025225111392522231 0 -0.40804265568023029 0.046852406252186 0 -0.38446253875507252 0.042763155499688822 0 -0.4027630420971573 0.025225111392522231 0 -0.38446253875507252 0.042763155499688822 0 -0.4027630420971573 0.025225111392522231 0 -0.39404771279731637 0.053904114787282048 0 -0.38632816749448512 0.064150741427937183 0 -0.40681788114439521 0.06908108434760564 0 -0.40804265568023029 0.046852406252186 0 -0.39404771279731637 0.053904114787282048 0 -0.40681788114439521 0.06908108434760564 0 -0.40804265568023029 0.046852406252186 0 -0.39404771279731637 0.053904114787282048 0 -0.38446253875507252 0.042763155499688822 0 -0.38632816749448512 0.064150741427937183 0 -0.36583845384457497 0.059220398508268768 0 -0.38051367830517069 0.052797684074857423 0 -0.38632816749448512 0.064150741427937183 0 -0.36583845384457497 0.059220398508268768 0 -0.39404771279731637 0.053904114787282048 0 -0.38051367830517069 0.052797684074857423 0 -0.38632816749448512 0.064150741427937183 0 -0.39404771279731637 0.053904114787282048 0 -0.38051367830517069 0.052797684074857423 0 -0.38446253875507252 0.042763155499688822 0 -0.38051367830517069 0.052797684074857423 0 -0.38446253875507252 0.042763155499688822 0 -0.37104284309123159 0.04522594716483215 0 -0.38446253875507252 0.042763155499688822 0 -0.37969360624332338 0.014499645279223129 0 -0.4027630420971573 0.025225111392522231 0 -0.38446253875507252 0.042763155499688822 0 -0.37969360624332338 0.014499645279223129 0 -0.36763194729773668 0.031471598799941942 0 -0.38494724126267749 -0.01024081242787377 0 -0.37969360624332338 0.014499645279223129 0 -0.399543638639415 0.0035486685546423109 0 -0.37969360624332338 0.014499645279223129 0 -0.399543638639415 0.0035486685546423109 0 -0.4027630420971573 0.025225111392522231 0 -0.39448025446667462 0.099476073187279704 0 -0.40353543008124348 0.1065954644252633 0 -0.39242178738680999 0.1101921648099409 0 -0.39448025446667462 0.099476073187279704 0 -0.40353543008124348 0.1065954644252633 0 -0.40930951880232941 0.094254705871876565 0 -0.40353543008124348 0.1065954644252633 0 -0.39877076631341968 0.1173842595620057 0 -0.40934760350237509 0.11690874582659359 0 -0.39877076631341968 0.1173842595620057 0 -0.40934760350237509 0.11690874582659359 0 -0.40414811723269017 0.1256352255995502 0 -0.39877076631341968 0.1173842595620057 0 -0.40414811723269017 0.1256352255995502 0 -0.39392182245172952 0.1264933370771881 0 -0.39877076631341968 0.1173842595620057 0 -0.38994383285083628 0.1189836208407259 0 -0.39392182245172952 0.1264933370771881 0 -0.39877076631341968 0.1173842595620057 0 -0.39242178738680999 0.1101921648099409 0 -0.38994383285083628 0.1189836208407259 0 -0.40353543008124348 0.1065954644252633 0 -0.39877076631341968 0.1173842595620057 0 -0.39242178738680999 0.1101921648099409 0 -0.39242178738680999 0.1101921648099409 0 -0.38352466478858738 0.1145383251965864 0 -0.38994383285083628 0.1189836208407259 0 -0.39242178738680999 0.1101921648099409 0 -0.38352466478858738 0.1145383251965864 0 -0.38380485860662739 0.103518605027776 0 -0.38352466478858738 0.1145383251965864 0 -0.38994383285083628 0.1189836208407259 0 -0.38286100191370448 0.1252178084656824 0 -0.38994383285083628 0.1189836208407259 0 -0.39392182245172952 0.1264933370771881 0 -0.38286100191370448 0.1252178084656824 0 -0.38352466478858738 0.1145383251965864 0 -0.37519792901347693 0.11969295588409611 0 -0.38286100191370448 0.1252178084656824 0 -0.37519792901347693 0.11969295588409611 0 -0.38286100191370448 0.1252178084656824 0 -0.3736821007348497 0.1272429878630868 0 -0.38352466478858738 0.1145383251965864 0 -0.37519792901347693 0.11969295588409611 0 -0.37691857896006981 0.1096247961512975 0 -0.37691857896006981 0.1096247961512975 0 -0.38380485860662739 0.103518605027776 0 -0.37131054729579149 0.097301720866168048 0 -0.38352466478858738 0.1145383251965864 0 -0.37691857896006981 0.1096247961512975 0 -0.38380485860662739 0.103518605027776 0 -0.39448025446667462 0.099476073187279704 0 -0.39242178738680999 0.1101921648099409 0 -0.38380485860662739 0.103518605027776 0 -0.39448025446667462 0.099476073187279704 0 -0.38380485860662739 0.103518605027776 0 -0.38310798868086288 0.092143179473750836 0 -0.38380485860662739 0.103518605027776 0 -0.38310798868086288 0.092143179473750836 0 -0.37131054729579149 0.097301720866168048 0 -0.38757398632345219 0.076737552190072708 0 -0.36741797035749169 0.074346927305574656 0 -0.3744230082937885 0.08547581354146537 0 -0.38310798868086288 0.092143179473750836 0 -0.3744230082937885 0.08547581354146537 0 -0.37131054729579149 0.097301720866168048 0 -0.39448025446667462 0.099476073187279704 0 -0.38310798868086288 0.092143179473750836 0 -0.38757398632345219 0.076737552190072708 0 -0.38310798868086288 0.092143179473750836 0 -0.38757398632345219 0.076737552190072708 0 -0.3744230082937885 0.08547581354146537 0 -0.38757398632345219 0.076737552190072708 0 -0.38632816749448512 0.064150741427937183 0 -0.36583845384457497 0.059220398508268768 0 -0.38757398632345219 0.076737552190072708 0 -0.36583845384457497 0.059220398508268768 0 -0.38757398632345219 0.076737552190072708 0 -0.41478735049883092 0.081002400840992736 0 -0.40681788114439521 0.06908108434760564 0 -0.38632816749448512 0.064150741427937183 0 -0.40681788114439521 0.06908108434760564 0 -0.38757398632345219 0.076737552190072708 0 -0.38632816749448512 0.064150741427937183 0 -0.40681788114439521 0.06908108434760564 0 -0.38757398632345219 0.076737552190072708 0 -0.40930951880232941 0.094254705871876565 0 -0.39448025446667462 0.099476073187279704 0 -0.38757398632345219 0.076737552190072708 0 -0.40930951880232941 0.094254705871876565 0 -0.38757398632345219 0.076737552190072708 0 -0.41478735049883092 0.081002400840992736 0 -0.40930951880232941 0.094254705871876565 0 -0.41478735049883092 0.081002400840992736 0 -0.43223421573161341 0.098934305668544859 0 -0.40930951880232941 0.094254705871876565 0 -0.41478735049883092 0.081002400840992736 0 -0.40681788114439521 0.06908108434760564 0 -0.42730759479430519 0.074011427267274096 0 -0.42018963864734249 0.059930627672897863 0 -0.40681788114439521 0.06908108434760564 0 -0.42730759479430519 0.074011427267274096 0 -0.40681788114439521 0.06908108434760564 0 -0.42730759479430519 0.074011427267274096 0 -0.4335061699713858 0.059470041528235283 0 -0.42018963864734249 0.059930627672897863 0 -0.42730759479430519 0.074011427267274096 0 -0.4335061699713858 0.059470041528235283 0 -0.42730759479430519 0.074011427267274096 0 -0.44022666177934799 0.071153305611538209 0 -0.41478735049883092 0.081002400840992736 0 -0.42730759479430519 0.074011427267274096 0 -0.43223421573161341 0.098934305668544859 0 -0.42730759479430519 0.074011427267274096 0 -0.43223421573161341 0.098934305668544859 0 -0.44022666177934799 0.071153305611538209 0 -0.43223421573161341 0.098934305668544859 0 -0.44022666177934799 0.071153305611538209 0 -0.40353543008124348 0.1065954644252633 0 -0.40930951880232941 0.094254705871876565 0 -0.4192621803217691 0.1102425121841327 0 -0.43223421573161341 0.098934305668544859 0 -0.40930951880232941 0.094254705871876565 0 -0.4192621803217691 0.1102425121841327 0 -0.40353543008124348 0.1065954644252633 0 -0.40934760350237509 0.11690874582659359 0 -0.4192621803217691 0.1102425121841327 0 -0.4192621803217691 0.1102425121841327 0 -0.41651236846896422 0.12149702726738321 0 -0.42424176968387872 0.12671530572555151 0 -0.41209181412507823 0.1249046904338954 0 -0.40934760350237509 0.11690874582659359 0 -0.41651236846896422 0.12149702726738321 0 -0.41209181412507823 0.1249046904338954 0 -0.40934760350237509 0.11690874582659359 0 -0.40414811723269017 0.1256352255995502 0 -0.40934760350237509 0.11690874582659359 0 -0.4192621803217691 0.1102425121841327 0 -0.41651236846896422 0.12149702726738321 0 -0.41209181412507823 0.1249046904338954 0 -0.41651236846896422 0.12149702726738321 0 -0.41738457767411852 0.12859188695433299 0 -0.43223421573161341 0.098934305668544859 0 -0.4192621803217691 0.1102425121841327 0 -0.42424176968387872 0.12671530572555151 0 -0.43223421573161341 0.098934305668544859 0 -0.42424176968387872 0.12671530572555151 0 -0.43223421573161341 0.098934305668544859 0 -0.43801454674729812 0.12448261858860279 0 -0.42424176968387872 0.12671530572555151 0 -0.43801454674729812 0.12448261858860279 0 -0.44752426002054002 0.11657406561765569 0 -0.46014077350219601 0.13326566903650691 0 -0.43223421573161341 0.098934305668544859 0 -0.43801454674729812 0.12448261858860279 0 -0.44752426002054002 0.11657406561765569 0 -0.43223421573161341 0.098934305668544859 0 -0.45282079195542918 0.10138041098144 0 -0.44775761866793767 0.08788513384481747 0 -0.43223421573161341 0.098934305668544859 0 -0.44752426002054002 0.11657406561765569 0 -0.45282079195542918 0.10138041098144 0 -0.45282079195542918 0.10138041098144 0 -0.46342169295672792 0.089489447893371099 0 -0.47316617240032688 0.11401910188281091 0 -0.44752426002054002 0.11657406561765569 0 -0.47316617240032688 0.11401910188281091 0 -0.46014077350219601 0.13326566903650691 0 -0.44752426002054002 0.11657406561765569 0 -0.45282079195542918 0.10138041098144 0 -0.47316617240032688 0.11401910188281091 0 -0.45313062435197549 0.062055602608097261 0 -0.44022666177934799 0.071153305611538209 0 -0.45172120381489578 0.076484157654353027 0 -0.44022666177934799 0.071153305611538209 0 -0.45172120381489578 0.076484157654353027 0 -0.44775761866793767 0.08788513384481747 0 -0.43223421573161341 0.098934305668544859 0 -0.44022666177934799 0.071153305611538209 0 -0.44775761866793767 0.08788513384481747 0 -0.45282079195542918 0.10138041098144 0 -0.44775761866793767 0.08788513384481747 0 -0.46342169295672792 0.089489447893371099 0 -0.45172120381489578 0.076484157654353027 0 -0.44775761866793767 0.08788513384481747 0 -0.46342169295672792 0.089489447893371099 0 -0.45172120381489578 0.076484157654353027 0 -0.46342169295672792 0.089489447893371099 0 -0.4627906790570166 0.070318997642363754 0 -0.46342169295672792 0.089489447893371099 0 -0.4627906790570166 0.070318997642363754 0 -0.47492534060647751 0.078100263491106173 0 -0.46306277177674338 0.050489335524804689 0 -0.4627906790570166 0.070318997642363754 0 -0.47640155753413388 0.067055256031993513 0 -0.45313062435197549 0.062055602608097261 0 -0.45172120381489578 0.076484157654353027 0 -0.4627906790570166 0.070318997642363754 0 -0.47759502800693299 0.053270179570032113 0 -0.47640155753413388 0.067055256031993513 0 -0.48868806150823307 0.073418786885695031 0 -0.47759502800693299 0.053270179570032113 0 -0.48868806150823307 0.073418786885695031 0 -0.4627906790570166 0.070318997642363754 0 -0.47640155753413388 0.067055256031993513 0 -0.47492534060647751 0.078100263491106173 0 -0.47640155753413388 0.067055256031993513 0 -0.47492534060647751 0.078100263491106173 0 -0.48868806150823307 0.073418786885695031 0 -0.46342169295672792 0.089489447893371099 0 -0.47492534060647751 0.078100263491106173 0 -0.48332471197627558 0.090218829002107453 0 -0.47492534060647751 0.078100263491106173 0 -0.48332471197627558 0.090218829002107453 0 -0.48868806150823307 0.073418786885695031 0 -0.48332471197627558 0.090218829002107453 0 -0.48868806150823307 0.073418786885695031 0 -0.5 0.076991192085515359 0 -0.48332471197627558 0.090218829002107453 0 -0.5 0.076991192085515359 0 -0.5 0.1066110237033361 0 -0.49142948359323019 0.061680896710041733 0 -0.47759502800693299 0.053270179570032113 0 -0.48868806150823307 0.073418786885695031 0 -0.49142948359323019 0.061680896710041733 0 -0.48868806150823307 0.073418786885695031 0 -0.5 0.076991192085515359 0 -0.46342169295672792 0.089489447893371099 0 -0.48332471197627558 0.090218829002107453 0 -0.47316617240032688 0.11401910188281091 0 -0.48332471197627558 0.090218829002107453 0 -0.47316617240032688 0.11401910188281091 0 -0.5 0.1066110237033361 0 -0.47316617240032688 0.11401910188281091 0 -0.5 0.1066110237033361 0 -0.5 0.13623085532115681 0 -0.47316617240032688 0.11401910188281091 0 -0.47979366515332672 0.14621363962291381 0 -0.46014077350219601 0.13326566903650691 0 -0.47316617240032688 0.11401910188281091 0 -0.5 0.13623085532115681 0 -0.47979366515332672 0.14621363962291381 0 -0.5 0.13623085532115681 0 -0.47979366515332672 0.14621363962291381 0 -0.5 0.1658506869389775 0 -0.48180196482664389 0.16994406809301679 0 -0.46679679509872152 0.1842303250515947 0 -0.5 0.1954705185567982 0 -0.47979366515332672 0.14621363962291381 0 -0.5 0.1658506869389775 0 -0.48180196482664389 0.16994406809301679 0 -0.5 0.1658506869389775 0 -0.48180196482664389 0.16994406809301679 0 -0.5 0.1954705185567982 0 -0.48180196482664389 0.16994406809301679 0 -0.46488679650041592 0.15798774263522841 0 -0.46679679509872152 0.1842303250515947 0 -0.47979366515332672 0.14621363962291381 0 -0.48180196482664389 0.16994406809301679 0 -0.46488679650041592 0.15798774263522841 0 -0.46488679650041592 0.15798774263522841 0 -0.46679679509872152 0.1842303250515947 0 -0.45286864889957418 0.16842722765286261 0 -0.46488679650041592 0.15798774263522841 0 -0.45286864889957418 0.16842722765286261 0 -0.44854444018807099 0.15046767789250129 0 -0.46679679509872152 0.1842303250515947 0 -0.44648436069861658 0.18198800452883659 0 -0.45286864889957418 0.16842722765286261 0 -0.44648436069861658 0.18198800452883659 0 -0.43889142009324528 0.16301512268266891 0 -0.42753690112106252 0.17433184569151591 0 -0.45286864889957418 0.16842722765286261 0 -0.43889142009324528 0.16301512268266891 0 -0.44854444018807099 0.15046767789250129 0 -0.44648436069861658 0.18198800452883659 0 -0.45286864889957418 0.16842722765286261 0 -0.43889142009324528 0.16301512268266891 0 -0.43889142009324528 0.16301512268266891 0 -0.44854444018807099 0.15046767789250129 0 -0.43119376110123742 0.1508218199473208 0 -0.44854444018807099 0.15046767789250129 0 -0.43553303466932181 0.1380918189782249 0 -0.43119376110123742 0.1508218199473208 0 -0.43801454674729812 0.12448261858860279 0 -0.46014077350219601 0.13326566903650691 0 -0.43553303466932181 0.1380918189782249 0 -0.44854444018807099 0.15046767789250129 0 -0.46014077350219601 0.13326566903650691 0 -0.43553303466932181 0.1380918189782249 0 -0.46014077350219601 0.13326566903650691 0 -0.43553303466932181 0.1380918189782249 0 -0.47979366515332672 0.14621363962291381 0 -0.46488679650041592 0.15798774263522841 0 -0.46014077350219601 0.13326566903650691 0 -0.46488679650041592 0.15798774263522841 0 -0.44854444018807099 0.15046767789250129 0 -0.46014077350219601 0.13326566903650691 0 -0.47904559553721288 0.23744477851942289 0 -0.47794529635186112 0.20595872423904121 0 -0.45809119107443541 0.2201793752464026 0 -0.47904559553721288 0.23744477851942289 0 -0.5 0.22509035017461901 0 -0.47794529635186112 0.20595872423904121 0 -0.47904559553721288 0.23744477851942289 0 -0.461252743797885 0.23941175286208369 0 -0.48083823784666102 0.25379881469829008 0 -0.47904559553721288 0.23744477851942289 0 -0.49999999999999323 0.25471018179243982 0 -0.48083823784666102 0.25379881469829008 0 -0.47904559553721288 0.23744477851942289 0 -0.49999999999999323 0.25471018179243982 0 -0.47904559553721288 0.23744477851942289 0 -0.5 0.22509035017461901 0 -0.49999999999999323 0.25471018179243982 0 -0.46679679509872152 0.1842303250515947 0 -0.47794529635186112 0.20595872423904121 0 -0.5 0.1954705185567982 0 -0.5 0.22509035017461901 0 -0.47794529635186112 0.20595872423904121 0 -0.5 0.1954705185567982 0 -0.46679679509872152 0.1842303250515947 0 -0.47794529635186112 0.20595872423904121 0 -0.45580999370812358 0.1985908176522426 0 -0.46679679509872152 0.1842303250515947 0 -0.44648436069861658 0.18198800452883659 0 -0.45580999370812358 0.1985908176522426 0 -0.44648436069861658 0.18198800452883659 0 -0.45580999370812358 0.1985908176522426 0 -0.43713678661165778 0.20291397197338229 0 -0.45580999370812358 0.1985908176522426 0 -0.45809119107443541 0.2201793752464026 0 -0.43713678661165778 0.20291397197338229 0 -0.45809119107443541 0.2201793752464026 0 -0.43713678661165778 0.20291397197338229 0 -0.44193973639815187 0.21811936574266361 0 -0.45809119107443541 0.2201793752464026 0 -0.43713678661165778 0.20291397197338229 0 -0.47794529635186112 0.20595872423904121 0 -0.45580999370812358 0.1985908176522426 0 -0.45809119107443541 0.2201793752464026 0 -0.47904559553721288 0.23744477851942289 0 -0.45809119107443541 0.2201793752464026 0 -0.47904559553721288 0.23744477851942289 0 -0.45809119107443541 0.2201793752464026 0 -0.461252743797885 0.23941175286208369 0 -0.45809119107443541 0.2201793752464026 0 -0.44200178733327811 0.23679482430826501 0 -0.461252743797885 0.23941175286208369 0 -0.44193973639815187 0.21811936574266361 0 -0.45809119107443541 0.2201793752464026 0 -0.44200178733327811 0.23679482430826501 0 -0.44200178733327811 0.23679482430826501 0 -0.45701610275077809 0.26027034494425699 0 -0.44200178733327811 0.23679482430826501 0 -0.461252743797885 0.23941175286208369 0 -0.45701610275077809 0.26027034494425699 0 -0.41060668117761451 0.240126626597821 0 -0.42422711924475093 0.23660629652811679 0 -0.42793648852219879 0.25730814158579962 0 -0.44200178733327811 0.23679482430826501 0 -0.42422711924475093 0.23660629652811679 0 -0.42793648852219879 0.25730814158579962 0 -0.44200178733327811 0.23679482430826501 0 -0.42698747191577818 0.21331930367227309 0 -0.44200178733327811 0.23679482430826501 0 -0.4266791999693621 0.2277761448246822 0 -0.42698747191577818 0.21331930367227309 0 -0.44193973639815187 0.21811936574266361 0 -0.44200178733327811 0.23679482430826501 0 -0.42698747191577818 0.21331930367227309 0 -0.44200178733327811 0.23679482430826501 0 -0.42422711924475093 0.23660629652811679 0 -0.4266791999693621 0.2277761448246822 0 -0.4266791999693621 0.2277761448246822 0 -0.41350042138364118 0.2243841547900739 0 -0.42698747191577818 0.21331930367227309 0 -0.41060668117761451 0.240126626597821 0 -0.41350042138364118 0.2243841547900739 0 -0.4000999016524896 0.2299946134978926 0 -0.41060668117761451 0.240126626597821 0 -0.42422711924475093 0.23660629652811679 0 -0.41350042138364118 0.2243841547900739 0 -0.42422711924475093 0.23660629652811679 0 -0.4266791999693621 0.2277761448246822 0 -0.41350042138364118 0.2243841547900739 0 -0.41002578392592931 0.209640510865234 0 -0.42698747191577818 0.21331930367227309 0 -0.41197315649828242 0.18984378303627841 0 -0.41350042138364118 0.2243841547900739 0 -0.41002578392592931 0.209640510865234 0 -0.42698747191577818 0.21331930367227309 0 -0.41350042138364118 0.2243841547900739 0 -0.41002578392592931 0.209640510865234 0 -0.40146489570739319 0.21879741841815381 0 -0.44193973639815187 0.21811936574266361 0 -0.42698747191577818 0.21331930367227309 0 -0.43713678661165778 0.20291397197338229 0 -0.43713678661165778 0.20291397197338229 0 -0.41618238214887959 0.18564856870036281 0 -0.42698747191577818 0.21331930367227309 0 -0.43713678661165778 0.20291397197338229 0 -0.41197315649828242 0.18984378303627841 0 -0.43713678661165778 0.20291397197338229 0 -0.42753690112106252 0.17433184569151591 0 -0.41618238214887959 0.18564856870036281 0 -0.42698747191577818 0.21331930367227309 0 -0.41197315649828242 0.18984378303627841 0 -0.43713678661165778 0.20291397197338229 0 -0.41197315649828242 0.18984378303627841 0 -0.41618238214887959 0.18564856870036281 0 -0.41197315649828242 0.18984378303627841 0 -0.41618238214887959 0.18564856870036281 0 -0.41197315649828242 0.18984378303627841 0 -0.39373240429132977 0.19009609033344221 0 -0.39341927906562002 0.20833589988948489 0 -0.41002578392592931 0.209640510865234 0 -0.41197315649828242 0.18984378303627841 0 -0.39341927906562002 0.20833589988948489 0 -0.41197315649828242 0.18984378303627841 0 -0.39341927906562002 0.20833589988948489 0 -0.39373240429132977 0.19009609033344221 0 -0.37842084593362441 0.19220541063360949 0 -0.39341927906562002 0.20833589988948489 0 -0.37539953358307532 0.21007225129113999 0 -0.39341927906562002 0.20833589988948489 0 -0.37486540163295667 0.22682801674269071 0 -0.37842084593362441 0.19220541063360949 0 -0.37539953358307532 0.21007225129113999 0 -0.39341927906562002 0.20833589988948489 0 -0.39341927906562002 0.20833589988948489 0 -0.37486540163295667 0.22682801674269071 0 -0.39341927906562002 0.20833589988948489 0 -0.40146489570739319 0.21879741841815381 0 -0.38759565538377277 0.22469501399141931 0 -0.41002578392592931 0.209640510865234 0 -0.39341927906562002 0.20833589988948489 0 -0.40146489570739319 0.21879741841815381 0 -0.41350042138364118 0.2243841547900739 0 -0.40146489570739319 0.21879741841815381 0 -0.4000999016524896 0.2299946134978926 0 -0.4000999016524896 0.2299946134978926 0 -0.38759565538377277 0.22469501399141931 0 -0.38748456394608372 0.23726131648324719 0 -0.40146489570739319 0.21879741841815381 0 -0.4000999016524896 0.2299946134978926 0 -0.38759565538377277 0.22469501399141931 0 -0.39341927906562002 0.20833589988948489 0 -0.38759565538377277 0.22469501399141931 0 -0.37486540163295667 0.22682801674269071 0 -0.38759565538377277 0.22469501399141931 0 -0.37859211001382292 0.22834733673357191 0 -0.37486540163295667 0.22682801674269071 0 -0.38759565538377277 0.22469501399141931 0 -0.37859211001382292 0.22834733673357191 0 -0.38748456394608372 0.23726131648324719 0 -0.37859211001382292 0.22834733673357191 0 -0.38748456394608372 0.23726131648324719 0 -0.37130058973972507 0.2530679386122861 0 -0.38748456394608372 0.23726131648324719 0 -0.38875189979296182 0.24837785490246439 0 -0.37130058973972507 0.2530679386122861 0 -0.38748456394608372 0.23726131648324719 0 -0.38875189979296182 0.24837785490246439 0 -0.39802432879413602 0.24164103043256899 0 -0.38875189979296182 0.24837785490246439 0 -0.39802432879413602 0.24164103043256899 0 -0.40209280080234228 0.25755651922285971 0 -0.41060668117761451 0.240126626597821 0 -0.39802432879413602 0.24164103043256899 0 -0.40209280080234228 0.25755651922285971 0 -0.4000999016524896 0.2299946134978926 0 -0.38748456394608372 0.23726131648324719 0 -0.39802432879413602 0.24164103043256899 0 -0.41060668117761451 0.240126626597821 0 -0.4000999016524896 0.2299946134978926 0 -0.39802432879413602 0.24164103043256899 0 -0.4109252958364471 0.14291796891993919 0 -0.42207461471910379 0.15961651126327189 0 -0.40830260490978071 0.16084563495227569 0 -0.4109252958364471 0.14291796891993919 0 -0.43119376110123742 0.1508218199473208 0 -0.42207461471910379 0.15961651126327189 0 -0.4109252958364471 0.14291796891993919 0 -0.41085028128733941 0.13286519427185439 0 -0.39990641571619989 0.13525512642576409 0 -0.4109252958364471 0.14291796891993919 0 -0.41085028128733941 0.13286519427185439 0 -0.41990344569509752 0.13524390909506631 0 -0.41209181412507823 0.1249046904338954 0 -0.41085028128733941 0.13286519427185439 0 -0.41738457767411852 0.12859188695433299 0 -0.41209181412507823 0.1249046904338954 0 -0.41085028128733941 0.13286519427185439 0 -0.40414811723269017 0.1256352255995502 0 -0.41738457767411852 0.12859188695433299 0 -0.41990344569509752 0.13524390909506631 0 -0.42424176968387872 0.12671530572555151 0 -0.41085028128733941 0.13286519427185439 0 -0.41738457767411852 0.12859188695433299 0 -0.41990344569509752 0.13524390909506631 0 -0.41651236846896422 0.12149702726738321 0 -0.41738457767411852 0.12859188695433299 0 -0.42424176968387872 0.12671530572555151 0 -0.4109252958364471 0.14291796891993919 0 -0.41990344569509752 0.13524390909506631 0 -0.4109252958364471 0.14291796891993919 0 -0.41990344569509752 0.13524390909506631 0 -0.43553303466932181 0.1380918189782249 0 -0.41990344569509752 0.13524390909506631 0 -0.42424176968387872 0.12671530572555151 0 -0.43553303466932181 0.1380918189782249 0 -0.4109252958364471 0.14291796891993919 0 -0.43553303466932181 0.1380918189782249 0 -0.43801454674729812 0.12448261858860279 0 -0.42424176968387872 0.12671530572555151 0 -0.43553303466932181 0.1380918189782249 0 -0.4109252958364471 0.14291796891993919 0 -0.43553303466932181 0.1380918189782249 0 -0.43119376110123742 0.1508218199473208 0 -0.43889142009324528 0.16301512268266891 0 -0.42207461471910379 0.15961651126327189 0 -0.42753690112106252 0.17433184569151591 0 -0.43889142009324528 0.16301512268266891 0 -0.43119376110123742 0.1508218199473208 0 -0.42207461471910379 0.15961651126327189 0 -0.43889142009324528 0.16301512268266891 0 -0.42753690112106252 0.17433184569151591 0 -0.44648436069861658 0.18198800452883659 0 -0.43713678661165778 0.20291397197338229 0 -0.42753690112106252 0.17433184569151591 0 -0.41197315649828242 0.18984378303627841 0 -0.41618238214887959 0.18564856870036281 0 -0.40161147671620251 0.17364285606867191 0 -0.41197315649828242 0.18984378303627841 0 -0.40161147671620251 0.17364285606867191 0 -0.42753690112106252 0.17433184569151591 0 -0.41618238214887959 0.18564856870036281 0 -0.42753690112106252 0.17433184569151591 0 -0.41618238214887959 0.18564856870036281 0 -0.41514159592300559 0.17081708333522 0 -0.41618238214887959 0.18564856870036281 0 -0.41514159592300559 0.17081708333522 0 -0.40161147671620251 0.17364285606867191 0 -0.41618238214887959 0.18564856870036281 0 -0.40161147671620251 0.17364285606867191 0 -0.42207461471910379 0.15961651126327189 0 -0.41514159592300559 0.17081708333522 0 -0.40830260490978071 0.16084563495227569 0 -0.42207461471910379 0.15961651126327189 0 -0.42753690112106252 0.17433184569151591 0 -0.41514159592300559 0.17081708333522 0 -0.41514159592300559 0.17081708333522 0 -0.40830260490978071 0.16084563495227569 0 -0.40161147671620251 0.17364285606867191 0 -0.40161147671620251 0.17364285606867191 0 -0.38730478849135191 0.17845771160743601 0 -0.3880510303725172 0.1624697122505489 0 -0.40830260490978071 0.16084563495227569 0 -0.39219825282465892 0.1589248802188028 0 -0.40161147671620251 0.17364285606867191 0 -0.39219825282465892 0.1589248802188028 0 -0.40161147671620251 0.17364285606867191 0 -0.3880510303725172 0.1624697122505489 0 -0.40161147671620251 0.17364285606867191 0 -0.3880510303725172 0.1624697122505489 0 -0.39219825282465892 0.1589248802188028 0 -0.40161147671620251 0.17364285606867191 0 -0.39219825282465892 0.1589248802188028 0 -0.39022283065760821 0.1558362236561798 0 -0.39373240429132977 0.19009609033344221 0 -0.40161147671620251 0.17364285606867191 0 -0.38730478849135191 0.17845771160743601 0 -0.41197315649828242 0.18984378303627841 0 -0.39373240429132977 0.19009609033344221 0 -0.40161147671620251 0.17364285606867191 0 -0.37842084593362441 0.19220541063360949 0 -0.38730478849135191 0.17845771160743601 0 -0.37470818514308801 0.17387448875090461 0 -0.39373240429132977 0.19009609033344221 0 -0.37842084593362441 0.19220541063360949 0 -0.38730478849135191 0.17845771160743601 0 -0.3880510303725172 0.1624697122505489 0 -0.37328194159002243 0.15030070624238989 0 -0.36954542953464858 0.16235680595158869 0 -0.38730478849135191 0.17845771160743601 0 -0.3880510303725172 0.1624697122505489 0 -0.37470818514308801 0.17387448875090461 0 -0.3880510303725172 0.1624697122505489 0 -0.36954542953464858 0.16235680595158869 0 -0.37470818514308801 0.17387448875090461 0 -0.39219825282465892 0.1589248802188028 0 -0.3880510303725172 0.1624697122505489 0 -0.39022283065760821 0.1558362236561798 0 -0.39219825282465892 0.1589248802188028 0 -0.3880510303725172 0.1624697122505489 0 -0.3880510303725172 0.1624697122505489 0 -0.37470818514308801 0.17387448875090461 0 -0.3880510303725172 0.1624697122505489 0 -0.37328194159002243 0.15030070624238989 0 -0.3880510303725172 0.1624697122505489 0 -0.39022283065760821 0.1558362236561798 0 -0.37328194159002243 0.15030070624238989 0 -0.39210361871323501 0.14660933758116559 0 -0.37328194159002243 0.15030070624238989 0 -0.39022283065760821 0.1558362236561798 0 -0.39210361871323501 0.14660933758116559 0 -0.37328194159002243 0.15030070624238989 0 -0.38020958904002322 0.14129493168632179 0 -0.39210361871323501 0.14660933758116559 0 -0.37328194159002243 0.15030070624238989 0 -0.38020958904002322 0.14129493168632179 0 -0.37151921193807441 0.14031773808346329 0 -0.37328194159002243 0.15030070624238989 0 -0.38020958904002322 0.14129493168632179 0 -0.39210361871323501 0.14660933758116559 0 -0.38728051872848163 0.13518071975638651 0 -0.4109252958364471 0.14291796891993919 0 -0.40830260490978071 0.16084563495227569 0 -0.39219825282465892 0.1589248802188028 0 -0.4109252958364471 0.14291796891993919 0 -0.39219825282465892 0.1589248802188028 0 -0.4109252958364471 0.14291796891993919 0 -0.39219825282465892 0.1589248802188028 0 -0.39210361871323501 0.14660933758116559 0 -0.39219825282465892 0.1589248802188028 0 -0.39022283065760821 0.1558362236561798 0 -0.39210361871323501 0.14660933758116559 0 -0.4109252958364471 0.14291796891993919 0 -0.39210361871323501 0.14660933758116559 0 -0.4109252958364471 0.14291796891993919 0 -0.39210361871323501 0.14660933758116559 0 -0.39990641571619989 0.13525512642576409 0 -0.41085028128733941 0.13286519427185439 0 -0.40414811723269017 0.1256352255995502 0 -0.39990641571619989 0.13525512642576409 0 -0.40414811723269017 0.1256352255995502 0 -0.39990641571619989 0.13525512642576409 0 -0.39392182245172952 0.1264933370771881 0 -0.39210361871323501 0.14660933758116559 0 -0.39990641571619989 0.13525512642576409 0 -0.38728051872848163 0.13518071975638651 0 -0.39990641571619989 0.13525512642576409 0 -0.39392182245172952 0.1264933370771881 0 -0.38728051872848163 0.13518071975638651 0 -0.39392182245172952 0.1264933370771881 0 -0.38286100191370448 0.1252178084656824 0 -0.38728051872848163 0.13518071975638651 0 -0.38020958904002322 0.14129493168632179 0 -0.37686265423030268 0.1340661567682053 0 -0.37151921193807441 0.14031773808346329 0 -0.38020958904002322 0.14129493168632179 0 -0.38728051872848163 0.13518071975638651 0 -0.37686265423030268 0.1340661567682053 0 -0.38286100191370448 0.1252178084656824 0 -0.38728051872848163 0.13518071975638651 0 -0.37686265423030268 0.1340661567682053 0 -0.38286100191370448 0.1252178084656824 0 -0.37686265423030268 0.1340661567682053 0 -0.3736821007348497 0.1272429878630868 0 -0.3736821007348497 0.1272429878630868 0 -0.36761954454168871 0.1334009219303369 0 -0.36586937397507602 0.1238370962671133 0 -0.37686265423030268 0.1340661567682053 0 -0.3736821007348497 0.1272429878630868 0 -0.36761954454168871 0.1334009219303369 0 -0.37686265423030268 0.1340661567682053 0 -0.36761954454168871 0.1334009219303369 0 -0.37151921193807441 0.14031773808346329 0 -0.36761954454168871 0.1334009219303369 0 -0.36141766364465749 0.14052512213386839 0 -0.3597635416916185 0.12999255848049371 0 -0.36761954454168871 0.1334009219303369 0 -0.37151921193807441 0.14031773808346329 0 -0.36141766364465749 0.14052512213386839 0 -0.36761954454168871 0.1334009219303369 0 -0.3597635416916185 0.12999255848049371 0 -0.36586937397507602 0.1238370962671133 0 -0.3597635416916185 0.12999255848049371 0 -0.34955338569929417 0.13074953802534511 0 -0.35658347382620492 0.1188735423948772 0 -0.34955338569929417 0.13074953802534511 0 -0.34243002363898351 0.1406638805414884 0 -0.33944775696289697 0.1109170651201839 0 -0.36141766364465749 0.14052512213386839 0 -0.34955338569929417 0.13074953802534511 0 -0.36141766364465749 0.14052512213386839 0 -0.35444215351239411 0.13727185360422189 0 -0.34955338569929417 0.13074953802534511 0 -0.36141766364465749 0.14052512213386839 0 -0.3597635416916185 0.12999255848049371 0 -0.34955338569929417 0.13074953802534511 0 -0.36141766364465749 0.14052512213386839 0 -0.35444215351239411 0.13727185360422189 0 -0.35535756466077018 0.14361958386586449 0 -0.35444215351239411 0.13727185360422189 0 -0.35535756466077018 0.14361958386586449 0 -0.35444215351239411 0.13727185360422189 0 -0.34955338569929417 0.13074953802534511 0 -0.34243002363898351 0.1406638805414884 0 -0.35444215351239411 0.13727185360422189 0 -0.35535756466077018 0.14361958386586449 0 -0.34243002363898351 0.1406638805414884 0 -0.3498289097620878 0.15490039128286739 0 -0.34778544588618981 0.1469215035817224 0 -0.35243987168290741 0.1497442788973318 0 -0.3498289097620878 0.15490039128286739 0 -0.34377883786272201 0.15411771687107201 0 -0.34778544588618981 0.1469215035817224 0 -0.3498289097620878 0.15490039128286739 0 -0.35223698823371202 0.15521191508501631 0 -0.3498289097620878 0.15490039128286739 0 -0.34397245642730151 0.1560489779982995 0 -0.34377883786272201 0.15411771687107201 0 -0.3498289097620878 0.15490039128286739 0 -0.34397245642730151 0.1560489779982995 0 -0.3498289097620878 0.15490039128286739 0 -0.34377883786272201 0.15411771687107201 0 -0.34397245642730151 0.1560489779982995 0 -0.34377883786272201 0.15411771687107201 0 -0.34377883786272201 0.15411771687107201 0 -0.34778544588618981 0.1469215035817224 0 -0.34243002363898351 0.1406638805414884 0 -0.35535756466077018 0.14361958386586449 0 -0.34243002363898351 0.1406638805414884 0 -0.34778544588618981 0.1469215035817224 0 -0.35535756466077018 0.14361958386586449 0 -0.34243002363898351 0.1406638805414884 0 -0.34778544588618981 0.1469215035817224 0 -0.35535756466077018 0.14361958386586449 0 -0.35243987168290741 0.1497442788973318 0 -0.35535756466077018 0.14361958386586449 0 -0.35678756642258219 0.15353563685887689 0 -0.36050362793765361 0.14793860338677131 0 -0.35535756466077018 0.14361958386586449 0 -0.35243987168290741 0.1497442788973318 0 -0.35678756642258219 0.15353563685887689 0 -0.35535756466077018 0.14361958386586449 0 -0.35678756642258219 0.15353563685887689 0 -0.3498289097620878 0.15490039128286739 0 -0.35223698823371202 0.15521191508501631 0 -0.35678756642258219 0.15353563685887689 0 -0.3498289097620878 0.15490039128286739 0 -0.35678756642258219 0.15353563685887689 0 -0.3498289097620878 0.15490039128286739 0 -0.35243987168290741 0.1497442788973318 0 -0.35678756642258219 0.15353563685887689 0 -0.35678756642258219 0.15353563685887689 0 -0.37328194159002243 0.15030070624238989 0 -0.35678756642258219 0.15353563685887689 0 -0.37328194159002243 0.15030070624238989 0 -0.36954542953464858 0.16235680595158869 0 -0.35678756642258219 0.15353563685887689 0 -0.36050362793765361 0.14793860338677131 0 -0.37328194159002243 0.15030070624238989 0 -0.35535756466077018 0.14361958386586449 0 -0.36050362793765361 0.14793860338677131 0 -0.36701525920794797 0.14628495436978081 0 -0.36050362793765361 0.14793860338677131 0 -0.36701525920794797 0.14628495436978081 0 -0.37328194159002243 0.15030070624238989 0 -0.35535756466077018 0.14361958386586449 0 -0.36701525920794797 0.14628495436978081 0 -0.36141766364465749 0.14052512213386839 0 -0.35535756466077018 0.14361958386586449 0 -0.36701525920794797 0.14628495436978081 0 -0.36141766364465749 0.14052512213386839 0 -0.37328194159002243 0.15030070624238989 0 -0.37151921193807441 0.14031773808346329 0 -0.36141766364465749 0.14052512213386839 0 -0.37328194159002243 0.15030070624238989 0 -0.36141766364465749 0.14052512213386839 0 -0.36701525920794797 0.14628495436978081 0 -0.37328194159002243 0.15030070624238989 0 -0.36954542953464858 0.16235680595158869 0 -0.37470818514308801 0.17387448875090461 0 -0.35907645316812092 0.16940745105506841 0 -0.35678756642258219 0.15353563685887689 0 -0.36954542953464858 0.16235680595158869 0 -0.35907645316812092 0.16940745105506841 0 -0.36136533991365838 0.1852792652512599 0 -0.35824403808469651 0.18361772040054791 0 -0.35907645316812092 0.16940745105506841 0 -0.37470818514308801 0.17387448875090461 0 -0.36136533991365838 0.1852792652512599 0 -0.35907645316812092 0.16940745105506841 0 -0.37842084593362441 0.19220541063360949 0 -0.37470818514308801 0.17387448875090461 0 -0.36136533991365838 0.1852792652512599 0 -0.36136533991365838 0.1852792652512599 0 -0.35907645316812092 0.16940745105506841 0 -0.37470818514308801 0.17387448875090461 0 -0.36136533991365838 0.1852792652512599 0 -0.35824403808469651 0.18361772040054791 0 -0.34660873699922279 0.18234473223133141 0 -0.3383856087362917 0.19372014999440751 0 -0.35824403808469651 0.18361772040054791 0 -0.35197542116983538 0.17285472042131181 0 -0.34660873699922279 0.18234473223133141 0 -0.35824403808469651 0.18361772040054791 0 -0.35197542116983538 0.17285472042131181 0 -0.35907645316812092 0.16940745105506841 0 -0.35678756642258219 0.15353563685887689 0 -0.35907645316812092 0.16940745105506841 0 -0.34397245642730151 0.1560489779982995 0 -0.34660873699922279 0.18234473223133141 0 -0.34397245642730151 0.1560489779982995 0 -0.35197542116983538 0.17285472042131181 0 -0.35907645316812092 0.16940745105506841 0 -0.35223698823371202 0.15521191508501631 0 -0.35678756642258219 0.15353563685887689 0 -0.35907645316812092 0.16940745105506841 0 -0.34397245642730151 0.1560489779982995 0 -0.35197542116983538 0.17285472042131181 0 -0.34660873699922279 0.18234473223133141 0 -0.3498289097620878 0.15490039128286739 0 -0.35223698823371202 0.15521191508501631 0 -0.35907645316812092 0.16940745105506841 0 -0.3498289097620878 0.15490039128286739 0 -0.34397245642730151 0.1560489779982995 0 -0.35907645316812092 0.16940745105506841 0 -0.34397245642730151 0.1560489779982995 0 -0.33355595535574711 0.17232225420548139 0 -0.31811236094406409 0.1611207442079815 0 -0.34397245642730151 0.1560489779982995 0 -0.34377883786272201 0.15411771687107201 0 -0.31811236094406409 0.1611207442079815 0 -0.34397245642730151 0.1560489779982995 0 -0.34660873699922279 0.18234473223133141 0 -0.33355595535574711 0.17232225420548139 0 -0.34397245642730151 0.1560489779982995 0 -0.31811236094406409 0.1611207442079815 0 -0.34660873699922279 0.18234473223133141 0 -0.33527047670025822 0.1835146210964918 0 -0.3383856087362917 0.19372014999440751 0 -0.34660873699922279 0.18234473223133141 0 -0.33355595535574711 0.17232225420548139 0 -0.33527047670025822 0.1835146210964918 0 -0.33355595535574711 0.17232225420548139 0 -0.33527047670025822 0.1835146210964918 0 -0.32271218168920429 0.17849070091650751 0 -0.32271218168920429 0.17849070091650751 0 -0.31811236094406409 0.1611207442079815 0 -0.30416350393394248 0.17738306856401281 0 -0.32271218168920429 0.17849070091650751 0 -0.31133510185715613 0.18984763095290719 0 -0.30416350393394248 0.17738306856401281 0 -0.33527047670025822 0.1835146210964918 0 -0.32271218168920429 0.17849070091650751 0 -0.32546682247789632 0.18989743542507531 0 -0.32271218168920429 0.17849070091650751 0 -0.32546682247789632 0.18989743542507531 0 -0.31133510185715613 0.18984763095290719 0 -0.33355595535574711 0.17232225420548139 0 -0.32271218168920429 0.17849070091650751 0 -0.31811236094406409 0.1611207442079815 0 -0.34377883786272201 0.15411771687107201 0 -0.31811236094406409 0.1611207442079815 0 -0.31792265153543181 0.15077280200697321 0 -0.31792265153543181 0.15077280200697321 0 -0.31402566027250378 0.13416961600289001 0 -0.33005726637477067 0.14597043663430509 0 -0.31811236094406409 0.1611207442079815 0 -0.31792265153543181 0.15077280200697321 0 -0.30407579715536948 0.156202367247292 0 -0.31402566027250378 0.13416961600289001 0 -0.34243002363898351 0.1406638805414884 0 -0.33005726637477067 0.14597043663430509 0 -0.34243002363898351 0.1406638805414884 0 -0.33944775696289697 0.1109170651201839 0 -0.31402566027250378 0.13416961600289001 0 -0.34243002363898351 0.1406638805414884 0 -0.32878659348996853 0.1247497829927505 0 -0.34243002363898351 0.1406638805414884 0 -0.33944775696289697 0.1109170651201839 0 -0.32878659348996853 0.1247497829927505 0 -0.31402566027250378 0.13416961600289001 0 -0.34243002363898351 0.1406638805414884 0 -0.34377883786272201 0.15411771687107201 0 -0.34243002363898351 0.1406638805414884 0 -0.33005726637477067 0.14597043663430509 0 -0.34377883786272201 0.15411771687107201 0 -0.31792265153543181 0.15077280200697321 0 -0.33005726637477067 0.14597043663430509 0 -0.34377883786272201 0.15411771687107201 0 -0.31792265153543181 0.15077280200697321 0 -0.34377883786272201 0.15411771687107201 0 -0.34243002363898351 0.1406638805414884 0 -0.34704918322418032 0.24044061582347939 0 -0.35631152420029361 0.24532013359589641 0 -0.34607485866170051 0.26041562100378218 0 -0.34704918322418032 0.24044061582347939 0 -0.35631152420029361 0.24532013359589641 0 -0.35544883893523088 0.22898353917662839 0 -0.35631152420029361 0.24532013359589641 0 -0.3632580197465114 0.23034163847285141 0 -0.35544883893523088 0.22898353917662839 0 -0.37859211001382292 0.22834733673357191 0 -0.37130058973972507 0.2530679386122861 0 -0.35631152420029361 0.24532013359589641 0 -0.37026740639669958 0.2383908564211113 0 -0.37486540163295667 0.22682801674269071 0 -0.35631152420029361 0.24532013359589641 0 -0.37026740639669958 0.2383908564211113 0 -0.37130058973972507 0.2530679386122861 0 -0.37859211001382292 0.22834733673357191 0 -0.37026740639669958 0.2383908564211113 0 -0.37130058973972507 0.2530679386122861 0 -0.35631152420029361 0.24532013359589641 0 -0.37486540163295667 0.22682801674269071 0 -0.35631152420029361 0.24532013359589641 0 -0.3632580197465114 0.23034163847285141 0 -0.37486540163295667 0.22682801674269071 0 -0.37539953358307532 0.21007225129113999 0 -0.37486540163295667 0.22682801674269071 0 -0.36640631421756442 0.22023486437619 0 -0.37859211001382292 0.22834733673357191 0 -0.37026740639669958 0.2383908564211113 0 -0.37486540163295667 0.22682801674269071 0 -0.3632580197465114 0.23034163847285141 0 -0.37486540163295667 0.22682801674269071 0 -0.36640631421756442 0.22023486437619 0 -0.3632580197465114 0.23034163847285141 0 -0.36640631421756442 0.22023486437619 0 -0.35544883893523088 0.22898353917662839 0 -0.36640631421756442 0.22023486437619 0 -0.35544883893523088 0.22898353917662839 0 -0.35267340157865018 0.21433336142444051 0 -0.34704918322418032 0.24044061582347939 0 -0.35544883893523088 0.22898353917662839 0 -0.34345230936326032 0.22747413342797859 0 -0.35544883893523088 0.22898353917662839 0 -0.35267340157865018 0.21433336142444051 0 -0.34345230936326032 0.22747413342797859 0 -0.35267340157865018 0.21433336142444051 0 -0.33902577397945838 0.21658091208729621 0 -0.34345230936326032 0.22747413342797859 0 -0.35267340157865018 0.21433336142444051 0 -0.36388582706561129 0.20275706481372499 0 -0.34248692667656461 0.20141556001810049 0 -0.35267340157865018 0.21433336142444051 0 -0.34248692667656461 0.20141556001810049 0 -0.33902577397945838 0.21658091208729621 0 -0.37539953358307532 0.21007225129113999 0 -0.36640631421756442 0.22023486437619 0 -0.36388582706561129 0.20275706481372499 0 -0.36640631421756442 0.22023486437619 0 -0.36388582706561129 0.20275706481372499 0 -0.36640631421756442 0.22023486437619 0 -0.35267340157865018 0.21433336142444051 0 -0.36388582706561129 0.20275706481372499 0 -0.37842084593362441 0.19220541063360949 0 -0.36136533991365838 0.1852792652512599 0 -0.36388582706561129 0.20275706481372499 0 -0.36136533991365838 0.1852792652512599 0 -0.36388582706561129 0.20275706481372499 0 -0.37842084593362441 0.19220541063360949 0 -0.37539953358307532 0.21007225129113999 0 -0.36388582706561129 0.20275706481372499 0 -0.35824403808469651 0.18361772040054791 0 -0.3383856087362917 0.19372014999440751 0 -0.34248692667656461 0.20141556001810049 0 -0.36136533991365838 0.1852792652512599 0 -0.36388582706561129 0.20275706481372499 0 -0.34248692667656461 0.20141556001810049 0 -0.35824403808469651 0.18361772040054791 0 -0.3383856087362917 0.19372014999440751 0 -0.36136533991365838 0.1852792652512599 0 -0.34248692667656461 0.20141556001810049 0 -0.36136533991365838 0.1852792652512599 0 -0.35824403808469651 0.18361772040054791 0 -0.34248692667656461 0.20141556001810049 0 -0.3383856087362917 0.19372014999440751 0 -0.3320892339483642 0.20220581288767811 0 -0.31852717938788688 0.20382257958826711 0 -0.3383856087362917 0.19372014999440751 0 -0.31852717938788688 0.20382257958826711 0 -0.3383856087362917 0.19372014999440751 0 -0.34248692667656461 0.20141556001810049 0 -0.3320892339483642 0.20220581288767811 0 -0.33527047670025822 0.1835146210964918 0 -0.3383856087362917 0.19372014999440751 0 -0.32546682247789632 0.18989743542507531 0 -0.3383856087362917 0.19372014999440751 0 -0.32546682247789632 0.18989743542507531 0 -0.31852717938788688 0.20382257958826711 0 -0.32546682247789632 0.18989743542507531 0 -0.31852717938788688 0.20382257958826711 0 -0.31133510185715613 0.18984763095290719 0 -0.3320892339483642 0.20220581288767811 0 -0.31852717938788688 0.20382257958826711 0 -0.3320892339483642 0.20220581288767811 0 -0.31852717938788688 0.20382257958826711 0 -0.32360851343947061 0.21755185478494099 0 -0.31852717938788688 0.20382257958826711 0 -0.32360851343947061 0.21755185478494099 0 -0.31014010604522979 0.21694959053318461 0 -0.34248692667656461 0.20141556001810049 0 -0.32360851343947061 0.21755185478494099 0 -0.33902577397945838 0.21658091208729621 0 -0.34248692667656461 0.20141556001810049 0 -0.32360851343947061 0.21755185478494099 0 -0.34248692667656461 0.20141556001810049 0 -0.3320892339483642 0.20220581288767811 0 -0.32360851343947061 0.21755185478494099 0 -0.33902577397945838 0.21658091208729621 0 -0.34345230936326032 0.22747413342797859 0 -0.33081150166678408 0.22727666086375589 0 -0.34345230936326032 0.22747413342797859 0 -0.33081150166678408 0.22727666086375589 0 -0.33395838496041652 0.24000965191311119 0 -0.32360851343947061 0.21755185478494099 0 -0.33902577397945838 0.21658091208729621 0 -0.33081150166678408 0.22727666086375589 0 -0.33081150166678408 0.22727666086375589 0 -0.31740877840705067 0.23415314126014181 0 -0.33395838496041652 0.24000965191311119 0 -0.32360851343947061 0.21755185478494099 0 -0.30473010020237679 0.23368814955178149 0 -0.31014010604522979 0.21694959053318461 0 -0.32360851343947061 0.21755185478494099 0 -0.33081150166678408 0.22727666086375589 0 -0.31740877840705067 0.23415314126014181 0 -0.32360851343947061 0.21755185478494099 0 -0.31740877840705067 0.23415314126014181 0 -0.30473010020237679 0.23368814955178149 0 -0.32360851343947061 0.21755185478494099 0 -0.30473010020237679 0.23368814955178149 0 -0.31740877840705067 0.23415314126014181 0 -0.31054412818099691 0.2482440205870533 0 -0.3268498911592439 0.25606136552811942 0 -0.31740877840705067 0.23415314126014181 0 -0.33395838496041652 0.24000965191311119 0 -0.3268498911592439 0.25606136552811942 0 -0.31740877840705067 0.23415314126014181 0 -0.3268498911592439 0.25606136552811942 0 -0.34704918322418032 0.24044061582347939 0 -0.33395838496041652 0.24000965191311119 0 -0.34607485866170051 0.26041562100378218 0 -0.34704918322418032 0.24044061582347939 0 -0.34345230936326032 0.22747413342797859 0 -0.33395838496041652 0.24000965191311119 0 -0.2858516869652829 0.249824444318622 0 -0.30473010020237679 0.23368814955178149 0 -0.2858516869652829 0.249824444318622 0 -0.30473010020237679 0.23368814955178149 0 -0.28054783289600987 0.23833266889771551 0 -0.2858516869652829 0.249824444318622 0 -0.31054412818099691 0.2482440205870533 0 -0.30473010020237679 0.23368814955178149 0 -0.31740877840705067 0.23415314126014181 0 -0.31054412818099691 0.2482440205870533 0 -0.30473010020237679 0.23368814955178149 0 -0.30473010020237679 0.23368814955178149 0 -0.29492839042754099 0.21582781423142849 0 -0.31014010604522979 0.21694959053318461 0 -0.29492839042754099 0.21582781423142849 0 -0.28113442573427683 0.214795611051949 0 -0.2713296014671952 0.22783304887458999 0 -0.28577862408039229 0.22680745332931609 0 -0.29492839042754099 0.21582781423142849 0 -0.2713296014671952 0.22783304887458999 0 -0.29492839042754099 0.21582781423142849 0 -0.2713296014671952 0.22783304887458999 0 -0.30473010020237679 0.23368814955178149 0 -0.28577862408039229 0.22680745332931609 0 -0.28054783289600987 0.23833266889771551 0 -0.30473010020237679 0.23368814955178149 0 -0.28577862408039229 0.22680745332931609 0 -0.29492839042754099 0.21582781423142849 0 -0.2928279121678396 0.20688625399583049 0 -0.28923187340247408 0.19989877967815009 0 -0.26712864494779232 0.20994992840339341 0 -0.2928279121678396 0.20688625399583049 0 -0.29492839042754099 0.21582781423142849 0 -0.28113442573427683 0.214795611051949 0 -0.31852717938788688 0.20382257958826711 0 -0.2928279121678396 0.20688625399583049 0 -0.31852717938788688 0.20382257958826711 0 -0.29492839042754099 0.21582781423142849 0 -0.31852717938788688 0.20382257958826711 0 -0.2928279121678396 0.20688625399583049 0 -0.29492839042754099 0.21582781423142849 0 -0.31852717938788688 0.20382257958826711 0 -0.29492839042754099 0.21582781423142849 0 -0.31014010604522979 0.21694959053318461 0 -0.31852717938788688 0.20382257958826711 0 -0.2928279121678396 0.20688625399583049 0 -0.31133510185715613 0.18984763095290719 0 -0.2928279121678396 0.20688625399583049 0 -0.31133510185715613 0.18984763095290719 0 -0.28923187340247408 0.19989877967815009 0 -0.31133510185715613 0.18984763095290719 0 -0.28923187340247408 0.19989877967815009 0 -0.31133510185715613 0.18984763095290719 0 -0.29498419966223038 0.18758343896868521 0 -0.28923187340247408 0.19989877967815009 0 -0.29498419966223038 0.18758343896868521 0 -0.28923187340247408 0.19989877967815009 0 -0.28312534565231379 0.19063393480941859 0 -0.28923187340247408 0.19989877967815009 0 -0.28312534565231379 0.19063393480941859 0 -0.27332505557604309 0.19673972859601291 0 -0.28923187340247408 0.19989877967815009 0 -0.27332505557604309 0.19673972859601291 0 -0.26712864494779232 0.20994992840339341 0 -0.28312534565231379 0.19063393480941859 0 -0.27332505557604309 0.19673972859601291 0 -0.27249601499540171 0.18476952287703821 0 -0.27332505557604309 0.19673972859601291 0 -0.26167457044484038 0.2004622006265192 0 -0.26712864494779232 0.20994992840339341 0 -0.27332505557604309 0.19673972859601291 0 -0.25890903247075769 0.18974936598301159 0 -0.27249601499540171 0.18476952287703821 0 -0.25219682697455181 0.2013723402349327 0 -0.26167457044484038 0.2004622006265192 0 -0.25910656814084199 0.20542120815840331 0 -0.25890903247075769 0.18974936598301159 0 -0.25219682697455181 0.2013723402349327 0 -0.24380733761213169 0.19558603500964639 0 -0.25890903247075769 0.18974936598301159 0 -0.25219682697455181 0.2013723402349327 0 -0.26167457044484038 0.2004622006265192 0 -0.27332505557604309 0.19673972859601291 0 -0.25890903247075769 0.18974936598301159 0 -0.26167457044484038 0.2004622006265192 0 -0.26167457044484038 0.2004622006265192 0 -0.25910656814084199 0.20542120815840331 0 -0.26712864494779232 0.20994992840339341 0 -0.25542623019618349 0.20990036336876741 0 -0.2550257320497028 0.2113927471493651 0 -0.26712864494779232 0.20994992840339341 0 -0.25910656814084199 0.20542120815840331 0 -0.25542623019618349 0.20990036336876741 0 -0.26712864494779232 0.20994992840339341 0 -0.25378449172309969 0.21601800433849089 0 -0.26712864494779232 0.20994992840339341 0 -0.2713296014671952 0.22783304887458999 0 -0.2550257320497028 0.2113927471493651 0 -0.26712864494779232 0.20994992840339341 0 -0.25219682697455181 0.2013723402349327 0 -0.25910656814084199 0.20542120815840331 0 -0.25542623019618349 0.20990036336876741 0 -0.25542623019618349 0.20990036336876741 0 -0.2550257320497028 0.2113927471493651 0 -0.25542623019618349 0.20990036336876741 0 -0.2550257320497028 0.2113927471493651 0 -0.24004184307696 0.2131790143132701 0 -0.25378449172309969 0.21601800433849089 0 -0.2550257320497028 0.2113927471493651 0 -0.2423741585716653 0.21609982122561031 0 -0.25378449172309969 0.21601800433849089 0 -0.2550257320497028 0.2113927471493651 0 -0.25378449172309969 0.21601800433849089 0 -0.26712864494779232 0.20994992840339341 0 -0.25378449172309969 0.21601800433849089 0 -0.2550257320497028 0.2113927471493651 0 -0.26712864494779232 0.20994992840339341 0 -0.2928279121678396 0.20688625399583049 0 -0.26712864494779232 0.20994992840339341 0 -0.28923187340247408 0.19989877967815009 0 -0.26712864494779232 0.20994992840339341 0 -0.26712864494779232 0.20994992840339341 0 -0.28113442573427683 0.214795611051949 0 -0.2713296014671952 0.22783304887458999 0 -0.2928279121678396 0.20688625399583049 0 -0.26712864494779232 0.20994992840339341 0 -0.28113442573427683 0.214795611051949 0 -0.28577862408039229 0.22680745332931609 0 -0.2713296014671952 0.22783304887458999 0 -0.26824769618169059 0.23534964909862749 0 -0.28577862408039229 0.22680745332931609 0 -0.26824769618169059 0.23534964909862749 0 -0.28054783289600987 0.23833266889771551 0 -0.28577862408039229 0.22680745332931609 0 -0.26824769618169059 0.23534964909862749 0 -0.25378449172309969 0.21601800433849089 0 -0.2713296014671952 0.22783304887458999 0 -0.24748250903250751 0.2395012010415975 0 -0.2713296014671952 0.22783304887458999 0 -0.24748250903250751 0.2395012010415975 0 -0.2713296014671952 0.22783304887458999 0 -0.26824769618169059 0.23534964909862749 0 -0.24748250903250751 0.2395012010415975 0 -0.25378449172309969 0.21601800433849089 0 -0.24748250903250751 0.2395012010415975 0 -0.25071676828298989 0.24389184486794099 0 -0.26824769618169059 0.23534964909862749 0 -0.24748250903250751 0.2395012010415975 0 -0.25071676828298989 0.24389184486794099 0 -0.26824769618169059 0.23534964909862749 0 -0.26480195036508619 0.2505382672023368 0 -0.25071676828298989 0.24389184486794099 0 -0.26824769618169059 0.23534964909862749 0 -0.26824769618169059 0.23534964909862749 0 -0.27486229160201742 0.2435112573793255 0 -0.26480195036508619 0.2505382672023368 0 -0.2858516869652829 0.249824444318622 0 -0.27486229160201742 0.2435112573793255 0 -0.26480195036508619 0.2505382672023368 0 -0.26824769618169059 0.23534964909862749 0 -0.28054783289600987 0.23833266889771551 0 -0.27486229160201742 0.2435112573793255 0 -0.2858516869652829 0.249824444318622 0 -0.28054783289600987 0.23833266889771551 0 -0.27486229160201742 0.2435112573793255 0 -0.29206646520814178 0.14742788714287361 0 -0.28562129690602411 0.1276753514642914 0 -0.2662102788808518 0.14408297227877409 0 -0.31402566027250378 0.13416961600289001 0 -0.29206646520814178 0.14742788714287361 0 -0.28562129690602411 0.1276753514642914 0 -0.31402566027250378 0.13416961600289001 0 -0.28562129690602411 0.1276753514642914 0 -0.30278839613017888 0.1175578073989875 0 -0.31402566027250378 0.13416961600289001 0 -0.28562129690602411 0.1276753514642914 0 -0.31792265153543181 0.15077280200697321 0 -0.29206646520814178 0.14742788714287361 0 -0.30407579715536948 0.156202367247292 0 -0.31792265153543181 0.15077280200697321 0 -0.31402566027250378 0.13416961600289001 0 -0.29206646520814178 0.14742788714287361 0 -0.31792265153543181 0.15077280200697321 0 -0.29206646520814178 0.14742788714287361 0 -0.31811236094406409 0.1611207442079815 0 -0.30416350393394248 0.17738306856401281 0 -0.29225226546082678 0.16619251041766339 0 -0.31811236094406409 0.1611207442079815 0 -0.29225226546082678 0.16619251041766339 0 -0.31811236094406409 0.1611207442079815 0 -0.30407579715536948 0.156202367247292 0 -0.29225226546082678 0.16619251041766339 0 -0.31133510185715613 0.18984763095290719 0 -0.29498419966223038 0.18758343896868521 0 -0.30416350393394248 0.17738306856401281 0 -0.30416350393394248 0.17738306856401281 0 -0.28558491399017338 0.18106338592033211 0 -0.29225226546082678 0.16619251041766339 0 -0.29498419966223038 0.18758343896868521 0 -0.30416350393394248 0.17738306856401281 0 -0.28558491399017338 0.18106338592033211 0 -0.28558491399017338 0.18106338592033211 0 -0.29225226546082678 0.16619251041766339 0 -0.26639216997758941 0.1712642766273452 0 -0.29498419966223038 0.18758343896868521 0 -0.28312534565231379 0.19063393480941859 0 -0.28558491399017338 0.18106338592033211 0 -0.29206646520814178 0.14742788714287361 0 -0.30407579715536948 0.156202367247292 0 -0.29225226546082678 0.16619251041766339 0 -0.29206646520814178 0.14742788714287361 0 -0.29225226546082678 0.16619251041766339 0 -0.27809074771476833 0.15702855499793991 0 -0.29225226546082678 0.16619251041766339 0 -0.26639216997758941 0.1712642766273452 0 -0.26639216997758941 0.1712642766273452 0 -0.27809074771476833 0.15702855499793991 0 -0.2662102788808518 0.14408297227877409 0 -0.29225226546082678 0.16619251041766339 0 -0.26639216997758941 0.1712642766273452 0 -0.27809074771476833 0.15702855499793991 0 -0.25890903247075769 0.18974936598301159 0 -0.26639216997758941 0.1712642766273452 0 -0.27249601499540171 0.18476952287703821 0 -0.28558491399017338 0.18106338592033211 0 -0.26639216997758941 0.1712642766273452 0 -0.27249601499540171 0.18476952287703821 0 -0.28312534565231379 0.19063393480941859 0 -0.28558491399017338 0.18106338592033211 0 -0.27249601499540171 0.18476952287703821 0 -0.26639216997758941 0.1712642766273452 0 -0.24053207449435199 0.17633604283702711 0 -0.25890903247075769 0.18974936598301159 0 -0.26639216997758941 0.1712642766273452 0 -0.24053207449435199 0.17633604283702711 0 -0.26639216997758941 0.1712642766273452 0 -0.24862655215878851 0.15211355167568019 0 -0.24053207449435199 0.17633604283702711 0 -0.26639216997758941 0.1712642766273452 0 -0.2662102788808518 0.14408297227877409 0 -0.24862655215878851 0.15211355167568019 0 -0.2662102788808518 0.14408297227877409 0 -0.25192581145058118 0.1365964554109404 0 -0.24862655215878851 0.15211355167568019 0 -0.29206646520814178 0.14742788714287361 0 -0.27809074771476833 0.15702855499793991 0 -0.2662102788808518 0.14408297227877409 0 -0.29206646520814178 0.14742788714287361 0 -0.2662102788808518 0.14408297227877409 0 -0.28562129690602411 0.1276753514642914 0 -0.2662102788808518 0.14408297227877409 0 -0.25721693353954428 0.1211810869256927 0 -0.2662102788808518 0.14408297227877409 0 -0.25192581145058118 0.1365964554109404 0 -0.25721693353954428 0.1211810869256927 0 -0.25721693353954428 0.1211810869256927 0 -0.25608094328003328 0.094733686625783312 0 -0.24500907231697619 0.1074463931571972 0 -0.25721693353954428 0.1211810869256927 0 -0.25608094328003328 0.094733686625783312 0 -0.27218187125513049 0.1000053586170593 0 -0.28562129690602411 0.1276753514642914 0 -0.25721693353954428 0.1211810869256927 0 -0.28656726386277281 0.1102389310344392 0 -0.28562129690602411 0.1276753514642914 0 -0.25721693353954428 0.1211810869256927 0 -0.25721693353954428 0.1211810869256927 0 -0.27218187125513049 0.1000053586170593 0 -0.28656726386277281 0.1102389310344392 0 -0.28562129690602411 0.1276753514642914 0 -0.28656726386277281 0.1102389310344392 0 -0.30278839613017888 0.1175578073989875 0 -0.28656726386277281 0.1102389310344392 0 -0.30673824435171448 0.1006789483581256 0 -0.29066504378030827 0.090068745853474366 0 -0.27218187125513049 0.1000053586170593 0 -0.28656726386277281 0.1102389310344392 0 -0.29066504378030827 0.090068745853474366 0 -0.30673824435171448 0.1006789483581256 0 -0.30278839613017888 0.1175578073989875 0 -0.31924293308548901 0.1132485703064397 0 -0.28656726386277281 0.1102389310344392 0 -0.30673824435171448 0.1006789483581256 0 -0.30278839613017888 0.1175578073989875 0 -0.31402566027250378 0.13416961600289001 0 -0.30278839613017888 0.1175578073989875 0 -0.31924293308548901 0.1132485703064397 0 -0.30673824435171448 0.1006789483581256 0 -0.31039133561408799 0.070452275343223666 0 -0.29066504378030827 0.090068745853474366 0 -0.31039133561408799 0.070452275343223666 0 -0.29066504378030827 0.090068745853474366 0 -0.28298736167330979 0.073831469749268366 0 -0.31039133561408799 0.070452275343223666 0 -0.28298736167330979 0.073831469749268366 0 -0.2882434260848995 0.054775405103304232 0 -0.28298736167330979 0.073831469749268366 0 -0.26748062084307428 0.063489871941455667 0 -0.26771387427624299 0.081939421615080291 0 -0.28298736167330979 0.073831469749268366 0 -0.26748062084307428 0.063489871941455667 0 -0.2882434260848995 0.054775405103304232 0 -0.27218187125513049 0.1000053586170593 0 -0.29066504378030827 0.090068745853474366 0 -0.26771387427624299 0.081939421615080291 0 -0.29066504378030827 0.090068745853474366 0 -0.28298736167330979 0.073831469749268366 0 -0.26771387427624299 0.081939421615080291 0 -0.25608094328003328 0.094733686625783312 0 -0.27218187125513049 0.1000053586170593 0 -0.26771387427624299 0.081939421615080291 0 -0.25608094328003328 0.094733686625783312 0 -0.26771387427624299 0.081939421615080291 0 -0.25269526430123601 0.073368560798026852 0 -0.26748062084307428 0.063489871941455667 0 -0.26771387427624299 0.081939421615080291 0 -0.25269526430123601 0.073368560798026852 0 -0.26748062084307428 0.063489871941455667 0 -0.25269526430123601 0.073368560798026852 0 -0.24436480895215329 0.053655965690545732 0 -0.25090496262120571 0.041687815465914803 0 -0.26454895342419837 0.045819888538155433 0 -0.24436480895215329 0.053655965690545732 0 -0.26748062084307428 0.063489871941455667 0 -0.26454895342419837 0.045819888538155433 0 -0.24436480895215329 0.053655965690545732 0 -0.25090496262120571 0.041687815465914803 0 -0.25185374232715141 0.028984337974395619 0 -0.2677865251311396 0.02838485767563069 0 -0.25090496262120571 0.041687815465914803 0 -0.26454895342419837 0.045819888538155433 0 -0.2677865251311396 0.02838485767563069 0 -0.26454895342419837 0.045819888538155433 0 -0.2882434260848995 0.054775405103304232 0 -0.28328670703815328 0.035646001315966881 0 -0.26454895342419837 0.045819888538155433 0 -0.2677865251311396 0.02838485767563069 0 -0.28328670703815328 0.035646001315966881 0 -0.26748062084307428 0.063489871941455667 0 -0.26454895342419837 0.045819888538155433 0 -0.2882434260848995 0.054775405103304232 0 -0.26434726606743902 0.01103615826959393 0 -0.24089699995008981 0.0087873441143077047 0 -0.26434726606743902 0.01103615826959393 0 -0.24926006043533089 0.01792005450523124 0 -0.24089699995008981 0.0087873441143077047 0 -0.25641909062978541 0.00032834929142378817 0 -0.26434726606743902 0.01103615826959393 0 -0.2418175348705924 0.0062054284786509503 0 -0.25872560979964537 0.021266212658161549 0 -0.25185374232715141 0.028984337974395619 0 -0.2677865251311396 0.02838485767563069 0 -0.26434726606743902 0.01103615826959393 0 -0.25872560979964537 0.021266212658161549 0 -0.2677865251311396 0.02838485767563069 0 -0.25872560979964537 0.021266212658161549 0 -0.25185374232715141 0.028984337974395619 0 -0.24926006043533089 0.01792005450523124 0 -0.26434726606743902 0.01103615826959393 0 -0.25872560979964537 0.021266212658161549 0 -0.24926006043533089 0.01792005450523124 0 -0.26434726606743902 0.01103615826959393 0 -0.2677865251311396 0.02838485767563069 0 -0.28779753218478837 0.013284972424878369 0 -0.2677865251311396 0.02838485767563069 0 -0.28779753218478837 0.013284972424878369 0 -0.28328670703815328 0.035646001315966881 0 -0.27946948584104619 -0.0089493605764560478 0 -0.26434726606743902 0.01103615826959393 0 -0.28779753218478837 0.013284972424878369 0 -0.26434726606743902 0.01103615826959393 0 -0.28779753218478837 0.013284972424878369 0 -0.27946948584104619 -0.0089493605764560478 0 -0.25641909062978541 0.00032834929142378817 0 -0.26434726606743902 0.01103615826959393 0 -0.27946948584104619 -0.0089493605764560478 0 -0.28779753218478837 0.013284972424878369 0 -0.30088490035534832 0.0002042146101533974 0 -0.28779753218478837 0.013284972424878369 0 -0.29855195184764388 0.027793910033109659 0 -0.28328670703815328 0.035646001315966881 0 -0.28779753218478837 0.013284972424878369 0 -0.29855195184764388 0.027793910033109659 0 -0.31124779830213778 0.015533786580162809 0 -0.29855195184764388 0.027793910033109659 0 -0.31124779830213778 0.015533786580162809 0 -0.31380261524092912 0.035142706197909421 0 -0.28779753218478837 0.013284972424878369 0 -0.31124779830213778 0.015533786580162809 0 -0.30088490035534832 0.0002042146101533974 0 -0.28779753218478837 0.013284972424878369 0 -0.31124779830213778 0.015533786580162809 0 -0.2882434260848995 0.054775405103304232 0 -0.28328670703815328 0.035646001315966881 0 -0.2974973609317938 0.042296962431532387 0 -0.29855195184764388 0.027793910033109659 0 -0.28328670703815328 0.035646001315966881 0 -0.2974973609317938 0.042296962431532387 0 -0.2974973609317938 0.042296962431532387 0 -0.3100687600221318 0.051343810417395427 0 -0.31380261524092912 0.035142706197909421 0 -0.29855195184764388 0.027793910033109659 0 -0.2974973609317938 0.042296962431532387 0 -0.31380261524092912 0.035142706197909421 0 -0.2882434260848995 0.054775405103304232 0 -0.2974973609317938 0.042296962431532387 0 -0.3100687600221318 0.051343810417395427 0 -0.31039133561408799 0.070452275343223666 0 -0.2882434260848995 0.054775405103304232 0 -0.3100687600221318 0.051343810417395427 0 -0.31039133561408799 0.070452275343223666 0 -0.3100687600221318 0.051343810417395427 0 -0.33344955150589167 0.051426810074100389 0 -0.3100687600221318 0.051343810417395427 0 -0.31380261524092912 0.035142706197909421 0 -0.33344955150589167 0.051426810074100389 0 -0.31380261524092912 0.035142706197909421 0 -0.33344955150589167 0.051426810074100389 0 -0.33084557449500529 0.025114029414311591 0 -0.33982536810898012 0.038255868607232957 0 -0.33344955150589167 0.051426810074100389 0 -0.33084557449500529 0.025114029414311591 0 -0.33344955150589167 0.051426810074100389 0 -0.33084557449500529 0.025114029414311591 0 -0.33982536810898012 0.038255868607232957 0 -0.34286573697744149 0.047978027413520433 0 -0.33344955150589167 0.051426810074100389 0 -0.33344955150589167 0.051426810074100389 0 -0.34964400267523332 0.055323604291184547 0 -0.33344955150589167 0.051426810074100389 0 -0.34964400267523332 0.055323604291184547 0 -0.34620172282692641 0.065894359161342106 0 -0.34286573697744149 0.047978027413520433 0 -0.33344955150589167 0.051426810074100389 0 -0.34964400267523332 0.055323604291184547 0 -0.32820792537928828 -0.0011953754489517771 0 -0.31124779830213778 0.015533786580162809 0 -0.33084557449500529 0.025114029414311591 0 -0.32820792537928828 -0.0011953754489517771 0 -0.31124779830213778 0.015533786580162809 0 -0.30088490035534832 0.0002042146101533974 0 -0.31124779830213778 0.015533786580162809 0 -0.31380261524092912 0.035142706197909421 0 -0.33084557449500529 0.025114029414311591 0 -0.33084557449500529 0.025114029414311591 0 -0.34422902683036433 0.0071513329548001077 0 -0.34560989583381579 0.0237791500946355 0 -0.33982536810898012 0.038255868607232957 0 -0.33084557449500529 0.025114029414311591 0 -0.34560989583381579 0.0237791500946355 0 -0.32820792537928828 -0.0011953754489517771 0 -0.33084557449500529 0.025114029414311591 0 -0.34422902683036433 0.0071513329548001077 0 -0.32820792537928828 -0.0011953754489517771 0 -0.33084557449500529 0.025114029414311591 0 -0.36241289049985392 -0.0062558452466195437 0 -0.34422902683036433 0.0071513329548001077 0 -0.35713837373089241 0.018556510137510491 0 -0.34422902683036433 0.0071513329548001077 0 -0.35713837373089241 0.018556510137510491 0 -0.34560989583381579 0.0237791500946355 0 -0.35713837373089241 0.018556510137510491 0 -0.34560989583381579 0.0237791500946355 0 -0.35343971075687491 0.033577224622232699 0 -0.37969360624332338 0.014499645279223129 0 -0.35713837373089241 0.018556510137510491 0 -0.36763194729773668 0.031471598799941942 0 -0.35713837373089241 0.018556510137510491 0 -0.35343971075687491 0.033577224622232699 0 -0.36763194729773668 0.031471598799941942 0 -0.36241289049985392 -0.0062558452466195437 0 -0.37969360624332338 0.014499645279223129 0 -0.35713837373089241 0.018556510137510491 0 -0.36241289049985392 -0.0062558452466195437 0 -0.35713837373089241 0.018556510137510491 0 -0.35283191097677752 0.048738133557750862 0 -0.34964400267523332 0.055323604291184547 0 -0.36583845384457497 0.059220398508268768 0 -0.34964400267523332 0.055323604291184547 0 -0.36583845384457497 0.059220398508268768 0 -0.35666239660864207 0.066198568040898728 0 -0.34964400267523332 0.055323604291184547 0 -0.36583845384457497 0.059220398508268768 0 -0.35283191097677752 0.048738133557750862 0 -0.36583845384457497 0.059220398508268768 0 -0.34964400267523332 0.055323604291184547 0 -0.35666239660864207 0.066198568040898728 0 -0.34620172282692641 0.065894359161342106 0 -0.34286573697744149 0.047978027413520433 0 -0.35283191097677752 0.048738133557750862 0 -0.34964400267523332 0.055323604291184547 0 -0.33982536810898012 0.038255868607232957 0 -0.34286573697744149 0.047978027413520433 0 -0.35283191097677752 0.048738133557750862 0 -0.33982536810898012 0.038255868607232957 0 -0.35283191097677752 0.048738133557750862 0 -0.35343971075687491 0.033577224622232699 0 -0.33982536810898012 0.038255868607232957 0 -0.35283191097677752 0.048738133557750862 0 -0.33982536810898012 0.038255868607232957 0 -0.34560989583381579 0.0237791500946355 0 -0.35343971075687491 0.033577224622232699 0 -0.35283191097677752 0.048738133557750862 0 -0.35343971075687491 0.033577224622232699 0 -0.36123166262072443 0.043083805989916547 0 -0.36123166262072443 0.043083805989916547 0 -0.36763194729773668 0.031471598799941942 0 -0.37104284309123159 0.04522594716483215 0 -0.38446253875507252 0.042763155499688822 0 -0.36763194729773668 0.031471598799941942 0 -0.37104284309123159 0.04522594716483215 0 -0.35343971075687491 0.033577224622232699 0 -0.36123166262072443 0.043083805989916547 0 -0.36763194729773668 0.031471598799941942 0 -0.35283191097677752 0.048738133557750862 0 -0.36123166262072443 0.043083805989916547 0 -0.36583845384457497 0.059220398508268768 0 -0.38051367830517069 0.052797684074857423 0 -0.37104284309123159 0.04522594716483215 0 -0.36583845384457497 0.059220398508268768 0 -0.36123166262072443 0.043083805989916547 0 -0.37104284309123159 0.04522594716483215 0 -0.36583845384457497 0.059220398508268768 0 -0.38757398632345219 0.076737552190072708 0 -0.36583845384457497 0.059220398508268768 0 -0.36741797035749169 0.074346927305574656 0 -0.36583845384457497 0.059220398508268768 0 -0.36741797035749169 0.074346927305574656 0 -0.35666239660864207 0.066198568040898728 0 -0.35666239660864207 0.066198568040898728 0 -0.3536661657247433 0.077059162378073795 0 -0.34620172282692641 0.065894359161342106 0 -0.3536661657247433 0.077059162378073795 0 -0.34620172282692641 0.065894359161342106 0 -0.33646549028680961 0.081170249698879232 0 -0.36741797035749169 0.074346927305574656 0 -0.35666239660864207 0.066198568040898728 0 -0.3536661657247433 0.077059162378073795 0 -0.3536661657247433 0.077059162378073795 0 -0.34997730337670802 0.092117037114373468 0 -0.33646549028680961 0.081170249698879232 0 -0.3536661657247433 0.077059162378073795 0 -0.34997730337670802 0.092117037114373468 0 -0.3627045488113439 0.086849687871760547 0 -0.36741797035749169 0.074346927305574656 0 -0.3536661657247433 0.077059162378073795 0 -0.3627045488113439 0.086849687871760547 0 -0.36741797035749169 0.074346927305574656 0 -0.3627045488113439 0.086849687871760547 0 -0.3744230082937885 0.08547581354146537 0 -0.3627045488113439 0.086849687871760547 0 -0.3744230082937885 0.08547581354146537 0 -0.37131054729579149 0.097301720866168048 0 -0.3627045488113439 0.086849687871760547 0 -0.37131054729579149 0.097301720866168048 0 -0.35760255509774608 0.1045890205029698 0 -0.37691857896006981 0.1096247961512975 0 -0.37131054729579149 0.097301720866168048 0 -0.3672470763613942 0.11231985534442029 0 -0.37131054729579149 0.097301720866168048 0 -0.3672470763613942 0.11231985534442029 0 -0.35760255509774608 0.1045890205029698 0 -0.37519792901347693 0.11969295588409611 0 -0.3736821007348497 0.1272429878630868 0 -0.36586937397507602 0.1238370962671133 0 -0.37519792901347693 0.11969295588409611 0 -0.3672470763613942 0.11231985534442029 0 -0.36586937397507602 0.1238370962671133 0 -0.37519792901347693 0.11969295588409611 0 -0.37691857896006981 0.1096247961512975 0 -0.3672470763613942 0.11231985534442029 0 -0.3672470763613942 0.11231985534442029 0 -0.35658347382620492 0.1188735423948772 0 -0.35760255509774608 0.1045890205029698 0 -0.3672470763613942 0.11231985534442029 0 -0.36586937397507602 0.1238370962671133 0 -0.35658347382620492 0.1188735423948772 0 -0.3597635416916185 0.12999255848049371 0 -0.36586937397507602 0.1238370962671133 0 -0.35658347382620492 0.1188735423948772 0 -0.34955338569929417 0.13074953802534511 0 -0.35658347382620492 0.1188735423948772 0 -0.33944775696289697 0.1109170651201839 0 -0.35658347382620492 0.1188735423948772 0 -0.35760255509774608 0.1045890205029698 0 -0.33944775696289697 0.1109170651201839 0 -0.34997730337670802 0.092117037114373468 0 -0.3627045488113439 0.086849687871760547 0 -0.35760255509774608 0.1045890205029698 0 -0.34997730337670802 0.092117037114373468 0 -0.35760255509774608 0.1045890205029698 0 -0.33944775696289697 0.1109170651201839 0 -0.34997730337670802 0.092117037114373468 0 -0.33944775696289697 0.1109170651201839 0 -0.33646549028680961 0.081170249698879232 0 -0.33944775696289697 0.1109170651201839 0 -0.33646549028680961 0.081170249698879232 0 -0.33944775696289697 0.1109170651201839 0 -0.32456870681218658 0.095445452458893826 0 -0.33646549028680961 0.081170249698879232 0 -0.33944775696289697 0.1109170651201839 0 -0.32878659348996853 0.1247497829927505 0 -0.31924293308548901 0.1132485703064397 0 -0.31402566027250378 0.13416961600289001 0 -0.32878659348996853 0.1247497829927505 0 -0.31924293308548901 0.1132485703064397 0 -0.33944775696289697 0.1109170651201839 0 -0.31924293308548901 0.1132485703064397 0 -0.32456870681218658 0.095445452458893826 0 -0.30673824435171448 0.1006789483581256 0 -0.31924293308548901 0.1132485703064397 0 -0.32456870681218658 0.095445452458893826 0 -0.30673824435171448 0.1006789483581256 0 -0.31039133561408799 0.070452275343223666 0 -0.32456870681218658 0.095445452458893826 0 -0.31039133561408799 0.070452275343223666 0 -0.32456870681218658 0.095445452458893826 0 -0.33646549028680961 0.081170249698879232 0 -0.31039133561408799 0.070452275343223666 0 -0.33344955150589167 0.051426810074100389 0 -0.33646549028680961 0.081170249698879232 0 -0.33344955150589167 0.051426810074100389 0 -0.34620172282692641 0.065894359161342106 0 -0.33646549028680961 0.081170249698879232 0 -0.33344955150589167 0.051426810074100389 0 -0.33646549028680961 0.081170249698879232 0 -0.40381839653019108 0.46947331747938292 0 -0.40534006347518398 0.5 0 -0.3866777741323697 0.4832392272890858 0 -0.40534006347518398 0.5 0 -0.38101181178338012 0.5 0 -0.3866777741323697 0.4832392272890858 0 -0.38101181178338012 0.5 0 -0.3866777741323697 0.4832392272890858 0 -0.36997179164079869 0.48529945378276929 0 -0.3866777741323697 0.4832392272890858 0 -0.37437091293561492 0.45917737748358589 0 -0.36997179164079869 0.48529945378276929 0 -0.40381839653019108 0.46947331747938292 0 -0.3866777741323697 0.4832392272890858 0 -0.37437091293561492 0.45917737748358589 0 -0.39537871520353601 0.43876606622537889 0 -0.37437091293561492 0.45917737748358589 0 -0.39537871520353601 0.43876606622537889 0 -0.37684671701437739 0.43404692599896683 0 -0.37437091293561492 0.45917737748358589 0 -0.39537871520353601 0.43876606622537889 0 -0.41516299463536621 0.44380409763269407 0 -0.40500744236756031 0.43742697412229459 0 -0.39537871520353601 0.43876606622537889 0 -0.41516299463536621 0.44380409763269407 0 -0.40239305732875752 0.45293889832981038 0 -0.39537871520353601 0.43876606622537889 0 -0.37437091293561492 0.45917737748358589 0 -0.40239305732875752 0.45293889832981038 0 -0.39537871520353601 0.43876606622537889 0 -0.41516299463536621 0.44380409763269407 0 -0.40381839653019108 0.46947331747938292 0 -0.40239305732875752 0.45293889832981038 0 -0.37437091293561492 0.45917737748358589 0 -0.40381839653019108 0.46947331747938292 0 -0.42383103075769701 0.46827429394339071 0 -0.42216254038503992 0.45442906129789989 0 -0.40381839653019108 0.46947331747938292 0 -0.40239305732875752 0.45293889832981038 0 -0.42216254038503992 0.45442906129789989 0 -0.40239305732875752 0.45293889832981038 0 -0.41516299463536621 0.44380409763269407 0 -0.42216254038503992 0.45442906129789989 0 -0.41516299463536621 0.44380409763269407 0 -0.41369100131308528 0.43384883598323742 0 -0.40500744236756031 0.43742697412229459 0 -0.41516299463536621 0.44380409763269407 0 -0.42250451989065291 0.43722979065153478 0 -0.41369100131308528 0.43384883598323742 0 -0.41516299463536621 0.44380409763269407 0 -0.43494727406719602 0.44884212904001081 0 -0.42216254038503992 0.45442906129789989 0 -0.41516299463536621 0.44380409763269407 0 -0.43494727406719602 0.44884212904001081 0 -0.42250451989065291 0.43722979065153478 0 -0.41516299463536621 0.44380409763269407 0 -0.43494727406719602 0.44884212904001081 0 -0.43494727406719602 0.44884212904001081 0 -0.42250451989065291 0.43722979065153478 0 -0.43494727406719602 0.44884212904001081 0 -0.43168873526124441 0.43550201068949151 0 -0.42250451989065291 0.43722979065153478 0 -0.43494727406719602 0.44884212904001081 0 -0.43864722288502339 0.43958612673161251 0 -0.43168873526124441 0.43550201068949151 0 -0.42383103075769701 0.46827429394339071 0 -0.43454997311544602 0.45953130460234443 0 -0.44384366498520278 0.46707527040739782 0 -0.42383103075769701 0.46827429394339071 0 -0.44384366498520278 0.46707527040739782 0 -0.42383103075769701 0.46827429394339071 0 -0.42216254038503992 0.45442906129789989 0 -0.43454997311544602 0.45953130460234443 0 -0.43494727406719602 0.44884212904001081 0 -0.42216254038503992 0.45442906129789989 0 -0.43454997311544602 0.45953130460234443 0 -0.42383103075769701 0.46827429394339071 0 -0.43675599007609439 0.48353763520369719 0 -0.44384366498520278 0.46707527040739782 0 -0.42383103075769701 0.46827429394339071 0 -0.43675599007609439 0.48353763520369719 0 -0.41988275920123069 0.48425704932529362 0 -0.40381839653019108 0.46947331747938292 0 -0.42383103075769701 0.46827429394339071 0 -0.40381839653019108 0.46947331747938292 0 -0.42383103075769701 0.46827429394339071 0 -0.41988275920123069 0.48425704932529362 0 -0.40534006347518398 0.5 0 -0.41988275920123069 0.48425704932529362 0 -0.429668315166988 0.49999999999999761 0 -0.40381839653019108 0.46947331747938292 0 -0.40534006347518398 0.5 0 -0.41988275920123069 0.48425704932529362 0 -0.43675599007609439 0.48353763520369719 0 -0.429668315166988 0.49999999999999761 0 -0.43675599007609439 0.48353763520369719 0 -0.41988275920123069 0.48425704932529362 0 -0.429668315166988 0.49999999999999761 0 -0.429668315166988 0.49999999999999761 0 -0.4549452792113875 0.48450287031849099 0 -0.48875845241103438 0.49999999999999961 0 -0.43675599007609439 0.48353763520369719 0 -0.429668315166988 0.49999999999999761 0 -0.4549452792113875 0.48450287031849099 0 -0.43675599007609439 0.48353763520369719 0 -0.44832606315223522 0.4752874294934808 0 -0.4549452792113875 0.48450287031849099 0 -0.44832606315223522 0.4752874294934808 0 -0.4549452792113875 0.48450287031849099 0 -0.45384239793456821 0.46647621303193998 0 -0.43675599007609439 0.48353763520369719 0 -0.44832606315223522 0.4752874294934808 0 -0.44384366498520278 0.46707527040739782 0 -0.43675599007609439 0.48353763520369719 0 -0.44384366498520278 0.46707527040739782 0 -0.44832606315223522 0.4752874294934808 0 -0.45384239793456821 0.46647621303193998 0 -0.44384366498520278 0.46707527040739782 0 -0.4549452792113875 0.48450287031849099 0 -0.47130042517280069 0.48276911065004219 0 -0.45384239793456821 0.46647621303193998 0 -0.47130042517280069 0.48276911065004219 0 -0.47625950656525462 0.46513312943027219 0 -0.45384239793456821 0.46647621303193998 0 -0.47130042517280069 0.48276911065004219 0 -0.45384239793456821 0.46647621303193998 0 -0.47130042517280069 0.48276911065004219 0 -0.4869989998690063 0.48215085883541292 0 -0.48875845241103438 0.49999999999999961 0 -0.47130042517280069 0.48276911065004219 0 -0.48875845241103438 0.49999999999999961 0 -0.4549452792113875 0.48450287031849099 0 -0.47130042517280069 0.48276911065004219 0 -0.48875845241103438 0.49999999999999961 0 -0.4869989998690063 0.48215085883541292 0 -0.5 0.5 0 -0.5 0.463790045828607 0 -0.47130042517280069 0.48276911065004219 0 -0.4869989998690063 0.48215085883541292 0 -0.47625950656525462 0.46513312943027219 0 -0.4869989998690063 0.48215085883541292 0 -0.5 0.463790045828607 0 -0.47625950656525462 0.46513312943027219 0 -0.4869989998690063 0.48215085883541292 0 -0.48875845241103438 0.49999999999999961 0 -0.5 0.5 0 -0.5 0.44196719635978621 0 -0.48030153580937202 0.4461887046431931 0 -0.48119052312172877 0.42629435786905989 0 -0.5 0.44196719635978621 0 -0.5 0.463790045828607 0 -0.48030153580937202 0.4461887046431931 0 -0.5 0.463790045828607 0 -0.47625950656525462 0.46513312943027219 0 -0.48030153580937202 0.4461887046431931 0 -0.5 0.463790045828607 0 -0.47625950656525462 0.46513312943027219 0 -0.47625950656525462 0.46513312943027219 0 -0.48030153580937202 0.4461887046431931 0 -0.46248231164158798 0.4536570434207961 0 -0.46248231164158798 0.4536570434207961 0 -0.44689362842805669 0.45999119679291278 0 -0.45751490274244278 0.43532142925880479 0 -0.48030153580937202 0.4461887046431931 0 -0.46248231164158798 0.4536570434207961 0 -0.45751490274244278 0.43532142925880479 0 -0.47625950656525462 0.46513312943027219 0 -0.46248231164158798 0.4536570434207961 0 -0.45384239793456821 0.46647621303193998 0 -0.47625950656525462 0.46513312943027219 0 -0.45384239793456821 0.46647621303193998 0 -0.46248231164158798 0.4536570434207961 0 -0.45384239793456821 0.46647621303193998 0 -0.44689362842805669 0.45999119679291278 0 -0.45384239793456821 0.46647621303193998 0 -0.44689362842805669 0.45999119679291278 0 -0.44384366498520278 0.46707527040739782 0 -0.45384239793456821 0.46647621303193998 0 -0.44384366498520278 0.46707527040739782 0 -0.45384239793456821 0.46647621303193998 0 -0.44689362842805669 0.45999119679291278 0 -0.44689362842805669 0.45999119679291278 0 -0.44384366498520278 0.46707527040739782 0 -0.43494727406719602 0.44884212904001081 0 -0.43454997311544602 0.45953130460234443 0 -0.44689362842805669 0.45999119679291278 0 -0.43494727406719602 0.44884212904001081 0 -0.44689362842805669 0.45999119679291278 0 -0.43454997311544602 0.45953130460234443 0 -0.44689362842805669 0.45999119679291278 0 -0.44384366498520278 0.46707527040739782 0 -0.44689362842805669 0.45999119679291278 0 -0.44733528366529762 0.44316827923797708 0 -0.45751490274244278 0.43532142925880479 0 -0.44689362842805669 0.45999119679291278 0 -0.45751490274244278 0.43532142925880479 0 -0.44689362842805669 0.45999119679291278 0 -0.44733528366529762 0.44316827923797708 0 -0.4409911458546642 0.44489605601496579 0 -0.43494727406719602 0.44884212904001081 0 -0.44689362842805669 0.45999119679291278 0 -0.4409911458546642 0.44489605601496579 0 -0.43494727406719602 0.44884212904001081 0 -0.4409911458546642 0.44489605601496579 0 -0.43864722288502339 0.43958612673161251 0 -0.44733528366529762 0.44316827923797708 0 -0.4409911458546642 0.44489605601496579 0 -0.43864722288502339 0.43958612673161251 0 -0.44733528366529762 0.44316827923797708 0 -0.43864722288502339 0.43958612673161251 0 -0.44535996156831831 0.43046805082410289 0 -0.44535996156831831 0.43046805082410289 0 -0.44697005247642602 0.41876302886726491 0 -0.45751490274244278 0.43532142925880479 0 -0.43864722288502339 0.43958612673161251 0 -0.44535996156831831 0.43046805082410289 0 -0.43168873526124441 0.43550201068949151 0 -0.44535996156831831 0.43046805082410289 0 -0.44697005247642602 0.41876302886726491 0 -0.43410228972087128 0.42400899141562598 0 -0.44733528366529762 0.44316827923797708 0 -0.44535996156831831 0.43046805082410289 0 -0.45751490274244278 0.43532142925880479 0 -0.44697005247642602 0.41876302886726491 0 -0.44899225114443658 0.40477984926790161 0 -0.42771473262565829 0.40734819071245781 0 -0.44697005247642602 0.41876302886726491 0 -0.46813617705682931 0.41065166172469719 0 -0.45751490274244278 0.43532142925880479 0 -0.44697005247642602 0.41876302886726491 0 -0.46813617705682931 0.41065166172469719 0 -0.44899225114443658 0.40477984926790161 0 -0.46813617705682931 0.41065166172469719 0 -0.45751490274244278 0.43532142925880479 0 -0.46813617705682931 0.41065166172469719 0 -0.48119052312172877 0.42629435786905989 0 -0.5 0.39734279735881839 0 -0.48030153580937202 0.4461887046431931 0 -0.45751490274244278 0.43532142925880479 0 -0.48119052312172877 0.42629435786905989 0 -0.46813617705682931 0.41065166172469719 0 -0.45751490274244278 0.43532142925880479 0 -0.48119052312172877 0.42629435786905989 0 -0.5 0.44196719635978621 0 -0.48119052312172877 0.42629435786905989 0 -0.5 0.39734279735881839 0 -0.5 0.39734279735881839 0 -0.47875745137121578 0.38598189419058959 0 -0.48937872568560242 0.36131212665648188 0 -0.46813617705682931 0.41065166172469719 0 -0.5 0.39734279735881839 0 -0.47875745137121578 0.38598189419058959 0 -0.46813617705682931 0.41065166172469719 0 -0.47875745137121578 0.38598189419058959 0 -0.45989660261661403 0.39386195614792852 0 -0.46813617705682931 0.41065166172469719 0 -0.47875745137121578 0.38598189419058959 0 -0.47875745137121578 0.38598189419058959 0 -0.45982651146517362 0.37614818680015039 0 -0.47413997842736932 0.37274220610027209 0 -0.45982651146517362 0.37614818680015039 0 -0.45989660261661403 0.39386195614792852 0 -0.44377062204541479 0.39174818875630302 0 -0.47875745137121578 0.38598189419058959 0 -0.45982651146517362 0.37614818680015039 0 -0.45989660261661403 0.39386195614792852 0 -0.46813617705682931 0.41065166172469719 0 -0.45989660261661403 0.39386195614792852 0 -0.44899225114443658 0.40477984926790161 0 -0.44899225114443658 0.40477984926790161 0 -0.44377062204541479 0.39174818875630302 0 -0.42771473262565829 0.40734819071245781 0 -0.45989660261661403 0.39386195614792852 0 -0.44899225114443658 0.40477984926790161 0 -0.44377062204541479 0.39174818875630302 0 -0.45982651146517362 0.37614818680015039 0 -0.44377062204541479 0.39174818875630302 0 -0.44889772841627662 0.37752629542845861 0 -0.45982651146517362 0.37614818680015039 0 -0.44377062204541479 0.39174818875630302 0 -0.44377062204541479 0.39174818875630302 0 -0.44071794691378408 0.38001529032768072 0 -0.42917625628499378 0.38522330574358798 0 -0.44377062204541479 0.39174818875630302 0 -0.44889772841627662 0.37752629542845861 0 -0.44071794691378408 0.38001529032768072 0 -0.44889772841627662 0.37752629542845861 0 -0.44071794691378408 0.38001529032768072 0 -0.44484073671040869 0.3733380302734623 0 -0.42917625628499378 0.38522330574358798 0 -0.42041923373174561 0.38831918615094818 0 -0.42558767362949262 0.37207348131751578 0 -0.42917625628499378 0.38522330574358798 0 -0.44001133512155782 0.36669049767286988 0 -0.44071794691378408 0.38001529032768072 0 -0.42917625628499378 0.38522330574358798 0 -0.44001133512155782 0.36669049767286988 0 -0.42041923373174561 0.38831918615094818 0 -0.41312373483783182 0.36929018158943921 0 -0.42041923373174561 0.38831918615094818 0 -0.41063049958543679 0.38352785168162562 0 -0.41312373483783182 0.36929018158943921 0 -0.42041923373174561 0.38831918615094818 0 -0.41312373483783182 0.36929018158943921 0 -0.42558767362949262 0.37207348131751578 0 -0.42041923373174561 0.38831918615094818 0 -0.41063049958543679 0.38352785168162562 0 -0.41218203739888432 0.39111202471205508 0 -0.41063049958543679 0.38352785168162562 0 -0.41218203739888432 0.39111202471205508 0 -0.40438599975069661 0.38964390219057088 0 -0.41063049958543679 0.38352785168162562 0 -0.40304149220802621 0.37927396376511419 0 -0.41312373483783182 0.36929018158943921 0 -0.42041923373174561 0.38831918615094818 0 -0.41472933589410921 0.39852449697360087 0 -0.42771473262565829 0.40734819071245781 0 -0.40721640793467168 0.40562621417074052 0 -0.41472933589410921 0.39852449697360087 0 -0.41331084528105672 0.40986472608785102 0 -0.40721640793467168 0.40562621417074052 0 -0.40714509106156149 0.39782447874822702 0 -0.41472933589410921 0.39852449697360087 0 -0.40714509106156149 0.39782447874822702 0 -0.41218203739888432 0.39111202471205508 0 -0.40438599975069661 0.38964390219057088 0 -0.40714509106156149 0.39782447874822702 0 -0.41218203739888432 0.39111202471205508 0 -0.41472933589410921 0.39852449697360087 0 -0.42041923373174561 0.38831918615094818 0 -0.41218203739888432 0.39111202471205508 0 -0.41472933589410921 0.39852449697360087 0 -0.41472933589410921 0.39852449697360087 0 -0.42771473262565829 0.40734819071245781 0 -0.41331084528105672 0.40986472608785102 0 -0.42041923373174561 0.38831918615094818 0 -0.42771473262565829 0.40734819071245781 0 -0.42917625628499378 0.38522330574358798 0 -0.42041923373174561 0.38831918615094818 0 -0.42771473262565829 0.40734819071245781 0 -0.44377062204541479 0.39174818875630302 0 -0.42917625628499378 0.38522330574358798 0 -0.42771473262565829 0.40734819071245781 0 -0.44377062204541479 0.39174818875630302 0 -0.42771473262565829 0.40734819071245781 0 -0.42771473262565829 0.40734819071245781 0 -0.43410228972087128 0.42400899141562598 0 -0.42771473262565829 0.40734819071245781 0 -0.428009601771288 0.42719373113120812 0 -0.41065924197425657 0.42391941143831968 0 -0.44697005247642602 0.41876302886726491 0 -0.42771473262565829 0.40734819071245781 0 -0.43410228972087128 0.42400899141562598 0 -0.42771473262565829 0.40734819071245781 0 -0.43410228972087128 0.42400899141562598 0 -0.428009601771288 0.42719373113120812 0 -0.44535996156831831 0.43046805082410289 0 -0.428009601771288 0.42719373113120812 0 -0.44535996156831831 0.43046805082410289 0 -0.43168873526124441 0.43550201068949151 0 -0.428009601771288 0.42719373113120812 0 -0.44535996156831831 0.43046805082410289 0 -0.43410228972087128 0.42400899141562598 0 -0.428009601771288 0.42719373113120812 0 -0.43168873526124441 0.43550201068949151 0 -0.428009601771288 0.42719373113120812 0 -0.42131062004210601 0.43153875597875879 0 -0.43168873526124441 0.43550201068949151 0 -0.42250451989065291 0.43722979065153478 0 -0.42131062004210601 0.43153875597875879 0 -0.428009601771288 0.42719373113120812 0 -0.41065924197425657 0.42391941143831968 0 -0.428009601771288 0.42719373113120812 0 -0.42131062004210601 0.43153875597875879 0 -0.41065924197425657 0.42391941143831968 0 -0.42250451989065291 0.43722979065153478 0 -0.42131062004210601 0.43153875597875879 0 -0.41369100131308528 0.43384883598323742 0 -0.42131062004210601 0.43153875597875879 0 -0.41065924197425657 0.42391941143831968 0 -0.41369100131308528 0.43384883598323742 0 -0.41065924197425657 0.42391941143831968 0 -0.40257246395726243 0.43177657522327362 0 -0.41065924197425657 0.42391941143831968 0 -0.40810553735400701 0.43274202025151998 0 -0.40257246395726243 0.43177657522327362 0 -0.41065924197425657 0.42391941143831968 0 -0.41369100131308528 0.43384883598323742 0 -0.40810553735400701 0.43274202025151998 0 -0.41369100131308528 0.43384883598323742 0 -0.40810553735400701 0.43274202025151998 0 -0.40500744236756031 0.43742697412229459 0 -0.42771473262565829 0.40734819071245781 0 -0.41065924197425657 0.42391941143831968 0 -0.41331084528105672 0.40986472608785102 0 -0.42771473262565829 0.40734819071245781 0 -0.41065924197425657 0.42391941143831968 0 -0.41065924197425657 0.42391941143831968 0 -0.41331084528105672 0.40986472608785102 0 -0.40623450797658489 0.41390531714413331 0 -0.40721640793467168 0.40562621417074052 0 -0.41331084528105672 0.40986472608785102 0 -0.40623450797658489 0.41390531714413331 0 -0.39817087718263888 0.42156263617557432 0 -0.3975694940695933 0.41091053123585808 0 -0.38742146524093563 0.39661848671469352 0 -0.39817087718263888 0.42156263617557432 0 -0.38742146524093563 0.39661848671469352 0 -0.40721640793467168 0.40562621417074052 0 -0.40623450797658489 0.41390531714413331 0 -0.3975694940695933 0.41091053123585808 0 -0.40623450797658489 0.41390531714413331 0 -0.39817087718263888 0.42156263617557432 0 -0.3975694940695933 0.41091053123585808 0 -0.41065924197425657 0.42391941143831968 0 -0.40623450797658489 0.41390531714413331 0 -0.39817087718263888 0.42156263617557432 0 -0.39537871520353601 0.43876606622537889 0 -0.40500744236756031 0.43742697412229459 0 -0.40257246395726243 0.43177657522327362 0 -0.39537871520353601 0.43876606622537889 0 -0.40257246395726243 0.43177657522327362 0 -0.40810553735400701 0.43274202025151998 0 -0.40500744236756031 0.43742697412229459 0 -0.40257246395726243 0.43177657522327362 0 -0.40500744236756031 0.43742697412229459 0 -0.40257246395726243 0.43177657522327362 0 -0.39817087718263888 0.42156263617557432 0 -0.40257246395726243 0.43177657522327362 0 -0.41065924197425657 0.42391941143831968 0 -0.39817087718263888 0.42156263617557432 0 -0.40257246395726243 0.43177657522327362 0 -0.41065924197425657 0.42391941143831968 0 -0.39817087718263888 0.42156263617557432 0 -0.39817087718263888 0.42156263617557432 0 -0.40257246395726243 0.43177657522327362 0 -0.38930366804409022 0.42861367263459932 0 -0.39537871520353601 0.43876606622537889 0 -0.40257246395726243 0.43177657522327362 0 -0.38930366804409022 0.42861367263459932 0 -0.39537871520353601 0.43876606622537889 0 -0.37684671701437739 0.43404692599896683 0 -0.39817087718263888 0.42156263617557432 0 -0.38930366804409022 0.42861367263459932 0 -0.37354956686263591 0.41691615954980138 0 -0.39537871520353601 0.43876606622537889 0 -0.37684671701437739 0.43404692599896683 0 -0.38930366804409022 0.42861367263459932 0 -0.37684671701437739 0.43404692599896683 0 -0.38930366804409022 0.42861367263459932 0 -0.37354956686263591 0.41691615954980138 0 -0.39817087718263888 0.42156263617557432 0 -0.38509182753939358 0.41038434481072211 0 -0.37354956686263591 0.41691615954980138 0 -0.39817087718263888 0.42156263617557432 0 -0.38509182753939358 0.41038434481072211 0 -0.38742146524093563 0.39661848671469352 0 -0.39817087718263888 0.42156263617557432 0 -0.37354956686263591 0.41691615954980138 0 -0.38509182753939358 0.41038434481072211 0 -0.38141986801754829 0.40339160763876403 0 -0.37499740247542401 0.40721811472971858 0 -0.38509182753939358 0.41038434481072211 0 -0.37499740247542401 0.40721811472971858 0 -0.37354956686263591 0.41691615954980138 0 -0.38141986801754829 0.40339160763876403 0 -0.37433130765721778 0.39877687525018679 0 -0.37499740247542401 0.40721811472971858 0 -0.38141986801754829 0.40339160763876403 0 -0.38050765156011163 0.39753361532423781 0 -0.37433130765721778 0.39877687525018679 0 -0.38509182753939358 0.41038434481072211 0 -0.38141986801754829 0.40339160763876403 0 -0.38742146524093563 0.39661848671469352 0 -0.38141986801754829 0.40339160763876403 0 -0.38742146524093563 0.39661848671469352 0 -0.38050765156011163 0.39753361532423781 0 -0.38742146524093563 0.39661848671469352 0 -0.38050765156011163 0.39753361532423781 0 -0.37885796532474447 0.39134749169330713 0 -0.37885796532474447 0.39134749169330713 0 -0.37184043272452061 0.39068025433287201 0 -0.37433130765721778 0.39877687525018679 0 -0.38050765156011163 0.39753361532423781 0 -0.37885796532474447 0.39134749169330713 0 -0.37433130765721778 0.39877687525018679 0 -0.38742146524093563 0.39661848671469352 0 -0.37667205329923148 0.37167433725381299 0 -0.38742146524093563 0.39661848671469352 0 -0.37885796532474447 0.39134749169330713 0 -0.37667205329923148 0.37167433725381299 0 -0.38742146524093563 0.39661848671469352 0 -0.38199646771357759 0.37558515965074968 0 -0.3916785736318909 0.39937993845012287 0 -0.38199646771357759 0.37558515965074968 0 -0.39240857788198241 0.38830242819090488 0 -0.3916785736318909 0.39937993845012287 0 -0.38199646771357759 0.37558515965074968 0 -0.3916785736318909 0.39937993845012287 0 -0.38742146524093563 0.39661848671469352 0 -0.38199646771357759 0.37558515965074968 0 -0.37667205329923148 0.37167433725381299 0 -0.37885796532474447 0.39134749169330713 0 -0.37667205329923148 0.37167433725381299 0 -0.37409232478017868 0.38436959454308373 0 -0.38199646771357759 0.37558515965074968 0 -0.39030126061629361 0.37594248475922298 0 -0.39192953707271933 0.38181209549581979 0 -0.38199646771357759 0.37558515965074968 0 -0.39240857788198241 0.38830242819090488 0 -0.39192953707271933 0.38181209549581979 0 -0.39240857788198241 0.38830242819090488 0 -0.39746953383272499 0.38553802600828341 0 -0.39192953707271933 0.38181209549581979 0 -0.39240857788198241 0.38830242819090488 0 -0.39746953383272499 0.38553802600828341 0 -0.39696920299142302 0.39247130705032901 0 -0.3957961297943462 0.3790884252336057 0 -0.40304149220802621 0.37927396376511419 0 -0.39573629945969879 0.37124535596216662 0 -0.39030126061629361 0.37594248475922298 0 -0.3957961297943462 0.3790884252336057 0 -0.39573629945969879 0.37124535596216662 0 -0.39030126061629361 0.37594248475922298 0 -0.39192953707271933 0.38181209549581979 0 -0.3957961297943462 0.3790884252336057 0 -0.39746953383272499 0.38553802600828341 0 -0.39192953707271933 0.38181209549581979 0 -0.3957961297943462 0.3790884252336057 0 -0.39746953383272499 0.38553802600828341 0 -0.3957961297943462 0.3790884252336057 0 -0.40304149220802621 0.37927396376511419 0 -0.39746953383272499 0.38553802600828341 0 -0.40304149220802621 0.37927396376511419 0 -0.40438599975069661 0.38964390219057088 0 -0.41063049958543679 0.38352785168162562 0 -0.40304149220802621 0.37927396376511419 0 -0.40438599975069661 0.38964390219057088 0 -0.39746953383272499 0.38553802600828341 0 -0.40438599975069661 0.38964390219057088 0 -0.39696920299142302 0.39247130705032901 0 -0.40714509106156149 0.39782447874822702 0 -0.40438599975069661 0.38964390219057088 0 -0.40118909852417167 0.39602401340490961 0 -0.40438599975069661 0.38964390219057088 0 -0.40118909852417167 0.39602401340490961 0 -0.39696920299142302 0.39247130705032901 0 -0.40721640793467168 0.40562621417074052 0 -0.3975694940695933 0.41091053123585808 0 -0.40090394553026121 0.40204281680092391 0 -0.40721640793467168 0.40562621417074052 0 -0.40714509106156149 0.39782447874822702 0 -0.40090394553026121 0.40204281680092391 0 -0.40714509106156149 0.39782447874822702 0 -0.40118909852417167 0.39602401340490961 0 -0.40090394553026121 0.40204281680092391 0 -0.40118909852417167 0.39602401340490961 0 -0.40090394553026121 0.40204281680092391 0 -0.39654125328691631 0.3981375622344972 0 -0.3975694940695933 0.41091053123585808 0 -0.38742146524093563 0.39661848671469352 0 -0.3954932411278102 0.40470116132411438 0 -0.3954932411278102 0.40470116132411438 0 -0.3916785736318909 0.39937993845012287 0 -0.39654125328691631 0.3981375622344972 0 -0.40090394553026121 0.40204281680092391 0 -0.3954932411278102 0.40470116132411438 0 -0.39654125328691631 0.3981375622344972 0 -0.38742146524093563 0.39661848671469352 0 -0.3954932411278102 0.40470116132411438 0 -0.3916785736318909 0.39937993845012287 0 -0.3975694940695933 0.41091053123585808 0 -0.40090394553026121 0.40204281680092391 0 -0.3954932411278102 0.40470116132411438 0 -0.39240857788198241 0.38830242819090488 0 -0.3916785736318909 0.39937993845012287 0 -0.39440815204955859 0.3950280424901248 0 -0.3916785736318909 0.39937993845012287 0 -0.39440815204955859 0.3950280424901248 0 -0.39654125328691631 0.3981375622344972 0 -0.39240857788198241 0.38830242819090488 0 -0.39440815204955859 0.3950280424901248 0 -0.39696920299142302 0.39247130705032901 0 -0.40118909852417167 0.39602401340490961 0 -0.39696920299142302 0.39247130705032901 0 -0.39654125328691631 0.3981375622344972 0 -0.39440815204955859 0.3950280424901248 0 -0.39696920299142302 0.39247130705032901 0 -0.39654125328691631 0.3981375622344972 0 -0.39837724946563741 0.35646203293237622 0 -0.39389661679606691 0.35315815354610752 0 -0.39883508461703132 0.35146009852940607 0 -0.39837724946563741 0.35646203293237622 0 -0.39337371658449688 0.35857449214508708 0 -0.39389661679606691 0.35315815354610752 0 -0.39837724946563741 0.35646203293237622 0 -0.39337371658449688 0.35857449214508708 0 -0.39822310083577428 0.36287939211839487 0 -0.39389661679606691 0.35315815354610752 0 -0.38814190982911068 0.35375304428511561 0 -0.39053294693638391 0.34956809547353368 0 -0.39337371658449688 0.35857449214508708 0 -0.39389661679606691 0.35315815354610752 0 -0.38814190982911068 0.35375304428511561 0 -0.39415574140833542 0.349119086123995 0 -0.39042239918188237 0.34468645690803118 0 -0.39053294693638391 0.34956809547353368 0 -0.39389661679606691 0.35315815354610752 0 -0.39415574140833542 0.349119086123995 0 -0.39053294693638391 0.34956809547353368 0 -0.39415574140833542 0.349119086123995 0 -0.3970916595103125 0.34672262616289651 0 -0.39042239918188237 0.34468645690803118 0 -0.39415574140833542 0.349119086123995 0 -0.3970916595103125 0.34672262616289651 0 -0.39883508461703132 0.35146009852940607 0 -0.39389661679606691 0.35315815354610752 0 -0.39415574140833542 0.349119086123995 0 -0.39883508461703132 0.35146009852940607 0 -0.3970916595103125 0.34672262616289651 0 -0.40582823594391848 0.3502611770279298 0 -0.39555866100818471 0.33969625499204709 0 -0.3970916595103125 0.34672262616289651 0 -0.39883508461703132 0.35146009852940607 0 -0.40582823594391848 0.3502611770279298 0 -0.39883508461703132 0.35146009852940607 0 -0.40582823594391848 0.3502611770279298 0 -0.40297740917924391 0.35323534573135013 0 -0.40582823594391848 0.3502611770279298 0 -0.40297740917924391 0.35323534573135013 0 -0.40358123681175812 0.35911112333845951 0 -0.40582823594391848 0.3502611770279298 0 -0.40297740917924391 0.35323534573135013 0 -0.39837724946563741 0.35646203293237622 0 -0.39883508461703132 0.35146009852940607 0 -0.40297740917924391 0.35323534573135013 0 -0.39837724946563741 0.35646203293237622 0 -0.40297740917924391 0.35323534573135013 0 -0.40358123681175812 0.35911112333845951 0 -0.40358123681175812 0.35911112333845951 0 -0.40274117283061789 0.36836000335471492 0 -0.39822310083577428 0.36287939211839487 0 -0.39837724946563741 0.35646203293237622 0 -0.40358123681175812 0.35911112333845951 0 -0.39822310083577428 0.36287939211839487 0 -0.40304149220802621 0.37927396376511419 0 -0.40274117283061789 0.36836000335471492 0 -0.39573629945969879 0.37124535596216662 0 -0.40274117283061789 0.36836000335471492 0 -0.39573629945969879 0.37124535596216662 0 -0.39822310083577428 0.36287939211839487 0 -0.39573629945969879 0.37124535596216662 0 -0.39328135033367928 0.36394565714901811 0 -0.3896229836356771 0.36677011633220041 0 -0.39573629945969879 0.37124535596216662 0 -0.3896229836356771 0.36677011633220041 0 -0.3882859480896097 0.37128979211238111 0 -0.39030126061629361 0.37594248475922298 0 -0.39573629945969879 0.37124535596216662 0 -0.3882859480896097 0.37128979211238111 0 -0.39573629945969879 0.37124535596216662 0 -0.39822310083577428 0.36287939211839487 0 -0.39328135033367928 0.36394565714901811 0 -0.39337371658449688 0.35857449214508708 0 -0.39822310083577428 0.36287939211839487 0 -0.39328135033367928 0.36394565714901811 0 -0.39337371658449688 0.35857449214508708 0 -0.39328135033367928 0.36394565714901811 0 -0.38841981070432602 0.36019742473549621 0 -0.38199646771357759 0.37558515965074968 0 -0.37889828786457069 0.35944822451737241 0 -0.37231436179526439 0.35179038085137659 0 -0.38199646771357759 0.37558515965074968 0 -0.37667205329923148 0.37167433725381299 0 -0.37231436179526439 0.35179038085137659 0 -0.38199646771357759 0.37558515965074968 0 -0.38377272902280118 0.36690584385756558 0 -0.37889828786457069 0.35944822451737241 0 -0.38199646771357759 0.37558515965074968 0 -0.37231436179526439 0.35179038085137659 0 -0.38841981070432602 0.36019742473549621 0 -0.3896229836356771 0.36677011633220041 0 -0.38478751988192622 0.36194733067467688 0 -0.39328135033367928 0.36394565714901811 0 -0.38841981070432602 0.36019742473549621 0 -0.3896229836356771 0.36677011633220041 0 -0.3896229836356771 0.36677011633220041 0 -0.38377272902280118 0.36690584385756558 0 -0.38478751988192622 0.36194733067467688 0 -0.38841981070432602 0.36019742473549621 0 -0.38478751988192622 0.36194733067467688 0 -0.38322378818225578 0.35641504393074991 0 -0.38199646771357759 0.37558515965074968 0 -0.39030126061629361 0.37594248475922298 0 -0.3882859480896097 0.37128979211238111 0 -0.38199646771357759 0.37558515965074968 0 -0.38377272902280118 0.36690584385756558 0 -0.3882859480896097 0.37128979211238111 0 -0.3896229836356771 0.36677011633220041 0 -0.38377272902280118 0.36690584385756558 0 -0.3882859480896097 0.37128979211238111 0 -0.38377272902280118 0.36690584385756558 0 -0.38478751988192622 0.36194733067467688 0 -0.37889828786457069 0.35944822451737241 0 -0.37889828786457069 0.35944822451737241 0 -0.37895595979258501 0.35159151467075539 0 -0.37231436179526439 0.35179038085137659 0 -0.37889828786457069 0.35944822451737241 0 -0.37895595979258501 0.35159151467075539 0 -0.38322378818225578 0.35641504393074991 0 -0.37895595979258501 0.35159151467075539 0 -0.38322378818225578 0.35641504393074991 0 -0.38324400762906918 0.35117407622135921 0 -0.38478751988192622 0.36194733067467688 0 -0.37889828786457069 0.35944822451737241 0 -0.38322378818225578 0.35641504393074991 0 -0.38841981070432602 0.36019742473549621 0 -0.38322378818225578 0.35641504393074991 0 -0.38814190982911068 0.35375304428511561 0 -0.38322378818225578 0.35641504393074991 0 -0.38814190982911068 0.35375304428511561 0 -0.38324400762906918 0.35117407622135921 0 -0.39337371658449688 0.35857449214508708 0 -0.38841981070432602 0.36019742473549621 0 -0.38814190982911068 0.35375304428511561 0 -0.39042239918188237 0.34468645690803118 0 -0.38663190257102409 0.34897479658011232 0 -0.38515243309804947 0.34482976222425638 0 -0.39042239918188237 0.34468645690803118 0 -0.39053294693638391 0.34956809547353368 0 -0.38663190257102409 0.34897479658011232 0 -0.38814190982911068 0.35375304428511561 0 -0.39053294693638391 0.34956809547353368 0 -0.38663190257102409 0.34897479658011232 0 -0.38324400762906918 0.35117407622135921 0 -0.38663190257102409 0.34897479658011232 0 -0.38515243309804947 0.34482976222425638 0 -0.38814190982911068 0.35375304428511561 0 -0.38324400762906918 0.35117407622135921 0 -0.38663190257102409 0.34897479658011232 0 -0.37895595979258501 0.35159151467075539 0 -0.38515243309804947 0.34482976222425638 0 -0.37523706400567619 0.3450290524911524 0 -0.37895595979258501 0.35159151467075539 0 -0.38324400762906918 0.35117407622135921 0 -0.38515243309804947 0.34482976222425638 0 -0.37895595979258501 0.35159151467075539 0 -0.37523706400567619 0.3450290524911524 0 -0.37231436179526439 0.35179038085137659 0 -0.37523706400567619 0.3450290524911524 0 -0.38000170080819201 0.32534340249379601 0 -0.39815275219217638 0.33024104989919417 0 -0.38515243309804947 0.34482976222425638 0 -0.37523706400567619 0.3450290524911524 0 -0.39815275219217638 0.33024104989919417 0 -0.37523706400567619 0.3450290524911524 0 -0.39815275219217638 0.33024104989919417 0 -0.37523706400567619 0.3450290524911524 0 -0.38000170080819201 0.32534340249379601 0 -0.37251181063270189 0.33650803941087459 0 -0.39042239918188237 0.34468645690803118 0 -0.38515243309804947 0.34482976222425638 0 -0.39555866100818471 0.33969625499204709 0 -0.38000170080819201 0.32534340249379601 0 -0.39815275219217638 0.33024104989919417 0 -0.38796414760070019 0.30366589636057523 0 -0.38000170080819201 0.32534340249379601 0 -0.38796414760070019 0.30366589636057523 0 -0.36907260583370299 0.31319924410919331 0 -0.40130953169703759 0.32614846012240378 0 -0.39815275219217638 0.33024104989919417 0 -0.38796414760070019 0.30366589636057523 0 -0.40130953169703759 0.32614846012240378 0 -0.40499845771646481 0.30980117365873361 0 -0.38796414760070019 0.30366589636057523 0 -0.40130953169703759 0.32614846012240378 0 -0.40423375064613132 0.32631684652520487 0 -0.40499845771646481 0.30980117365873361 0 -0.39815275219217638 0.33024104989919417 0 -0.38796414760070019 0.30366589636057523 0 -0.40130953169703759 0.32614846012240378 0 -0.40423375064613132 0.32631684652520487 0 -0.39815275219217638 0.33024104989919417 0 -0.40130953169703759 0.32614846012240378 0 -0.40423375064613132 0.32631684652520487 0 -0.40582823594391848 0.3502611770279298 0 -0.39815275219217638 0.33024104989919417 0 -0.4065065307627822 0.33651247751605168 0 -0.40582823594391848 0.3502611770279298 0 -0.39555866100818471 0.33969625499204709 0 -0.39815275219217638 0.33024104989919417 0 -0.40582823594391848 0.3502611770279298 0 -0.39815275219217638 0.33024104989919417 0 -0.38515243309804947 0.34482976222425638 0 -0.39555866100818471 0.33969625499204709 0 -0.39815275219217638 0.33024104989919417 0 -0.3970916595103125 0.34672262616289651 0 -0.39042239918188237 0.34468645690803118 0 -0.39555866100818471 0.33969625499204709 0 -0.40423375064613132 0.32631684652520487 0 -0.39815275219217638 0.33024104989919417 0 -0.4065065307627822 0.33651247751605168 0 -0.40423375064613132 0.32631684652520487 0 -0.39815275219217638 0.33024104989919417 0 -0.40582823594391848 0.3502611770279298 0 -0.4065065307627822 0.33651247751605168 0 -0.41666192937757701 0.33895876035636141 0 -0.40423375064613132 0.32631684652520487 0 -0.41666192937757701 0.33895876035636141 0 -0.42749562281123421 0.3276563436847918 0 -0.40423375064613132 0.32631684652520487 0 -0.4065065307627822 0.33651247751605168 0 -0.41666192937757701 0.33895876035636141 0 -0.40423375064613132 0.32631684652520487 0 -0.42749562281123421 0.3276563436847918 0 -0.40423375064613132 0.32631684652520487 0 -0.42518437308829482 0.31279694450627382 0 -0.42749562281123421 0.3276563436847918 0 -0.40423375064613132 0.32631684652520487 0 -0.42518437308829482 0.31279694450627382 0 -0.40423375064613132 0.32631684652520487 0 -0.42518437308829482 0.31279694450627382 0 -0.40499845771646481 0.30980117365873361 0 -0.42518437308829482 0.31279694450627382 0 -0.42749562281123421 0.3276563436847918 0 -0.44161152143143528 0.31292971616148829 0 -0.42749562281123421 0.3276563436847918 0 -0.44161152143143528 0.31292971616148829 0 -0.42749562281123421 0.3276563436847918 0 -0.44458855780296019 0.32864061260811361 0 -0.42749562281123421 0.3276563436847918 0 -0.43024628134688658 0.33860301741898258 0 -0.44458855780296019 0.32864061260811361 0 -0.41666192937757701 0.33895876035636141 0 -0.43024628134688658 0.33860301741898258 0 -0.42477170423060667 0.34493403827966629 0 -0.41666192937757701 0.33895876035636141 0 -0.42749562281123421 0.3276563436847918 0 -0.41666192937757701 0.33895876035636141 0 -0.42749562281123421 0.3276563436847918 0 -0.43024628134688658 0.33860301741898258 0 -0.43024628134688658 0.33860301741898258 0 -0.43211718184348719 0.34964150401252159 0 -0.4408323120016186 0.34070155527598273 0 -0.43211718184348719 0.34964150401252159 0 -0.44158079494448549 0.35014917262814649 0 -0.43874869530052552 0.35705966878541451 0 -0.43211718184348719 0.34964150401252159 0 -0.43019551912910592 0.36058836665451088 0 -0.43874869530052552 0.35705966878541451 0 -0.42037001910507532 0.35163019163813702 0 -0.41902103652908468 0.36076867964550657 0 -0.43019551912910592 0.36058836665451088 0 -0.43211718184348719 0.34964150401252159 0 -0.42037001910507532 0.35163019163813702 0 -0.43019551912910592 0.36058836665451088 0 -0.43024628134688658 0.33860301741898258 0 -0.43211718184348719 0.34964150401252159 0 -0.42477170423060667 0.34493403827966629 0 -0.43211718184348719 0.34964150401252159 0 -0.42477170423060667 0.34493403827966629 0 -0.42037001910507532 0.35163019163813702 0 -0.40582823594391848 0.3502611770279298 0 -0.41666192937757701 0.33895876035636141 0 -0.42037001910507532 0.35163019163813702 0 -0.41666192937757701 0.33895876035636141 0 -0.42477170423060667 0.34493403827966629 0 -0.42037001910507532 0.35163019163813702 0 -0.40582823594391848 0.3502611770279298 0 -0.42037001910507532 0.35163019163813702 0 -0.41902103652908468 0.36076867964550657 0 -0.40582823594391848 0.3502611770279298 0 -0.41666192937757701 0.33895876035636141 0 -0.40582823594391848 0.3502611770279298 0 -0.40358123681175812 0.35911112333845951 0 -0.41312373483783182 0.36929018158943921 0 -0.40582823594391848 0.3502611770279298 0 -0.41312373483783182 0.36929018158943921 0 -0.41902103652908468 0.36076867964550657 0 -0.40582823594391848 0.3502611770279298 0 -0.41312373483783182 0.36929018158943921 0 -0.40304149220802621 0.37927396376511419 0 -0.40274117283061789 0.36836000335471492 0 -0.41312373483783182 0.36929018158943921 0 -0.40358123681175812 0.35911112333845951 0 -0.40274117283061789 0.36836000335471492 0 -0.41312373483783182 0.36929018158943921 0 -0.41312373483783182 0.36929018158943921 0 -0.41902103652908468 0.36076867964550657 0 -0.42558767362949262 0.37207348131751578 0 -0.42917625628499378 0.38522330574358798 0 -0.42558767362949262 0.37207348131751578 0 -0.44001133512155782 0.36669049767286988 0 -0.41902103652908468 0.36076867964550657 0 -0.42558767362949262 0.37207348131751578 0 -0.43019551912910592 0.36058836665451088 0 -0.42558767362949262 0.37207348131751578 0 -0.43019551912910592 0.36058836665451088 0 -0.44001133512155782 0.36669049767286988 0 -0.43019551912910592 0.36058836665451088 0 -0.44001133512155782 0.36669049767286988 0 -0.43874869530052552 0.35705966878541451 0 -0.44484073671040869 0.3733380302734623 0 -0.4548761706455875 0.3515744562751586 0 -0.44484073671040869 0.3733380302734623 0 -0.44001133512155782 0.36669049767286988 0 -0.4548761706455875 0.3515744562751586 0 -0.44484073671040869 0.3733380302734623 0 -0.4548761706455875 0.3515744562751586 0 -0.45533282494660182 0.36638178098469643 0 -0.44071794691378408 0.38001529032768072 0 -0.44484073671040869 0.3733380302734623 0 -0.44001133512155782 0.36669049767286988 0 -0.44889772841627662 0.37752629542845861 0 -0.44484073671040869 0.3733380302734623 0 -0.45533282494660182 0.36638178098469643 0 -0.44001133512155782 0.36669049767286988 0 -0.43874869530052552 0.35705966878541451 0 -0.45084641395812181 0.34815768960215188 0 -0.44001133512155782 0.36669049767286988 0 -0.45084641395812181 0.34815768960215188 0 -0.44001133512155782 0.36669049767286988 0 -0.45084641395812181 0.34815768960215188 0 -0.4548761706455875 0.3515744562751586 0 -0.43211718184348719 0.34964150401252159 0 -0.44158079494448549 0.35014917262814649 0 -0.4408323120016186 0.34070155527598273 0 -0.44158079494448549 0.35014917262814649 0 -0.44518066446216892 0.34536946307240368 0 -0.4408323120016186 0.34070155527598273 0 -0.44158079494448549 0.35014917262814649 0 -0.43874869530052552 0.35705966878541451 0 -0.45084641395812181 0.34815768960215188 0 -0.44518066446216892 0.34536946307240368 0 -0.45084641395812181 0.34815768960215188 0 -0.44663735393566378 0.34026243715915622 0 -0.44158079494448549 0.35014917262814649 0 -0.44518066446216892 0.34536946307240368 0 -0.45084641395812181 0.34815768960215188 0 -0.4548761706455875 0.3515744562751586 0 -0.45533282494660182 0.36638178098469643 0 -0.46326855552133422 0.35970440665729719 0 -0.46541787721794048 0.34731268948203398 0 -0.46326855552133422 0.35970440665729719 0 -0.47093612503827359 0.35286418248690959 0 -0.4548761706455875 0.3515744562751586 0 -0.46541787721794048 0.34731268948203398 0 -0.46326855552133422 0.35970440665729719 0 -0.45982651146517362 0.37614818680015039 0 -0.46326855552133422 0.35970440665729719 0 -0.47588240088493228 0.36054818484399792 0 -0.45982651146517362 0.37614818680015039 0 -0.45533282494660182 0.36638178098469643 0 -0.46326855552133422 0.35970440665729719 0 -0.45982651146517362 0.37614818680015039 0 -0.47588240088493228 0.36054818484399792 0 -0.45982651146517362 0.37614818680015039 0 -0.44889772841627662 0.37752629542845861 0 -0.45533282494660182 0.36638178098469643 0 -0.47875745137121578 0.38598189419058959 0 -0.48937872568560242 0.36131212665648188 0 -0.47875745137121578 0.38598189419058959 0 -0.47413997842736932 0.37274220610027209 0 -0.48937872568560242 0.36131212665648188 0 -0.45982651146517362 0.37614818680015039 0 -0.47413997842736932 0.37274220610027209 0 -0.47588240088493228 0.36054818484399792 0 -0.5 0.39734279735881839 0 -0.48937872568560242 0.36131212665648188 0 -0.49999999999999389 0.33664235912237639 0 -0.47413997842736932 0.37274220610027209 0 -0.47588240088493228 0.36054818484399792 0 -0.48937872568560242 0.36131212665648188 0 -0.47588240088493228 0.36054818484399792 0 -0.47093612503827359 0.35286418248690959 0 -0.48210381700918731 0.34747462913552651 0 -0.46326855552133422 0.35970440665729719 0 -0.47588240088493228 0.36054818484399792 0 -0.47093612503827359 0.35286418248690959 0 -0.46541787721794048 0.34731268948203398 0 -0.47093612503827359 0.35286418248690959 0 -0.47348222374300281 0.34210441049213353 0 -0.47093612503827359 0.35286418248690959 0 -0.48210381700918731 0.34747462913552651 0 -0.47348222374300281 0.34210441049213353 0 -0.47588240088493228 0.36054818484399792 0 -0.48210381700918731 0.34747462913552651 0 -0.48937872568560242 0.36131212665648188 0 -0.48210381700918731 0.34747462913552651 0 -0.48937872568560242 0.36131212665648188 0 -0.49999999999999389 0.33664235912237639 0 -0.48937872568560242 0.36131212665648188 0 -0.49999999999999389 0.33664235912237639 0 -0.48332872014258532 0.33087140198944592 0 -0.5 0.30933163334573088 0 -0.48588112368294828 0.30821527946635963 0 -0.49999999999999389 0.33664235912237639 0 -0.48332872014258532 0.33087140198944592 0 -0.5 0.30933163334573088 0 -0.48210381700918731 0.34747462913552651 0 -0.49999999999999389 0.33664235912237639 0 -0.48332872014258532 0.33087140198944592 0 -0.48332872014258532 0.33087140198944592 0 -0.47348222374300281 0.34210441049213353 0 -0.46491160458076691 0.32981088227685512 0 -0.48210381700918731 0.34747462913552651 0 -0.48332872014258532 0.33087140198944592 0 -0.47348222374300281 0.34210441049213353 0 -0.48332872014258532 0.33087140198944592 0 -0.46491160458076691 0.32981088227685512 0 -0.46952808894668863 0.31620370918123608 0 -0.46491160458076691 0.32981088227685512 0 -0.47737468509869141 0.30278253683103862 0 -0.46491160458076691 0.32981088227685512 0 -0.47737468509869141 0.30278253683103862 0 -0.48332872014258532 0.33087140198944592 0 -0.46491160458076691 0.32981088227685512 0 -0.47737468509869141 0.30278253683103862 0 -0.48332872014258532 0.33087140198944592 0 -0.47737468509869141 0.30278253683103862 0 -0.48588112368294828 0.30821527946635963 0 -0.45480038164078418 0.31899388440219828 0 -0.4616814927946864 0.3296248815314341 0 -0.44458855780296019 0.32864061260811361 0 -0.46952808894668863 0.31620370918123608 0 -0.4616814927946864 0.3296248815314341 0 -0.46952808894668863 0.31620370918123608 0 -0.45480038164078418 0.31899388440219828 0 -0.4616814927946864 0.3296248815314341 0 -0.46952808894668863 0.31620370918123608 0 -0.46491160458076691 0.32981088227685512 0 -0.4616814927946864 0.3296248815314341 0 -0.46952808894668863 0.31620370918123608 0 -0.45480038164078418 0.31899388440219828 0 -0.45740606233583181 0.30984726688989539 0 -0.45084641395812181 0.34815768960215188 0 -0.4548761706455875 0.3515744562751586 0 -0.4616814927946864 0.3296248815314341 0 -0.45084641395812181 0.34815768960215188 0 -0.4616814927946864 0.3296248815314341 0 -0.45122270707295831 0.3370634917220181 0 -0.4548761706455875 0.3515744562751586 0 -0.46541787721794048 0.34731268948203398 0 -0.46491160458076691 0.32981088227685512 0 -0.45084641395812181 0.34815768960215188 0 -0.4616814927946864 0.3296248815314341 0 -0.4548761706455875 0.3515744562751586 0 -0.46491160458076691 0.32981088227685512 0 -0.4616814927946864 0.3296248815314341 0 -0.4616814927946864 0.3296248815314341 0 -0.44458855780296019 0.32864061260811361 0 -0.4548761706455875 0.3515744562751586 0 -0.46491160458076691 0.32981088227685512 0 -0.46541787721794048 0.34731268948203398 0 -0.47348222374300281 0.34210441049213353 0 -0.46491160458076691 0.32981088227685512 0 -0.46491160458076691 0.32981088227685512 0 -0.4616814927946864 0.3296248815314341 0 -0.4616814927946864 0.3296248815314341 0 -0.45122270707295831 0.3370634917220181 0 -0.44458855780296019 0.32864061260811361 0 -0.45084641395812181 0.34815768960215188 0 -0.45122270707295831 0.3370634917220181 0 -0.44663735393566378 0.34026243715915622 0 -0.45122270707295831 0.3370634917220181 0 -0.44663735393566378 0.34026243715915622 0 -0.44458855780296019 0.32864061260811361 0 -0.44663735393566378 0.34026243715915622 0 -0.44458855780296019 0.32864061260811361 0 -0.4408323120016186 0.34070155527598273 0 -0.43024628134688658 0.33860301741898258 0 -0.44458855780296019 0.32864061260811361 0 -0.4408323120016186 0.34070155527598273 0 -0.44518066446216892 0.34536946307240368 0 -0.44663735393566378 0.34026243715915622 0 -0.4408323120016186 0.34070155527598273 0 -0.45480038164078418 0.31899388440219828 0 -0.44161152143143528 0.31292971616148829 0 -0.45740606233583181 0.30984726688989539 0 -0.42749562281123421 0.3276563436847918 0 -0.44458855780296019 0.32864061260811361 0 -0.44161152143143528 0.31292971616148829 0 -0.45480038164078418 0.31899388440219828 0 -0.44458855780296019 0.32864061260811361 0 -0.44161152143143528 0.31292971616148829 0 -0.42518437308829482 0.31279694450627382 0 -0.44161152143143528 0.31292971616148829 0 -0.4461349955304586 0.2992770424873431 0 -0.44161152143143528 0.31292971616148829 0 -0.45740606233583181 0.30984726688989539 0 -0.45572742005163602 0.2982030886381844 0 -0.44161152143143528 0.31292971616148829 0 -0.4461349955304586 0.2992770424873431 0 -0.45572742005163602 0.2982030886381844 0 -0.44161152143143528 0.31292971616148829 0 -0.45572742005163602 0.2982030886381844 0 -0.4461349955304586 0.2992770424873431 0 -0.43795052685423502 0.287700007315079 0 -0.42998020428858408 0.298143415237763 0 -0.43795052685423502 0.287700007315079 0 -0.45159332009090808 0.28440959906320429 0 -0.44137024413423093 0.27413130441924022 0 -0.4461349955304586 0.2992770424873431 0 -0.43795052685423502 0.287700007315079 0 -0.45159332009090808 0.28440959906320429 0 -0.4461349955304586 0.2992770424873431 0 -0.46708561797262249 0.28575714046841239 0 -0.46708561797262249 0.28575714046841239 0 -0.45572742005163602 0.2982030886381844 0 -0.46536289960861471 0.3029059360663699 0 -0.4461349955304586 0.2992770424873431 0 -0.45159332009090808 0.28440959906320429 0 -0.46708561797262249 0.28575714046841239 0 -0.4461349955304586 0.2992770424873431 0 -0.46708561797262249 0.28575714046841239 0 -0.45572742005163602 0.2982030886381844 0 -0.45740606233583181 0.30984726688989539 0 -0.45572742005163602 0.2982030886381844 0 -0.46536289960861471 0.3029059360663699 0 -0.46952808894668863 0.31620370918123608 0 -0.45740606233583181 0.30984726688989539 0 -0.46536289960861471 0.3029059360663699 0 -0.46952808894668863 0.31620370918123608 0 -0.46536289960861471 0.3029059360663699 0 -0.47737468509869141 0.30278253683103862 0 -0.46952808894668863 0.31620370918123608 0 -0.47737468509869141 0.30278253683103862 0 -0.46708561797262249 0.28575714046841239 0 -0.46536289960861471 0.3029059360663699 0 -0.47737468509869141 0.30278253683103862 0 -0.47737468509869141 0.30278253683103862 0 -0.47813783000724092 0.30112752511994317 0 -0.48588112368294828 0.30821527946635963 0 -0.47737468509869141 0.30278253683103862 0 -0.47813783000724092 0.30112752511994317 0 -0.46708561797262249 0.28575714046841239 0 -0.47737468509869141 0.30278253683103862 0 -0.47813783000724092 0.30112752511994317 0 -0.47813783000724092 0.30112752511994317 0 -0.48598373714132098 0.28411231864264291 0 -0.46708561797262249 0.28575714046841239 0 -0.47813783000724092 0.30112752511994317 0 -0.48598373714132098 0.28411231864264291 0 -0.47813783000724092 0.30112752511994317 0 -0.48598373714132098 0.28411231864264291 0 -0.49040334928127233 0.29688904547174089 0 -0.5 0.28202090756908532 0 -0.5 0.30933163334573088 0 -0.49040334928127233 0.29688904547174089 0 -0.48598373714132098 0.28411231864264291 0 -0.5 0.28202090756908532 0 -0.49040334928127233 0.29688904547174089 0 -0.5 0.30933163334573088 0 -0.48588112368294828 0.30821527946635963 0 -0.49040334928127233 0.29688904547174089 0 -0.47813783000724092 0.30112752511994317 0 -0.48588112368294828 0.30821527946635963 0 -0.49040334928127233 0.29688904547174089 0 -0.49999999999999323 0.25471018179243982 0 -0.49459278918395072 0.26544210045424721 0 -0.48083823784666102 0.25379881469829008 0 -0.5 0.28202090756908532 0 -0.49999999999999323 0.25471018179243982 0 -0.49459278918395072 0.26544210045424721 0 -0.48598373714132098 0.28411231864264291 0 -0.49459278918395072 0.26544210045424721 0 -0.48598373714132098 0.28411231864264291 0 -0.49459278918395072 0.26544210045424721 0 -0.4776661845812516 0.26975674847330122 0 -0.48598373714132098 0.28411231864264291 0 -0.5 0.28202090756908532 0 -0.49459278918395072 0.26544210045424721 0 -0.46708561797262249 0.28575714046841239 0 -0.48598373714132098 0.28411231864264291 0 -0.4776661845812516 0.26975674847330122 0 -0.4776661845812516 0.26975674847330122 0 -0.48083823784666102 0.25379881469829008 0 -0.45701610275077809 0.26027034494425699 0 -0.49459278918395072 0.26544210045424721 0 -0.4776661845812516 0.26975674847330122 0 -0.48083823784666102 0.25379881469829008 0 -0.461252743797885 0.23941175286208369 0 -0.48083823784666102 0.25379881469829008 0 -0.45701610275077809 0.26027034494425699 0 -0.45159332009090808 0.28440959906320429 0 -0.46708561797262249 0.28575714046841239 0 -0.45701610275077809 0.26027034494425699 0 -0.46708561797262249 0.28575714046841239 0 -0.4776661845812516 0.26975674847330122 0 -0.45701610275077809 0.26027034494425699 0 -0.45159332009090808 0.28440959906320429 0 -0.45701610275077809 0.26027034494425699 0 -0.44137024413423093 0.27413130441924022 0 -0.44200178733327811 0.23679482430826501 0 -0.45701610275077809 0.26027034494425699 0 -0.42793648852219879 0.25730814158579962 0 -0.45701610275077809 0.26027034494425699 0 -0.44137024413423093 0.27413130441924022 0 -0.42793648852219879 0.25730814158579962 0 -0.42793648852219879 0.25730814158579962 0 -0.4149757768348592 0.27398493161644161 0 -0.40209280080234228 0.25755651922285971 0 -0.41060668117761451 0.240126626597821 0 -0.42793648852219879 0.25730814158579962 0 -0.40209280080234228 0.25755651922285971 0 -0.4149757768348592 0.27398493161644161 0 -0.42921265251008162 0.27646729503352158 0 -0.42383022620488409 0.2892120902310476 0 -0.42793648852219879 0.25730814158579962 0 -0.4149757768348592 0.27398493161644161 0 -0.42921265251008162 0.27646729503352158 0 -0.44137024413423093 0.27413130441924022 0 -0.42793648852219879 0.25730814158579962 0 -0.42921265251008162 0.27646729503352158 0 -0.43795052685423502 0.287700007315079 0 -0.44137024413423093 0.27413130441924022 0 -0.42921265251008162 0.27646729503352158 0 -0.43795052685423502 0.287700007315079 0 -0.42921265251008162 0.27646729503352158 0 -0.42383022620488409 0.2892120902310476 0 -0.43795052685423502 0.287700007315079 0 -0.42383022620488409 0.2892120902310476 0 -0.42998020428858408 0.298143415237763 0 -0.42383022620488409 0.2892120902310476 0 -0.42998020428858408 0.298143415237763 0 -0.41699711818852059 0.30133462447492643 0 -0.42518437308829482 0.31279694450627382 0 -0.4461349955304586 0.2992770424873431 0 -0.42998020428858408 0.298143415237763 0 -0.42518437308829482 0.31279694450627382 0 -0.4461349955304586 0.2992770424873431 0 -0.42518437308829482 0.31279694450627382 0 -0.42998020428858408 0.298143415237763 0 -0.41699711818852059 0.30133462447492643 0 -0.42518437308829482 0.31279694450627382 0 -0.41699711818852059 0.30133462447492643 0 -0.40499845771646481 0.30980117365873361 0 -0.41699711818852059 0.30133462447492643 0 -0.40378020100508122 0.29108791393056221 0 -0.40499845771646481 0.30980117365873361 0 -0.4149757768348592 0.27398493161644161 0 -0.42383022620488409 0.2892120902310476 0 -0.40378020100508122 0.29108791393056221 0 -0.42383022620488409 0.2892120902310476 0 -0.41699711818852059 0.30133462447492643 0 -0.40378020100508122 0.29108791393056221 0 -0.40378020100508122 0.29108791393056221 0 -0.38796414760070019 0.30366589636057523 0 -0.38402889602486628 0.2883377025479234 0 -0.40378020100508122 0.29108791393056221 0 -0.38402889602486628 0.2883377025479234 0 -0.39157500981486032 0.27233691811471228 0 -0.40378020100508122 0.29108791393056221 0 -0.40499845771646481 0.30980117365873361 0 -0.38796414760070019 0.30366589636057523 0 -0.38796414760070019 0.30366589636057523 0 -0.37281605223806252 0.29680924384276752 0 -0.36907260583370299 0.31319924410919331 0 -0.38796414760070019 0.30366589636057523 0 -0.38402889602486628 0.2883377025479234 0 -0.37281605223806252 0.29680924384276752 0 -0.38390352133528888 0.25983857210390843 0 -0.39157500981486032 0.27233691811471228 0 -0.36400906946562739 0.27778854049100021 0 -0.38402889602486628 0.2883377025479234 0 -0.39157500981486032 0.27233691811471228 0 -0.36400906946562739 0.27778854049100021 0 -0.38875189979296182 0.24837785490246439 0 -0.38390352133528888 0.25983857210390843 0 -0.37130058973972507 0.2530679386122861 0 -0.38390352133528888 0.25983857210390843 0 -0.40209280080234228 0.25755651922285971 0 -0.39157500981486032 0.27233691811471228 0 -0.38875189979296182 0.24837785490246439 0 -0.38390352133528888 0.25983857210390843 0 -0.40209280080234228 0.25755651922285971 0 -0.4149757768348592 0.27398493161644161 0 -0.40209280080234228 0.25755651922285971 0 -0.39157500981486032 0.27233691811471228 0 -0.4149757768348592 0.27398493161644161 0 -0.40378020100508122 0.29108791393056221 0 -0.39157500981486032 0.27233691811471228 0 -0.34607485866170051 0.26041562100378218 0 -0.35019632480566559 0.28496562680919252 0 -0.33629100391143701 0.27796958979609698 0 -0.34607485866170051 0.26041562100378218 0 -0.36400906946562739 0.27778854049100021 0 -0.35019632480566559 0.28496562680919252 0 -0.34607485866170051 0.26041562100378218 0 -0.35906370524846931 0.25890674414292869 0 -0.36400906946562739 0.27778854049100021 0 -0.35631152420029361 0.24532013359589641 0 -0.34607485866170051 0.26041562100378218 0 -0.35906370524846931 0.25890674414292869 0 -0.37130058973972507 0.2530679386122861 0 -0.36400906946562739 0.27778854049100021 0 -0.38390352133528888 0.25983857210390843 0 -0.37130058973972507 0.2530679386122861 0 -0.36400906946562739 0.27778854049100021 0 -0.35906370524846931 0.25890674414292869 0 -0.37130058973972507 0.2530679386122861 0 -0.36400906946562739 0.27778854049100021 0 -0.35631152420029361 0.24532013359589641 0 -0.35906370524846931 0.25890674414292869 0 -0.37130058973972507 0.2530679386122861 0 -0.36400906946562739 0.27778854049100021 0 -0.35671754919152959 0.30250914236971432 0 -0.36400906946562739 0.27778854049100021 0 -0.37281605223806252 0.29680924384276752 0 -0.35671754919152959 0.30250914236971432 0 -0.38402889602486628 0.2883377025479234 0 -0.36400906946562739 0.27778854049100021 0 -0.37281605223806252 0.29680924384276752 0 -0.37281605223806252 0.29680924384276752 0 -0.35671754919152959 0.30250914236971432 0 -0.36907260583370299 0.31319924410919331 0 -0.35733007083318169 0.3102135981504508 0 -0.35671754919152959 0.30250914236971432 0 -0.36907260583370299 0.31319924410919331 0 -0.34573211666363018 0.29987781406407449 0 -0.35517322941582119 0.32178603833205299 0 -0.35733007083318169 0.3102135981504508 0 -0.34573211666363018 0.29987781406407449 0 -0.35517322941582119 0.32178603833205299 0 -0.34573211666363018 0.29987781406407449 0 -0.34187385706386397 0.31154712265625878 0 -0.35517322941582119 0.32178603833205299 0 -0.35733007083318169 0.3102135981504508 0 -0.35671754919152959 0.30250914236971432 0 -0.34573211666363018 0.29987781406407449 0 -0.35671754919152959 0.30250914236971432 0 -0.34573211666363018 0.29987781406407449 0 -0.35019632480566559 0.28496562680919252 0 -0.34573211666363018 0.29987781406407449 0 -0.35019632480566559 0.28496562680919252 0 -0.33629100391143701 0.27796958979609698 0 -0.36400906946562739 0.27778854049100021 0 -0.35671754919152959 0.30250914236971432 0 -0.35019632480566559 0.28496562680919252 0 -0.34573211666363018 0.29987781406407449 0 -0.33629100391143701 0.27796958979609698 0 -0.32304493951732288 0.28170408784419981 0 -0.32777056036956981 0.29462976791006551 0 -0.33629100391143701 0.27796958979609698 0 -0.34573211666363018 0.29987781406407449 0 -0.32777056036956981 0.29462976791006551 0 -0.33629100391143701 0.27796958979609698 0 -0.34573211666363018 0.29987781406407449 0 -0.3370813036081387 0.30641574120106402 0 -0.32777056036956981 0.29462976791006551 0 -0.3370813036081387 0.30641574120106402 0 -0.32777056036956981 0.29462976791006551 0 -0.32950877856786598 0.31810889702784367 0 -0.34573211666363018 0.29987781406407449 0 -0.3370813036081387 0.30641574120106402 0 -0.34187385706386397 0.31154712265625878 0 -0.3370813036081387 0.30641574120106402 0 -0.34187385706386397 0.31154712265625878 0 -0.32950877856786598 0.31810889702784367 0 -0.32777056036956981 0.29462976791006551 0 -0.31141265379519217 0.29631330481862428 0 -0.32950877856786598 0.31810889702784367 0 -0.31141265379519217 0.29631330481862428 0 -0.30384432771991088 0.31443175572363319 0 -0.32950877856786598 0.31810889702784367 0 -0.32304493951732288 0.28170408784419981 0 -0.32777056036956981 0.29462976791006551 0 -0.31141265379519217 0.29631330481862428 0 -0.32304493951732288 0.28170408784419981 0 -0.31087452761047041 0.27527868734136351 0 -0.31141265379519217 0.29631330481862428 0 -0.32304493951732288 0.28170408784419981 0 -0.3268498911592439 0.25606136552811942 0 -0.31087452761047041 0.27527868734136351 0 -0.32304493951732288 0.28170408784419981 0 -0.33629100391143701 0.27796958979609698 0 -0.3268498911592439 0.25606136552811942 0 -0.33629100391143701 0.27796958979609698 0 -0.3268498911592439 0.25606136552811942 0 -0.34607485866170051 0.26041562100378218 0 -0.33629100391143701 0.27796958979609698 0 -0.3268498911592439 0.25606136552811942 0 -0.33395838496041652 0.24000965191311119 0 -0.34607485866170051 0.26041562100378218 0 -0.3268498911592439 0.25606136552811942 0 -0.31054412818099691 0.2482440205870533 0 -0.3268498911592439 0.25606136552811942 0 -0.30203871603301619 0.26142215750095532 0 -0.3268498911592439 0.25606136552811942 0 -0.30203871603301619 0.26142215750095532 0 -0.31087452761047041 0.27527868734136351 0 -0.2858516869652829 0.249824444318622 0 -0.31054412818099691 0.2482440205870533 0 -0.30203871603301619 0.26142215750095532 0 -0.30203871603301619 0.26142215750095532 0 -0.31087452761047041 0.27527868734136351 0 -0.29729364729533547 0.27714367488516228 0 -0.31087452761047041 0.27527868734136351 0 -0.29729364729533547 0.27714367488516228 0 -0.30086577283274663 0.28802347745031881 0 -0.30203871603301619 0.26142215750095532 0 -0.29729364729533547 0.27714367488516228 0 -0.28770150861994698 0.26681021272606631 0 -0.29729364729533547 0.27714367488516228 0 -0.28650858089289011 0.27851462091870621 0 -0.29345711946324082 0.28308855627555729 0 -0.29729364729533547 0.27714367488516228 0 -0.28770150861994698 0.26681021272606631 0 -0.28650858089289011 0.27851462091870621 0 -0.2858516869652829 0.249824444318622 0 -0.30203871603301619 0.26142215750095532 0 -0.28770150861994698 0.26681021272606631 0 -0.2858516869652829 0.249824444318622 0 -0.2669732737281893 0.26596073908546269 0 -0.2858516869652829 0.249824444318622 0 -0.2669732737281893 0.26596073908546269 0 -0.26480195036508619 0.2505382672023368 0 -0.2858516869652829 0.249824444318622 0 -0.28770150861994698 0.26681021272606631 0 -0.2669732737281893 0.26596073908546269 0 -0.2669732737281893 0.26596073908546269 0 -0.28413316217405121 0.28925601396311112 0 -0.28770150861994698 0.26681021272606631 0 -0.28650858089289011 0.27851462091870621 0 -0.2669732737281893 0.26596073908546269 0 -0.2669732737281893 0.26596073908546269 0 -0.26187000756888368 0.28231903753237142 0 -0.27136969848678938 0.28454789107855682 0 -0.2669732737281893 0.26596073908546269 0 -0.27136969848678938 0.28454789107855682 0 -0.28413316217405121 0.28925601396311112 0 -0.28650858089289011 0.27851462091870621 0 -0.2669732737281893 0.26596073908546269 0 -0.28413316217405121 0.28925601396311112 0 -0.2669732737281893 0.26596073908546269 0 -0.25122309601210258 0.27942317933746003 0 -0.26187000756888368 0.28231903753237142 0 -0.2669732737281893 0.26596073908546269 0 -0.25122309601210258 0.27942317933746003 0 -0.24730309104467699 0.26468422990567603 0 -0.2669732737281893 0.26596073908546269 0 -0.25122309601210258 0.27942317933746003 0 -0.25071676828298989 0.24389184486794099 0 -0.2669732737281893 0.26596073908546269 0 -0.26480195036508619 0.2505382672023368 0 -0.2669732737281893 0.26596073908546269 0 -0.25140546773907307 0.25093512258706863 0 -0.24892296451055959 0.25749518922113729 0 -0.2669732737281893 0.26596073908546269 0 -0.24892296451055959 0.25749518922113729 0 -0.24730309104467699 0.26468422990567603 0 -0.25071676828298989 0.24389184486794099 0 -0.2669732737281893 0.26596073908546269 0 -0.25140546773907307 0.25093512258706863 0 -0.25071676828298989 0.24389184486794099 0 -0.2669732737281893 0.26596073908546269 0 -0.25660960943133931 0.30072108799623809 0 -0.27477165092799583 0.30872836293964823 0 -0.25595293990110329 0.31350521008588639 0 -0.25660960943133931 0.30072108799623809 0 -0.26532894725310568 0.29220220521874629 0 -0.27477165092799583 0.30872836293964823 0 -0.25660960943133931 0.30072108799623809 0 -0.25595293990110329 0.31350521008588639 0 -0.24356614604072441 0.30827756183675292 0 -0.25660960943133931 0.30072108799623809 0 -0.25612292207326132 0.28936350500791591 0 -0.245582950100875 0.29215201495476367 0 -0.25122309601210258 0.27942317933746003 0 -0.25612292207326132 0.28936350500791591 0 -0.26187000756888368 0.28231903753237142 0 -0.25122309601210258 0.27942317933746003 0 -0.25612292207326132 0.28936350500791591 0 -0.245582950100875 0.29215201495476367 0 -0.25612292207326132 0.28936350500791591 0 -0.26187000756888368 0.28231903753237142 0 -0.26532894725310568 0.29220220521874629 0 -0.25660960943133931 0.30072108799623809 0 -0.25612292207326132 0.28936350500791591 0 -0.26532894725310568 0.29220220521874629 0 -0.26532894725310568 0.29220220521874629 0 -0.27136969848678938 0.28454789107855682 0 -0.27645485708225259 0.29578001211838928 0 -0.26187000756888368 0.28231903753237142 0 -0.26532894725310568 0.29220220521874629 0 -0.27136969848678938 0.28454789107855682 0 -0.27136969848678938 0.28454789107855682 0 -0.27645485708225259 0.29578001211838928 0 -0.28413316217405121 0.28925601396311112 0 -0.27645485708225259 0.29578001211838928 0 -0.27477165092799583 0.30872836293964823 0 -0.29004660281755462 0.28908865645827048 0 -0.26532894725310568 0.29220220521874629 0 -0.27645485708225259 0.29578001211838928 0 -0.27477165092799583 0.30872836293964823 0 -0.27477165092799583 0.30872836293964823 0 -0.29340565921197381 0.30390578852755701 0 -0.28752624322341208 0.32256080193900022 0 -0.27477165092799583 0.30872836293964823 0 -0.29004660281755462 0.28908865645827048 0 -0.27477165092799583 0.30872836293964823 0 -0.29340565921197381 0.30390578852755701 0 -0.29004660281755462 0.28908865645827048 0 -0.29340565921197381 0.30390578852755701 0 -0.29004660281755462 0.28908865645827048 0 -0.30086577283274663 0.28802347745031881 0 -0.28650858089289011 0.27851462091870621 0 -0.28413316217405121 0.28925601396311112 0 -0.29004660281755462 0.28908865645827048 0 -0.27645485708225259 0.29578001211838928 0 -0.28413316217405121 0.28925601396311112 0 -0.29004660281755462 0.28908865645827048 0 -0.29004660281755462 0.28908865645827048 0 -0.29345711946324082 0.28308855627555729 0 -0.30086577283274663 0.28802347745031881 0 -0.28650858089289011 0.27851462091870621 0 -0.29004660281755462 0.28908865645827048 0 -0.29345711946324082 0.28308855627555729 0 -0.31087452761047041 0.27527868734136351 0 -0.31141265379519217 0.29631330481862428 0 -0.30086577283274663 0.28802347745031881 0 -0.29340565921197381 0.30390578852755701 0 -0.31141265379519217 0.29631330481862428 0 -0.30086577283274663 0.28802347745031881 0 -0.29729364729533547 0.27714367488516228 0 -0.29345711946324082 0.28308855627555729 0 -0.30086577283274663 0.28802347745031881 0 -0.29340565921197381 0.30390578852755701 0 -0.31141265379519217 0.29631330481862428 0 -0.30384432771991088 0.31443175572363319 0 -0.30384432771991088 0.31443175572363319 0 -0.31146157062845592 0.33092784940306419 0 -0.29717897816171451 0.33572275351218711 0 -0.31146157062845592 0.33092784940306419 0 -0.29717897816171451 0.33572275351218711 0 -0.30904038043301818 0.34589875302335171 0 -0.29717897816171451 0.33572275351218711 0 -0.28224541105496709 0.3420715559910481 0 -0.28752624322341208 0.32256080193900022 0 -0.29340565921197381 0.30390578852755701 0 -0.30384432771991088 0.31443175572363319 0 -0.28752624322341208 0.32256080193900022 0 -0.30384432771991088 0.31443175572363319 0 -0.29717897816171451 0.33572275351218711 0 -0.28752624322341208 0.32256080193900022 0 -0.27477165092799583 0.30872836293964823 0 -0.25949669903843692 0.32836806942102592 0 -0.27477165092799583 0.30872836293964823 0 -0.2737114322639112 0.33050459493992768 0 -0.25949669903843692 0.32836806942102592 0 -0.27477165092799583 0.30872836293964823 0 -0.28752624322341208 0.32256080193900022 0 -0.2737114322639112 0.33050459493992768 0 -0.28224541105496709 0.3420715559910481 0 -0.28752624322341208 0.32256080193900022 0 -0.2737114322639112 0.33050459493992768 0 -0.28224541105496709 0.3420715559910481 0 -0.2737114322639112 0.33050459493992768 0 -0.26323357910192219 0.34503966594672503 0 -0.28224541105496709 0.3420715559910481 0 -0.26323357910192219 0.34503966594672503 0 -0.25949669903843692 0.32836806942102592 0 -0.24422174714887759 0.34800777590240312 0 -0.25949669903843692 0.32836806942102592 0 -0.24422174714887759 0.34800777590240312 0 -0.246671979534308 0.32217605895836432 0 -0.25949669903843692 0.32836806942102592 0 -0.26323357910192219 0.34503966594672503 0 -0.24422174714887759 0.34800777590240312 0 -0.2737114322639112 0.33050459493992768 0 -0.25949669903843692 0.32836806942102592 0 -0.26323357910192219 0.34503966594672503 0 -0.25949669903843692 0.32836806942102592 0 -0.25595293990110329 0.31350521008588639 0 -0.246671979534308 0.32217605895836432 0 -0.27477165092799583 0.30872836293964823 0 -0.25949669903843692 0.32836806942102592 0 -0.25595293990110329 0.31350521008588639 0 -0.25725342086349429 0.36379921038812352 0 -0.26638674131190138 0.38038797922688811 0 -0.25268258031975399 0.38059484928632631 0 -0.25725342086349429 0.36379921038812352 0 -0.25268258031975399 0.38059484928632631 0 -0.2442082678964814 0.37262070377402617 0 -0.25725342086349429 0.36379921038812352 0 -0.26323357910192219 0.34503966594672503 0 -0.27434427349037882 0.35383480478083079 0 -0.26323357910192219 0.34503966594672503 0 -0.24422174714887759 0.34800777590240312 0 -0.25725342086349429 0.36379921038812352 0 -0.26323357910192219 0.34503966594672503 0 -0.24422174714887759 0.34800777590240312 0 -0.28224541105496709 0.3420715559910481 0 -0.26323357910192219 0.34503966594672503 0 -0.27434427349037882 0.35383480478083079 0 -0.25725342086349429 0.36379921038812352 0 -0.27434427349037882 0.35383480478083079 0 -0.27653007607264851 0.36783567132459188 0 -0.25725342086349429 0.36379921038812352 0 -0.27653007607264851 0.36783567132459188 0 -0.26638674131190138 0.38038797922688811 0 -0.27434427349037882 0.35383480478083079 0 -0.27653007607264851 0.36783567132459188 0 -0.29180211495945119 0.3577075328280484 0 -0.28906427111010602 0.37013792720819949 0 -0.29180211495945119 0.3577075328280484 0 -0.30131534251260428 0.37367133580397371 0 -0.27653007607264851 0.36783567132459188 0 -0.28906427111010602 0.37013792720819949 0 -0.28660955089571982 0.38133716887618418 0 -0.27653007607264851 0.36783567132459188 0 -0.28906427111010602 0.37013792720819949 0 -0.29180211495945119 0.3577075328280484 0 -0.29717897816171451 0.33572275351218711 0 -0.28224541105496709 0.3420715559910481 0 -0.29180211495945119 0.3577075328280484 0 -0.28224541105496709 0.3420715559910481 0 -0.27434427349037882 0.35383480478083079 0 -0.29180211495945119 0.3577075328280484 0 -0.29180211495945119 0.3577075328280484 0 -0.30904038043301818 0.34589875302335171 0 -0.30984632191656319 0.36192875587174239 0 -0.29717897816171451 0.33572275351218711 0 -0.29180211495945119 0.3577075328280484 0 -0.30904038043301818 0.34589875302335171 0 -0.29180211495945119 0.3577075328280484 0 -0.30131534251260428 0.37367133580397371 0 -0.30984632191656319 0.36192875587174239 0 -0.30131534251260428 0.37367133580397371 0 -0.30984632191656319 0.36192875587174239 0 -0.31517976697897843 0.37423792825210273 0 -0.30984632191656319 0.36192875587174239 0 -0.31517976697897843 0.37423792825210273 0 -0.32110023308812591 0.36494738360912637 0 -0.30984632191656319 0.36192875587174239 0 -0.32110023308812591 0.36494738360912637 0 -0.32233312799451208 0.35298456082710061 0 -0.32110023308812591 0.36494738360912637 0 -0.32743712713705531 0.37366410529823879 0 -0.33256676805097851 0.36218277007260308 0 -0.32110023308812591 0.36494738360912637 0 -0.33256676805097851 0.36218277007260308 0 -0.32233312799451208 0.35298456082710061 0 -0.31517976697897843 0.37423792825210273 0 -0.32110023308812591 0.36494738360912637 0 -0.32743712713705531 0.37366410529823879 0 -0.32743712713705531 0.37366410529823879 0 -0.33256676805097851 0.36218277007260308 0 -0.33841325509341202 0.3726682097629227 0 -0.33256676805097851 0.36218277007260308 0 -0.33841325509341202 0.3726682097629227 0 -0.34664470460944991 0.36150704913772869 0 -0.33256676805097851 0.36218277007260308 0 -0.33855256678981571 0.34748716160710252 0 -0.32233312799451208 0.35298456082710061 0 -0.33855256678981571 0.34748716160710252 0 -0.32233312799451208 0.35298456082710061 0 -0.32503555790615679 0.33780773935674518 0 -0.33256676805097851 0.36218277007260308 0 -0.33855256678981571 0.34748716160710252 0 -0.34664470460944991 0.36150704913772869 0 -0.30904038043301818 0.34589875302335171 0 -0.30984632191656319 0.36192875587174239 0 -0.32233312799451208 0.35298456082710061 0 -0.30904038043301818 0.34589875302335171 0 -0.32233312799451208 0.35298456082710061 0 -0.32503555790615679 0.33780773935674518 0 -0.31146157062845592 0.33092784940306419 0 -0.32503555790615679 0.33780773935674518 0 -0.32950877856786598 0.31810889702784367 0 -0.31146157062845592 0.33092784940306419 0 -0.30904038043301818 0.34589875302335171 0 -0.32503555790615679 0.33780773935674518 0 -0.30384432771991088 0.31443175572363319 0 -0.32950877856786598 0.31810889702784367 0 -0.30384432771991088 0.31443175572363319 0 -0.31146157062845592 0.33092784940306419 0 -0.32950877856786598 0.31810889702784367 0 -0.32950877856786598 0.31810889702784367 0 -0.35517322941582119 0.32178603833205299 0 -0.34187385706386397 0.31154712265625878 0 -0.32950877856786598 0.31810889702784367 0 -0.35517322941582119 0.32178603833205299 0 -0.32950877856786598 0.31810889702784367 0 -0.33983073000852021 0.33125133781819971 0 -0.35517322941582119 0.32178603833205299 0 -0.33855256678981571 0.34748716160710252 0 -0.33983073000852021 0.33125133781819971 0 -0.34915091968995632 0.33855011996423889 0 -0.32503555790615679 0.33780773935674518 0 -0.32950877856786598 0.31810889702784367 0 -0.33983073000852021 0.33125133781819971 0 -0.33855256678981571 0.34748716160710252 0 -0.32503555790615679 0.33780773935674518 0 -0.33983073000852021 0.33125133781819971 0 -0.33983073000852021 0.33125133781819971 0 -0.34915091968995632 0.33855011996423889 0 -0.35517322941582119 0.32178603833205299 0 -0.3565592631918505 0.34211172484209751 0 -0.35517322941582119 0.32178603833205299 0 -0.36592264135752739 0.34673018779293258 0 -0.34915091968995632 0.33855011996423889 0 -0.3565592631918505 0.34211172484209751 0 -0.35517322941582119 0.32178603833205299 0 -0.38000170080819201 0.32534340249379601 0 -0.35517322941582119 0.32178603833205299 0 -0.36263225587695119 0.32799560205200362 0 -0.38000170080819201 0.32534340249379601 0 -0.35517322941582119 0.32178603833205299 0 -0.36907260583370299 0.31319924410919331 0 -0.38000170080819201 0.32534340249379601 0 -0.35517322941582119 0.32178603833205299 0 -0.35733007083318169 0.3102135981504508 0 -0.35517322941582119 0.32178603833205299 0 -0.36907260583370299 0.31319924410919331 0 -0.35517322941582119 0.32178603833205299 0 -0.36592264135752739 0.34673018779293258 0 -0.36263225587695119 0.32799560205200362 0 -0.37231436179526439 0.35179038085137659 0 -0.36263225587695119 0.32799560205200362 0 -0.36592264135752739 0.34673018779293258 0 -0.37231436179526439 0.35179038085137659 0 -0.38000170080819201 0.32534340249379601 0 -0.36263225587695119 0.32799560205200362 0 -0.37251181063270189 0.33650803941087459 0 -0.35517322941582119 0.32178603833205299 0 -0.36263225587695119 0.32799560205200362 0 -0.36592264135752739 0.34673018779293258 0 -0.36263225587695119 0.32799560205200362 0 -0.37251181063270189 0.33650803941087459 0 -0.37231436179526439 0.35179038085137659 0 -0.37667205329923148 0.37167433725381299 0 -0.36592264135752739 0.34673018779293258 0 -0.37667205329923148 0.37167433725381299 0 -0.36592264135752739 0.34673018779293258 0 -0.37231436179526439 0.35179038085137659 0 -0.37523706400567619 0.3450290524911524 0 -0.37251181063270189 0.33650803941087459 0 -0.37231436179526439 0.35179038085137659 0 -0.3565592631918505 0.34211172484209751 0 -0.36592264135752739 0.34673018779293258 0 -0.360148538380272 0.35215392370830467 0 -0.36592264135752739 0.34673018779293258 0 -0.360148538380272 0.35215392370830467 0 -0.36544188946019668 0.36014463537001512 0 -0.360148538380272 0.35215392370830467 0 -0.36544188946019668 0.36014463537001512 0 -0.35896974735788062 0.35854954702620789 0 -0.37667205329923148 0.37167433725381299 0 -0.36712461428884752 0.36844752284560978 0 -0.36544188946019668 0.36014463537001512 0 -0.37667205329923148 0.37167433725381299 0 -0.36592264135752739 0.34673018779293258 0 -0.36544188946019668 0.36014463537001512 0 -0.37043898617880572 0.37324123182286789 0 -0.36712461428884752 0.36844752284560978 0 -0.36487959188409091 0.37693147580947423 0 -0.37667205329923148 0.37167433725381299 0 -0.37043898617880572 0.37324123182286789 0 -0.36712461428884752 0.36844752284560978 0 -0.37667205329923148 0.37167433725381299 0 -0.37043898617880572 0.37324123182286789 0 -0.37085419989075769 0.37812797444592078 0 -0.36712461428884752 0.36844752284560978 0 -0.36068578893678432 0.37155529299346579 0 -0.36487959188409091 0.37693147580947423 0 -0.36712461428884752 0.36844752284560978 0 -0.36068578893678432 0.37155529299346579 0 -0.36158405405005589 0.36487433322800727 0 -0.36712461428884752 0.36844752284560978 0 -0.36544188946019668 0.36014463537001512 0 -0.36158405405005589 0.36487433322800727 0 -0.36544188946019668 0.36014463537001512 0 -0.36158405405005589 0.36487433322800727 0 -0.35896974735788062 0.35854954702620789 0 -0.35569823020657021 0.36567466790473813 0 -0.34664470460944991 0.36150704913772869 0 -0.35896974735788062 0.35854954702620789 0 -0.36158405405005589 0.36487433322800727 0 -0.35569823020657021 0.36567466790473813 0 -0.35896974735788062 0.35854954702620789 0 -0.36068578893678432 0.37155529299346579 0 -0.34984242201975368 0.37309424171374922 0 -0.35621631362904832 0.37792344712566661 0 -0.36068578893678432 0.37155529299346579 0 -0.35569823020657021 0.36567466790473813 0 -0.34984242201975368 0.37309424171374922 0 -0.36068578893678432 0.37155529299346579 0 -0.36158405405005589 0.36487433322800727 0 -0.35569823020657021 0.36567466790473813 0 -0.33841325509341202 0.3726682097629227 0 -0.34984242201975368 0.37309424171374922 0 -0.34664470460944991 0.36150704913772869 0 -0.35569823020657021 0.36567466790473813 0 -0.34984242201975368 0.37309424171374922 0 -0.34664470460944991 0.36150704913772869 0 -0.33855256678981571 0.34748716160710252 0 -0.34664470460944991 0.36150704913772869 0 -0.35240098711567558 0.35133835441295791 0 -0.33855256678981571 0.34748716160710252 0 -0.34915091968995632 0.33855011996423889 0 -0.35240098711567558 0.35133835441295791 0 -0.34915091968995632 0.33855011996423889 0 -0.3565592631918505 0.34211172484209751 0 -0.35240098711567558 0.35133835441295791 0 -0.3565592631918505 0.34211172484209751 0 -0.360148538380272 0.35215392370830467 0 -0.35240098711567558 0.35133835441295791 0 -0.34664470460944991 0.36150704913772869 0 -0.35240098711567558 0.35133835441295791 0 -0.35896974735788062 0.35854954702620789 0 -0.360148538380272 0.35215392370830467 0 -0.35240098711567558 0.35133835441295791 0 -0.35896974735788062 0.35854954702620789 0 -0.35437635850523952 0.3956091399074253 0 -0.36341360357567098 0.40559637285310579 0 -0.34892825654263288 0.41226968292402799 0 -0.35437635850523952 0.3956091399074253 0 -0.34892825654263288 0.41226968292402799 0 -0.34007770237690782 0.39292525514965149 0 -0.35437635850523952 0.3956091399074253 0 -0.34963691207466169 0.38426142343810948 0 -0.34007770237690782 0.39292525514965149 0 -0.34984242201975368 0.37309424171374922 0 -0.34963691207466169 0.38426142343810948 0 -0.3409789215400848 0.38204499223263272 0 -0.34963691207466169 0.38426142343810948 0 -0.35621631362904832 0.37792344712566661 0 -0.35950495699225032 0.38560546607640972 0 -0.34984242201975368 0.37309424171374922 0 -0.34963691207466169 0.38426142343810948 0 -0.35621631362904832 0.37792344712566661 0 -0.35437635850523952 0.3956091399074253 0 -0.34963691207466169 0.38426142343810948 0 -0.35950495699225032 0.38560546607640972 0 -0.35950495699225032 0.38560546607640972 0 -0.3675155979810063 0.38497381304651501 0 -0.36440496787945531 0.39393349713126719 0 -0.35621631362904832 0.37792344712566661 0 -0.35950495699225032 0.38560546607640972 0 -0.36487959188409091 0.37693147580947423 0 -0.35950495699225032 0.38560546607640972 0 -0.36487959188409091 0.37693147580947423 0 -0.3675155979810063 0.38497381304651501 0 -0.36068578893678432 0.37155529299346579 0 -0.35621631362904832 0.37792344712566661 0 -0.36487959188409091 0.37693147580947423 0 -0.37667205329923148 0.37167433725381299 0 -0.37085419989075769 0.37812797444592078 0 -0.37409232478017868 0.38436959454308373 0 -0.36487959188409091 0.37693147580947423 0 -0.37085419989075769 0.37812797444592078 0 -0.3675155979810063 0.38497381304651501 0 -0.37043898617880572 0.37324123182286789 0 -0.36487959188409091 0.37693147580947423 0 -0.37085419989075769 0.37812797444592078 0 -0.37085419989075769 0.37812797444592078 0 -0.3675155979810063 0.38497381304651501 0 -0.37409232478017868 0.38436959454308373 0 -0.3675155979810063 0.38497381304651501 0 -0.37184043272452061 0.39068025433287201 0 -0.36440496787945531 0.39393349713126719 0 -0.3675155979810063 0.38497381304651501 0 -0.37409232478017868 0.38436959454308373 0 -0.37184043272452061 0.39068025433287201 0 -0.37885796532474447 0.39134749169330713 0 -0.37409232478017868 0.38436959454308373 0 -0.37184043272452061 0.39068025433287201 0 -0.37184043272452061 0.39068025433287201 0 -0.36440496787945531 0.39393349713126719 0 -0.37433130765721778 0.39877687525018679 0 -0.35437635850523952 0.3956091399074253 0 -0.35950495699225032 0.38560546607640972 0 -0.36440496787945531 0.39393349713126719 0 -0.35437635850523952 0.3956091399074253 0 -0.36440496787945531 0.39393349713126719 0 -0.36341360357567098 0.40559637285310579 0 -0.36341360357567098 0.40559637285310579 0 -0.37433130765721778 0.39877687525018679 0 -0.37499740247542401 0.40721811472971858 0 -0.36440496787945531 0.39393349713126719 0 -0.36341360357567098 0.40559637285310579 0 -0.37433130765721778 0.39877687525018679 0 -0.36341360357567098 0.40559637285310579 0 -0.37354956686263591 0.41691615954980138 0 -0.34892825654263288 0.41226968292402799 0 -0.37354956686263591 0.41691615954980138 0 -0.34892825654263288 0.41226968292402799 0 -0.37354956686263591 0.41691615954980138 0 -0.3583147188252187 0.4293277857725557 0 -0.34892825654263288 0.41226968292402799 0 -0.36341360357567098 0.40559637285310579 0 -0.37499740247542401 0.40721811472971858 0 -0.37354956686263591 0.41691615954980138 0 -0.37684671701437739 0.43404692599896683 0 -0.3583147188252187 0.4293277857725557 0 -0.37684671701437739 0.43404692599896683 0 -0.3583147188252187 0.4293277857725557 0 -0.36296912404531068 0.4445445119282404 0 -0.37684671701437739 0.43404692599896683 0 -0.37354956686263591 0.41691615954980138 0 -0.3583147188252187 0.4293277857725557 0 -0.3583147188252187 0.4293277857725557 0 -0.3426135453073692 0.43492516940467602 0 -0.36296912404531068 0.4445445119282404 0 -0.3583147188252187 0.4293277857725557 0 -0.34892825654263288 0.41226968292402799 0 -0.3426135453073692 0.43492516940467602 0 -0.34892825654263288 0.41226968292402799 0 -0.33323341271411711 0.42107078694902877 0 -0.32430694622263012 0.40762320629825471 0 -0.34892825654263288 0.41226968292402799 0 -0.32430694622263012 0.40762320629825471 0 -0.33323341271411711 0.42107078694902877 0 -0.3426135453073692 0.43492516940467602 0 -0.32043834943807759 0.43023741136295401 0 -0.34892825654263288 0.41226968292402799 0 -0.33323341271411711 0.42107078694902877 0 -0.3426135453073692 0.43492516940467602 0 -0.32043834943807759 0.43023741136295401 0 -0.31927433993073689 0.41754138264799112 0 -0.3047047877995413 0.42130992854914229 0 -0.33323341271411711 0.42107078694902877 0 -0.32043834943807759 0.43023741136295401 0 -0.31927433993073689 0.41754138264799112 0 -0.33323341271411711 0.42107078694902877 0 -0.32430694622263012 0.40762320629825471 0 -0.31927433993073689 0.41754138264799112 0 -0.31927433993073689 0.41754138264799112 0 -0.31368820347931842 0.40746558008057571 0 -0.3047047877995413 0.42130992854914229 0 -0.32430694622263012 0.40762320629825471 0 -0.31927433993073689 0.41754138264799112 0 -0.31368820347931842 0.40746558008057571 0 -0.31368820347931842 0.40746558008057571 0 -0.3191444148852623 0.39765227897466571 0 -0.30559010208145421 0.39903421470488981 0 -0.32430694622263012 0.40762320629825471 0 -0.31368820347931842 0.40746558008057571 0 -0.3191444148852623 0.39765227897466571 0 -0.3191444148852623 0.39765227897466571 0 -0.33022718575933679 0.3976249669441847 0 -0.32111871983166779 0.38593015495655358 0 -0.32430694622263012 0.40762320629825471 0 -0.3191444148852623 0.39765227897466571 0 -0.33022718575933679 0.3976249669441847 0 -0.34892825654263288 0.41226968292402799 0 -0.33022718575933679 0.3976249669441847 0 -0.34007770237690782 0.39292525514965149 0 -0.34892825654263288 0.41226968292402799 0 -0.32430694622263012 0.40762320629825471 0 -0.33022718575933679 0.3976249669441847 0 -0.33022718575933679 0.3976249669441847 0 -0.34007770237690782 0.39292525514965149 0 -0.33221654291657821 0.38353618103711989 0 -0.33841325509341202 0.3726682097629227 0 -0.3409789215400848 0.38204499223263272 0 -0.33221654291657821 0.38353618103711989 0 -0.33841325509341202 0.3726682097629227 0 -0.34984242201975368 0.37309424171374922 0 -0.3409789215400848 0.38204499223263272 0 -0.34963691207466169 0.38426142343810948 0 -0.34007770237690782 0.39292525514965149 0 -0.3409789215400848 0.38204499223263272 0 -0.34007770237690782 0.39292525514965149 0 -0.3409789215400848 0.38204499223263272 0 -0.33221654291657821 0.38353618103711989 0 -0.32743712713705531 0.37366410529823879 0 -0.33841325509341202 0.3726682097629227 0 -0.33221654291657821 0.38353618103711989 0 -0.31517976697897843 0.37423792825210273 0 -0.32743712713705531 0.37366410529823879 0 -0.32111871983166779 0.38593015495655358 0 -0.32743712713705531 0.37366410529823879 0 -0.33221654291657821 0.38353618103711989 0 -0.32111871983166779 0.38593015495655358 0 -0.33022718575933679 0.3976249669441847 0 -0.33221654291657821 0.38353618103711989 0 -0.32111871983166779 0.38593015495655358 0 -0.3191444148852623 0.39765227897466571 0 -0.32111871983166779 0.38593015495655358 0 -0.31002687543485319 0.38700597524254071 0 -0.31517976697897843 0.37423792825210273 0 -0.32111871983166779 0.38593015495655358 0 -0.31002687543485319 0.38700597524254071 0 -0.30131534251260428 0.37367133580397371 0 -0.31517976697897843 0.37423792825210273 0 -0.31002687543485319 0.38700597524254071 0 -0.30131534251260428 0.37367133580397371 0 -0.31002687543485319 0.38700597524254071 0 -0.29781290631915242 0.39150993876305867 0 -0.30559010208145421 0.39903421470488981 0 -0.29781290631915242 0.39150993876305867 0 -0.28872224369509669 0.41262494344108658 0 -0.3191444148852623 0.39765227897466571 0 -0.31002687543485319 0.38700597524254071 0 -0.30559010208145421 0.39903421470488981 0 -0.31002687543485319 0.38700597524254071 0 -0.30559010208145421 0.39903421470488981 0 -0.29781290631915242 0.39150993876305867 0 -0.28630361821656142 0.39498366377633359 0 -0.27377265549359059 0.39513563319696138 0 -0.28872224369509669 0.41262494344108658 0 -0.29781290631915242 0.39150993876305867 0 -0.28630361821656142 0.39498366377633359 0 -0.28872224369509669 0.41262494344108658 0 -0.30131534251260428 0.37367133580397371 0 -0.29781290631915242 0.39150993876305867 0 -0.28660955089571982 0.38133716887618418 0 -0.28906427111010602 0.37013792720819949 0 -0.30131534251260428 0.37367133580397371 0 -0.28660955089571982 0.38133716887618418 0 -0.29781290631915242 0.39150993876305867 0 -0.28630361821656142 0.39498366377633359 0 -0.28660955089571982 0.38133716887618418 0 -0.28630361821656142 0.39498366377633359 0 -0.28660955089571982 0.38133716887618418 0 -0.27377265549359059 0.39513563319696138 0 -0.28660955089571982 0.38133716887618418 0 -0.26638674131190138 0.38038797922688811 0 -0.27377265549359059 0.39513563319696138 0 -0.27653007607264851 0.36783567132459188 0 -0.28660955089571982 0.38133716887618418 0 -0.26638674131190138 0.38038797922688811 0 -0.27377265549359059 0.39513563319696138 0 -0.26572491012916227 0.4053929253583084 0 -0.28872224369509669 0.41262494344108658 0 -0.27377265549359059 0.39513563319696138 0 -0.26572491012916227 0.4053929253583084 0 -0.25147216422620122 0.3936253422891412 0 -0.26572491012916227 0.4053929253583084 0 -0.25147216422620122 0.3936253422891412 0 -0.25090120332004778 0.40779440106275522 0 -0.26638674131190138 0.38038797922688811 0 -0.25147216422620122 0.3936253422891412 0 -0.25268258031975399 0.38059484928632631 0 -0.26638674131190138 0.38038797922688811 0 -0.27377265549359059 0.39513563319696138 0 -0.25147216422620122 0.3936253422891412 0 -0.25201338150326608 0.43561030220208102 0 -0.26160794284823952 0.42906179952328322 0 -0.2387903241266533 0.42294367016210788 0 -0.26160794284823952 0.42906179952328322 0 -0.26375628391087502 0.41778430680159762 0 -0.2387903241266533 0.42294367016210788 0 -0.25201338150326608 0.43561030220208102 0 -0.26160794284823952 0.42906179952328322 0 -0.27916413581413507 0.44029772262608552 0 -0.25090120332004778 0.40779440106275522 0 -0.26375628391087502 0.41778430680159762 0 -0.24042593636355511 0.41891383538743671 0 -0.26375628391087502 0.41778430680159762 0 -0.2387903241266533 0.42294367016210788 0 -0.26572491012916227 0.4053929253583084 0 -0.25090120332004778 0.40779440106275522 0 -0.26375628391087502 0.41778430680159762 0 -0.26375628391087502 0.41778430680159762 0 -0.28872224369509669 0.41262494344108658 0 -0.26572491012916227 0.4053929253583084 0 -0.26375628391087502 0.41778430680159762 0 -0.28872224369509669 0.41262494344108658 0 -0.26375628391087502 0.41778430680159762 0 -0.27431558888626778 0.4286729958245441 0 -0.28872224369509669 0.41262494344108658 0 -0.26160794284823952 0.42906179952328322 0 -0.27431558888626778 0.4286729958245441 0 -0.27916413581413507 0.44029772262608552 0 -0.26160794284823952 0.42906179952328322 0 -0.26375628391087502 0.41778430680159762 0 -0.27431558888626778 0.4286729958245441 0 -0.27431558888626778 0.4286729958245441 0 -0.27916413581413507 0.44029772262608552 0 -0.27431558888626778 0.4286729958245441 0 -0.29030485732520789 0.42887559917054269 0 -0.27916413581413507 0.44029772262608552 0 -0.27431558888626778 0.4286729958245441 0 -0.29030485732520789 0.42887559917054269 0 -0.28872224369509669 0.41262494344108658 0 -0.29030485732520789 0.42887559917054269 0 -0.28872224369509669 0.41262494344108658 0 -0.3047047877995413 0.42130992854914229 0 -0.31368820347931842 0.40746558008057571 0 -0.28872224369509669 0.41262494344108658 0 -0.31368820347931842 0.40746558008057571 0 -0.28872224369509669 0.41262494344108658 0 -0.3047047877995413 0.42130992854914229 0 -0.31368820347931842 0.40746558008057571 0 -0.30559010208145421 0.39903421470488981 0 -0.28872224369509669 0.41262494344108658 0 -0.29030485732520789 0.42887559917054269 0 -0.3047047877995413 0.42130992854914229 0 -0.30179731738818172 0.44420521029127719 0 -0.32043834943807759 0.43023741136295401 0 -0.3047047877995413 0.42130992854914229 0 -0.30179731738818172 0.44420521029127719 0 -0.30179731738818172 0.44420521029127719 0 -0.31067794328745119 0.46264405081770033 0 -0.32443049896222831 0.4481126979564693 0 -0.30179731738818172 0.44420521029127719 0 -0.31067794328745119 0.46264405081770033 0 -0.28746452567819603 0.46019848175072442 0 -0.31067794328745119 0.46264405081770033 0 -0.28746452567819603 0.46019848175072442 0 -0.29576491554225692 0.48009924087536321 0 -0.30179731738818172 0.44420521029127719 0 -0.28746452567819603 0.46019848175072442 0 -0.27916413581413507 0.44029772262608552 0 -0.28746452567819603 0.46019848175072442 0 -0.27916413581413507 0.44029772262608552 0 -0.30179731738818172 0.44420521029127719 0 -0.27916413581413507 0.44029772262608552 0 -0.29030485732520789 0.42887559917054269 0 -0.30179731738818172 0.44420521029127719 0 -0.27916413581413507 0.44029772262608552 0 -0.28746452567819603 0.46019848175072442 0 -0.27916413581413507 0.44029772262608552 0 -0.27541134071372009 0.4531253843325263 0 -0.27916413581413507 0.44029772262608552 0 -0.27541134071372009 0.4531253843325263 0 -0.26358352909610527 0.44956882189695069 0 -0.28746452567819603 0.46019848175072442 0 -0.27541134071372009 0.4531253843325263 0 -0.2714331722664442 0.46243651105634481 0 -0.28746452567819603 0.46019848175072442 0 -0.2714331722664442 0.46243651105634481 0 -0.27589223046486411 0.4762181017306189 0 -0.27541134071372009 0.4531253843325263 0 -0.2714331722664442 0.46243651105634481 0 -0.26358352909610527 0.44956882189695069 0 -0.2714331722664442 0.46243651105634481 0 -0.25789634958854629 0.46814320595040321 0 -0.26358352909610527 0.44956882189695069 0 -0.25789634958854629 0.46814320595040321 0 -0.26358352909610527 0.44956882189695069 0 -0.24824864571445149 0.4538285609525371 0 -0.25201338150326608 0.43561030220208102 0 -0.27916413581413507 0.44029772262608552 0 -0.25201338150326608 0.43561030220208102 0 -0.26358352909610527 0.44956882189695069 0 -0.24824864571445149 0.4538285609525371 0 -0.25201338150326608 0.43561030220208102 0 -0.27916413581413507 0.44029772262608552 0 -0.26358352909610527 0.44956882189695069 0 -0.2632364699846434 0.48601243418103712 0 -0.25579016669145971 0.5 0 -0.24990040383803869 0.48204948033515332 0 -0.25789634958854629 0.46814320595040321 0 -0.2632364699846434 0.48601243418103712 0 -0.24990040383803869 0.48204948033515332 0 -0.2714331722664442 0.46243651105634481 0 -0.25789634958854629 0.46814320595040321 0 -0.27589223046486411 0.4762181017306189 0 -0.25789634958854629 0.46814320595040321 0 -0.2632364699846434 0.48601243418103712 0 -0.27589223046486411 0.4762181017306189 0 -0.2632364699846434 0.48601243418103712 0 -0.25579016669145971 0.5 0 -0.2799277360488891 0.5 0 -0.2632364699846434 0.48601243418103712 0 -0.27589223046486411 0.4762181017306189 0 -0.2799277360488891 0.5 0 -0.2799277360488891 0.5 0 -0.29576491554225692 0.48009924087536321 0 -0.30406530540631849 0.50000000000000167 0 -0.27589223046486411 0.4762181017306189 0 -0.2799277360488891 0.5 0 -0.29576491554225692 0.48009924087536321 0 -0.28746452567819603 0.46019848175072442 0 -0.29576491554225692 0.48009924087536321 0 -0.28746452567819603 0.46019848175072442 0 -0.27589223046486411 0.4762181017306189 0 -0.29576491554225692 0.48009924087536321 0 -0.31067794328745119 0.46264405081770033 0 -0.29576491554225692 0.48009924087536321 0 -0.32099062541390139 0.48086028378690288 0 -0.29576491554225692 0.48009924087536321 0 -0.30406530540631849 0.50000000000000167 0 -0.29576491554225692 0.48009924087536321 0 -0.30406530540631849 0.50000000000000167 0 -0.32099062541390139 0.48086028378690288 0 -0.32099062541390139 0.48086028378690288 0 -0.33243885583870159 0.46353981429619978 0 -0.35336311066769333 0.47958868874179261 0 -0.33235530839977212 0.4999999999999995 0 -0.32099062541390139 0.48086028378690288 0 -0.35336311066769333 0.47958868874179261 0 -0.30406530540631849 0.50000000000000167 0 -0.33235530839977212 0.4999999999999995 0 -0.32099062541390139 0.48086028378690288 0 -0.33235530839977212 0.4999999999999995 0 -0.35336311066769333 0.47958868874179261 0 -0.31067794328745119 0.46264405081770033 0 -0.32099062541390139 0.48086028378690288 0 -0.33243885583870159 0.46353981429619978 0 -0.31067794328745119 0.46264405081770033 0 -0.32443049896222831 0.4481126979564693 0 -0.33243885583870159 0.46353981429619978 0 -0.30179731738818172 0.44420521029127719 0 -0.32443049896222831 0.4481126979564693 0 -0.32043834943807759 0.43023741136295401 0 -0.30179731738818172 0.44420521029127719 0 -0.32443049896222831 0.4481126979564693 0 -0.3426135453073692 0.43492516940467602 0 -0.32443049896222831 0.4481126979564693 0 -0.34706368053627501 0.45202018562166141 0 -0.32443049896222831 0.4481126979564693 0 -0.34706368053627501 0.45202018562166141 0 -0.3426135453073692 0.43492516940467602 0 -0.32043834943807759 0.43023741136295401 0 -0.32443049896222831 0.4481126979564693 0 -0.32443049896222831 0.4481126979564693 0 -0.33243885583870159 0.46353981429619978 0 -0.34706368053627501 0.45202018562166141 0 -0.34706368053627501 0.45202018562166141 0 -0.37437091293561492 0.45917737748358589 0 -0.35336311066769333 0.47958868874179261 0 -0.33243885583870159 0.46353981429619978 0 -0.34706368053627501 0.45202018562166141 0 -0.35336311066769333 0.47958868874179261 0 -0.3426135453073692 0.43492516940467602 0 -0.34706368053627501 0.45202018562166141 0 -0.36296912404531068 0.4445445119282404 0 -0.34706368053627501 0.45202018562166141 0 -0.36296912404531068 0.4445445119282404 0 -0.37437091293561492 0.45917737748358589 0 -0.37684671701437739 0.43404692599896683 0 -0.36296912404531068 0.4445445119282404 0 -0.37437091293561492 0.45917737748358589 0 -0.37437091293561492 0.45917737748358589 0 -0.35336311066769333 0.47958868874179261 0 -0.37437091293561492 0.45917737748358589 0 -0.36997179164079869 0.48529945378276929 0 -0.35336311066769333 0.47958868874179261 0 -0.38101181178338012 0.5 0 -0.36997179164079869 0.48529945378276929 0 -0.35668356009157609 0.5 0 -0.36997179164079869 0.48529945378276929 0 -0.35668356009157609 0.5 0 -0.35336311066769333 0.47958868874179261 0 -0.33235530839977212 0.4999999999999995 0 -0.35668356009157609 0.5 0 -0.35336311066769333 0.47958868874179261 0 -0.14556732876859491 0.47301453743507738 0 -0.15473562819018971 0.47988032248219048 0 -0.1669859502894987 0.45772376898843092 0 -0.14556732876859491 0.47301453743507738 0 -0.14522304285038709 0.48719918981631422 0 -0.14556732876859491 0.47301453743507738 0 -0.14522304285038709 0.48719918981631422 0 -0.1316544335736983 0.48294696276132859 0 -0.14556732876859491 0.47301453743507738 0 -0.15473562819018971 0.47988032248219048 0 -0.14522304285038709 0.48719918981631422 0 -0.13788275832052291 0.50000000000000344 0 -0.137073380471853 0.4977839385140389 0 -0.161093514872549 0.5 0 -0.15473562819018971 0.47988032248219048 0 -0.137073380471853 0.4977839385140389 0 -0.161093514872549 0.5 0 -0.15473562819018971 0.47988032248219048 0 -0.137073380471853 0.4977839385140389 0 -0.15473562819018971 0.47988032248219048 0 -0.14522304285038709 0.48719918981631422 0 -0.137073380471853 0.4977839385140389 0 -0.137073380471853 0.4977839385140389 0 -0.1316544335736983 0.48294696276132859 0 -0.1209403703985526 0.4905957397367271 0 -0.137073380471853 0.4977839385140389 0 -0.13488719490717671 0.50000000000000677 0 -0.1209403703985526 0.4905957397367271 0 -0.14522304285038709 0.48719918981631422 0 -0.137073380471853 0.4977839385140389 0 -0.1316544335736983 0.48294696276132859 0 -0.137073380471853 0.4977839385140389 0 -0.1316544335736983 0.48294696276132859 0 -0.13788275832052291 0.50000000000000344 0 -0.137073380471853 0.4977839385140389 0 -0.13788275832052291 0.50000000000000344 0 -0.137073380471853 0.4977839385140389 0 -0.13488719490717671 0.50000000000000677 0 -0.137073380471853 0.4977839385140389 0 -0.13488719490717671 0.50000000000000677 0 -0.1316544335736983 0.48294696276132859 0 -0.1209403703985526 0.4905957397367271 0 -0.1316544335736983 0.48294696276132859 0 -0.1234221834597527 0.4769885046853129 0 -0.1209403703985526 0.4905957397367271 0 -0.1316544335736983 0.48294696276132859 0 -0.1258764600904497 0.46712697890061572 0 -0.1316544335736983 0.48294696276132859 0 -0.1258764600904497 0.46712697890061572 0 -0.1234221834597527 0.4769885046853129 0 -0.1316544335736983 0.48294696276132859 0 -0.13559582018855881 0.47049241194979691 0 -0.1258764600904497 0.46712697890061572 0 -0.14556732876859491 0.47301453743507738 0 -0.1316544335736983 0.48294696276132859 0 -0.14556732876859491 0.47301453743507738 0 -0.1316544335736983 0.48294696276132859 0 -0.13559582018855881 0.47049241194979691 0 -0.13559582018855881 0.47049241194979691 0 -0.1310232567944595 0.46127917341320313 0 -0.14605511121148351 0.45291779799822768 0 -0.1258764600904497 0.46712697890061572 0 -0.1310232567944595 0.46127917341320313 0 -0.1200984866071973 0.45130699503990412 0 -0.13559582018855881 0.47049241194979691 0 -0.1258764600904497 0.46712697890061572 0 -0.1310232567944595 0.46127917341320313 0 -0.1310232567944595 0.46127917341320313 0 -0.1356669450563816 0.44773678254402099 0 -0.1200984866071973 0.45130699503990412 0 -0.1310232567944595 0.46127917341320313 0 -0.14605511121148351 0.45291779799822768 0 -0.1310232567944595 0.46127917341320313 0 -0.1356669450563816 0.44773678254402099 0 -0.14605511121148351 0.45291779799822768 0 -0.13570648494187609 0.43659223156763738 0 -0.12950504661076359 0.42553305625679289 0 -0.1200984866071973 0.45130699503990412 0 -0.1356669450563816 0.44773678254402099 0 -0.13570648494187609 0.43659223156763738 0 -0.1200984866071973 0.45130699503990412 0 -0.1356669450563816 0.44773678254402099 0 -0.146439019215507 0.43710070733189937 0 -0.13570648494187609 0.43659223156763738 0 -0.14605511121148351 0.45291779799822768 0 -0.146439019215507 0.43710070733189937 0 -0.1356669450563816 0.44773678254402099 0 -0.14605511121148351 0.45291779799822768 0 -0.146439019215507 0.43710070733189937 0 -0.14605511121148351 0.45291779799822768 0 -0.16151595613516331 0.44431779928528181 0 -0.146439019215507 0.43710070733189937 0 -0.14605511121148351 0.45291779799822768 0 -0.16151595613516331 0.44431779928528181 0 -0.16151595613516331 0.44431779928528181 0 -0.15853997904462511 0.43123143050357249 0 -0.146439019215507 0.43710070733189937 0 -0.14556732876859491 0.47301453743507738 0 -0.13559582018855881 0.47049241194979691 0 -0.14605511121148351 0.45291779799822768 0 -0.14556732876859491 0.47301453743507738 0 -0.14605511121148351 0.45291779799822768 0 -0.1669859502894987 0.45772376898843092 0 -0.14556732876859491 0.47301453743507738 0 -0.14605511121148351 0.45291779799822768 0 -0.15473562819018971 0.47988032248219048 0 -0.1669859502894987 0.45772376898843092 0 -0.1723978759085259 0.46197670645034178 0 -0.14556732876859491 0.47301453743507738 0 -0.1669859502894987 0.45772376898843092 0 -0.1669859502894987 0.45772376898843092 0 -0.16151595613516331 0.44431779928528181 0 -0.17697680105884331 0.435717800572336 0 -0.14605511121148351 0.45291779799822768 0 -0.1669859502894987 0.45772376898843092 0 -0.16151595613516331 0.44431779928528181 0 -0.16151595613516331 0.44431779928528181 0 -0.1748828242783205 0.43615053326807762 0 -0.17697680105884331 0.435717800572336 0 -0.16151595613516331 0.44431779928528181 0 -0.17697680105884331 0.435717800572336 0 -0.1669859502894987 0.45772376898843092 0 -0.18840457181040299 0.44243300054178519 0 -0.17697680105884331 0.435717800572336 0 -0.1723978759085259 0.46197670645034178 0 -0.18840457181040299 0.44243300054178519 0 -0.19006012362686289 0.44407309041849391 0 -0.1723978759085259 0.46197670645034178 0 -0.19006012362686289 0.44407309041849391 0 -0.1669859502894987 0.45772376898843092 0 -0.18840457181040299 0.44243300054178519 0 -0.18840457181040299 0.44243300054178519 0 -0.17995425844840759 0.43406160844024211 0 -0.1723978759085259 0.46197670645034178 0 -0.18896721518742929 0.46509388992230127 0 -0.19006012362686289 0.44407309041849391 0 -0.1669859502894987 0.45772376898843092 0 -0.1723978759085259 0.46197670645034178 0 -0.18840457181040299 0.44243300054178519 0 -0.1723978759085259 0.46197670645034178 0 -0.17645684624470459 0.48112236719974699 0 -0.18896721518742929 0.46509388992230127 0 -0.15473562819018971 0.47988032248219048 0 -0.1723978759085259 0.46197670645034178 0 -0.15473562819018971 0.47988032248219048 0 -0.1723978759085259 0.46197670645034178 0 -0.17645684624470459 0.48112236719974699 0 -0.15473562819018971 0.47988032248219048 0 -0.17645684624470459 0.48112236719974699 0 -0.161093514872549 0.5 0 -0.17645684624470459 0.48112236719974699 0 -0.161093514872549 0.5 0 -0.18430427142457501 0.5 0 -0.17645684624470459 0.48112236719974699 0 -0.18430427142457501 0.5 0 -0.19724257188495881 0.47978328434364881 0 -0.18430427142457501 0.5 0 -0.19724257188495881 0.47978328434364881 0 -0.20751502797660101 0.49999999999999911 0 -0.17645684624470459 0.48112236719974699 0 -0.19724257188495881 0.47978328434364881 0 -0.18896721518742929 0.46509388992230127 0 -0.19724257188495881 0.47978328434364881 0 -0.21869909928437631 0.4724445938581141 0 -0.20751502797660101 0.49999999999999911 0 -0.19724257188495881 0.47978328434364881 0 -0.21869909928437631 0.4724445938581141 0 -0.20437961145561989 0.45825884213830359 0 -0.21869909928437631 0.4724445938581141 0 -0.20751502797660101 0.49999999999999911 0 -0.20751502797660101 0.49999999999999911 0 -0.2316525973340304 0.5 0 -0.2339435625665103 0.48754668227134601 0 -0.21869909928437631 0.4724445938581141 0 -0.20751502797660101 0.49999999999999911 0 -0.2339435625665103 0.48754668227134601 0 -0.21869909928437631 0.4724445938581141 0 -0.2339435625665103 0.48754668227134601 0 -0.21869909928437631 0.4724445938581141 0 -0.2339435625665103 0.48754668227134601 0 -0.23900525667882519 0.46812634270313952 0 -0.25789634958854629 0.46814320595040321 0 -0.24990040383803869 0.48204948033515332 0 -0.23900525667882519 0.46812634270313952 0 -0.2339435625665103 0.48754668227134601 0 -0.24990040383803869 0.48204948033515332 0 -0.23900525667882519 0.46812634270313952 0 -0.25579016669145971 0.5 0 -0.2339435625665103 0.48754668227134601 0 -0.24990040383803869 0.48204948033515332 0 -0.25579016669145971 0.5 0 -0.2316525973340304 0.5 0 -0.2339435625665103 0.48754668227134601 0 -0.25201338150326608 0.43561030220208102 0 -0.24824864571445149 0.4538285609525371 0 -0.2287447117055145 0.44769413201011082 0 -0.25789634958854629 0.46814320595040321 0 -0.24824864571445149 0.4538285609525371 0 -0.23900525667882519 0.46812634270313952 0 -0.24824864571445149 0.4538285609525371 0 -0.23900525667882519 0.46812634270313952 0 -0.2287447117055145 0.44769413201011082 0 -0.21869909928437631 0.4724445938581141 0 -0.23900525667882519 0.46812634270313952 0 -0.2287447117055145 0.44769413201011082 0 -0.21869909928437631 0.4724445938581141 0 -0.2287447117055145 0.44769413201011082 0 -0.2287447117055145 0.44769413201011082 0 -0.2130283227513482 0.44353993148541893 0 -0.22127708312128799 0.42656288507504703 0 -0.2287447117055145 0.44769413201011082 0 -0.2130283227513482 0.44353993148541893 0 -0.20437961145561989 0.45825884213830359 0 -0.2130283227513482 0.44353993148541893 0 -0.20437961145561989 0.45825884213830359 0 -0.20247762971673461 0.44428447052354481 0 -0.20247762971673461 0.44428447052354481 0 -0.1995586473872526 0.43447009841404838 0 -0.20736922510087269 0.43723026294649819 0 -0.2130283227513482 0.44353993148541893 0 -0.20247762971673461 0.44428447052354481 0 -0.20736922510087269 0.43723026294649819 0 -0.21869909928437631 0.4724445938581141 0 -0.2287447117055145 0.44769413201011082 0 -0.20437961145561989 0.45825884213830359 0 -0.21869909928437631 0.4724445938581141 0 -0.20437961145561989 0.45825884213830359 0 -0.19724257188495881 0.47978328434364881 0 -0.20437961145561989 0.45825884213830359 0 -0.18896721518742929 0.46509388992230127 0 -0.20437961145561989 0.45825884213830359 0 -0.18896721518742929 0.46509388992230127 0 -0.19006012362686289 0.44407309041849391 0 -0.20247762971673461 0.44428447052354481 0 -0.19006012362686289 0.44407309041849391 0 -0.1995586473872526 0.43447009841404838 0 -0.20437961145561989 0.45825884213830359 0 -0.20247762971673461 0.44428447052354481 0 -0.19006012362686289 0.44407309041849391 0 -0.20437961145561989 0.45825884213830359 0 -0.19006012362686289 0.44407309041849391 0 -0.19006012362686289 0.44407309041849391 0 -0.1995586473872526 0.43447009841404838 0 -0.18840457181040299 0.44243300054178519 0 -0.1995586473872526 0.43447009841404838 0 -0.18840457181040299 0.44243300054178519 0 -0.19006012362686289 0.44407309041849391 0 -0.1995586473872526 0.43447009841404838 0 -0.18840457181040299 0.44243300054178519 0 -0.19006012362686289 0.44407309041849391 0 -0.2020951387785653 0.42174588162952897 0 -0.17995425844840759 0.43406160844024211 0 -0.20376384211592249 0.43018209998798518 0 -0.17995425844840759 0.43406160844024211 0 -0.1995586473872526 0.43447009841404838 0 -0.20376384211592249 0.43018209998798518 0 -0.17995425844840759 0.43406160844024211 0 -0.18840457181040299 0.44243300054178519 0 -0.1995586473872526 0.43447009841404838 0 -0.17995425844840759 0.43406160844024211 0 -0.2020951387785653 0.42174588162952897 0 -0.20376384211592249 0.43018209998798518 0 -0.17995425844840759 0.43406160844024211 0 -0.2020951387785653 0.42174588162952897 0 -0.19800978242484349 0.41468039224415409 0 -0.17995425844840759 0.43406160844024211 0 -0.1995586473872526 0.43447009841404838 0 -0.20376384211592249 0.43018209998798518 0 -0.19800978242484349 0.41468039224415409 0 -0.20085965029040509 0.40802415405667652 0 -0.18194940933250461 0.41266432501185518 0 -0.20085965029040509 0.40802415405667652 0 -0.18502936232130379 0.40158029122247513 0 -0.18194940933250461 0.41266432501185518 0 -0.20085965029040509 0.40802415405667652 0 -0.18194940933250461 0.41266432501185518 0 -0.2020951387785653 0.42174588162952897 0 -0.19800978242484349 0.41468039224415409 0 -0.20537009860744221 0.41226503352574217 0 -0.19800978242484349 0.41468039224415409 0 -0.20085965029040509 0.40802415405667652 0 -0.19800978242484349 0.41468039224415409 0 -0.20085965029040509 0.40802415405667652 0 -0.20537009860744221 0.41226503352574217 0 -0.20085965029040509 0.40802415405667652 0 -0.2042154558020233 0.40720071075413589 0 -0.2020951387785653 0.42174588162952897 0 -0.20376384211592249 0.43018209998798518 0 -0.22423601910872329 0.40943015481881623 0 -0.20376384211592249 0.43018209998798518 0 -0.22423601910872329 0.40943015481881623 0 -0.2020951387785653 0.42174588162952897 0 -0.20537009860744221 0.41226503352574217 0 -0.22423601910872329 0.40943015481881623 0 -0.2020951387785653 0.42174588162952897 0 -0.22423601910872329 0.40943015481881623 0 -0.20537009860744221 0.41226503352574217 0 -0.2111156042030666 0.40668728198472998 0 -0.22423601910872329 0.40943015481881623 0 -0.2042154558020233 0.40720071075413589 0 -0.20537009860744221 0.41226503352574217 0 -0.2111156042030666 0.40668728198472998 0 -0.20085965029040509 0.40802415405667652 0 -0.2042154558020233 0.40720071075413589 0 -0.20537009860744221 0.41226503352574217 0 -0.20376384211592249 0.43018209998798518 0 -0.22127708312128799 0.42656288507504703 0 -0.20376384211592249 0.43018209998798518 0 -0.22127708312128799 0.42656288507504703 0 -0.22423601910872329 0.40943015481881623 0 -0.20736922510087269 0.43723026294649819 0 -0.20376384211592249 0.43018209998798518 0 -0.22127708312128799 0.42656288507504703 0 -0.2130283227513482 0.44353993148541893 0 -0.20736922510087269 0.43723026294649819 0 -0.22127708312128799 0.42656288507504703 0 -0.1995586473872526 0.43447009841404838 0 -0.20736922510087269 0.43723026294649819 0 -0.20376384211592249 0.43018209998798518 0 -0.2287447117055145 0.44769413201011082 0 -0.22127708312128799 0.42656288507504703 0 -0.2387903241266533 0.42294367016210788 0 -0.22127708312128799 0.42656288507504703 0 -0.2387903241266533 0.42294367016210788 0 -0.2287447117055145 0.44769413201011082 0 -0.2387903241266533 0.42294367016210788 0 -0.22127708312128799 0.42656288507504703 0 -0.22423601910872329 0.40943015481881623 0 -0.2334730609380313 0.4149761516248674 0 -0.22127708312128799 0.42656288507504703 0 -0.2334730609380313 0.4149761516248674 0 -0.2387903241266533 0.42294367016210788 0 -0.22423601910872329 0.40943015481881623 0 -0.23540547120182689 0.40321721664504923 0 -0.22423601910872329 0.40943015481881623 0 -0.2334730609380313 0.4149761516248674 0 -0.23540547120182689 0.40321721664504923 0 -0.2334730609380313 0.4149761516248674 0 -0.24042593636355511 0.41891383538743671 0 -0.2387903241266533 0.42294367016210788 0 -0.26375628391087502 0.41778430680159762 0 -0.24042593636355511 0.41891383538743671 0 -0.2387903241266533 0.42294367016210788 0 -0.2334730609380313 0.4149761516248674 0 -0.24042593636355511 0.41891383538743671 0 -0.24070353170614209 0.4087891476607487 0 -0.24042593636355511 0.41891383538743671 0 -0.2387903241266533 0.42294367016210788 0 -0.2334730609380313 0.4149761516248674 0 -0.24070353170614209 0.4087891476607487 0 -0.23540547120182689 0.40321721664504923 0 -0.25090120332004778 0.40779440106275522 0 -0.24042593636355511 0.41891383538743671 0 -0.24070353170614209 0.4087891476607487 0 -0.25201338150326608 0.43561030220208102 0 -0.2287447117055145 0.44769413201011082 0 -0.2387903241266533 0.42294367016210788 0 -0.25268258031975399 0.38059484928632631 0 -0.23834135922849081 0.38639185135511522 0 -0.23700381096243639 0.3804407626387295 0 -0.25268258031975399 0.38059484928632631 0 -0.23700381096243639 0.3804407626387295 0 -0.2442082678964814 0.37262070377402617 0 -0.23834135922849081 0.38639185135511522 0 -0.23700381096243639 0.3804407626387295 0 -0.2319299380762874 0.38510171776025132 0 -0.25268258031975399 0.38059484928632631 0 -0.23845929971423899 0.3950125020525716 0 -0.25268258031975399 0.38059484928632631 0 -0.23834135922849081 0.38639185135511522 0 -0.23845929971423899 0.3950125020525716 0 -0.25147216422620122 0.3936253422891412 0 -0.25268258031975399 0.38059484928632631 0 -0.23845929971423899 0.3950125020525716 0 -0.25147216422620122 0.3936253422891412 0 -0.24338833403369139 0.40168772194205321 0 -0.23845929971423899 0.3950125020525716 0 -0.25147216422620122 0.3936253422891412 0 -0.25090120332004778 0.40779440106275522 0 -0.24338833403369139 0.40168772194205321 0 -0.25090120332004778 0.40779440106275522 0 -0.24070353170614209 0.4087891476607487 0 -0.24338833403369139 0.40168772194205321 0 -0.24338833403369139 0.40168772194205321 0 -0.23540547120182689 0.40321721664504923 0 -0.23845929971423899 0.3950125020525716 0 -0.24070353170614209 0.4087891476607487 0 -0.24338833403369139 0.40168772194205321 0 -0.23540547120182689 0.40321721664504923 0 -0.23834135922849081 0.38639185135511522 0 -0.23845929971423899 0.3950125020525716 0 -0.23163116706973699 0.39080942503769722 0 -0.23845929971423899 0.3950125020525716 0 -0.23163116706973699 0.39080942503769722 0 -0.225829602113748 0.39647827757304871 0 -0.23163116706973699 0.39080942503769722 0 -0.225829602113748 0.39647827757304871 0 -0.226076499100725 0.3894960018739434 0 -0.22423601910872329 0.40943015481881623 0 -0.23540547120182689 0.40321721664504923 0 -0.23845929971423899 0.3950125020525716 0 -0.22423601910872329 0.40943015481881623 0 -0.23845929971423899 0.3950125020525716 0 -0.225829602113748 0.39647827757304871 0 -0.22423601910872329 0.40943015481881623 0 -0.23845929971423899 0.3950125020525716 0 -0.22423601910872329 0.40943015481881623 0 -0.22091773568984929 0.40084534220597162 0 -0.225829602113748 0.39647827757304871 0 -0.22423601910872329 0.40943015481881623 0 -0.22091773568984929 0.40084534220597162 0 -0.21516376574269211 0.40209124021201942 0 -0.225829602113748 0.39647827757304871 0 -0.22105342915378479 0.39063847959054571 0 -0.226076499100725 0.3894960018739434 0 -0.22091773568984929 0.40084534220597162 0 -0.225829602113748 0.39647827757304871 0 -0.21844155579423441 0.39538169622000302 0 -0.225829602113748 0.39647827757304871 0 -0.22105342915378479 0.39063847959054571 0 -0.21844155579423441 0.39538169622000302 0 -0.22105342915378479 0.39063847959054571 0 -0.21945351277269201 0.38580719273591652 0 -0.2228074119999473 0.38667917971323179 0 -0.22105342915378479 0.39063847959054571 0 -0.21945351277269201 0.38580719273591652 0 -0.216572958020882 0.39193263481010032 0 -0.21945351277269201 0.38580719273591652 0 -0.2228074119999473 0.38667917971323179 0 -0.2239960305968878 0.38086364567763009 0 -0.2228074119999473 0.38667917971323179 0 -0.22700157241848459 0.38508041705455609 0 -0.2239960305968878 0.38086364567763009 0 -0.22105342915378479 0.39063847959054571 0 -0.2228074119999473 0.38667917971323179 0 -0.226076499100725 0.3894960018739434 0 -0.2228074119999473 0.38667917971323179 0 -0.226076499100725 0.3894960018739434 0 -0.22700157241848459 0.38508041705455609 0 -0.23163116706973699 0.39080942503769722 0 -0.226076499100725 0.3894960018739434 0 -0.22915979416630849 0.38762189043161199 0 -0.226076499100725 0.3894960018739434 0 -0.22915979416630849 0.38762189043161199 0 -0.22700157241848459 0.38508041705455609 0 -0.22915979416630849 0.38762189043161199 0 -0.22700157241848459 0.38508041705455609 0 -0.2319299380762874 0.38510171776025132 0 -0.22700157241848459 0.38508041705455609 0 -0.2319299380762874 0.38510171776025132 0 -0.22850386886113469 0.38110294378862369 0 -0.23834135922849081 0.38639185135511522 0 -0.23163116706973699 0.39080942503769722 0 -0.2319299380762874 0.38510171776025132 0 -0.23163116706973699 0.39080942503769722 0 -0.22915979416630849 0.38762189043161199 0 -0.2319299380762874 0.38510171776025132 0 -0.23700381096243639 0.3804407626387295 0 -0.230965774564207 0.37766222826706541 0 -0.23378923492375231 0.37113612887102598 0 -0.2319299380762874 0.38510171776025132 0 -0.23210084811601639 0.38107691311366743 0 -0.22850386886113469 0.38110294378862369 0 -0.23700381096243639 0.3804407626387295 0 -0.230965774564207 0.37766222826706541 0 -0.23210084811601639 0.38107691311366743 0 -0.23700381096243639 0.3804407626387295 0 -0.2319299380762874 0.38510171776025132 0 -0.23210084811601639 0.38107691311366743 0 -0.230965774564207 0.37766222826706541 0 -0.23210084811601639 0.38107691311366743 0 -0.22850386886113469 0.38110294378862369 0 -0.230965774564207 0.37766222826706541 0 -0.22850386886113469 0.38110294378862369 0 -0.22711980403451579 0.37767636226252449 0 -0.230965774564207 0.37766222826706541 0 -0.22711980403451579 0.37767636226252449 0 -0.22800111999315559 0.37451397408653092 0 -0.21945351277269201 0.38580719273591652 0 -0.2239960305968878 0.38086364567763009 0 -0.22401490550036149 0.37398863932913412 0 -0.22711980403451579 0.37767636226252449 0 -0.22401490550036149 0.37398863932913412 0 -0.22800111999315559 0.37451397408653092 0 -0.22711980403451579 0.37767636226252449 0 -0.2239960305968878 0.38086364567763009 0 -0.22401490550036149 0.37398863932913412 0 -0.22850386886113469 0.38110294378862369 0 -0.22711980403451579 0.37767636226252449 0 -0.2239960305968878 0.38086364567763009 0 -0.22700157241848459 0.38508041705455609 0 -0.22850386886113469 0.38110294378862369 0 -0.2239960305968878 0.38086364567763009 0 -0.2101948194640382 0.38622064860611333 0 -0.21952998863767309 0.36441714315555068 0 -0.21945351277269201 0.38580719273591652 0 -0.2105317446069026 0.39132455791685589 0 -0.22401490550036149 0.37398863932913412 0 -0.2101948194640382 0.38622064860611333 0 -0.2105317446069026 0.39132455791685589 0 -0.22401490550036149 0.37398863932913412 0 -0.2105317446069026 0.39132455791685589 0 -0.22401490550036149 0.37398863932913412 0 -0.21945351277269201 0.38580719273591652 0 -0.216572958020882 0.39193263481010032 0 -0.2105317446069026 0.39132455791685589 0 -0.20085965029040509 0.40802415405667652 0 -0.2101948194640382 0.38622064860611333 0 -0.2105317446069026 0.39132455791685589 0 -0.20085965029040509 0.40802415405667652 0 -0.2105317446069026 0.39132455791685589 0 -0.2080355739355246 0.40143857171251868 0 -0.20085965029040509 0.40802415405667652 0 -0.2101948194640382 0.38622064860611333 0 -0.2111156042030666 0.40668728198472998 0 -0.22423601910872329 0.40943015481881623 0 -0.21516376574269211 0.40209124021201942 0 -0.2111156042030666 0.40668728198472998 0 -0.21516376574269211 0.40209124021201942 0 -0.2080355739355246 0.40143857171251868 0 -0.22091773568984929 0.40084534220597162 0 -0.21516376574269211 0.40209124021201942 0 -0.21844155579423441 0.39538169622000302 0 -0.21516376574269211 0.40209124021201942 0 -0.21338454777679611 0.39651124758718082 0 -0.2080355739355246 0.40143857171251868 0 -0.21338454777679611 0.39651124758718082 0 -0.21844155579423441 0.39538169622000302 0 -0.216572958020882 0.39193263481010032 0 -0.21516376574269211 0.40209124021201942 0 -0.21338454777679611 0.39651124758718082 0 -0.21844155579423441 0.39538169622000302 0 -0.22105342915378479 0.39063847959054571 0 -0.21844155579423441 0.39538169622000302 0 -0.216572958020882 0.39193263481010032 0 -0.21338454777679611 0.39651124758718082 0 -0.216572958020882 0.39193263481010032 0 -0.2105317446069026 0.39132455791685589 0 -0.21338454777679611 0.39651124758718082 0 -0.2105317446069026 0.39132455791685589 0 -0.2080355739355246 0.40143857171251868 0 -0.20085965029040509 0.40802415405667652 0 -0.2042154558020233 0.40720071075413589 0 -0.2080355739355246 0.40143857171251868 0 -0.2042154558020233 0.40720071075413589 0 -0.2111156042030666 0.40668728198472998 0 -0.2080355739355246 0.40143857171251868 0 -0.20085965029040509 0.40802415405667652 0 -0.19515005881390349 0.39492386067099788 0 -0.18502936232130379 0.40158029122247513 0 -0.20085965029040509 0.40802415405667652 0 -0.2101948194640382 0.38622064860611333 0 -0.19515005881390349 0.39492386067099788 0 -0.19515005881390349 0.39492386067099788 0 -0.18394090881609709 0.39011620930073931 0 -0.18502936232130379 0.40158029122247513 0 -0.2101948194640382 0.38622064860611333 0 -0.19387386312073079 0.38405071922678602 0 -0.19846074354157431 0.37082220723727588 0 -0.2101948194640382 0.38622064860611333 0 -0.19515005881390349 0.39492386067099788 0 -0.19387386312073079 0.38405071922678602 0 -0.19515005881390349 0.39492386067099788 0 -0.19387386312073079 0.38405071922678602 0 -0.18394090881609709 0.39011620930073931 0 -0.19387386312073079 0.38405071922678602 0 -0.18364924308998329 0.37395600291350078 0 -0.19846074354157431 0.37082220723727588 0 -0.18394090881609709 0.39011620930073931 0 -0.17312885368343409 0.38501270320593872 0 -0.18364924308998329 0.37395600291350078 0 -0.17312885368343409 0.38501270320593872 0 -0.167653910229348 0.37269928504755429 0 -0.18364924308998329 0.37395600291350078 0 -0.19387386312073079 0.38405071922678602 0 -0.18394090881609709 0.39011620930073931 0 -0.18364924308998329 0.37395600291350078 0 -0.18394090881609709 0.39011620930073931 0 -0.17312885368343409 0.38501270320593872 0 -0.17463864237552101 0.39521664759491748 0 -0.17312885368343409 0.38501270320593872 0 -0.16155338681996101 0.38494253697278458 0 -0.167653910229348 0.37269928504755429 0 -0.17312885368343409 0.38501270320593872 0 -0.16155338681996101 0.38494253697278458 0 -0.16675624756589061 0.39278530049753629 0 -0.16155338681996101 0.38494253697278458 0 -0.15837445982876949 0.39390440890969552 0 -0.15164121706477249 0.388353011104275 0 -0.16155338681996101 0.38494253697278458 0 -0.15837445982876949 0.39390440890969552 0 -0.16675624756589061 0.39278530049753629 0 -0.16155338681996101 0.38494253697278458 0 -0.15544476230911419 0.37611319220514161 0 -0.167653910229348 0.37269928504755429 0 -0.15837445982876949 0.39390440890969552 0 -0.16608589512176719 0.40485020580434528 0 -0.1486702620186687 0.39750820118503799 0 -0.15837445982876949 0.39390440890969552 0 -0.16675624756589061 0.39278530049753629 0 -0.16608589512176719 0.40485020580434528 0 -0.16675624756589061 0.39278530049753629 0 -0.16608589512176719 0.40485020580434528 0 -0.17463864237552101 0.39521664759491748 0 -0.17312885368343409 0.38501270320593872 0 -0.16675624756589061 0.39278530049753629 0 -0.17463864237552101 0.39521664759491748 0 -0.16608589512176719 0.40485020580434528 0 -0.17463864237552101 0.39521664759491748 0 -0.18502936232130379 0.40158029122247513 0 -0.16608589512176719 0.40485020580434528 0 -0.18502936232130379 0.40158029122247513 0 -0.18394090881609709 0.39011620930073931 0 -0.17463864237552101 0.39521664759491748 0 -0.18502936232130379 0.40158029122247513 0 -0.18194940933250461 0.41266432501185518 0 -0.17995425844840759 0.43406160844024211 0 -0.1630391683746038 0.41730449596703278 0 -0.19800978242484349 0.41468039224415409 0 -0.18194940933250461 0.41266432501185518 0 -0.17995425844840759 0.43406160844024211 0 -0.16608589512176719 0.40485020580434528 0 -0.18502936232130379 0.40158029122247513 0 -0.18194940933250461 0.41266432501185518 0 -0.18194940933250461 0.41266432501185518 0 -0.1630391683746038 0.41730449596703278 0 -0.17995425844840759 0.43406160844024211 0 -0.1748828242783205 0.43615053326807762 0 -0.1630391683746038 0.41730449596703278 0 -0.18840457181040299 0.44243300054178519 0 -0.17995425844840759 0.43406160844024211 0 -0.17697680105884331 0.435717800572336 0 -0.17995425844840759 0.43406160844024211 0 -0.1748828242783205 0.43615053326807762 0 -0.17697680105884331 0.435717800572336 0 -0.1748828242783205 0.43615053326807762 0 -0.17697680105884331 0.435717800572336 0 -0.17995425844840759 0.43406160844024211 0 -0.17697680105884331 0.435717800572336 0 -0.17995425844840759 0.43406160844024211 0 -0.1630391683746038 0.41730449596703278 0 -0.16151595613516331 0.44431779928528181 0 -0.1748828242783205 0.43615053326807762 0 -0.15853997904462511 0.43123143050357249 0 -0.1748828242783205 0.43615053326807762 0 -0.15853997904462511 0.43123143050357249 0 -0.1630391683746038 0.41730449596703278 0 -0.16608589512176719 0.40485020580434528 0 -0.18194940933250461 0.41266432501185518 0 -0.1630391683746038 0.41730449596703278 0 -0.16608589512176719 0.40485020580434528 0 -0.14714242792223059 0.4081201203862157 0 -0.16608589512176719 0.40485020580434528 0 -0.1630391683746038 0.41730449596703278 0 -0.15349294578584871 0.41485988393648732 0 -0.16608589512176719 0.40485020580434528 0 -0.15349294578584871 0.41485988393648732 0 -0.14714242792223059 0.4081201203862157 0 -0.16608589512176719 0.40485020580434528 0 -0.14714242792223059 0.4081201203862157 0 -0.14719651193871419 0.40589184751008273 0 -0.1630391683746038 0.41730449596703278 0 -0.1468229272195305 0.42128361666557101 0 -0.1630391683746038 0.41730449596703278 0 -0.15349294578584871 0.41485988393648732 0 -0.1468229272195305 0.42128361666557101 0 -0.15349294578584871 0.41485988393648732 0 -0.1468229272195305 0.42128361666557101 0 -0.14714242792223059 0.4081201203862157 0 -0.1468229272195305 0.42128361666557101 0 -0.14714242792223059 0.4081201203862157 0 -0.14714242792223059 0.4081201203862157 0 -0.13510159256122539 0.41019854154904373 0 -0.1468229272195305 0.42128361666557101 0 -0.14714242792223059 0.4081201203862157 0 -0.13510159256122539 0.41019854154904373 0 -0.14714242792223059 0.4081201203862157 0 -0.13510159256122539 0.41019854154904373 0 -0.14719651193871419 0.40589184751008273 0 -0.14714242792223059 0.4081201203862157 0 -0.14719651193871419 0.40589184751008273 0 -0.15853997904462511 0.43123143050357249 0 -0.1630391683746038 0.41730449596703278 0 -0.1468229272195305 0.42128361666557101 0 -0.15853997904462511 0.43123143050357249 0 -0.1468229272195305 0.42128361666557101 0 -0.146439019215507 0.43710070733189937 0 -0.1468229272195305 0.42128361666557101 0 -0.146439019215507 0.43710070733189937 0 -0.1468229272195305 0.42128361666557101 0 -0.146439019215507 0.43710070733189937 0 -0.13570648494187609 0.43659223156763738 0 -0.1468229272195305 0.42128361666557101 0 -0.13570648494187609 0.43659223156763738 0 -0.12950504661076359 0.42553305625679289 0 -0.1468229272195305 0.42128361666557101 0 -0.12950504661076359 0.42553305625679289 0 -0.1468229272195305 0.42128361666557101 0 -0.12950504661076359 0.42553305625679289 0 -0.13510159256122539 0.41019854154904373 0 -0.12950504661076359 0.42553305625679289 0 -0.13510159256122539 0.41019854154904373 0 -0.13510159256122539 0.41019854154904373 0 -0.13077100787796689 0.39658257652763579 0 -0.1175693702509366 0.39793567162079307 0 -0.13510159256122539 0.41019854154904373 0 -0.140302007991116 0.39594942296734481 0 -0.13510159256122539 0.41019854154904373 0 -0.140302007991116 0.39594942296734481 0 -0.13077100787796689 0.39658257652763579 0 -0.13510159256122539 0.41019854154904373 0 -0.140302007991116 0.39594942296734481 0 -0.1428175936274311 0.40238700330287719 0 -0.140302007991116 0.39594942296734481 0 -0.13077100787796689 0.39658257652763579 0 -0.13597203479876291 0.38720906820877321 0 -0.12659301381147459 0.38522404464574589 0 -0.13669172089225151 0.37658899251749378 0 -0.12462324216014049 0.36934452617415259 0 -0.13077100787796689 0.39658257652763579 0 -0.12659301381147459 0.38522404464574589 0 -0.13597203479876291 0.38720906820877321 0 -0.13669172089225151 0.37658899251749378 0 -0.13597203479876291 0.38720906820877321 0 -0.14550242342100569 0.38170030438564567 0 -0.12659301381147459 0.38522404464574589 0 -0.13669172089225151 0.37658899251749378 0 -0.13597203479876291 0.38720906820877321 0 -0.140302007991116 0.39594942296734481 0 -0.13597203479876291 0.38720906820877321 0 -0.14550242342100569 0.38170030438564567 0 -0.140302007991116 0.39594942296734481 0 -0.14550242342100569 0.38170030438564567 0 -0.140302007991116 0.39594942296734481 0 -0.14550242342100569 0.38170030438564567 0 -0.15164121706477249 0.388353011104275 0 -0.13669172089225151 0.37658899251749378 0 -0.14550242342100569 0.38170030438564567 0 -0.14618567375954999 0.37201101112613438 0 -0.14550242342100569 0.38170030438564567 0 -0.15544476230911419 0.37611319220514161 0 -0.14618567375954999 0.37201101112613438 0 -0.14550242342100569 0.38170030438564567 0 -0.15544476230911419 0.37611319220514161 0 -0.15164121706477249 0.388353011104275 0 -0.16155338681996101 0.38494253697278458 0 -0.15544476230911419 0.37611319220514161 0 -0.15164121706477249 0.388353011104275 0 -0.15837445982876949 0.39390440890969552 0 -0.15164121706477249 0.388353011104275 0 -0.1486702620186687 0.39750820118503799 0 -0.16608589512176719 0.40485020580434528 0 -0.1486702620186687 0.39750820118503799 0 -0.14719651193871419 0.40589184751008273 0 -0.140302007991116 0.39594942296734481 0 -0.1486702620186687 0.39750820118503799 0 -0.1428175936274311 0.40238700330287719 0 -0.1486702620186687 0.39750820118503799 0 -0.1428175936274311 0.40238700330287719 0 -0.14719651193871419 0.40589184751008273 0 -0.13510159256122539 0.41019854154904373 0 -0.1428175936274311 0.40238700330287719 0 -0.14719651193871419 0.40589184751008273 0 -0.140302007991116 0.39594942296734481 0 -0.15164121706477249 0.388353011104275 0 -0.1486702620186687 0.39750820118503799 0 -0.15405299769264169 0.36208483926026042 0 -0.1513593375884292 0.33493397322430141 0 -0.14275745354060229 0.35127416006507978 0 -0.15405299769264169 0.36208483926026042 0 -0.1513593375884292 0.33493397322430141 0 -0.14275745354060229 0.35127416006507978 0 -0.15405299769264169 0.36208483926026042 0 -0.139587877851581 0.36434312064610319 0 -0.15544476230911419 0.37611319220514161 0 -0.15405299769264169 0.36208483926026042 0 -0.14618567375954999 0.37201101112613438 0 -0.15544476230911419 0.37611319220514161 0 -0.15405299769264169 0.36208483926026042 0 -0.13669172089225151 0.37658899251749378 0 -0.14618567375954999 0.37201101112613438 0 -0.139587877851581 0.36434312064610319 0 -0.15405299769264169 0.36208483926026042 0 -0.14618567375954999 0.37201101112613438 0 -0.139587877851581 0.36434312064610319 0 -0.15405299769264169 0.36208483926026042 0 -0.139587877851581 0.36434312064610319 0 -0.139587877851581 0.36434312064610319 0 -0.13097663406413551 0.35371223839680349 0 -0.12462324216014049 0.36934452617415259 0 -0.13669172089225151 0.37658899251749378 0 -0.139587877851581 0.36434312064610319 0 -0.12462324216014049 0.36934452617415259 0 -0.14275745354060229 0.35127416006507978 0 -0.139587877851581 0.36434312064610319 0 -0.13097663406413551 0.35371223839680349 0 -0.14275745354060229 0.35127416006507978 0 -0.13097663406413551 0.35371223839680349 0 -0.137810420506224 0.34129662879793032 0 -0.13097663406413551 0.35371223839680349 0 -0.137810420506224 0.34129662879793032 0 -0.1232397301369533 0.33915051754084319 0 -0.1343162202128004 0.32947592114191088 0 -0.137810420506224 0.34129662879793032 0 -0.1232397301369533 0.33915051754084319 0 -0.1343162202128004 0.32947592114191088 0 -0.1244352321831298 0.32503444245508151 0 -0.1232397301369533 0.33915051754084319 0 -0.1343162202128004 0.32947592114191088 0 -0.137810420506224 0.34129662879793032 0 -0.142535399613403 0.33314914588368949 0 -0.1343162202128004 0.32947592114191088 0 -0.13021577893749831 0.31606201967521352 0 -0.1244352321831298 0.32503444245508151 0 -0.1343162202128004 0.32947592114191088 0 -0.13021577893749831 0.31606201967521352 0 -0.13992554866255241 0.31386201279311698 0 -0.1478807440303424 0.32590519785190442 0 -0.14866567748421669 0.30778310718834229 0 -0.1513593375884292 0.33493397322430141 0 -0.14866567748421669 0.30778310718834229 0 -0.1478807440303424 0.32590519785190442 0 -0.1513593375884292 0.33493397322430141 0 -0.14866567748421669 0.30778310718834229 0 -0.1513593375884292 0.33493397322430141 0 -0.16346574910228731 0.31452504128552999 0 -0.14866567748421669 0.30778310718834229 0 -0.13992554866255241 0.31386201279311698 0 -0.1478807440303424 0.32590519785190442 0 -0.14866567748421669 0.30778310718834229 0 -0.1343162202128004 0.32947592114191088 0 -0.13992554866255241 0.31386201279311698 0 -0.1478807440303424 0.32590519785190442 0 -0.14275745354060229 0.35127416006507978 0 -0.137810420506224 0.34129662879793032 0 -0.1513593375884292 0.33493397322430141 0 -0.137810420506224 0.34129662879793032 0 -0.142535399613403 0.33314914588368949 0 -0.1513593375884292 0.33493397322430141 0 -0.1343162202128004 0.32947592114191088 0 -0.1478807440303424 0.32590519785190442 0 -0.142535399613403 0.33314914588368949 0 -0.1478807440303424 0.32590519785190442 0 -0.142535399613403 0.33314914588368949 0 -0.1513593375884292 0.33493397322430141 0 -0.1513593375884292 0.33493397322430141 0 -0.1755985250100727 0.3253551633551236 0 -0.16735656739380211 0.34476260768730688 0 -0.1513593375884292 0.33493397322430141 0 -0.16346574910228731 0.31452504128552999 0 -0.1755985250100727 0.3253551633551236 0 -0.16346574910228731 0.31452504128552999 0 -0.1755985250100727 0.3253551633551236 0 -0.17040229317056729 0.29981517549213638 0 -0.1755985250100727 0.3253551633551236 0 -0.18172053862308429 0.34247636170197387 0 -0.16735656739380211 0.34476260768730688 0 -0.1755985250100727 0.3253551633551236 0 -0.18172053862308429 0.34247636170197387 0 -0.20281383033999081 0.32874231348044641 0 -0.18172053862308429 0.34247636170197387 0 -0.17405143805478279 0.35896270089487498 0 -0.1940498784169237 0.35584056252948848 0 -0.18172053862308429 0.34247636170197387 0 -0.17405143805478279 0.35896270089487498 0 -0.16735656739380211 0.34476260768730688 0 -0.17405143805478279 0.35896270089487498 0 -0.1940498784169237 0.35584056252948848 0 -0.15405299769264169 0.36208483926026042 0 -0.17405143805478279 0.35896270089487498 0 -0.16735656739380211 0.34476260768730688 0 -0.15405299769264169 0.36208483926026042 0 -0.1513593375884292 0.33493397322430141 0 -0.16735656739380211 0.34476260768730688 0 -0.15405299769264169 0.36208483926026042 0 -0.17405143805478279 0.35896270089487498 0 -0.167653910229348 0.37269928504755429 0 -0.15405299769264169 0.36208483926026042 0 -0.17405143805478279 0.35896270089487498 0 -0.15544476230911419 0.37611319220514161 0 -0.15405299769264169 0.36208483926026042 0 -0.167653910229348 0.37269928504755429 0 -0.17405143805478279 0.35896270089487498 0 -0.167653910229348 0.37269928504755429 0 -0.18364924308998329 0.37395600291350078 0 -0.17405143805478279 0.35896270089487498 0 -0.18364924308998329 0.37395600291350078 0 -0.1940498784169237 0.35584056252948848 0 -0.18364924308998329 0.37395600291350078 0 -0.19846074354157431 0.37082220723727588 0 -0.1940498784169237 0.35584056252948848 0 -0.19846074354157431 0.37082220723727588 0 -0.1940498784169237 0.35584056252948848 0 -0.20373048848521341 0.36113055844511432 0 -0.1940498784169237 0.35584056252948848 0 -0.2140483187790648 0.35271842416410298 0 -0.21723279867320661 0.35222126605220588 0 -0.2140483187790648 0.35271842416410298 0 -0.20281383033999081 0.32874231348044641 0 -0.1940498784169237 0.35584056252948848 0 -0.2140483187790648 0.35271842416410298 0 -0.20281383033999081 0.32874231348044641 0 -0.1940498784169237 0.35584056252948848 0 -0.2140483187790648 0.35271842416410298 0 -0.20373048848521341 0.36113055844511432 0 -0.2140483187790648 0.35271842416410298 0 -0.20373048848521341 0.36113055844511432 0 -0.21109863041911489 0.35985085339807732 0 -0.21598830428278271 0.35685864892059532 0 -0.2140483187790648 0.35271842416410298 0 -0.21109863041911489 0.35985085339807732 0 -0.21598830428278271 0.35685864892059532 0 -0.21723279867320661 0.35222126605220588 0 -0.2140483187790648 0.35271842416410298 0 -0.21598830428278271 0.35685864892059532 0 -0.2140483187790648 0.35271842416410298 0 -0.21598830428278271 0.35685864892059532 0 -0.21723279867320661 0.35222126605220588 0 -0.21723279867320661 0.35222126605220588 0 -0.2140483187790648 0.35271842416410298 0 -0.2101948194640382 0.38622064860611333 0 -0.19846074354157431 0.37082220723727588 0 -0.21343313363808131 0.36638002938218489 0 -0.2101948194640382 0.38622064860611333 0 -0.22401490550036149 0.37398863932913412 0 -0.21952998863767309 0.36441714315555068 0 -0.2101948194640382 0.38622064860611333 0 -0.21343313363808131 0.36638002938218489 0 -0.21952998863767309 0.36441714315555068 0 -0.19846074354157431 0.37082220723727588 0 -0.20373048848521341 0.36113055844511432 0 -0.21343313363808131 0.36638002938218489 0 -0.20373048848521341 0.36113055844511432 0 -0.21343313363808131 0.36638002938218489 0 -0.21109863041911489 0.35985085339807732 0 -0.21598830428278271 0.35685864892059532 0 -0.21343313363808131 0.36638002938218489 0 -0.21109863041911489 0.35985085339807732 0 -0.21598830428278271 0.35685864892059532 0 -0.21343313363808131 0.36638002938218489 0 -0.21598830428278271 0.35685864892059532 0 -0.21343313363808131 0.36638002938218489 0 -0.21952998863767309 0.36441714315555068 0 -0.21598830428278271 0.35685864892059532 0 -0.21952998863767309 0.36441714315555068 0 -0.22401490550036149 0.37398863932913412 0 -0.21952998863767309 0.36441714315555068 0 -0.22345625808900099 0.36749438857966249 0 -0.21952998863767309 0.36441714315555068 0 -0.2253487583362718 0.35086128214082879 0 -0.22345625808900099 0.36749438857966249 0 -0.22401490550036149 0.37398863932913412 0 -0.21952998863767309 0.36441714315555068 0 -0.22345625808900099 0.36749438857966249 0 -0.2341183263246204 0.36099820761576928 0 -0.2253487583362718 0.35086128214082879 0 -0.22401490550036149 0.37398863932913412 0 -0.22800111999315559 0.37451397408653092 0 -0.23378923492375231 0.37113612887102598 0 -0.22401490550036149 0.37398863932913412 0 -0.23378923492375231 0.37113612887102598 0 -0.2341183263246204 0.36099820761576928 0 -0.22401490550036149 0.37398863932913412 0 -0.2341183263246204 0.36099820761576928 0 -0.22345625808900099 0.36749438857966249 0 -0.22401490550036149 0.37398863932913412 0 -0.2341183263246204 0.36099820761576928 0 -0.230965774564207 0.37766222826706541 0 -0.22800111999315559 0.37451397408653092 0 -0.23378923492375231 0.37113612887102598 0 -0.22345625808900099 0.36749438857966249 0 -0.2253487583362718 0.35086128214082879 0 -0.21952998863767309 0.36441714315555068 0 -0.2253487583362718 0.35086128214082879 0 -0.21598830428278271 0.35685864892059532 0 -0.21952998863767309 0.36441714315555068 0 -0.2253487583362718 0.35086128214082879 0 -0.21598830428278271 0.35685864892059532 0 -0.21723279867320661 0.35222126605220588 0 -0.2253487583362718 0.35086128214082879 0 -0.21723279867320661 0.35222126605220588 0 -0.2253487583362718 0.35086128214082879 0 -0.2253487583362718 0.35086128214082879 0 -0.24422174714887759 0.34800777590240312 0 -0.2341183263246204 0.36099820761576928 0 -0.24422174714887759 0.34800777590240312 0 -0.2341183263246204 0.36099820761576928 0 -0.2253487583362718 0.35086128214082879 0 -0.24422174714887759 0.34800777590240312 0 -0.25725342086349429 0.36379921038812352 0 -0.2341183263246204 0.36099820761576928 0 -0.24422174714887759 0.34800777590240312 0 -0.25725342086349429 0.36379921038812352 0 -0.2341183263246204 0.36099820761576928 0 -0.2442082678964814 0.37262070377402617 0 -0.23700381096243639 0.3804407626387295 0 -0.23378923492375231 0.37113612887102598 0 -0.2442082678964814 0.37262070377402617 0 -0.23378923492375231 0.37113612887102598 0 -0.2341183263246204 0.36099820761576928 0 -0.2442082678964814 0.37262070377402617 0 -0.2344708251244868 0.32952087039209049 0 -0.24356614604072441 0.30827756183675292 0 -0.2344708251244868 0.32952087039209049 0 -0.22826937809978209 0.32553806731479812 0 -0.24356614604072441 0.30827756183675292 0 -0.246671979534308 0.32217605895836432 0 -0.2344708251244868 0.32952087039209049 0 -0.24356614604072441 0.30827756183675292 0 -0.25595293990110329 0.31350521008588639 0 -0.246671979534308 0.32217605895836432 0 -0.24356614604072441 0.30827756183675292 0 -0.24422174714887759 0.34800777590240312 0 -0.246671979534308 0.32217605895836432 0 -0.2344708251244868 0.32952087039209049 0 -0.2253487583362718 0.35086128214082879 0 -0.24422174714887759 0.34800777590240312 0 -0.2344708251244868 0.32952087039209049 0 -0.2253487583362718 0.35086128214082879 0 -0.2344708251244868 0.32952087039209049 0 -0.21723279867320661 0.35222126605220588 0 -0.22419802533226121 0.32626661086718689 0 -0.2253487583362718 0.35086128214082879 0 -0.2344708251244868 0.32952087039209049 0 -0.22826937809978209 0.32553806731479812 0 -0.2253487583362718 0.35086128214082879 0 -0.22826937809978209 0.32553806731479812 0 -0.22419802533226121 0.32626661086718689 0 -0.2253487583362718 0.35086128214082879 0 -0.22826937809978209 0.32553806731479812 0 -0.21723279867320661 0.35222126605220588 0 -0.2253487583362718 0.35086128214082879 0 -0.22419802533226121 0.32626661086718689 0 -0.22826937809978209 0.32553806731479812 0 -0.22419802533226121 0.32626661086718689 0 -0.2311632519913164 0.30031195568216812 0 -0.22826937809978209 0.32553806731479812 0 -0.2311632519913164 0.30031195568216812 0 -0.22419802533226121 0.32626661086718689 0 -0.2311632519913164 0.30031195568216812 0 -0.22419802533226121 0.32626661086718689 0 -0.20281383033999081 0.32874231348044641 0 -0.20743926064839791 0.30847412696356818 0 -0.21723279867320661 0.35222126605220588 0 -0.22419802533226121 0.32626661086718689 0 -0.20281383033999081 0.32874231348044641 0 -0.2140483187790648 0.35271842416410298 0 -0.20281383033999081 0.32874231348044641 0 -0.18172053862308429 0.34247636170197387 0 -0.1940498784169237 0.35584056252948848 0 -0.20281383033999081 0.32874231348044641 0 -0.1755985250100727 0.3253551633551236 0 -0.20281383033999081 0.32874231348044641 0 -0.19157934190091919 0.30476620279678851 0 -0.20281383033999081 0.32874231348044641 0 -0.19157934190091919 0.30476620279678851 0 -0.20743926064839791 0.30847412696356818 0 -0.20281383033999081 0.32874231348044641 0 -0.19157934190091919 0.30476620279678851 0 -0.19157934190091919 0.30476620279678851 0 -0.20087102652310229 0.29447167765284432 0 -0.20743926064839791 0.30847412696356818 0 -0.19157934190091919 0.30476620279678851 0 -0.20743926064839791 0.30847412696356818 0 -0.19157934190091919 0.30476620279678851 0 -0.1843448074527835 0.28932660360061913 0 -0.1933045744817555 0.28129970231364781 0 -0.20087102652310229 0.29447167765284432 0 -0.1843448074527835 0.28932660360061913 0 -0.19157934190091919 0.30476620279678851 0 -0.20087102652310229 0.29447167765284432 0 -0.1843448074527835 0.28932660360061913 0 -0.1933045744817555 0.28129970231364781 0 -0.20087102652310229 0.29447167765284432 0 -0.2070969335201025 0.2838164247183893 0 -0.20087102652310229 0.29447167765284432 0 -0.2070969335201025 0.2838164247183893 0 -0.21766277976885209 0.29035483546213708 0 -0.2070969335201025 0.2838164247183893 0 -0.21766277976885209 0.29035483546213708 0 -0.2176951531824281 0.27644324978368162 0 -0.20087102652310229 0.29447167765284432 0 -0.21766277976885209 0.29035483546213708 0 -0.20743926064839791 0.30847412696356818 0 -0.22419802533226121 0.32626661086718689 0 -0.20743926064839791 0.30847412696356818 0 -0.2311632519913164 0.30031195568216812 0 -0.21766277976885209 0.29035483546213708 0 -0.20743926064839791 0.30847412696356818 0 -0.2311632519913164 0.30031195568216812 0 -0.22826937809978209 0.32553806731479812 0 -0.2311632519913164 0.30031195568216812 0 -0.24356614604072441 0.30827756183675292 0 -0.2311632519913164 0.30031195568216812 0 -0.23401218678737359 0.27547758145125562 0 -0.21766277976885209 0.29035483546213708 0 -0.2311632519913164 0.30031195568216812 0 -0.23401218678737359 0.27547758145125562 0 -0.2311632519913164 0.30031195568216812 0 -0.23783196023282349 0.27546222265692921 0 -0.23401218678737359 0.27547758145125562 0 -0.25122309601210258 0.27942317933746003 0 -0.245582950100875 0.29215201495476367 0 -0.23783196023282349 0.27546222265692921 0 -0.2311632519913164 0.30031195568216812 0 -0.23783196023282349 0.27546222265692921 0 -0.2311632519913164 0.30031195568216812 0 -0.245582950100875 0.29215201495476367 0 -0.23783196023282349 0.27546222265692921 0 -0.2311632519913164 0.30031195568216812 0 -0.245582950100875 0.29215201495476367 0 -0.24356614604072441 0.30827756183675292 0 -0.25660960943133931 0.30072108799623809 0 -0.245582950100875 0.29215201495476367 0 -0.24356614604072441 0.30827756183675292 0 -0.24450066847433061 0.25061248963169042 0 -0.24730309104467699 0.26468422990567603 0 -0.23783196023282349 0.27546222265692921 0 -0.24450066847433061 0.25061248963169042 0 -0.23783196023282349 0.27546222265692921 0 -0.23690535836551499 0.25025759193612213 0 -0.24450066847433061 0.25061248963169042 0 -0.23783196023282349 0.27546222265692921 0 -0.23690535836551499 0.25025759193612213 0 -0.23401218678737359 0.27547758145125562 0 -0.23690535836551499 0.25025759193612213 0 -0.24450066847433061 0.25061248963169042 0 -0.24450066847433061 0.25061248963169042 0 -0.24892296451055959 0.25749518922113729 0 -0.24730309104467699 0.26468422990567603 0 -0.25140546773907307 0.25093512258706863 0 -0.24450066847433061 0.25061248963169042 0 -0.25140546773907307 0.25093512258706863 0 -0.24450066847433061 0.25061248963169042 0 -0.24892296451055959 0.25749518922113729 0 -0.25122309601210258 0.27942317933746003 0 -0.24730309104467699 0.26468422990567603 0 -0.23783196023282349 0.27546222265692921 0 -0.23690535836551499 0.25025759193612213 0 -0.23783196023282349 0.27546222265692921 0 -0.23401218678737359 0.27547758145125562 0 -0.23401218678737359 0.27547758145125562 0 -0.2214179754949675 0.26727746481113202 0 -0.22892591834874909 0.2613479634553601 0 -0.23401218678737359 0.27547758145125562 0 -0.2214179754949675 0.26727746481113202 0 -0.2176951531824281 0.27644324978368162 0 -0.21766277976885209 0.29035483546213708 0 -0.23401218678737359 0.27547758145125562 0 -0.2176951531824281 0.27644324978368162 0 -0.2214179754949675 0.26727746481113202 0 -0.22892591834874909 0.2613479634553601 0 -0.22445184759809031 0.25668980374679851 0 -0.23690535836551499 0.25025759193612213 0 -0.23401218678737359 0.27547758145125562 0 -0.22892591834874909 0.2613479634553601 0 -0.2214179754949675 0.26727746481113202 0 -0.22445184759809031 0.25668980374679851 0 -0.21142962932073031 0.26303506616066968 0 -0.22892591834874909 0.2613479634553601 0 -0.22788646027988141 0.25665176004727092 0 -0.22445184759809031 0.25668980374679851 0 -0.23690535836551499 0.25025759193612213 0 -0.22892591834874909 0.2613479634553601 0 -0.22788646027988141 0.25665176004727092 0 -0.23690535836551499 0.25025759193612213 0 -0.22806177081000509 0.2498443673542364 0 -0.23690535836551499 0.25025759193612213 0 -0.22788646027988141 0.25665176004727092 0 -0.22445184759809031 0.25668980374679851 0 -0.23690535836551499 0.25025759193612213 0 -0.22445184759809031 0.25668980374679851 0 -0.22806177081000509 0.2498443673542364 0 -0.23690535836551499 0.25025759193612213 0 -0.22445184759809031 0.25668980374679851 0 -0.22445184759809031 0.25668980374679851 0 -0.21438648384203371 0.25680129337018381 0 -0.21438648384203371 0.25680129337018381 0 -0.22806177081000509 0.2498443673542364 0 -0.22445184759809031 0.25668980374679851 0 -0.21438648384203371 0.25680129337018381 0 -0.22806177081000509 0.2498443673542364 0 -0.22788646027988141 0.25665176004727092 0 -0.22445184759809031 0.25668980374679851 0 -0.21438648384203371 0.25680129337018381 0 -0.21009776166470179 0.25898306278829708 0 -0.19320545552002091 0.25703590633875412 0 -0.21438648384203371 0.25680129337018381 0 -0.19320545552002091 0.25703590633875412 0 -0.21438648384203371 0.25680129337018381 0 -0.22806177081000509 0.2498443673542364 0 -0.20248468331903779 0.24864925493883061 0 -0.21438648384203371 0.25680129337018381 0 -0.19320545552002091 0.25703590633875412 0 -0.20248468331903779 0.24864925493883061 0 -0.22445184759809031 0.25668980374679851 0 -0.21142962932073031 0.26303506616066968 0 -0.22445184759809031 0.25668980374679851 0 -0.21438648384203371 0.25680129337018381 0 -0.21142962932073031 0.26303506616066968 0 -0.21438648384203371 0.25680129337018381 0 -0.21009776166470179 0.25898306278829708 0 -0.21438648384203371 0.25680129337018381 0 -0.21142962932073031 0.26303506616066968 0 -0.21009776166470179 0.25898306278829708 0 -0.21142962932073031 0.26303506616066968 0 -0.21009776166470179 0.25898306278829708 0 -0.20225649345588709 0.2638053275065943 0 -0.2070969335201025 0.2838164247183893 0 -0.2176951531824281 0.27644324978368162 0 -0.2087601320737579 0.27261811847183143 0 -0.21142962932073031 0.26303506616066968 0 -0.21482572251797091 0.26984347480682869 0 -0.2087601320737579 0.27261811847183143 0 -0.2214179754949675 0.26727746481113202 0 -0.21142962932073031 0.26303506616066968 0 -0.21482572251797091 0.26984347480682869 0 -0.2214179754949675 0.26727746481113202 0 -0.2176951531824281 0.27644324978368162 0 -0.21482572251797091 0.26984347480682869 0 -0.2176951531824281 0.27644324978368162 0 -0.21482572251797091 0.26984347480682869 0 -0.2087601320737579 0.27261811847183143 0 -0.21142962932073031 0.26303506616066968 0 -0.2087601320737579 0.27261811847183143 0 -0.20225649345588709 0.2638053275065943 0 -0.2087601320737579 0.27261811847183143 0 -0.19897521431004969 0.27296399912237718 0 -0.20225649345588709 0.2638053275065943 0 -0.2070969335201025 0.2838164247183893 0 -0.2087601320737579 0.27261811847183143 0 -0.19897521431004969 0.27296399912237718 0 -0.1933045744817555 0.28129970231364781 0 -0.2070969335201025 0.2838164247183893 0 -0.19897521431004969 0.27296399912237718 0 -0.19897521431004969 0.27296399912237718 0 -0.20225649345588709 0.2638053275065943 0 -0.1872653093820785 0.26747436359343901 0 -0.1933045744817555 0.28129970231364781 0 -0.19897521431004969 0.27296399912237718 0 -0.1872653093820785 0.26747436359343901 0 -0.19320545552002091 0.25703590633875412 0 -0.20248468331903779 0.24864925493883061 0 -0.17690759582807039 0.24745414252342521 0 -0.21009776166470179 0.25898306278829708 0 -0.20225649345588709 0.2638053275065943 0 -0.19320545552002091 0.25703590633875412 0 -0.20225649345588709 0.2638053275065943 0 -0.19320545552002091 0.25703590633875412 0 -0.1872653093820785 0.26747436359343901 0 -0.19320545552002091 0.25703590633875412 0 -0.17202442719800809 0.2572705193073242 0 -0.1872653093820785 0.26747436359343901 0 -0.19320545552002091 0.25703590633875412 0 -0.17202442719800809 0.2572705193073242 0 -0.19320545552002091 0.25703590633875412 0 -0.17202442719800809 0.2572705193073242 0 -0.17690759582807039 0.24745414252342521 0 -0.17202442719800809 0.2572705193073242 0 -0.15084339887599529 0.25750513227589428 0 -0.17202442719800809 0.2572705193073242 0 -0.16277648255979421 0.25212220605366592 0 -0.15084339887599529 0.25750513227589428 0 -0.17202442719800809 0.2572705193073242 0 -0.16277648255979421 0.25212220605366592 0 -0.17690759582807039 0.24745414252342521 0 -0.17202442719800809 0.2572705193073242 0 -0.16287625101082501 0.26985394442321131 0 -0.15084339887599529 0.25750513227589428 0 -0.17202442719800809 0.2572705193073242 0 -0.16287625101082501 0.26985394442321131 0 -0.17711027300464741 0.27388700440445007 0 -0.16287625101082501 0.26985394442321131 0 -0.16436883431736629 0.2844224258966993 0 -0.1500343216581079 0.27618464023168898 0 -0.16287625101082501 0.26985394442321131 0 -0.17711027300464741 0.27388700440445007 0 -0.16436883431736629 0.2844224258966993 0 -0.1933045744817555 0.28129970231364781 0 -0.17711027300464741 0.27388700440445007 0 -0.1872653093820785 0.26747436359343901 0 -0.17202442719800809 0.2572705193073242 0 -0.17711027300464741 0.27388700440445007 0 -0.1872653093820785 0.26747436359343901 0 -0.17711027300464741 0.27388700440445007 0 -0.1843448074527835 0.28932660360061913 0 -0.17711027300464741 0.27388700440445007 0 -0.1843448074527835 0.28932660360061913 0 -0.16436883431736629 0.2844224258966993 0 -0.1843448074527835 0.28932660360061913 0 -0.17040229317056729 0.29981517549213638 0 -0.16436883431736629 0.2844224258966993 0 -0.1933045744817555 0.28129970231364781 0 -0.17711027300464741 0.27388700440445007 0 -0.1843448074527835 0.28932660360061913 0 -0.19157934190091919 0.30476620279678851 0 -0.1843448074527835 0.28932660360061913 0 -0.17040229317056729 0.29981517549213638 0 -0.1755985250100727 0.3253551633551236 0 -0.19157934190091919 0.30476620279678851 0 -0.17040229317056729 0.29981517549213638 0 -0.19157934190091919 0.30476620279678851 0 -0.17040229317056729 0.29981517549213638 0 -0.16346574910228731 0.31452504128552999 0 -0.17040229317056729 0.29981517549213638 0 -0.14866567748421669 0.30778310718834229 0 -0.17040229317056729 0.29981517549213638 0 -0.1492252444402157 0.29486414818748352 0 -0.17040229317056729 0.29981517549213638 0 -0.16436883431736629 0.2844224258966993 0 -0.1492252444402157 0.29486414818748352 0 -0.1492252444402157 0.29486414818748352 0 -0.1500343216581079 0.27618464023168898 0 -0.16436883431736629 0.2844224258966993 0 -0.1492252444402157 0.29486414818748352 0 -0.1500343216581079 0.27618464023168898 0 -0.1492252444402157 0.29486414818748352 0 -0.1464878379306648 0.28583147718356322 0 -0.1500343216581079 0.27618464023168898 0 -0.1492252444402157 0.29486414818748352 0 -0.14734025497935549 0.29442345248864021 0 -0.1464878379306648 0.28583147718356322 0 -0.14734025497935549 0.29442345248864021 0 -0.1464878379306648 0.28583147718356322 0 -0.1492252444402157 0.29486414818748352 0 -0.14734025497935549 0.29442345248864021 0 -0.17040229317056729 0.29981517549213638 0 -0.1492252444402157 0.29486414818748352 0 -0.14866567748421669 0.30778310718834229 0 -0.1492252444402157 0.29486414818748352 0 -0.14866567748421669 0.30778310718834229 0 -0.14734025497935549 0.29442345248864021 0 -0.14866567748421669 0.30778310718834229 0 -0.14734025497935549 0.29442345248864021 0 -0.14866567748421669 0.30778310718834229 0 -0.14292797362512349 0.3037420179539167 0 -0.1492252444402157 0.29486414818748352 0 -0.14734025497935549 0.29442345248864021 0 -0.14866567748421669 0.30778310718834229 0 -0.14734025497935549 0.29442345248864021 0 -0.14292797362512349 0.3037420179539167 0 -0.13515770487027379 0.30237766895049001 0 -0.13992554866255241 0.31386201279311698 0 -0.14866567748421669 0.30778310718834229 0 -0.14292797362512349 0.3037420179539167 0 -0.13515770487027379 0.30237766895049001 0 -0.12738362363888839 0.28975774916360841 0 -0.1211343371126674 0.30544765152678383 0 -0.13021577893749831 0.31606201967521352 0 -0.13992554866255241 0.31386201279311698 0 -0.13515770487027379 0.30237766895049001 0 -0.13992554866255241 0.31386201279311698 0 -0.14292797362512349 0.3037420179539167 0 -0.13515770487027379 0.30237766895049001 0 -0.13021577893749831 0.31606201967521352 0 -0.13515770487027379 0.30237766895049001 0 -0.1211343371126674 0.30544765152678383 0 -0.14734025497935549 0.29442345248864021 0 -0.1464878379306648 0.28583147718356322 0 -0.12738362363888839 0.28975774916360841 0 -0.14734025497935549 0.29442345248864021 0 -0.12738362363888839 0.28975774916360841 0 -0.1464878379306648 0.28583147718356322 0 -0.12738362363888839 0.28975774916360841 0 -0.13938817004281631 0.27840951556942789 0 -0.14734025497935549 0.29442345248864021 0 -0.13515770487027379 0.30237766895049001 0 -0.12738362363888839 0.28975774916360841 0 -0.12738362363888839 0.28975774916360841 0 -0.13938817004281631 0.27840951556942789 0 -0.13114989157589721 0.27302427432310628 0 -0.12738362363888839 0.28975774916360841 0 -0.13114989157589721 0.27302427432310628 0 -0.1189326301054425 0.27704890649179681 0 -0.13938817004281631 0.27840951556942789 0 -0.13114989157589721 0.27302427432310628 0 -0.14188517541052309 0.26724943694517278 0 -0.13114989157589721 0.27302427432310628 0 -0.13365121867661889 0.26135425728427691 0 -0.14188517541052309 0.26724943694517278 0 -0.13114989157589721 0.27302427432310628 0 -0.13365121867661889 0.26135425728427691 0 -0.1246297844750367 0.26425648588607281 0 -0.13365121867661889 0.26135425728427691 0 -0.1445311920961754 0.25757504982419871 0 -0.12720216381787719 0.24513161151087551 0 -0.13365121867661889 0.26135425728427691 0 -0.1246297844750367 0.26425648588607281 0 -0.12720216381787719 0.24513161151087551 0 -0.13365121867661889 0.26135425728427691 0 -0.1445311920961754 0.25757504982419871 0 -0.14188517541052309 0.26724943694517278 0 -0.1445311920961754 0.25757504982419871 0 -0.15084339887599529 0.25750513227589428 0 -0.14188517541052309 0.26724943694517278 0 -0.1445311920961754 0.25757504982419871 0 -0.15084339887599529 0.25750513227589428 0 -0.15084339887599529 0.25750513227589428 0 -0.1513305083371031 0.24625903010801989 0 -0.16277648255979421 0.25212220605366592 0 -0.15084339887599529 0.25750513227589428 0 -0.1513305083371031 0.24625903010801989 0 -0.1445311920961754 0.25757504982419871 0 -0.15084339887599529 0.25750513227589428 0 -0.1513305083371031 0.24625903010801989 0 -0.15084339887599529 0.25750513227589428 0 -0.1500343216581079 0.27618464023168898 0 -0.14188517541052309 0.26724943694517278 0 -0.15084339887599529 0.25750513227589428 0 -0.1500343216581079 0.27618464023168898 0 -0.16287625101082501 0.26985394442321131 0 -0.15084339887599529 0.25750513227589428 0 -0.1500343216581079 0.27618464023168898 0 -0.1464878379306648 0.28583147718356322 0 -0.13938817004281631 0.27840951556942789 0 -0.1500343216581079 0.27618464023168898 0 -0.13938817004281631 0.27840951556942789 0 -0.1500343216581079 0.27618464023168898 0 -0.14188517541052309 0.26724943694517278 0 -0.10844804583975221 0.27522717741926322 0 -0.088970961120243344 0.26236863416268391 0 -0.10844804583975221 0.27522717741926322 0 -0.092970470385061024 0.27253327958290102 0 -0.088970961120243344 0.26236863416268391 0 -0.10844804583975221 0.27522717741926322 0 -0.1122130181993477 0.26472337982030841 0 -0.107426992298421 0.28509204583857778 0 -0.10844804583975221 0.27522717741926322 0 -0.1008513608980086 0.25749881238103101 0 -0.1122130181993477 0.26472337982030841 0 -0.10844804583975221 0.27522717741926322 0 -0.102887388289118 0.27711267148164598 0 -0.107426992298421 0.28509204583857778 0 -0.102887388289118 0.27711267148164598 0 -0.1022376553396344 0.28387881970385359 0 -0.102887388289118 0.27711267148164598 0 -0.096175392843300497 0.27820356524047007 0 -0.092970470385061024 0.27253327958290102 0 -0.10844804583975221 0.27522717741926322 0 -0.102887388289118 0.27711267148164598 0 -0.092970470385061024 0.27253327958290102 0 -0.102887388289118 0.27711267148164598 0 -0.096175392843300497 0.27820356524047007 0 -0.097050137635925599 0.28266601889664661 0 -0.102887388289118 0.27711267148164598 0 -0.1022376553396344 0.28387881970385359 0 -0.097050137635925599 0.28266601889664661 0 -0.096175392843300497 0.27820356524047007 0 -0.097050137635925599 0.28266601889664661 0 -0.090441468600548025 0.28276349014914243 0 -0.1008513608980086 0.25749881238103101 0 -0.1122130181993477 0.26472337982030841 0 -0.10307381929865141 0.24400419291373121 0 -0.10844804583975221 0.27522717741926322 0 -0.1008513608980086 0.25749881238103101 0 -0.088970961120243344 0.26236863416268391 0 -0.1122130181993477 0.26472337982030841 0 -0.12720216381787719 0.24513161151087551 0 -0.10307381929865141 0.24400419291373121 0 -0.1122130181993477 0.26472337982030841 0 -0.1246297844750367 0.26425648588607281 0 -0.12720216381787719 0.24513161151087551 0 -0.1122130181993477 0.26472337982030841 0 -0.107426992298421 0.28509204583857778 0 -0.13114989157589721 0.27302427432310628 0 -0.1246297844750367 0.26425648588607281 0 -0.1189326301054425 0.27704890649179681 0 -0.1122130181993477 0.26472337982030841 0 -0.1246297844750367 0.26425648588607281 0 -0.1189326301054425 0.27704890649179681 0 -0.1122130181993477 0.26472337982030841 0 -0.1189326301054425 0.27704890649179681 0 -0.107426992298421 0.28509204583857778 0 -0.12738362363888839 0.28975774916360841 0 -0.1138750740146275 0.29629904098310322 0 -0.107426992298421 0.28509204583857778 0 -0.12738362363888839 0.28975774916360841 0 -0.1189326301054425 0.27704890649179681 0 -0.107426992298421 0.28509204583857778 0 -0.12738362363888839 0.28975774916360841 0 -0.107426992298421 0.28509204583857778 0 -0.12738362363888839 0.28975774916360841 0 -0.1138750740146275 0.29629904098310322 0 -0.1211343371126674 0.30544765152678383 0 -0.1138750740146275 0.29629904098310322 0 -0.1211343371126674 0.30544765152678383 0 -0.1121655589901239 0.30416134422471103 0 -0.1138750740146275 0.29629904098310322 0 -0.1121655589901239 0.30416134422471103 0 -0.1032723761466792 0.30277351906514688 0 -0.1211343371126674 0.30544765152678383 0 -0.1103804486865215 0.31212516532381013 0 -0.1197937912194852 0.31659621182745601 0 -0.1211343371126674 0.30544765152678383 0 -0.1121655589901239 0.30416134422471103 0 -0.1103804486865215 0.31212516532381013 0 -0.1004665053690568 0.30232311013763757 0 -0.099117759994941212 0.32045499229171698 0 -0.1032723761466792 0.30277351906514688 0 -0.1004665053690568 0.30232311013763757 0 -0.099117759994941212 0.32045499229171698 0 -0.1032723761466792 0.30277351906514688 0 -0.099117759994941212 0.32045499229171698 0 -0.1103804486865215 0.31212516532381013 0 -0.1032723761466792 0.30277351906514688 0 -0.099117759994941212 0.32045499229171698 0 -0.1121655589901239 0.30416134422471103 0 -0.1103804486865215 0.31212516532381013 0 -0.1032723761466792 0.30277351906514688 0 -0.1032723761466792 0.30277351906514688 0 -0.107426992298421 0.28509204583857778 0 -0.1004665053690568 0.30232311013763757 0 -0.1022376553396344 0.28387881970385359 0 -0.094827593664546447 0.29317771807168608 0 -0.1138750740146275 0.29629904098310322 0 -0.1032723761466792 0.30277351906514688 0 -0.107426992298421 0.28509204583857778 0 -0.1032723761466792 0.30277351906514688 0 -0.1004665053690568 0.30232311013763757 0 -0.107426992298421 0.28509204583857778 0 -0.1004665053690568 0.30232311013763757 0 -0.1022376553396344 0.28387881970385359 0 -0.1004665053690568 0.30232311013763757 0 -0.1022376553396344 0.28387881970385359 0 -0.107426992298421 0.28509204583857778 0 -0.102887388289118 0.27711267148164598 0 -0.1022376553396344 0.28387881970385359 0 -0.107426992298421 0.28509204583857778 0 -0.1022376553396344 0.28387881970385359 0 -0.107426992298421 0.28509204583857778 0 -0.1022376553396344 0.28387881970385359 0 -0.094827593664546447 0.29317771807168608 0 -0.097050137635925599 0.28266601889664661 0 -0.094827593664546447 0.29317771807168608 0 -0.097050137635925599 0.28266601889664661 0 -0.090441468600548025 0.28276349014914243 0 -0.1022376553396344 0.28387881970385359 0 -0.097050137635925599 0.28266601889664661 0 -0.090441468600548025 0.28276349014914243 0 -0.080854033029747668 0.2936881512357169 0 -0.079926117505613625 0.27772545733521831 0 -0.094827593664546447 0.29317771807168608 0 -0.090441468600548025 0.28276349014914243 0 -0.080854033029747668 0.2936881512357169 0 -0.094827593664546447 0.29317771807168608 0 -0.080854033029747668 0.2936881512357169 0 -0.085800767050803639 0.30363147122714512 0 -0.1004665053690568 0.30232311013763757 0 -0.085800767050803639 0.30363147122714512 0 -0.086598933128815336 0.31641157053674779 0 -0.1004665053690568 0.30232311013763757 0 -0.094827593664546447 0.29317771807168608 0 -0.085800767050803639 0.30363147122714512 0 -0.080854033029747668 0.2936881512357169 0 -0.085800767050803639 0.30363147122714512 0 -0.072021778604988013 0.30783943475303299 0 -0.085800767050803639 0.30363147122714512 0 -0.072021778604988013 0.30783943475303299 0 -0.086598933128815336 0.31641157053674779 0 -0.072021778604988013 0.30783943475303299 0 -0.059362736440197912 0.3018358350669032 0 -0.058254428102614567 0.31763937256924868 0 -0.080854033029747668 0.2936881512357169 0 -0.072021778604988013 0.30783943475303299 0 -0.067254136748796989 0.29111555014359852 0 -0.072021778604988013 0.30783943475303299 0 -0.067254136748796989 0.29111555014359852 0 -0.059362736440197912 0.3018358350669032 0 -0.080854033029747668 0.2936881512357169 0 -0.067254136748796989 0.29111555014359852 0 -0.079926117505613625 0.27772545733521831 0 -0.067254136748796989 0.29111555014359852 0 -0.079926117505613625 0.27772545733521831 0 -0.060744120332891199 0.27169210081246709 0 -0.079926117505613625 0.27772545733521831 0 -0.074194152076717867 0.26425976385017003 0 -0.060744120332891199 0.27169210081246709 0 -0.079926117505613625 0.27772545733521831 0 -0.088970961120243344 0.26236863416268391 0 -0.074194152076717867 0.26425976385017003 0 -0.079926117505613625 0.27772545733521831 0 -0.092970470385061024 0.27253327958290102 0 -0.088970961120243344 0.26236863416268391 0 -0.090441468600548025 0.28276349014914243 0 -0.079926117505613625 0.27772545733521831 0 -0.092970470385061024 0.27253327958290102 0 -0.096175392843300497 0.27820356524047007 0 -0.090441468600548025 0.28276349014914243 0 -0.092970470385061024 0.27253327958290102 0 -0.088970961120243344 0.26236863416268391 0 -0.069493876400734456 0.2495100909061044 0 -0.088970961120243344 0.26236863416268391 0 -0.069493876400734456 0.2495100909061044 0 -0.086087001270923794 0.2455565935372688 0 -0.1008513608980086 0.25749881238103101 0 -0.088970961120243344 0.26236863416268391 0 -0.086087001270923794 0.2455565935372688 0 -0.088970961120243344 0.26236863416268391 0 -0.074194152076717867 0.26425976385017003 0 -0.069493876400734456 0.2495100909061044 0 -0.074194152076717867 0.26425976385017003 0 -0.060744120332891199 0.27169210081246709 0 -0.069493876400734456 0.2495100909061044 0 -0.060744120332891199 0.27169210081246709 0 -0.039287439221070357 0.26265333993166201 0 -0.069493876400734456 0.2495100909061044 0 -0.060744120332891199 0.27169210081246709 0 -0.039287439221070357 0.26265333993166201 0 -0.051532386556420069 0.28673210654133402 0 -0.039287439221070357 0.26265333993166201 0 -0.02223365143547602 0.27315485295562292 0 -0.035292584645827817 0.28833963866488049 0 -0.039287439221070357 0.26265333993166201 0 -0.035292584645827817 0.28833963866488049 0 -0.039287439221070357 0.26265333993166201 0 -0.035292584645827817 0.28833963866488049 0 -0.051532386556420069 0.28673210654133402 0 -0.039287439221070357 0.26265333993166201 0 -0.02223365143547602 0.27315485295562292 0 -0.013878136972569651 0.25506506865170991 0 -0.039287439221070357 0.26265333993166201 0 -0.013878136972569651 0.25506506865170991 0 -0.030364495892239569 0.24424720113204029 0 -0.02223365143547602 0.27315485295562292 0 -0.0023781964551506012 0.27053295266141347 0 -0.013878136972569651 0.25506506865170991 0 -0.02223365143547602 0.27315485295562292 0 -0.0023781964551506012 0.27053295266141347 0 -0.01068642280188078 0.29359271381804808 0 -0.0023781964551506012 0.27053295266141347 0 -0.013878136972569651 0.25506506865170991 0 0.0059300298915795913 0.2474731915047787 0 -0.01068642280188078 0.29359271381804808 0 0.0046566270704093476 0.29792734629064599 0 0.00074909824214197077 0.31135674283283699 0 -0.01068642280188078 0.29359271381804808 0 -0.01899464914861099 0.31665247497468302 0 0.00074909824214197077 0.31135674283283699 0 -0.01068642280188078 0.29359271381804808 0 -0.01899464914861099 0.31665247497468302 0 -0.0023781964551506012 0.27053295266141347 0 -0.01068642280188078 0.29359271381804808 0 -0.0023781964551506012 0.27053295266141347 0 -0.01068642280188078 0.29359271381804808 0 0.01078622654400775 0.28395784613648639 0 -0.01068642280188078 0.29359271381804808 0 -0.022384800881053279 0.30240446301454482 0 -0.035292584645827817 0.28833963866488049 0 -0.02223365143547602 0.27315485295562292 0 -0.01068642280188078 0.29359271381804808 0 -0.035292584645827817 0.28833963866488049 0 -0.01068642280188078 0.29359271381804808 0 -0.022384800881053279 0.30240446301454482 0 -0.01899464914861099 0.31665247497468302 0 -0.022384800881053279 0.30240446301454482 0 -0.035292584645827817 0.28833963866488049 0 -0.031297730070585283 0.31402593739809898 0 -0.022384800881053279 0.30240446301454482 0 -0.031297730070585283 0.31402593739809898 0 -0.01899464914861099 0.31665247497468302 0 -0.046755651711302401 0.3036596379296847 0 -0.035292584645827817 0.28833963866488049 0 -0.031297730070585283 0.31402593739809898 0 -0.035292584645827817 0.28833963866488049 0 -0.031297730070585283 0.31402593739809898 0 -0.046755651711302401 0.3036596379296847 0 -0.044662863214644008 0.31760838200843899 0 -0.031297730070585283 0.31402593739809898 0 -0.046755651711302401 0.3036596379296847 0 -0.035292584645827817 0.28833963866488049 0 -0.051532386556420069 0.28673210654133402 0 -0.067254136748796989 0.29111555014359852 0 -0.051532386556420069 0.28673210654133402 0 -0.059362736440197912 0.3018358350669032 0 -0.067254136748796989 0.29111555014359852 0 -0.060744120332891199 0.27169210081246709 0 -0.051532386556420069 0.28673210654133402 0 -0.046755651711302401 0.3036596379296847 0 -0.051532386556420069 0.28673210654133402 0 -0.059362736440197912 0.3018358350669032 0 -0.046755651711302401 0.3036596379296847 0 -0.059362736440197912 0.3018358350669032 0 -0.058254428102614567 0.31763937256924868 0 -0.058254428102614567 0.31763937256924868 0 -0.04841450408678627 0.32896428510745429 0 -0.063032346187182939 0.3314023579119354 0 -0.058254428102614567 0.31763937256924868 0 -0.04841450408678627 0.32896428510745429 0 -0.044662863214644008 0.31760838200843899 0 -0.046755651711302401 0.3036596379296847 0 -0.058254428102614567 0.31763937256924868 0 -0.044662863214644008 0.31760838200843899 0 -0.051643810697235122 0.34181977411846692 0 -0.066684696537243071 0.34444232018829257 0 -0.063032346187182939 0.3314023579119354 0 -0.04841450408678627 0.32896428510745429 0 -0.051643810697235122 0.34181977411846692 0 -0.063032346187182939 0.3314023579119354 0 -0.04841450408678627 0.32896428510745429 0 -0.051643810697235122 0.34181977411846692 0 -0.041107417879915488 0.33712827566640408 0 -0.051643810697235122 0.34181977411846692 0 -0.041107417879915488 0.33712827566640408 0 -0.042537775686616507 0.35058990770119258 0 -0.04841450408678627 0.32896428510745429 0 -0.041107417879915488 0.33712827566640408 0 -0.03855707814945461 0.32748782326234283 0 -0.041107417879915488 0.33712827566640408 0 -0.03855707814945461 0.32748782326234283 0 -0.02730287549534199 0.33971223613131751 0 -0.041107417879915488 0.33712827566640408 0 -0.02730287549534199 0.33971223613131751 0 -0.042537775686616507 0.35058990770119258 0 -0.03855707814945461 0.32748782326234283 0 -0.031297730070585283 0.31402593739809898 0 -0.02730287549534199 0.33971223613131751 0 -0.04841450408678627 0.32896428510745429 0 -0.044662863214644008 0.31760838200843899 0 -0.03855707814945461 0.32748782326234283 0 -0.044662863214644008 0.31760838200843899 0 -0.03855707814945461 0.32748782326234283 0 -0.031297730070585283 0.31402593739809898 0 -0.031297730070585283 0.31402593739809898 0 -0.01899464914861099 0.31665247497468302 0 -0.02730287549534199 0.33971223613131751 0 -0.031297730070585283 0.31402593739809898 0 -0.02730287549534199 0.33971223613131751 0 -0.01899464914861099 0.31665247497468302 0 -0.02730287549534199 0.33971223613131751 0 -0.015180001305757111 0.33158673368278191 0 -0.01899464914861099 0.31665247497468302 0 -0.02730287549534199 0.33971223613131751 0 -0.02730287549534199 0.33971223613131751 0 -0.015180001305757111 0.33158673368278191 0 -0.01496163666124632 0.3449823112213139 0 -0.015180001305757111 0.33158673368278191 0 -0.0068475607353276728 0.33317156332306452 0 -0.00779328448825859 0.32341508276353031 0 -0.015180001305757111 0.33158673368278191 0 -0.0068475607353276728 0.33317156332306452 0 -0.01496163666124632 0.3449823112213139 0 -0.0068475607353276728 0.33317156332306452 0 -0.01496163666124632 0.3449823112213139 0 4.640653836696535e-05 0.34323421613825628 0 -0.0068475607353276728 0.33317156332306452 0 -0.00779328448825859 0.32341508276353031 0 0.0031760244529172579 0.32813079414463969 0 -0.0068475607353276728 0.33317156332306452 0 0.0031760244529172579 0.32813079414463969 0 4.640653836696535e-05 0.34323421613825628 0 -0.01899464914861099 0.31665247497468302 0 -0.00779328448825859 0.32341508276353031 0 0.00074909824214197077 0.31135674283283699 0 -0.00779328448825859 0.32341508276353031 0 0.0031760244529172579 0.32813079414463969 0 0.00074909824214197077 0.31135674283283699 0 -0.01899464914861099 0.31665247497468302 0 -0.015180001305757111 0.33158673368278191 0 -0.00779328448825859 0.32341508276353031 0 -0.01495427410789703 0.36360447902678861 0 -0.0031286704045364821 0.35648769551171489 0 0.0029446262186104211 0.37205306275199912 0 -0.01495427410789703 0.36360447902678861 0 -0.01065956962617068 0.37746357018814503 0 0.0029446262186104211 0.37205306275199912 0 -0.01495427410789703 0.36360447902678861 0 -0.0031286704045364821 0.35648769551171489 0 -0.01496163666124632 0.3449823112213139 0 -0.0031286704045364821 0.35648769551171489 0 -0.01496163666124632 0.3449823112213139 0 4.640653836696535e-05 0.34323421613825628 0 -0.01495427410789703 0.36360447902678861 0 -0.01496163666124632 0.3449823112213139 0 -0.02511941659961792 0.35375154004362208 0 -0.02730287549534199 0.33971223613131751 0 -0.02511941659961792 0.35375154004362208 0 -0.036934579690665457 0.36644535448972138 0 -0.02730287549534199 0.33971223613131751 0 -0.01496163666124632 0.3449823112213139 0 -0.02511941659961792 0.35375154004362208 0 -0.02730287549534199 0.33971223613131751 0 -0.02511941659961792 0.35375154004362208 0 -0.02511941659961792 0.35375154004362208 0 -0.02530599085646118 0.36491338789789912 0 -0.036934579690665457 0.36644535448972138 0 -0.01495427410789703 0.36360447902678861 0 -0.02511941659961792 0.35375154004362208 0 -0.02530599085646118 0.36491338789789912 0 -0.01495427410789703 0.36360447902678861 0 -0.02530599085646118 0.36491338789789912 0 -0.024215693027664419 0.37585217803146442 0 -0.01495427410789703 0.36360447902678861 0 -0.024215693027664419 0.37585217803146442 0 -0.01065956962617068 0.37746357018814503 0 -0.036934579690665457 0.36644535448972138 0 -0.024215693027664419 0.37585217803146442 0 -0.02530599085646118 0.36491338789789912 0 -0.036934579690665457 0.36644535448972138 0 -0.024215693027664419 0.37585217803146442 0 -0.036934579690665457 0.36644535448972138 0 -0.052504767557418543 0.35492972315695892 0 -0.036934579690665457 0.36644535448972138 0 -0.042537775686616507 0.35058990770119258 0 -0.052504767557418543 0.35492972315695892 0 -0.02730287549534199 0.33971223613131751 0 -0.036934579690665457 0.36644535448972138 0 -0.042537775686616507 0.35058990770119258 0 -0.02730287549534199 0.33971223613131751 0 -0.036934579690665457 0.36644535448972138 0 -0.052504767557418543 0.35492972315695892 0 -0.071329497819354132 0.36312636426998451 0 -0.051643810697235122 0.34181977411846692 0 -0.042537775686616507 0.35058990770119258 0 -0.052504767557418543 0.35492972315695892 0 -0.042537775686616507 0.35058990770119258 0 -0.052504767557418543 0.35492972315695892 0 -0.052504767557418543 0.35492972315695892 0 -0.066684696537243071 0.34444232018829257 0 -0.051643810697235122 0.34181977411846692 0 -0.052504767557418543 0.35492972315695892 0 -0.066684696537243071 0.34444232018829257 0 -0.052504767557418543 0.35492972315695892 0 -0.067371718265886352 0.35336969283113562 0 -0.066684696537243071 0.34444232018829257 0 -0.036934579690665457 0.36644535448972138 0 -0.052504767557418543 0.35492972315695892 0 -0.053860131593306812 0.37284157786980132 0 -0.052504767557418543 0.35492972315695892 0 -0.053860131593306812 0.37284157786980132 0 -0.071329497819354132 0.36312636426998451 0 -0.053860131593306812 0.37284157786980132 0 -0.071329497819354132 0.36312636426998451 0 -0.062864635981719666 0.389023476161236 0 -0.071329497819354132 0.36312636426998451 0 -0.087442717471849896 0.37014236273737849 0 -0.081954428187980891 0.35713003820300637 0 -0.071329497819354132 0.36312636426998451 0 -0.087442717471849896 0.37014236273737849 0 -0.075980803833167979 0.37859482368159197 0 -0.093692701562977612 0.37286372319483219 0 -0.087442717471849896 0.37014236273737849 0 -0.096073427838075209 0.34807146528858462 0 -0.071329497819354132 0.36312636426998451 0 -0.087442717471849896 0.37014236273737849 0 -0.093692701562977612 0.37286372319483219 0 -0.087442717471849896 0.37014236273737849 0 -0.092948435792508846 0.34671078505985742 0 -0.081954428187980891 0.35713003820300637 0 -0.076097061668210522 0.34854064074480562 0 -0.087442717471849896 0.37014236273737849 0 -0.092948435792508846 0.34671078505985742 0 -0.096073427838075209 0.34807146528858462 0 -0.087442717471849896 0.37014236273737849 0 -0.092948435792508846 0.34671078505985742 0 -0.087442717471849896 0.37014236273737849 0 -0.092948435792508846 0.34671078505985742 0 -0.081954428187980891 0.35713003820300637 0 -0.052504767557418543 0.35492972315695892 0 -0.071329497819354132 0.36312636426998451 0 -0.067371718265886352 0.35336969283113562 0 -0.071329497819354132 0.36312636426998451 0 -0.076097061668210522 0.34854064074480562 0 -0.067371718265886352 0.35336969283113562 0 -0.071329497819354132 0.36312636426998451 0 -0.081954428187980891 0.35713003820300637 0 -0.076097061668210522 0.34854064074480562 0 -0.071329497819354132 0.36312636426998451 0 -0.076097061668210522 0.34854064074480562 0 -0.076097061668210522 0.34854064074480562 0 -0.067371718265886352 0.35336969283113562 0 -0.066684696537243071 0.34444232018829257 0 -0.066684696537243071 0.34444232018829257 0 -0.063032346187182939 0.3314023579119354 0 -0.080864625517068439 0.33395491721962728 0 -0.063032346187182939 0.3314023579119354 0 -0.072332012182149963 0.32159347826852258 0 -0.080864625517068439 0.33395491721962728 0 -0.076097061668210522 0.34854064074480562 0 -0.066684696537243071 0.34444232018829257 0 -0.080864625517068439 0.33395491721962728 0 -0.066684696537243071 0.34444232018829257 0 -0.080864625517068439 0.33395491721962728 0 -0.072021778604988013 0.30783943475303299 0 -0.058254428102614567 0.31763937256924868 0 -0.072332012182149963 0.32159347826852258 0 -0.058254428102614567 0.31763937256924868 0 -0.063032346187182939 0.3314023579119354 0 -0.072332012182149963 0.32159347826852258 0 -0.072021778604988013 0.30783943475303299 0 -0.072332012182149963 0.32159347826852258 0 -0.086598933128815336 0.31641157053674779 0 -0.080864625517068439 0.33395491721962728 0 -0.099117759994941212 0.32045499229171698 0 -0.080864625517068439 0.33395491721962728 0 -0.098454154113170031 0.32327920738233679 0 -0.099117759994941212 0.32045499229171698 0 -0.086598933128815336 0.31641157053674779 0 -0.080864625517068439 0.33395491721962728 0 -0.099117759994941212 0.32045499229171698 0 -0.072332012182149963 0.32159347826852258 0 -0.086598933128815336 0.31641157053674779 0 -0.080864625517068439 0.33395491721962728 0 -0.086598933128815336 0.31641157053674779 0 -0.080864625517068439 0.33395491721962728 0 -0.092948435792508846 0.34671078505985742 0 -0.080864625517068439 0.33395491721962728 0 -0.098454154113170031 0.32327920738233679 0 -0.092948435792508846 0.34671078505985742 0 -0.076097061668210522 0.34854064074480562 0 -0.080864625517068439 0.33395491721962728 0 -0.076097061668210522 0.34854064074480562 0 -0.080864625517068439 0.33395491721962728 0 -0.092948435792508846 0.34671078505985742 0 -0.098454154113170031 0.32327920738233679 0 -0.096073427838075209 0.34807146528858462 0 -0.092948435792508846 0.34671078505985742 0 -0.098454154113170031 0.32327920738233679 0 -0.1087737048938536 0.33773291911964659 0 -0.098454154113170031 0.32327920738233679 0 -0.096073427838075209 0.34807146528858462 0 -0.098454154113170031 0.32327920738233679 0 -0.096073427838075209 0.34807146528858462 0 -0.1087737048938536 0.33773291911964659 0 -0.098454154113170031 0.32327920738233679 0 -0.1109956779463058 0.3247360182227978 0 -0.1004665053690568 0.30232311013763757 0 -0.086598933128815336 0.31641157053674779 0 -0.099117759994941212 0.32045499229171698 0 -0.098454154113170031 0.32327920738233679 0 -0.099117759994941212 0.32045499229171698 0 -0.098454154113170031 0.32327920738233679 0 -0.099117759994941212 0.32045499229171698 0 -0.1109956779463058 0.3247360182227978 0 -0.1103804486865215 0.31212516532381013 0 -0.099117759994941212 0.32045499229171698 0 -0.1103804486865215 0.31212516532381013 0 -0.099117759994941212 0.32045499229171698 0 -0.1109956779463058 0.3247360182227978 0 -0.1103804486865215 0.31212516532381013 0 -0.1109956779463058 0.3247360182227978 0 -0.1197937912194852 0.31659621182745601 0 -0.1109956779463058 0.3247360182227978 0 -0.1244352321831298 0.32503444245508151 0 -0.1197937912194852 0.31659621182745601 0 -0.13021577893749831 0.31606201967521352 0 -0.1244352321831298 0.32503444245508151 0 -0.1197937912194852 0.31659621182745601 0 -0.13021577893749831 0.31606201967521352 0 -0.1211343371126674 0.30544765152678383 0 -0.1197937912194852 0.31659621182745601 0 -0.1087737048938536 0.33773291911964659 0 -0.1232397301369533 0.33915051754084319 0 -0.1151055344347638 0.35342738716367089 0 -0.1087737048938536 0.33773291911964659 0 -0.1109956779463058 0.3247360182227978 0 -0.1232397301369533 0.33915051754084319 0 -0.1109956779463058 0.3247360182227978 0 -0.1244352321831298 0.32503444245508151 0 -0.1232397301369533 0.33915051754084319 0 -0.13097663406413551 0.35371223839680349 0 -0.1151055344347638 0.35342738716367089 0 -0.12462324216014049 0.36934452617415259 0 -0.13097663406413551 0.35371223839680349 0 -0.1232397301369533 0.33915051754084319 0 -0.1151055344347638 0.35342738716367089 0 -0.1151055344347638 0.35342738716367089 0 -0.12462324216014049 0.36934452617415259 0 -0.1079162849372256 0.3658003407469459 0 -0.12462324216014049 0.36934452617415259 0 -0.1079162849372256 0.3658003407469459 0 -0.11222958450273771 0.38093503017757319 0 -0.093692701562977612 0.37286372319483219 0 -0.096073427838075209 0.34807146528858462 0 -0.093692701562977612 0.37286372319483219 0 -0.1079162849372256 0.3658003407469459 0 -0.11222958450273771 0.38093503017757319 0 -0.093692701562977612 0.37286372319483219 0 -0.1079162849372256 0.3658003407469459 0 -0.096073427838075209 0.34807146528858462 0 -0.1087737048938536 0.33773291911964659 0 -0.1151055344347638 0.35342738716367089 0 -0.096073427838075209 0.34807146528858462 0 -0.1151055344347638 0.35342738716367089 0 -0.1079162849372256 0.3658003407469459 0 -0.096073427838075209 0.34807146528858462 0 -0.1068429937551819 0.39149122376131401 0 -0.1014832462671051 0.39611481249276692 0 -0.100632494181756 0.38703171705947148 0 -0.1068429937551819 0.39149122376131401 0 -0.10826508260941629 0.39909867249492081 0 -0.1014832462671051 0.39611481249276692 0 -0.1036959123662569 0.40286966083271342 0 -0.11173389040760121 0.4070819937670162 0 -0.1020860176286392 0.40864852320663408 0 -0.10826508260941629 0.39909867249492081 0 -0.1036959123662569 0.40286966083271342 0 -0.11173389040760121 0.4070819937670162 0 -0.10826508260941629 0.39909867249492081 0 -0.1036959123662569 0.40286966083271342 0 -0.1014832462671051 0.39611481249276692 0 -0.1036959123662569 0.40286966083271342 0 -0.098002652932349138 0.40358558246086829 0 -0.1014832462671051 0.39611481249276692 0 -0.1036959123662569 0.40286966083271342 0 -0.098002652932349138 0.40358558246086829 0 -0.1020860176286392 0.40864852320663408 0 -0.1014832462671051 0.39611481249276692 0 -0.100632494181756 0.38703171705947148 0 -0.091732807296137447 0.39327354713841189 0 -0.098002652932349138 0.40358558246086829 0 -0.1014832462671051 0.39611481249276692 0 -0.091732807296137447 0.39327354713841189 0 -0.093692701562977612 0.37286372319483219 0 -0.100632494181756 0.38703171705947148 0 -0.091732807296137447 0.39327354713841189 0 -0.093692701562977612 0.37286372319483219 0 -0.100632494181756 0.38703171705947148 0 -0.11222958450273771 0.38093503017757319 0 -0.093692701562977612 0.37286372319483219 0 -0.11222958450273771 0.38093503017757319 0 -0.1068429937551819 0.39149122376131401 0 -0.100632494181756 0.38703171705947148 0 -0.11222958450273771 0.38093503017757319 0 -0.1068429937551819 0.39149122376131401 0 -0.11222958450273771 0.38093503017757319 0 -0.1175693702509366 0.39793567162079307 0 -0.12659301381147459 0.38522404464574589 0 -0.12462324216014049 0.36934452617415259 0 -0.11222958450273771 0.38093503017757319 0 -0.12659301381147459 0.38522404464574589 0 -0.11222958450273771 0.38093503017757319 0 -0.1175693702509366 0.39793567162079307 0 -0.13510159256122539 0.41019854154904373 0 -0.1175693702509366 0.39793567162079307 0 -0.11173389040760121 0.4070819937670162 0 -0.13077100787796689 0.39658257652763579 0 -0.12659301381147459 0.38522404464574589 0 -0.1175693702509366 0.39793567162079307 0 -0.1068429937551819 0.39149122376131401 0 -0.10826508260941629 0.39909867249492081 0 -0.1175693702509366 0.39793567162079307 0 -0.10826508260941629 0.39909867249492081 0 -0.1175693702509366 0.39793567162079307 0 -0.11173389040760121 0.4070819937670162 0 -0.13510159256122539 0.41019854154904373 0 -0.11173389040760121 0.4070819937670162 0 -0.10686452864301529 0.41507266443704388 0 -0.12950504661076359 0.42553305625679289 0 -0.13510159256122539 0.41019854154904373 0 -0.10686452864301529 0.41507266443704388 0 -0.13510159256122539 0.41019854154904373 0 -0.10686452864301529 0.41507266443704388 0 -0.12950504661076359 0.42553305625679289 0 -0.1122329363342771 0.42977126478189748 0 -0.12950504661076359 0.42553305625679289 0 -0.1122329363342771 0.42977126478189748 0 -0.1200984866071973 0.45130699503990412 0 -0.12950504661076359 0.42553305625679289 0 -0.1122329363342771 0.42977126478189748 0 -0.10686452864301529 0.41507266443704388 0 -0.1122329363342771 0.42977126478189748 0 -0.10686452864301529 0.41507266443704388 0 -0.1122329363342771 0.42977126478189748 0 -0.085602364561712496 0.43630584072590212 0 -0.1011357450871664 0.43838308807355097 0 -0.1122329363342771 0.42977126478189748 0 -0.094904697201120436 0.42481601544509912 0 -0.085602364561712496 0.43630584072590212 0 -0.1122329363342771 0.42977126478189748 0 -0.094904697201120436 0.42481601544509912 0 -0.10686452864301529 0.41507266443704388 0 -0.1122329363342771 0.42977126478189748 0 -0.085602364561712496 0.43630584072590212 0 -0.1122329363342771 0.42977126478189748 0 -0.1011357450871664 0.43838308807355097 0 -0.10548298005575819 0.44410579158418267 0 -0.10686452864301529 0.41507266443704388 0 -0.080837630056780907 0.4195652810373498 0 -0.094904697201120436 0.42481601544509912 0 -0.10686452864301529 0.41507266443704388 0 -0.080837630056780907 0.4195652810373498 0 -0.1020860176286392 0.40864852320663408 0 -0.10686452864301529 0.41507266443704388 0 -0.089772913029294674 0.41368337108199149 0 -0.11173389040760121 0.4070819937670162 0 -0.1020860176286392 0.40864852320663408 0 -0.10686452864301529 0.41507266443704388 0 -0.098002652932349138 0.40358558246086829 0 -0.1020860176286392 0.40864852320663408 0 -0.089772913029294674 0.41368337108199149 0 -0.089772913029294674 0.41368337108199149 0 -0.083787357124494893 0.40567500420210861 0 -0.086894860377418781 0.40117975349507029 0 -0.10686452864301529 0.41507266443704388 0 -0.089772913029294674 0.41368337108199149 0 -0.080837630056780907 0.4195652810373498 0 -0.089772913029294674 0.41368337108199149 0 -0.080837630056780907 0.4195652810373498 0 -0.083120543088482962 0.41207731942096643 0 -0.080837630056780907 0.4195652810373498 0 -0.083120543088482962 0.41207731942096643 0 -0.077130010647648267 0.4140318203781605 0 -0.089772913029294674 0.41368337108199149 0 -0.083120543088482962 0.41207731942096643 0 -0.083787357124494893 0.40567500420210861 0 -0.083120543088482962 0.41207731942096643 0 -0.077130010647648267 0.4140318203781605 0 -0.083787357124494893 0.40567500420210861 0 -0.094904697201120436 0.42481601544509912 0 -0.080837630056780907 0.4195652810373498 0 -0.085750233865149142 0.42727005416259001 0 -0.094904697201120436 0.42481601544509912 0 -0.085750233865149142 0.42727005416259001 0 -0.085602364561712496 0.43630584072590212 0 -0.080837630056780907 0.4195652810373498 0 -0.085750233865149142 0.42727005416259001 0 -0.077891434729365175 0.42618889734104692 0 -0.085750233865149142 0.42727005416259001 0 -0.080715441061466053 0.43198632383275393 0 -0.077891434729365175 0.42618889734104692 0 -0.080592867036391874 0.43603369162222072 0 -0.074641100287794956 0.43336808749455119 0 -0.081412562234593977 0.44247451443567543 0 -0.085750233865149142 0.42727005416259001 0 -0.080715441061466053 0.43198632383275393 0 -0.085602364561712496 0.43630584072590212 0 -0.080715441061466053 0.43198632383275393 0 -0.080592867036391874 0.43603369162222072 0 -0.074641100287794956 0.43336808749455119 0 -0.080715441061466053 0.43198632383275393 0 -0.080592867036391874 0.43603369162222072 0 -0.085602364561712496 0.43630584072590212 0 -0.074641100287794956 0.43336808749455119 0 -0.061871801114105451 0.43565944976541721 0 -0.081412562234593977 0.44247451443567543 0 -0.080715441061466053 0.43198632383275393 0 -0.074641100287794956 0.43336808749455119 0 -0.077891434729365175 0.42618889734104692 0 -0.077891434729365175 0.42618889734104692 0 -0.068189623450717232 0.42374125147203617 0 -0.074022587983040955 0.41970463103896988 0 -0.074641100287794956 0.43336808749455119 0 -0.077891434729365175 0.42618889734104692 0 -0.068189623450717232 0.42374125147203617 0 -0.074641100287794956 0.43336808749455119 0 -0.068189623450717232 0.42374125147203617 0 -0.061871801114105451 0.43565944976541721 0 -0.077130010647648267 0.4140318203781605 0 -0.066399548107243522 0.41112518390461178 0 -0.074152285507093546 0.40436813477960082 0 -0.077130010647648267 0.4140318203781605 0 -0.074022587983040955 0.41970463103896988 0 -0.066399548107243522 0.41112518390461178 0 -0.080837630056780907 0.4195652810373498 0 -0.077130010647648267 0.4140318203781605 0 -0.074022587983040955 0.41970463103896988 0 -0.080837630056780907 0.4195652810373498 0 -0.077891434729365175 0.42618889734104692 0 -0.074022587983040955 0.41970463103896988 0 -0.068189623450717232 0.42374125147203617 0 -0.074022587983040955 0.41970463103896988 0 -0.066399548107243522 0.41112518390461178 0 -0.068189623450717232 0.42374125147203617 0 -0.066399548107243522 0.41112518390461178 0 -0.054399774144086782 0.41492058805248822 0 -0.066399548107243522 0.41112518390461178 0 -0.070793219213734299 0.40022844327786178 0 -0.062864635981719666 0.389023476161236 0 -0.070793219213734299 0.40022844327786178 0 -0.082286364059748068 0.39208709155776927 0 -0.062864635981719666 0.389023476161236 0 -0.077130010647648267 0.4140318203781605 0 -0.074152285507093546 0.40436813477960082 0 -0.082286364059748068 0.39208709155776927 0 -0.066399548107243522 0.41112518390461178 0 -0.074152285507093546 0.40436813477960082 0 -0.070793219213734299 0.40022844327786178 0 -0.074152285507093546 0.40436813477960082 0 -0.070793219213734299 0.40022844327786178 0 -0.082286364059748068 0.39208709155776927 0 -0.077130010647648267 0.4140318203781605 0 -0.083787357124494893 0.40567500420210861 0 -0.082286364059748068 0.39208709155776927 0 -0.089772913029294674 0.41368337108199149 0 -0.091732807296137447 0.39327354713841189 0 -0.083787357124494893 0.40567500420210861 0 -0.082286364059748068 0.39208709155776927 0 -0.086894860377418781 0.40117975349507029 0 -0.098002652932349138 0.40358558246086829 0 -0.089772913029294674 0.41368337108199149 0 -0.091732807296137447 0.39327354713841189 0 -0.089772913029294674 0.41368337108199149 0 -0.091732807296137447 0.39327354713841189 0 -0.086894860377418781 0.40117975349507029 0 -0.077130010647648267 0.4140318203781605 0 -0.082286364059748068 0.39208709155776927 0 -0.082286364059748068 0.39208709155776927 0 -0.091732807296137447 0.39327354713841189 0 -0.086894860377418781 0.40117975349507029 0 -0.093692701562977612 0.37286372319483219 0 -0.082286364059748068 0.39208709155776927 0 -0.091732807296137447 0.39327354713841189 0 -0.087442717471849896 0.37014236273737849 0 -0.082286364059748068 0.39208709155776927 0 -0.075980803833167979 0.37859482368159197 0 -0.087442717471849896 0.37014236273737849 0 -0.082286364059748068 0.39208709155776927 0 -0.093692701562977612 0.37286372319483219 0 -0.091732807296137447 0.39327354713841189 0 -0.093692701562977612 0.37286372319483219 0 -0.087442717471849896 0.37014236273737849 0 -0.082286364059748068 0.39208709155776927 0 -0.071329497819354132 0.36312636426998451 0 -0.062864635981719666 0.389023476161236 0 -0.082286364059748068 0.39208709155776927 0 -0.075980803833167979 0.37859482368159197 0 -0.062864635981719666 0.389023476161236 0 -0.071329497819354132 0.36312636426998451 0 -0.075980803833167979 0.37859482368159197 0 -0.062864635981719666 0.389023476161236 0 -0.053860131593306812 0.37284157786980132 0 -0.062864635981719666 0.389023476161236 0 -0.045667176917376623 0.39068297127110468 0 -0.045667176917376623 0.39068297127110468 0 -0.046013509846908447 0.41279406206867131 0 -0.054399774144086782 0.41492058805248822 0 -0.066399548107243522 0.41112518390461178 0 -0.062864635981719666 0.389023476161236 0 -0.054399774144086782 0.41492058805248822 0 -0.062864635981719666 0.389023476161236 0 -0.054399774144086782 0.41492058805248822 0 -0.062864635981719666 0.389023476161236 0 -0.045667176917376623 0.39068297127110468 0 -0.054399774144086782 0.41492058805248822 0 -0.045667176917376623 0.39068297127110468 0 -0.054399774144086782 0.41492058805248822 0 -0.045667176917376623 0.39068297127110468 0 -0.034283835785620727 0.40808117047888282 0 -0.046013509846908447 0.41279406206867131 0 -0.045667176917376623 0.39068297127110468 0 -0.027297609094737031 0.39397682220999453 0 -0.034283835785620727 0.40808117047888282 0 -0.036934579690665457 0.36644535448972138 0 -0.045667176917376623 0.39068297127110468 0 -0.045667176917376623 0.39068297127110468 0 -0.024215693027664419 0.37585217803146442 0 -0.027297609094737031 0.39397682220999453 0 -0.036934579690665457 0.36644535448972138 0 -0.053860131593306812 0.37284157786980132 0 -0.045667176917376623 0.39068297127110468 0 -0.036934579690665457 0.36644535448972138 0 -0.045667176917376623 0.39068297127110468 0 -0.024215693027664419 0.37585217803146442 0 -0.024215693027664419 0.37585217803146442 0 -0.027297609094737031 0.39397682220999453 0 -0.015294982081381111 0.38774690583170801 0 -0.024215693027664419 0.37585217803146442 0 -0.01065956962617068 0.37746357018814503 0 -0.015294982081381111 0.38774690583170801 0 -0.027297609094737031 0.39397682220999453 0 -0.02143038348924774 0.40968435250082952 0 -0.034283835785620727 0.40808117047888282 0 -0.027297609094737031 0.39397682220999453 0 -0.01262662081074256 0.40161446440858201 0 -0.02143038348924774 0.40968435250082952 0 -0.027297609094737031 0.39397682220999453 0 -0.01262662081074256 0.40161446440858201 0 -0.015294982081381111 0.38774690583170801 0 -0.01262662081074256 0.40161446440858201 0 -0.001879632417451628 0.38629495627717642 0 0.00049274805565286545 0.40580609740154427 0 -0.01262662081074256 0.40161446440858201 0 -0.001879632417451628 0.38629495627717642 0 -0.015294982081381111 0.38774690583170801 0 -0.001879632417451628 0.38629495627717642 0 -0.01065956962617068 0.37746357018814503 0 0.0029446262186104211 0.37205306275199912 0 -0.001879632417451628 0.38629495627717642 0 -0.01065956962617068 0.37746357018814503 0 -0.015294982081381111 0.38774690583170801 0 -0.0069587126660733906 0.42302654545986701 0 -0.01771883288324148 0.42128327994685699 0 -0.016315361653240889 0.43367404882565802 0 -0.0037196473675565412 0.43361757303232462 0 -0.0069587126660733906 0.42302654545986701 0 -0.016315361653240889 0.43367404882565802 0 -0.0037196473675565412 0.43361757303232462 0 -0.0069587126660733906 0.42302654545986701 0 0.0058504377347851598 0.42522888637803768 0 -0.0069587126660733906 0.42302654545986701 0 0.00088672986204145802 0.41595938197190779 0 0.0058504377347851598 0.42522888637803768 0 -0.0069587126660733906 0.42302654545986701 0 -0.0095591786552684729 0.41289568694826462 0 0.00088672986204145802 0.41595938197190779 0 -0.01262662081074256 0.40161446440858201 0 -0.0095591786552684729 0.41289568694826462 0 0.00049274805565286545 0.40580609740154427 0 -0.0095591786552684729 0.41289568694826462 0 0.00088672986204145802 0.41595938197190779 0 0.00049274805565286545 0.40580609740154427 0 -0.01262662081074256 0.40161446440858201 0 -0.0095591786552684729 0.41289568694826462 0 -0.02143038348924774 0.40968435250082952 0 -0.0069587126660733906 0.42302654545986701 0 -0.0095591786552684729 0.41289568694826462 0 -0.01771883288324148 0.42128327994685699 0 -0.0095591786552684729 0.41289568694826462 0 -0.01771883288324148 0.42128327994685699 0 -0.02143038348924774 0.40968435250082952 0 -0.01771883288324148 0.42128327994685699 0 -0.02143038348924774 0.40968435250082952 0 -0.028339212392898851 0.41805704938133759 0 -0.02143038348924774 0.40968435250082952 0 -0.028339212392898851 0.41805704938133759 0 -0.034283835785620727 0.40808117047888282 0 -0.01771883288324148 0.42128327994685699 0 -0.028339212392898851 0.41805704938133759 0 -0.027954098731971529 0.42865198409525562 0 -0.01771883288324148 0.42128327994685699 0 -0.027954098731971529 0.42865198409525562 0 -0.016315361653240889 0.43367404882565802 0 -0.027954098731971529 0.42865198409525562 0 -0.016315361653240889 0.43367404882565802 0 -0.028699001254368181 0.44214155800718702 0 -0.027954098731971529 0.42865198409525562 0 -0.038892179875635202 0.43359607016502488 0 -0.028699001254368181 0.44214155800718702 0 -0.027954098731971529 0.42865198409525562 0 -0.038892179875635202 0.43359607016502488 0 -0.04030891107441275 0.42258445988486282 0 -0.028339212392898851 0.41805704938133759 0 -0.027954098731971529 0.42865198409525562 0 -0.04030891107441275 0.42258445988486282 0 -0.038892179875635202 0.43359607016502488 0 -0.04030891107441275 0.42258445988486282 0 -0.0505785617094257 0.42996599112221601 0 -0.04030891107441275 0.42258445988486282 0 -0.0505785617094257 0.42996599112221601 0 -0.047917559262966813 0.42283348749530419 0 -0.038892179875635202 0.43359607016502488 0 -0.0505785617094257 0.42996599112221601 0 -0.044568212458176777 0.44395657174440362 0 -0.028339212392898851 0.41805704938133759 0 -0.04030891107441275 0.42258445988486282 0 -0.034283835785620727 0.40808117047888282 0 -0.04030891107441275 0.42258445988486282 0 -0.034283835785620727 0.40808117047888282 0 -0.046013509846908447 0.41279406206867131 0 -0.04030891107441275 0.42258445988486282 0 -0.046013509846908447 0.41279406206867131 0 -0.047917559262966813 0.42283348749530419 0 -0.046013509846908447 0.41279406206867131 0 -0.053503801896987502 0.41766169522938479 0 -0.047917559262966813 0.42283348749530419 0 -0.046013509846908447 0.41279406206867131 0 -0.054399774144086782 0.41492058805248822 0 -0.053503801896987502 0.41766169522938479 0 -0.054399774144086782 0.41492058805248822 0 -0.053503801896987502 0.41766169522938479 0 -0.054399774144086782 0.41492058805248822 0 -0.061871801114105451 0.43565944976541721 0 -0.068189623450717232 0.42374125147203617 0 -0.054399774144086782 0.41492058805248822 0 -0.061871801114105451 0.43565944976541721 0 -0.054399774144086782 0.41492058805248822 0 -0.053503801896987502 0.41766169522938479 0 -0.061871801114105451 0.43565944976541721 0 -0.053503801896987502 0.41766169522938479 0 -0.0505785617094257 0.42996599112221601 0 -0.061871801114105451 0.43565944976541721 0 -0.0505785617094257 0.42996599112221601 0 -0.061871801114105451 0.43565944976541721 0 -0.044568212458176777 0.44395657174440362 0 -0.053503801896987502 0.41766169522938479 0 -0.0505785617094257 0.42996599112221601 0 -0.047917559262966813 0.42283348749530419 0 -0.061871801114105451 0.43565944976541721 0 -0.056963660533050207 0.45395997285049938 0 -0.044568212458176777 0.44395657174440362 0 -0.056963660533050207 0.45395997285049938 0 -0.053057293441570258 0.47059866084021967 0 -0.06940760359888673 0.46668010047464947 0 -0.056963660533050207 0.45395997285049938 0 -0.03251475883150641 0.46544543126532339 0 -0.053057293441570258 0.47059866084021967 0 -0.056963660533050207 0.45395997285049938 0 -0.03251475883150641 0.46544543126532339 0 -0.056963660533050207 0.45395997285049938 0 -0.03251475883150641 0.46544543126532339 0 -0.044568212458176777 0.44395657174440362 0 -0.038892179875635202 0.43359607016502488 0 -0.044568212458176777 0.44395657174440362 0 -0.028699001254368181 0.44214155800718702 0 -0.03251475883150641 0.46544543126532339 0 -0.044568212458176777 0.44395657174440362 0 -0.028699001254368181 0.44214155800718702 0 -0.016315361653240889 0.43367404882565802 0 -0.028699001254368181 0.44214155800718702 0 -0.011949395975678319 0.44752524194745619 0 -0.03251475883150641 0.46544543126532339 0 -0.028699001254368181 0.44214155800718702 0 -0.011949395975678319 0.44752524194745619 0 -0.03251475883150641 0.46544543126532339 0 -0.0048188216039126101 0.46151259084504048 0 -0.011949395975678319 0.44752524194745619 0 -0.03251475883150641 0.46544543126532339 0 -0.0048188216039126101 0.46151259084504048 0 -0.0080658571299626058 0.47693088968014741 0 -0.0048188216039126101 0.46151259084504048 0 -0.011949395975678319 0.44752524194745619 0 0.014467956915276929 0.44605791343822121 0 -0.0037196473675565412 0.43361757303232462 0 -0.011949395975678319 0.44752524194745619 0 0.014467956915276929 0.44605791343822121 0 -0.0037196473675565412 0.43361757303232462 0 -0.016315361653240889 0.43367404882565802 0 -0.011949395975678319 0.44752524194745619 0 -0.0035026084384427452 0.5 0 -0.002354738798079421 0.48796249383317519 0 -0.02000926581599682 0.48556106738021487 0 -0.0035026084384427452 0.5 0 -0.002354738798079421 0.48796249383317519 0 0.0043505215447717793 0.5 0 -0.002354738798079421 0.48796249383317519 0 -0.0080658571299626058 0.47693088968014741 0 0.0094092392300243553 0.47295194370183691 0 -0.0048188216039126101 0.46151259084504048 0 -0.0080658571299626058 0.47693088968014741 0 0.0094092392300243553 0.47295194370183691 0 -0.002354738798079421 0.48796249383317519 0 -0.0080658571299626058 0.47693088968014741 0 -0.02000926581599682 0.48556106738021487 0 -0.03251475883150641 0.46544543126532339 0 -0.0080658571299626058 0.47693088968014741 0 -0.03251475883150641 0.46544543126532339 0 -0.0080658571299626058 0.47693088968014741 0 -0.02000926581599682 0.48556106738021487 0 -0.0035026084384427452 0.5 0 -0.02000926581599682 0.48556106738021487 0 -0.029779525732189449 0.5 0 -0.02000926581599682 0.48556106738021487 0 -0.029779525732189449 0.5 0 -0.04217599698599403 0.4837771407470618 0 -0.029779525732189449 0.5 0 -0.04217599698599403 0.4837771407470618 0 -0.056056443025936258 0.5 0 -0.03251475883150641 0.46544543126532339 0 -0.04217599698599403 0.4837771407470618 0 -0.053057293441570258 0.47059866084021967 0 -0.03251475883150641 0.46544543126532339 0 -0.02000926581599682 0.48556106738021487 0 -0.04217599698599403 0.4837771407470618 0 -0.04217599698599403 0.4837771407470618 0 -0.053057293441570258 0.47059866084021967 0 -0.064224447258413891 0.48313065886356449 0 -0.053057293441570258 0.47059866084021967 0 -0.064224447258413891 0.48313065886356449 0 -0.06940760359888673 0.46668010047464947 0 -0.04217599698599403 0.4837771407470618 0 -0.056056443025936258 0.5 0 -0.064224447258413891 0.48313065886356449 0 -0.08233336031968308 0.5 0 -0.083089703762176739 0.47839201902529183 0 -0.064224447258413891 0.48313065886356449 0 -0.056056443025936258 0.5 0 -0.08233336031968308 0.5 0 -0.064224447258413891 0.48313065886356449 0 -0.08233336031968308 0.5 0 -0.083089703762176739 0.47839201902529183 0 -0.095177564823586136 0.48848760647089029 0 -0.083089703762176739 0.47839201902529183 0 -0.06940760359888673 0.46668010047464947 0 -0.082274770225828353 0.46171943302513951 0 -0.083089703762176739 0.47839201902529183 0 -0.093935093908626088 0.46513618053327072 0 -0.098969207255292235 0.47662545095876752 0 -0.083089703762176739 0.47839201902529183 0 -0.095177564823586136 0.48848760647089029 0 -0.098969207255292235 0.47662545095876752 0 -0.083089703762176739 0.47839201902529183 0 -0.064224447258413891 0.48313065886356449 0 -0.06940760359888673 0.46668010047464947 0 -0.056963660533050207 0.45395997285049938 0 -0.06940760359888673 0.46668010047464947 0 -0.075361727396323852 0.4547864394386128 0 -0.06940760359888673 0.46668010047464947 0 -0.075361727396323852 0.4547864394386128 0 -0.082274770225828353 0.46171943302513951 0 -0.061871801114105451 0.43565944976541721 0 -0.056963660533050207 0.45395997285049938 0 -0.081412562234593977 0.44247451443567543 0 -0.056963660533050207 0.45395997285049938 0 -0.081412562234593977 0.44247451443567543 0 -0.056963660533050207 0.45395997285049938 0 -0.075361727396323852 0.4547864394386128 0 -0.081412562234593977 0.44247451443567543 0 -0.080592867036391874 0.43603369162222072 0 -0.085602364561712496 0.43630584072590212 0 -0.081412562234593977 0.44247451443567543 0 -0.085602364561712496 0.43630584072590212 0 -0.081412562234593977 0.44247451443567543 0 -0.085782241816640986 0.44334282110008999 0 -0.081412562234593977 0.44247451443567543 0 -0.085782241816640986 0.44334282110008999 0 -0.084893684060313515 0.4499621057820718 0 -0.075361727396323852 0.4547864394386128 0 -0.081412562234593977 0.44247451443567543 0 -0.084893684060313515 0.4499621057820718 0 -0.084893684060313515 0.4499621057820718 0 -0.091220356409944026 0.4446288234567109 0 -0.092345481535780163 0.45457279264252431 0 -0.085782241816640986 0.44334282110008999 0 -0.084893684060313515 0.4499621057820718 0 -0.091220356409944026 0.4446288234567109 0 -0.085602364561712496 0.43630584072590212 0 -0.091220356409944026 0.4446288234567109 0 -0.096598714879966699 0.44266193341992183 0 -0.085602364561712496 0.43630584072590212 0 -0.085782241816640986 0.44334282110008999 0 -0.091220356409944026 0.4446288234567109 0 -0.083089703762176739 0.47839201902529183 0 -0.082274770225828353 0.46171943302513951 0 -0.093935093908626088 0.46513618053327072 0 -0.075361727396323852 0.4547864394386128 0 -0.084893684060313515 0.4499621057820718 0 -0.082274770225828353 0.46171943302513951 0 -0.082274770225828353 0.46171943302513951 0 -0.092345481535780163 0.45457279264252431 0 -0.093935093908626088 0.46513618053327072 0 -0.084893684060313515 0.4499621057820718 0 -0.082274770225828353 0.46171943302513951 0 -0.092345481535780163 0.45457279264252431 0 -0.093935093908626088 0.46513618053327072 0 -0.099789065376003405 0.45743033958224599 0 -0.1045704628764258 0.46329094587579578 0 -0.093935093908626088 0.46513618053327072 0 -0.1045704628764258 0.46329094587579578 0 -0.098969207255292235 0.47662545095876752 0 -0.092345481535780163 0.45457279264252431 0 -0.093935093908626088 0.46513618053327072 0 -0.099789065376003405 0.45743033958224599 0 -0.092345481535780163 0.45457279264252431 0 -0.099789065376003405 0.45743033958224599 0 -0.099552128285252464 0.44988612325926258 0 -0.099789065376003405 0.45743033958224599 0 -0.1085421602739324 0.45426565560037641 0 -0.099552128285252464 0.44988612325926258 0 -0.099789065376003405 0.45743033958224599 0 -0.1085421602739324 0.45426565560037641 0 -0.1045704628764258 0.46329094587579578 0 -0.1085421602739324 0.45426565560037641 0 -0.1045704628764258 0.46329094587579578 0 -0.1113408598446702 0.46000839781551178 0 -0.096598714879966699 0.44266193341992183 0 -0.1011357450871664 0.43838308807355097 0 -0.10548298005575819 0.44410579158418267 0 -0.085602364561712496 0.43630584072590212 0 -0.096598714879966699 0.44266193341992183 0 -0.1011357450871664 0.43838308807355097 0 -0.096598714879966699 0.44266193341992183 0 -0.099552128285252464 0.44988612325926258 0 -0.10548298005575819 0.44410579158418267 0 -0.091220356409944026 0.4446288234567109 0 -0.096598714879966699 0.44266193341992183 0 -0.099552128285252464 0.44988612325926258 0 -0.091220356409944026 0.4446288234567109 0 -0.092345481535780163 0.45457279264252431 0 -0.099552128285252464 0.44988612325926258 0 -0.1085421602739324 0.45426565560037641 0 -0.10548298005575819 0.44410579158418267 0 -0.112786835232887 0.44753277729495972 0 -0.1085421602739324 0.45426565560037641 0 -0.099552128285252464 0.44988612325926258 0 -0.10548298005575819 0.44410579158418267 0 -0.1122329363342771 0.42977126478189748 0 -0.1200984866071973 0.45130699503990412 0 -0.12950504661076359 0.42553305625679289 0 -0.1200984866071973 0.45130699503990412 0 -0.1122329363342771 0.42977126478189748 0 -0.112786835232887 0.44753277729495972 0 -0.1200984866071973 0.45130699503990412 0 -0.1122329363342771 0.42977126478189748 0 -0.10548298005575819 0.44410579158418267 0 -0.112786835232887 0.44753277729495972 0 -0.112786835232887 0.44753277729495972 0 -0.1200984866071973 0.45130699503990412 0 -0.1175776128932685 0.45821417946843818 0 -0.1258764600904497 0.46712697890061572 0 -0.1200984866071973 0.45130699503990412 0 -0.1258764600904497 0.46712697890061572 0 -0.1200984866071973 0.45130699503990412 0 -0.1175776128932685 0.45821417946843818 0 -0.1045704628764258 0.46329094587579578 0 -0.11364324417291601 0.4654673234906459 0 -0.1113408598446702 0.46000839781551178 0 -0.1045704628764258 0.46329094587579578 0 -0.11364324417291601 0.4654673234906459 0 -0.1134888845187344 0.47484310571761912 0 -0.11364324417291601 0.4654673234906459 0 -0.1113408598446702 0.46000839781551178 0 -0.1175776128932685 0.45821417946843818 0 -0.1085421602739324 0.45426565560037641 0 -0.112786835232887 0.44753277729495972 0 -0.1175776128932685 0.45821417946843818 0 -0.1085421602739324 0.45426565560037641 0 -0.1113408598446702 0.46000839781551178 0 -0.1175776128932685 0.45821417946843818 0 -0.1200984866071973 0.45130699503990412 0 -0.1175776128932685 0.45821417946843818 0 -0.1258764600904497 0.46712697890061572 0 -0.11364324417291601 0.4654673234906459 0 -0.1175776128932685 0.45821417946843818 0 -0.1258764600904497 0.46712697890061572 0 -0.11364324417291601 0.4654673234906459 0 -0.1134888845187344 0.47484310571761912 0 -0.1134888845187344 0.47484310571761912 0 -0.1234221834597527 0.4769885046853129 0 -0.1209403703985526 0.4905957397367271 0 -0.1134888845187344 0.47484310571761912 0 -0.1209403703985526 0.4905957397367271 0 -0.1070234440351399 0.48622948801258181 0 -0.1258764600904497 0.46712697890061572 0 -0.1134888845187344 0.47484310571761912 0 -0.1234221834597527 0.4769885046853129 0 -0.13488719490717671 0.50000000000000677 0 -0.1209403703985526 0.4905957397367271 0 -0.1086102776134299 0.5 0 -0.1209403703985526 0.4905957397367271 0 -0.1070234440351399 0.48622948801258181 0 -0.1086102776134299 0.5 0 -0.1070234440351399 0.48622948801258181 0 -0.1086102776134299 0.5 0 -0.095177564823586136 0.48848760647089029 0 -0.08233336031968308 0.5 0 -0.1086102776134299 0.5 0 -0.095177564823586136 0.48848760647089029 0 -0.1070234440351399 0.48622948801258181 0 -0.095177564823586136 0.48848760647089029 0 -0.098969207255292235 0.47662545095876752 0 -0.1045704628764258 0.46329094587579578 0 -0.1134888845187344 0.47484310571761912 0 -0.098969207255292235 0.47662545095876752 0 -0.1134888845187344 0.47484310571761912 0 -0.1070234440351399 0.48622948801258181 0 -0.098969207255292235 0.47662545095876752 0 -0.17692056279422819 0.084466206528225535 0 -0.1624722326055591 0.099215816753822766 0 -0.14892792442929559 0.076564815571635081 0 -0.1655833959356007 0.067521902110184856 0 -0.14892792442929559 0.076564815571635081 0 -0.15709257630823201 0.053890307997751262 0 -0.1655833959356007 0.067521902110184856 0 -0.17692056279422819 0.084466206528225535 0 -0.14892792442929559 0.076564815571635081 0 -0.17692056279422819 0.084466206528225535 0 -0.17939252021064689 0.055166278343127567 0 -0.199110071436365 0.065660742218634008 0 -0.1655833959356007 0.067521902110184856 0 -0.17692056279422819 0.084466206528225535 0 -0.17939252021064689 0.055166278343127567 0 -0.17692056279422819 0.084466206528225535 0 -0.18722082702586471 0.1116677568229652 0 -0.19387380154746581 0.092990572108129166 0 -0.17692056279422819 0.084466206528225535 0 -0.18722082702586471 0.1116677568229652 0 -0.1624722326055591 0.099215816753822766 0 -0.18722082702586471 0.1116677568229652 0 -0.1635039745309782 0.11864815779438349 0 -0.17065052257718499 0.12861736479042091 0 -0.18722082702586471 0.1116677568229652 0 -0.1635039745309782 0.11864815779438349 0 -0.18722082702586471 0.1116677568229652 0 -0.1635039745309782 0.11864815779438349 0 -0.1624722326055591 0.099215816753822766 0 -0.1635039745309782 0.11864815779438349 0 -0.1624722326055591 0.099215816753822766 0 -0.14793718377282231 0.1128338251181023 0 -0.1624722326055591 0.099215816753822766 0 -0.14076327255035909 0.099239323145518851 0 -0.14793718377282231 0.1128338251181023 0 -0.1635039745309782 0.11864815779438349 0 -0.14793718377282231 0.1128338251181023 0 -0.1397871220360917 0.12562855876580181 0 -0.1635039745309782 0.11864815779438349 0 -0.1397871220360917 0.12562855876580181 0 -0.14076327255035909 0.099239323145518851 0 -0.1325986206714227 0.12191383071940259 0 -0.14076327255035909 0.099239323145518851 0 -0.14793718377282231 0.1128338251181023 0 -0.1325986206714227 0.12191383071940259 0 -0.14793718377282231 0.1128338251181023 0 -0.1325986206714227 0.12191383071940259 0 -0.1397871220360917 0.12562855876580181 0 -0.1325986206714227 0.12191383071940259 0 -0.1262591673505977 0.1068238956739086 0 -0.1205717613055797 0.1176436980837537 0 -0.14076327255035909 0.099239323145518851 0 -0.1325986206714227 0.12191383071940259 0 -0.1262591673505977 0.1068238956739086 0 -0.14076327255035909 0.099239323145518851 0 -0.1262591673505977 0.1068238956739086 0 -0.1182868015716317 0.092254412687964832 0 -0.14076327255035909 0.099239323145518851 0 -0.1288744869042647 0.07774724585412271 0 -0.1182868015716317 0.092254412687964832 0 -0.14076327255035909 0.099239323145518851 0 -0.14892792442929559 0.076564815571635081 0 -0.1288744869042647 0.07774724585412271 0 -0.1624722326055591 0.099215816753822766 0 -0.14076327255035909 0.099239323145518851 0 -0.14892792442929559 0.076564815571635081 0 -0.14076327255035909 0.099239323145518851 0 -0.14892792442929559 0.076564815571635081 0 -0.14892792442929559 0.076564815571635081 0 -0.13732876488868359 0.059289439465303267 0 -0.15709257630823201 0.053890307997751262 0 -0.14892792442929559 0.076564815571635081 0 -0.15709257630823201 0.053890307997751262 0 -0.1288744869042647 0.07774724585412271 0 -0.13732876488868359 0.059289439465303267 0 -0.119190471915151 0.062012018479697617 0 -0.14892792442929559 0.076564815571635081 0 -0.1288744869042647 0.07774724585412271 0 -0.13732876488868359 0.059289439465303267 0 -0.13732876488868359 0.059289439465303267 0 -0.12616517463318169 0.044547985031046171 0 -0.14321402880208831 0.040746313031782513 0 -0.13732876488868359 0.059289439465303267 0 -0.12616517463318169 0.044547985031046171 0 -0.119190471915151 0.062012018479697617 0 -0.133800065817721 0.03203682934978435 0 -0.14321402880208831 0.040746313031782513 0 -0.14457128778139419 0.02287615308503985 0 -0.12616517463318169 0.044547985031046171 0 -0.133800065817721 0.03203682934978435 0 -0.14321402880208831 0.040746313031782513 0 -0.12616517463318169 0.044547985031046171 0 -0.133800065817721 0.03203682934978435 0 -0.1226907427611215 0.030766731909375528 0 -0.14321402880208831 0.040746313031782513 0 -0.15583060044780481 0.032566952612389122 0 -0.14457128778139419 0.02287615308503985 0 -0.14321402880208831 0.040746313031782513 0 -0.15583060044780481 0.032566952612389122 0 -0.15709257630823201 0.053890307997751262 0 -0.13732876488868359 0.059289439465303267 0 -0.14321402880208831 0.040746313031782513 0 -0.15709257630823201 0.053890307997751262 0 -0.1313148881743523 0.0036871420341860442 0 -0.12863778192407579 0.01787533597989361 0 -0.1186677120778013 0.001782042546421371 0 -0.14206650454917771 -0.0016540903967830469 0 -0.1313148881743523 0.0036871420341860442 0 -0.14015908262274071 0.010099359348631581 0 -0.1313148881743523 0.0036871420341860442 0 -0.14015908262274071 0.010099359348631581 0 -0.12863778192407579 0.01787533597989361 0 -0.14015908262274071 0.010099359348631581 0 -0.12863778192407579 0.01787533597989361 0 -0.14457128778139419 0.02287615308503985 0 -0.133800065817721 0.03203682934978435 0 -0.12863778192407579 0.01787533597989361 0 -0.14457128778139419 0.02287615308503985 0 -0.133800065817721 0.03203682934978435 0 -0.12863778192407579 0.01787533597989361 0 -0.1226907427611215 0.030766731909375528 0 -0.15583060044780481 0.032566952612389122 0 -0.14457128778139419 0.02287615308503985 0 -0.16085971061713589 0.01975157031093621 0 -0.14457128778139419 0.02287615308503985 0 -0.15420495068470361 0.0077122560408214658 0 -0.16085971061713589 0.01975157031093621 0 -0.14015908262274071 0.010099359348631581 0 -0.14457128778139419 0.02287615308503985 0 -0.15420495068470361 0.0077122560408214658 0 -0.14206650454917771 -0.0016540903967830469 0 -0.14015908262274071 0.010099359348631581 0 -0.15420495068470361 0.0077122560408214658 0 -0.15420495068470361 0.0077122560408214658 0 -0.17018390112025819 0.01208966222206675 0 -0.16085971061713589 0.01975157031093621 0 -0.16825079159897091 -0.0011451825768485999 0 -0.15420495068470361 0.0077122560408214658 0 -0.17018390112025819 0.01208966222206675 0 -0.15583060044780481 0.032566952612389122 0 -0.16085971061713589 0.01975157031093621 0 -0.174072021605712 0.033472779478997412 0 -0.17018390112025819 0.01208966222206675 0 -0.16085971061713589 0.01975157031093621 0 -0.174072021605712 0.033472779478997412 0 -0.174072021605712 0.033472779478997412 0 -0.19486799476798999 0.02510246722831757 0 -0.18468055927599911 0.0082189516755516844 0 -0.174072021605712 0.033472779478997412 0 -0.19486799476798999 0.02510246722831757 0 -0.17018390112025819 0.01208966222206675 0 -0.18468055927599911 0.0082189516755516844 0 -0.174072021605712 0.033472779478997412 0 -0.16825079159897091 -0.0011451825768485999 0 -0.17018390112025819 0.01208966222206675 0 -0.18468055927599911 0.0082189516755516844 0 -0.1655833959356007 0.067521902110184856 0 -0.15709257630823201 0.053890307997751262 0 -0.17939252021064689 0.055166278343127567 0 -0.15709257630823201 0.053890307997751262 0 -0.174072021605712 0.033472779478997412 0 -0.17939252021064689 0.055166278343127567 0 -0.15583060044780481 0.032566952612389122 0 -0.15709257630823201 0.053890307997751262 0 -0.174072021605712 0.033472779478997412 0 -0.174072021605712 0.033472779478997412 0 -0.19111939670574721 0.042837692995481812 0 -0.19486799476798999 0.02510246722831757 0 -0.174072021605712 0.033472779478997412 0 -0.17939252021064689 0.055166278343127567 0 -0.19111939670574721 0.042837692995481812 0 -0.19111939670574721 0.042837692995481812 0 -0.20846746085273701 0.044181051431653073 0 -0.199110071436365 0.065660742218634008 0 -0.17939252021064689 0.055166278343127567 0 -0.19111939670574721 0.042837692995481812 0 -0.199110071436365 0.065660742218634008 0 -0.19111939670574721 0.042837692995481812 0 -0.20846746085273701 0.044181051431653073 0 -0.19486799476798999 0.02510246722831757 0 -0.20846746085273701 0.044181051431653073 0 -0.19486799476798999 0.02510246722831757 0 -0.2135086717802861 0.030834915428539569 0 -0.20846746085273701 0.044181051431653073 0 -0.2135086717802861 0.030834915428539569 0 -0.230801885076063 0.037102114533611577 0 -0.20846746085273701 0.044181051431653073 0 -0.223909433406355 0.054709833453104352 0 -0.199110071436365 0.065660742218634008 0 -0.19012565735093781 -0.007671016353986199 0 -0.18468055927599911 0.0082189516755516844 0 -0.1986904174999404 0.00057849008061604224 0 -0.18468055927599911 0.0082189516755516844 0 -0.19486799476798999 0.02510246722831757 0 -0.2041093353461427 0.010622717190531501 0 -0.18468055927599911 0.0082189516755516844 0 -0.1986904174999404 0.00057849008061604224 0 -0.2041093353461427 0.010622717190531501 0 -0.19486799476798999 0.02510246722831757 0 -0.2135086717802861 0.030834915428539569 0 -0.21566396793026801 0.01673215497763773 0 -0.19486799476798999 0.02510246722831757 0 -0.21566396793026801 0.01673215497763773 0 -0.2041093353461427 0.010622717190531501 0 -0.19486799476798999 0.02510246722831757 0 -0.21566396793026801 0.01673215497763773 0 -0.2135086717802861 0.030834915428539569 0 -0.21566396793026801 0.01673215497763773 0 -0.22629386535989371 0.022096126914518521 0 -0.21566396793026801 0.01673215497763773 0 -0.2041093353461427 0.010622717190531501 0 -0.2130338495334986 0.0074514064724699727 0 -0.21566396793026801 0.01673215497763773 0 -0.2130338495334986 0.0074514064724699727 0 -0.22167695897805001 0.0026357239995207279 0 -0.21068513587953391 -0.0001849702778100685 0 -0.2130338495334986 0.0074514064724699727 0 -0.22167695897805001 0.0026357239995207279 0 -0.21068513587953391 -0.0001849702778100685 0 -0.2041093353461427 0.010622717190531501 0 -0.2130338495334986 0.0074514064724699727 0 -0.21068513587953391 -0.0001849702778100685 0 -0.1986904174999404 0.00057849008061604224 0 -0.2041093353461427 0.010622717190531501 0 -0.21566396793026801 0.01673215497763773 0 -0.22167695897805001 0.0026357239995207279 0 -0.23267455799553721 0.007998835200770044 0 -0.21566396793026801 0.01673215497763773 0 -0.23267455799553721 0.007998835200770044 0 -0.23645994109254609 0.0083618427269583264 0 -0.21566396793026801 0.01673215497763773 0 -0.23049882441513431 0.01200511290971226 0 -0.23645994109254609 0.0083618427269583264 0 -0.21566396793026801 0.01673215497763773 0 -0.23645994109254609 0.0083618427269583264 0 -0.2283345506662004 0.0001012563434392566 0 -0.23267455799553721 0.007998835200770044 0 -0.23495207965542089 0.0035657395353555551 0 -0.2283345506662004 0.0001012563434392566 0 -0.22167695897805001 0.0026357239995207279 0 -0.23267455799553721 0.007998835200770044 0 -0.23484298993803321 -0.003506961314131665 0 -0.2283345506662004 0.0001012563434392566 0 -0.23495207965542089 0.0035657395353555551 0 -0.23049882441513431 0.01200511290971226 0 -0.22629386535989371 0.022096126914518521 0 -0.24089699995008981 0.0087873441143077047 0 -0.23049882441513431 0.01200511290971226 0 -0.23821302714528289 0.0085299587181004895 0 -0.2135086717802861 0.030834915428539569 0 -0.22629386535989371 0.022096126914518521 0 -0.230801885076063 0.037102114533611577 0 -0.22629386535989371 0.022096126914518521 0 -0.24089699995008981 0.0087873441143077047 0 -0.230801885076063 0.037102114533611577 0 -0.21566396793026801 0.01673215497763773 0 -0.23049882441513431 0.01200511290971226 0 -0.22629386535989371 0.022096126914518521 0 -0.24926006043533089 0.01792005450523124 0 -0.24089699995008981 0.0087873441143077047 0 -0.230801885076063 0.037102114533611577 0 -0.25185374232715141 0.028984337974395619 0 -0.24926006043533089 0.01792005450523124 0 -0.230801885076063 0.037102114533611577 0 -0.24089699995008981 0.0087873441143077047 0 -0.230801885076063 0.037102114533611577 0 -0.26434726606743902 0.01103615826959393 0 -0.24089699995008981 0.0087873441143077047 0 -0.2418175348705924 0.0062054284786509503 0 -0.23049882441513431 0.01200511290971226 0 -0.23821302714528289 0.0085299587181004895 0 -0.24089699995008981 0.0087873441143077047 0 -0.23049882441513431 0.01200511290971226 0 -0.23645994109254609 0.0083618427269583264 0 -0.23821302714528289 0.0085299587181004895 0 -0.23267455799553721 0.007998835200770044 0 -0.23645994109254609 0.0083618427269583264 0 -0.23645994109254609 0.0083618427269583264 0 -0.23821302714528289 0.0085299587181004895 0 -0.23821302714528289 0.0085299587181004895 0 -0.24089699995008981 0.0087873441143077047 0 -0.23821302714528289 0.0085299587181004895 0 -0.24089699995008981 0.0087873441143077047 0 -0.2418175348705924 0.0062054284786509503 0 -0.25641909062978541 0.00032834929142378817 0 -0.2418175348705924 0.0062054284786509503 0 -0.23484298993803321 -0.003506961314131665 0 -0.2418175348705924 0.0062054284786509503 0 -0.23495207965542089 0.0035657395353555551 0 -0.23645994109254609 0.0083618427269583264 0 -0.23821302714528289 0.0085299587181004895 0 -0.2418175348705924 0.0062054284786509503 0 -0.23645994109254609 0.0083618427269583264 0 -0.2418175348705924 0.0062054284786509503 0 -0.24089699995008981 0.0087873441143077047 0 -0.2418175348705924 0.0062054284786509503 0 -0.23821302714528289 0.0085299587181004895 0 -0.2418175348705924 0.0062054284786509503 0 -0.23645994109254609 0.0083618427269583264 0 -0.2418175348705924 0.0062054284786509503 0 -0.23495207965542089 0.0035657395353555551 0 -0.23267455799553721 0.007998835200770044 0 -0.23645994109254609 0.0083618427269583264 0 -0.23495207965542089 0.0035657395353555551 0 -0.223909433406355 0.054709833453104352 0 -0.230801885076063 0.037102114533611577 0 -0.24436480895215329 0.053655965690545732 0 -0.20846746085273701 0.044181051431653073 0 -0.223909433406355 0.054709833453104352 0 -0.230801885076063 0.037102114533611577 0 -0.25090496262120571 0.041687815465914803 0 -0.230801885076063 0.037102114533611577 0 -0.24436480895215329 0.053655965690545732 0 -0.25090496262120571 0.041687815465914803 0 -0.25185374232715141 0.028984337974395619 0 -0.230801885076063 0.037102114533611577 0 -0.223909433406355 0.054709833453104352 0 -0.24436480895215329 0.053655965690545732 0 -0.23637445050629541 0.067384346231746856 0 -0.25269526430123601 0.073368560798026852 0 -0.24436480895215329 0.053655965690545732 0 -0.23637445050629541 0.067384346231746856 0 -0.25269526430123601 0.073368560798026852 0 -0.23637445050629541 0.067384346231746856 0 -0.2386848446964645 0.081838901690451826 0 -0.25608094328003328 0.094733686625783312 0 -0.25269526430123601 0.073368560798026852 0 -0.2386848446964645 0.081838901690451826 0 -0.25608094328003328 0.094733686625783312 0 -0.2386848446964645 0.081838901690451826 0 -0.2346545320156373 0.097706954880128719 0 -0.2386848446964645 0.081838901690451826 0 -0.22355800793799741 0.08722552066378382 0 -0.22221790117526821 0.073348469526605481 0 -0.2386848446964645 0.081838901690451826 0 -0.22355800793799741 0.08722552066378382 0 -0.2346545320156373 0.097706954880128719 0 -0.23637445050629541 0.067384346231746856 0 -0.2386848446964645 0.081838901690451826 0 -0.22221790117526821 0.073348469526605481 0 -0.223909433406355 0.054709833453104352 0 -0.23637445050629541 0.067384346231746856 0 -0.22221790117526821 0.073348469526605481 0 -0.223909433406355 0.054709833453104352 0 -0.22221790117526821 0.073348469526605481 0 -0.199110071436365 0.065660742218634008 0 -0.22221790117526821 0.073348469526605481 0 -0.20919289789986781 0.084540433854620622 0 -0.199110071436365 0.065660742218634008 0 -0.22355800793799741 0.08722552066378382 0 -0.22221790117526821 0.073348469526605481 0 -0.20919289789986781 0.084540433854620622 0 -0.22355800793799741 0.08722552066378382 0 -0.20919289789986781 0.084540433854620622 0 -0.21093767952075099 0.104687355851547 0 -0.20919289789986781 0.084540433854620622 0 -0.19387380154746581 0.092990572108129166 0 -0.199110071436365 0.065660742218634008 0 -0.17692056279422819 0.084466206528225535 0 -0.19387380154746581 0.092990572108129166 0 -0.199110071436365 0.065660742218634008 0 -0.18722082702586471 0.1116677568229652 0 -0.20388216898380629 0.11861017141539219 0 -0.2008527873175498 0.13294780624118649 0 -0.18722082702586471 0.1116677568229652 0 -0.21093767952075099 0.104687355851547 0 -0.20388216898380629 0.11861017141539219 0 -0.18722082702586471 0.1116677568229652 0 -0.21093767952075099 0.104687355851547 0 -0.18722082702586471 0.1116677568229652 0 -0.19387380154746581 0.092990572108129166 0 -0.21093767952075099 0.104687355851547 0 -0.20919289789986781 0.084540433854620622 0 -0.19387380154746581 0.092990572108129166 0 -0.21093767952075099 0.104687355851547 0 -0.21093767952075099 0.104687355851547 0 -0.20388216898380629 0.11861017141539219 0 -0.21651738207105961 0.12513776674586979 0 -0.21093767952075099 0.104687355851547 0 -0.22881257017306461 0.1146868223870941 0 -0.21651738207105961 0.12513776674586979 0 -0.22881257017306461 0.1146868223870941 0 -0.23630317442193591 0.13308764599719719 0 -0.21651738207105961 0.12513776674586979 0 -0.21093767952075099 0.104687355851547 0 -0.2346545320156373 0.097706954880128719 0 -0.21093767952075099 0.104687355851547 0 -0.22881257017306461 0.1146868223870941 0 -0.2346545320156373 0.097706954880128719 0 -0.22355800793799741 0.08722552066378382 0 -0.21093767952075099 0.104687355851547 0 -0.2346545320156373 0.097706954880128719 0 -0.22881257017306461 0.1146868223870941 0 -0.24500907231697619 0.1074463931571972 0 -0.2346545320156373 0.097706954880128719 0 -0.25608094328003328 0.094733686625783312 0 -0.24500907231697619 0.1074463931571972 0 -0.2346545320156373 0.097706954880128719 0 -0.25721693353954428 0.1211810869256927 0 -0.22881257017306461 0.1146868223870941 0 -0.25721693353954428 0.1211810869256927 0 -0.22881257017306461 0.1146868223870941 0 -0.24500907231697619 0.1074463931571972 0 -0.25721693353954428 0.1211810869256927 0 -0.22881257017306461 0.1146868223870941 0 -0.23630317442193591 0.13308764599719719 0 -0.25192581145058118 0.1365964554109404 0 -0.23630317442193591 0.13308764599719719 0 -0.24862655215878851 0.15211355167568019 0 -0.25192581145058118 0.1365964554109404 0 -0.25721693353954428 0.1211810869256927 0 -0.23630317442193591 0.13308764599719719 0 -0.23630317442193591 0.13308764599719719 0 -0.21933983726830669 0.14353862809843529 0 -0.21651738207105961 0.12513776674586979 0 -0.23630317442193591 0.13308764599719719 0 -0.21933983726830669 0.14353862809843529 0 -0.23365520717694041 0.15366518477359081 0 -0.21933983726830669 0.14353862809843529 0 -0.23365520717694041 0.15366518477359081 0 -0.22347439754131901 0.16325005525961439 0 -0.23630317442193591 0.13308764599719719 0 -0.23365520717694041 0.15366518477359081 0 -0.24862655215878851 0.15211355167568019 0 -0.23365520717694041 0.15366518477359081 0 -0.24862655215878851 0.15211355167568019 0 -0.24053207449435199 0.17633604283702711 0 -0.25890903247075769 0.18974936598301159 0 -0.24053207449435199 0.17633604283702711 0 -0.24380733761213169 0.19558603500964639 0 -0.24053207449435199 0.17633604283702711 0 -0.21467197901111479 0.18140780904670969 0 -0.24053207449435199 0.17633604283702711 0 -0.22347439754131901 0.16325005525961439 0 -0.21467197901111479 0.18140780904670969 0 -0.24053207449435199 0.17633604283702711 0 -0.21467197901111479 0.18140780904670969 0 -0.2273569110440368 0.1972934116799904 0 -0.23365520717694041 0.15366518477359081 0 -0.24053207449435199 0.17633604283702711 0 -0.22347439754131901 0.16325005525961439 0 -0.22347439754131901 0.16325005525961439 0 -0.21321608711191151 0.16746690002805459 0 -0.2084653250157186 0.15297732591530919 0 -0.22347439754131901 0.16325005525961439 0 -0.21321608711191151 0.16746690002805459 0 -0.21467197901111479 0.18140780904670969 0 -0.21321608711191151 0.16746690002805459 0 -0.20381898398511911 0.16781637900069771 0 -0.2084653250157186 0.15297732591530919 0 -0.20381898398511911 0.16781637900069771 0 -0.21467197901111479 0.18140780904670969 0 -0.21321608711191151 0.16746690002805459 0 -0.20381898398511911 0.16781637900069771 0 -0.21467197901111479 0.18140780904670969 0 -0.20381898398511911 0.16781637900069771 0 -0.21467197901111479 0.18140780904670969 0 -0.20220742032678021 0.17803835180235511 0 -0.21467197901111479 0.18140780904670969 0 -0.2059495686841071 0.18311847658822319 0 -0.20220742032678021 0.17803835180235511 0 -0.21467197901111479 0.18140780904670969 0 -0.2059495686841071 0.18311847658822319 0 -0.2059495686841071 0.18311847658822319 0 -0.20220742032678021 0.17803835180235511 0 -0.2059495686841071 0.18311847658822319 0 -0.17978520034110121 0.18824991778284711 0 -0.2059495686841071 0.18311847658822319 0 -0.20220742032678021 0.17803835180235511 0 -0.17978520034110121 0.18824991778284711 0 -0.20220742032678021 0.17803835180235511 0 -0.17978520034110121 0.18824991778284711 0 -0.18611205961292129 0.16967258904437429 0 -0.20381898398511911 0.16781637900069771 0 -0.20220742032678021 0.17803835180235511 0 -0.18611205961292129 0.16967258904437429 0 -0.20381898398511911 0.16781637900069771 0 -0.19296598895912481 0.15422494895468469 0 -0.18611205961292129 0.16967258904437429 0 -0.20381898398511911 0.16781637900069771 0 -0.19296598895912481 0.15422494895468469 0 -0.20381898398511911 0.16781637900069771 0 -0.19296598895912481 0.15422494895468469 0 -0.2084653250157186 0.15297732591530919 0 -0.19091042079494991 0.14269526112418021 0 -0.2008527873175498 0.13294780624118649 0 -0.2084653250157186 0.15297732591530919 0 -0.19091042079494991 0.14269526112418021 0 -0.19296598895912481 0.15422494895468469 0 -0.2084653250157186 0.15297732591530919 0 -0.19091042079494991 0.14269526112418021 0 -0.2008527873175498 0.13294780624118649 0 -0.1808767991700298 0.13589728406276641 0 -0.18722082702586471 0.1116677568229652 0 -0.2008527873175498 0.13294780624118649 0 -0.1808767991700298 0.13589728406276641 0 -0.20388216898380629 0.11861017141539219 0 -0.2008527873175498 0.13294780624118649 0 -0.21651738207105961 0.12513776674586979 0 -0.21933983726830669 0.14353862809843529 0 -0.2008527873175498 0.13294780624118649 0 -0.21651738207105961 0.12513776674586979 0 -0.21933983726830669 0.14353862809843529 0 -0.22347439754131901 0.16325005525961439 0 -0.2084653250157186 0.15297732591530919 0 -0.21933983726830669 0.14353862809843529 0 -0.2008527873175498 0.13294780624118649 0 -0.2084653250157186 0.15297732591530919 0 -0.22968470663280449 0.24113565173044491 0 -0.2375037923746168 0.24504099864834841 0 -0.23513895004547231 0.23939805625919369 0 -0.22239161875833399 0.2375983139880499 0 -0.22968470663280449 0.24113565173044491 0 -0.23136862928677859 0.234273692847006 0 -0.22968470663280449 0.24113565173044491 0 -0.23513895004547231 0.23939805625919369 0 -0.23136862928677859 0.234273692847006 0 -0.22806177081000509 0.2498443673542364 0 -0.2375037923746168 0.24504099864834841 0 -0.22968470663280449 0.24113565173044491 0 -0.22806177081000509 0.2498443673542364 0 -0.2375037923746168 0.24504099864834841 0 -0.23690535836551499 0.25025759193612213 0 -0.22806177081000509 0.2498443673542364 0 -0.2375037923746168 0.24504099864834841 0 -0.22239161875833399 0.2375983139880499 0 -0.22968470663280449 0.24113565173044491 0 -0.22806177081000509 0.2498443673542364 0 -0.23690535836551499 0.25025759193612213 0 -0.2456404335157169 0.24636536170761711 0 -0.23690535836551499 0.25025759193612213 0 -0.2375037923746168 0.24504099864834841 0 -0.23690535836551499 0.25025759193612213 0 -0.2375037923746168 0.24504099864834841 0 -0.2456404335157169 0.24636536170761711 0 -0.2375037923746168 0.24504099864834841 0 -0.23791831567328489 0.24142756855480521 0 -0.23690535836551499 0.25025759193612213 0 -0.24450066847433061 0.25061248963169042 0 -0.2456404335157169 0.24636536170761711 0 -0.2375037923746168 0.24504099864834841 0 -0.2456404335157169 0.24636536170761711 0 -0.24748250903250751 0.2395012010415975 0 -0.2375037923746168 0.24504099864834841 0 -0.24748250903250751 0.2395012010415975 0 -0.24450066847433061 0.25061248963169042 0 -0.2456404335157169 0.24636536170761711 0 -0.2456404335157169 0.24636536170761711 0 -0.24748250903250751 0.2395012010415975 0 -0.25071676828298989 0.24389184486794099 0 -0.2456404335157169 0.24636536170761711 0 -0.24748250903250751 0.2395012010415975 0 -0.25071676828298989 0.24389184486794099 0 -0.2456404335157169 0.24636536170761711 0 -0.25140546773907307 0.25093512258706863 0 -0.24450066847433061 0.25061248963169042 0 -0.2456404335157169 0.24636536170761711 0 -0.25071676828298989 0.24389184486794099 0 -0.25140546773907307 0.25093512258706863 0 -0.2456404335157169 0.24636536170761711 0 -0.2375037923746168 0.24504099864834841 0 -0.24748250903250751 0.2395012010415975 0 -0.24238094338575361 0.23905530428124319 0 -0.24748250903250751 0.2395012010415975 0 -0.24238094338575361 0.23905530428124319 0 -0.23740218521983689 0.23402987349364859 0 -0.25071676828298989 0.24389184486794099 0 -0.24748250903250751 0.2395012010415975 0 -0.24238094338575361 0.23905530428124319 0 -0.23791831567328489 0.24142756855480521 0 -0.23740218521983689 0.23402987349364859 0 -0.2375037923746168 0.24504099864834841 0 -0.24238094338575361 0.23905530428124319 0 -0.23791831567328489 0.24142756855480521 0 -0.2375037923746168 0.24504099864834841 0 -0.23513895004547231 0.23939805625919369 0 -0.23791831567328489 0.24142756855480521 0 -0.23513895004547231 0.23939805625919369 0 -0.23791831567328489 0.24142756855480521 0 -0.23740218521983689 0.23402987349364859 0 -0.23513895004547231 0.23939805625919369 0 -0.23740218521983689 0.23402987349364859 0 -0.23136862928677859 0.234273692847006 0 -0.24748250903250751 0.2395012010415975 0 -0.23610597487503829 0.2240570743976851 0 -0.25378449172309969 0.21601800433849089 0 -0.23610597487503829 0.2240570743976851 0 -0.24748250903250751 0.2395012010415975 0 -0.23740218521983689 0.23402987349364859 0 -0.23610597487503829 0.2240570743976851 0 -0.23740218521983689 0.23402987349364859 0 -0.23610597487503829 0.2240570743976851 0 -0.23334829261920209 0.23018157346100401 0 -0.25378449172309969 0.21601800433849089 0 -0.24748250903250751 0.2395012010415975 0 -0.23610597487503829 0.2240570743976851 0 -0.23610597487503829 0.2240570743976851 0 -0.23682607366286459 0.21784498449250539 0 -0.2423741585716653 0.21609982122561031 0 -0.23610597487503829 0.2240570743976851 0 -0.22733136808949611 0.22699571437499211 0 -0.22905750955622931 0.2144884843928426 0 -0.23610597487503829 0.2240570743976851 0 -0.22905750955622931 0.2144884843928426 0 -0.23610597487503829 0.2240570743976851 0 -0.22905750955622931 0.2144884843928426 0 -0.23682607366286459 0.21784498449250539 0 -0.23610597487503829 0.2240570743976851 0 -0.23334829261920209 0.23018157346100401 0 -0.22733136808949611 0.22699571437499211 0 -0.22239161875833399 0.2375983139880499 0 -0.23136862928677859 0.234273692847006 0 -0.22733136808949611 0.22699571437499211 0 -0.23740218521983689 0.23402987349364859 0 -0.23334829261920209 0.23018157346100401 0 -0.23136862928677859 0.234273692847006 0 -0.23334829261920209 0.23018157346100401 0 -0.23136862928677859 0.234273692847006 0 -0.22733136808949611 0.22699571437499211 0 -0.22239161875833399 0.2375983139880499 0 -0.22733136808949611 0.22699571437499211 0 -0.21346536028303581 0.2276373189905096 0 -0.22733136808949611 0.22699571437499211 0 -0.22905750955622931 0.2144884843928426 0 -0.21346536028303581 0.2276373189905096 0 -0.22905750955622931 0.2144884843928426 0 -0.24004184307696 0.2131790143132701 0 -0.2273569110440368 0.1972934116799904 0 -0.22905750955622931 0.2144884843928426 0 -0.2273569110440368 0.1972934116799904 0 -0.21750353912016351 0.19880348049053631 0 -0.22905750955622931 0.2144884843928426 0 -0.21750353912016351 0.19880348049053631 0 -0.24004184307696 0.2131790143132701 0 -0.2273569110440368 0.1972934116799904 0 -0.22905750955622931 0.2144884843928426 0 -0.23682607366286459 0.21784498449250539 0 -0.24004184307696 0.2131790143132701 0 -0.22905750955622931 0.2144884843928426 0 -0.24004184307696 0.2131790143132701 0 -0.25219682697455181 0.2013723402349327 0 -0.24004184307696 0.2131790143132701 0 -0.24380733761213169 0.19558603500964639 0 -0.25378449172309969 0.21601800433849089 0 -0.23610597487503829 0.2240570743976851 0 -0.2423741585716653 0.21609982122561031 0 -0.24004184307696 0.2131790143132701 0 -0.2423741585716653 0.21609982122561031 0 -0.23682607366286459 0.21784498449250539 0 -0.24004184307696 0.2131790143132701 0 -0.2423741585716653 0.21609982122561031 0 -0.2550257320497028 0.2113927471493651 0 -0.24004184307696 0.2131790143132701 0 -0.2423741585716653 0.21609982122561031 0 -0.2550257320497028 0.2113927471493651 0 -0.24004184307696 0.2131790143132701 0 -0.25219682697455181 0.2013723402349327 0 -0.25542623019618349 0.20990036336876741 0 -0.24004184307696 0.2131790143132701 0 -0.24004184307696 0.2131790143132701 0 -0.24380733761213169 0.19558603500964639 0 -0.2273569110440368 0.1972934116799904 0 -0.24053207449435199 0.17633604283702711 0 -0.24380733761213169 0.19558603500964639 0 -0.2273569110440368 0.1972934116799904 0 -0.21467197901111479 0.18140780904670969 0 -0.2273569110440368 0.1972934116799904 0 -0.21467197901111479 0.18140780904670969 0 -0.2273569110440368 0.1972934116799904 0 -0.21750353912016351 0.19880348049053631 0 -0.2059495686841071 0.18311847658822319 0 -0.21750353912016351 0.19880348049053631 0 -0.2059495686841071 0.18311847658822319 0 -0.21750353912016351 0.19880348049053631 0 -0.1923111911811026 0.20202608214951651 0 -0.21467197901111479 0.18140780904670969 0 -0.2059495686841071 0.18311847658822319 0 -0.21750353912016351 0.19880348049053631 0 -0.2059495686841071 0.18311847658822319 0 -0.1923111911811026 0.20202608214951651 0 -0.17978520034110121 0.18824991778284711 0 -0.1923111911811026 0.20202608214951651 0 -0.20347511294372611 0.21753822636076689 0 -0.17789271633122269 0.22058796832869049 0 -0.21750353912016351 0.19880348049053631 0 -0.1923111911811026 0.20202608214951651 0 -0.20347511294372611 0.21753822636076689 0 -0.22905750955622931 0.2144884843928426 0 -0.20347511294372611 0.21753822636076689 0 -0.22905750955622931 0.2144884843928426 0 -0.21750353912016351 0.19880348049053631 0 -0.20347511294372611 0.21753822636076689 0 -0.20347511294372611 0.21753822636076689 0 -0.21346536028303581 0.2276373189905096 0 -0.19412251608946149 0.2324822028219555 0 -0.22905750955622931 0.2144884843928426 0 -0.20347511294372611 0.21753822636076689 0 -0.21346536028303581 0.2276373189905096 0 -0.20347511294372611 0.21753822636076689 0 -0.19412251608946149 0.2324822028219555 0 -0.17789271633122269 0.22058796832869049 0 -0.20347511294372611 0.21753822636076689 0 -0.17789271633122269 0.22058796832869049 0 -0.19412251608946149 0.2324822028219555 0 -0.20248468331903779 0.24864925493883061 0 -0.17690759582807039 0.24745414252342521 0 -0.20248468331903779 0.24864925493883061 0 -0.17690759582807039 0.24745414252342521 0 -0.22239161875833399 0.2375983139880499 0 -0.22806177081000509 0.2498443673542364 0 -0.20248468331903779 0.24864925493883061 0 -0.21346536028303581 0.2276373189905096 0 -0.19412251608946149 0.2324822028219555 0 -0.20248468331903779 0.24864925493883061 0 -0.22239161875833399 0.2375983139880499 0 -0.21346536028303581 0.2276373189905096 0 -0.20248468331903779 0.24864925493883061 0 -0.22806177081000509 0.2498443673542364 0 -0.20248468331903779 0.24864925493883061 0 -0.16277648255979421 0.25212220605366592 0 -0.17690759582807039 0.24745414252342521 0 -0.1513305083371031 0.24625903010801989 0 -0.17690759582807039 0.24745414252342521 0 -0.1513305083371031 0.24625903010801989 0 -0.16462949717048431 0.2349839774875874 0 -0.17690759582807039 0.24745414252342521 0 -0.1513305083371031 0.24625903010801989 0 -0.19412251608946149 0.2324822028219555 0 -0.17690759582807039 0.24745414252342521 0 -0.17789271633122269 0.22058796832869049 0 -0.16462949717048431 0.2349839774875874 0 -0.17690759582807039 0.24745414252342521 0 -0.17789271633122269 0.22058796832869049 0 -0.17789271633122269 0.22058796832869049 0 -0.15231031971871931 0.22363771029661339 0 -0.16462949717048431 0.2349839774875874 0 -0.17789271633122269 0.22058796832869049 0 -0.15231031971871931 0.22363771029661339 0 -0.17789271633122269 0.22058796832869049 0 -0.16996182681197841 0.20448458375456349 0 -0.15231031971871931 0.22363771029661339 0 -0.16996182681197841 0.20448458375456349 0 -0.15362083199809609 0.19338135897747491 0 -0.15231031971871931 0.22363771029661339 0 -0.1923111911811026 0.20202608214951651 0 -0.17789271633122269 0.22058796832869049 0 -0.16996182681197841 0.20448458375456349 0 -0.1923111911811026 0.20202608214951651 0 -0.16996182681197841 0.20448458375456349 0 -0.17978520034110121 0.18824991778284711 0 -0.17978520034110121 0.18824991778284711 0 -0.15362083199809609 0.19338135897747491 0 -0.16996182681197841 0.20448458375456349 0 -0.17978520034110121 0.18824991778284711 0 -0.15362083199809609 0.19338135897747491 0 -0.15362083199809609 0.19338135897747491 0 -0.13102388105455931 0.19781314664475511 0 -0.15362083199809609 0.19338135897747491 0 -0.13102388105455931 0.19781314664475511 0 -0.14000786943594321 0.21084607913080949 0 -0.15362083199809609 0.19338135897747491 0 -0.13102388105455931 0.19781314664475511 0 -0.1344005544667787 0.17769708514514959 0 -0.13102388105455931 0.19781314664475511 0 -0.14000786943594321 0.21084607913080949 0 -0.1275928673476377 0.2137554492453978 0 -0.13102388105455931 0.19781314664475511 0 -0.1275928673476377 0.2137554492453978 0 -0.1183529081253166 0.2075014411557434 0 -0.14000786943594321 0.21084607913080949 0 -0.1275928673476377 0.2137554492453978 0 -0.13549144706070701 0.22564273048980549 0 -0.15362083199809609 0.19338135897747491 0 -0.15231031971871931 0.22363771029661339 0 -0.15362083199809609 0.19338135897747491 0 -0.14000786943594321 0.21084607913080949 0 -0.15231031971871931 0.22363771029661339 0 -0.14000786943594321 0.21084607913080949 0 -0.15231031971871931 0.22363771029661339 0 -0.13549144706070701 0.22564273048980549 0 -0.15231031971871931 0.22363771029661339 0 -0.13549144706070701 0.22564273048980549 0 -0.15231031971871931 0.22363771029661339 0 -0.13549144706070701 0.22564273048980549 0 -0.14330348274902729 0.23491763098178911 0 -0.13549144706070701 0.22564273048980549 0 -0.12720216381787719 0.24513161151087551 0 -0.1240988793204668 0.22570270079601501 0 -0.1275928673476377 0.2137554492453978 0 -0.13549144706070701 0.22564273048980549 0 -0.1240988793204668 0.22570270079601501 0 -0.12720216381787719 0.24513161151087551 0 -0.1513305083371031 0.24625903010801989 0 -0.12720216381787719 0.24513161151087551 0 -0.14330348274902729 0.23491763098178911 0 -0.1513305083371031 0.24625903010801989 0 -0.13549144706070701 0.22564273048980549 0 -0.12720216381787719 0.24513161151087551 0 -0.14330348274902729 0.23491763098178911 0 -0.16462949717048431 0.2349839774875874 0 -0.15231031971871931 0.22363771029661339 0 -0.1513305083371031 0.24625903010801989 0 -0.15231031971871931 0.22363771029661339 0 -0.1513305083371031 0.24625903010801989 0 -0.1445311920961754 0.25757504982419871 0 -0.12720216381787719 0.24513161151087551 0 -0.1513305083371031 0.24625903010801989 0 -0.15231031971871931 0.22363771029661339 0 -0.14330348274902729 0.23491763098178911 0 -0.1513305083371031 0.24625903010801989 0 -0.1676837781324978 0.14288356534412641 0 -0.17575953782373119 0.152959010604512 0 -0.15491762102987819 0.16344184208013579 0 -0.1676837781324978 0.14288356534412641 0 -0.15491762102987819 0.16344184208013579 0 -0.156214410061665 0.13350232518279689 0 -0.1635039745309782 0.11864815779438349 0 -0.17065052257718499 0.12861736479042091 0 -0.156214410061665 0.13350232518279689 0 -0.1676837781324978 0.14288356534412641 0 -0.17065052257718499 0.12861736479042091 0 -0.156214410061665 0.13350232518279689 0 -0.18722082702586471 0.1116677568229652 0 -0.17065052257718499 0.12861736479042091 0 -0.1808767991700298 0.13589728406276641 0 -0.1676837781324978 0.14288356534412641 0 -0.17065052257718499 0.12861736479042091 0 -0.1808767991700298 0.13589728406276641 0 -0.1676837781324978 0.14288356534412641 0 -0.1808767991700298 0.13589728406276641 0 -0.17575953782373119 0.152959010604512 0 -0.19091042079494991 0.14269526112418021 0 -0.1808767991700298 0.13589728406276641 0 -0.17575953782373119 0.152959010604512 0 -0.19091042079494991 0.14269526112418021 0 -0.19296598895912481 0.15422494895468469 0 -0.17575953782373119 0.152959010604512 0 -0.17575953782373119 0.152959010604512 0 -0.18611205961292129 0.16967258904437429 0 -0.15491762102987819 0.16344184208013579 0 -0.19296598895912481 0.15422494895468469 0 -0.17575953782373119 0.152959010604512 0 -0.18611205961292129 0.16967258904437429 0 -0.17978520034110121 0.18824991778284711 0 -0.18611205961292129 0.16967258904437429 0 -0.15491762102987819 0.16344184208013579 0 -0.17978520034110121 0.18824991778284711 0 -0.15362083199809609 0.19338135897747491 0 -0.15491762102987819 0.16344184208013579 0 -0.15491762102987819 0.16344184208013579 0 -0.13394157032611839 0.15992028124239549 0 -0.14166143408367071 0.1455249078140971 0 -0.15491762102987819 0.16344184208013579 0 -0.1344005544667787 0.17769708514514959 0 -0.13394157032611839 0.15992028124239549 0 -0.15362083199809609 0.19338135897747491 0 -0.15491762102987819 0.16344184208013579 0 -0.1344005544667787 0.17769708514514959 0 -0.15362083199809609 0.19338135897747491 0 -0.15491762102987819 0.16344184208013579 0 -0.13102388105455931 0.19781314664475511 0 -0.1344005544667787 0.17769708514514959 0 -0.1176176273063563 0.1838198425528958 0 -0.1344005544667787 0.17769708514514959 0 -0.13394157032611839 0.15992028124239549 0 -0.1162693169135498 0.16726284586717019 0 -0.13394157032611839 0.15992028124239549 0 -0.14166143408367071 0.1455249078140971 0 -0.12443396879248619 0.14458833829328641 0 -0.15491762102987819 0.16344184208013579 0 -0.14166143408367071 0.1455249078140971 0 -0.156214410061665 0.13350232518279689 0 -0.15491762102987819 0.16344184208013579 0 -0.156214410061665 0.13350232518279689 0 -0.14166143408367071 0.1455249078140971 0 -0.156214410061665 0.13350232518279689 0 -0.1397871220360917 0.12562855876580181 0 -0.1635039745309782 0.11864815779438349 0 -0.156214410061665 0.13350232518279689 0 -0.1397871220360917 0.12562855876580181 0 -0.1325986206714227 0.12191383071940259 0 -0.1397871220360917 0.12562855876580181 0 -0.12443396879248619 0.14458833829328641 0 -0.14166143408367071 0.1455249078140971 0 -0.1397871220360917 0.12562855876580181 0 -0.12443396879248619 0.14458833829328641 0 -0.1325986206714227 0.12191383071940259 0 -0.12443396879248619 0.14458833829328641 0 -0.1151331545777611 0.12821276872612189 0 -0.1075187159646304 0.14042716490425211 0 -0.12443396879248619 0.14458833829328641 0 -0.1325986206714227 0.12191383071940259 0 -0.1151331545777611 0.12821276872612189 0 -0.12443396879248619 0.14458833829328641 0 -0.1151331545777611 0.12821276872612189 0 -0.1075187159646304 0.14042716490425211 0 -0.1013354265733788 0.12811334555178591 0 -0.1075187159646304 0.14042716490425211 0 -0.1013354265733788 0.12811334555178591 0 -0.092127407950395285 0.1443921007378256 0 -0.1075187159646304 0.14042716490425211 0 -0.1080963235059761 0.1543189746553108 0 -0.092127407950395285 0.1443921007378256 0 -0.12443396879248619 0.14458833829328641 0 -0.1162693169135498 0.16726284586717019 0 -0.1080963235059761 0.1543189746553108 0 -0.12443396879248619 0.14458833829328641 0 -0.1162693169135498 0.16726284586717019 0 -0.1075187159646304 0.14042716490425211 0 -0.1080963235059761 0.1543189746553108 0 -0.12443396879248619 0.14458833829328641 0 -0.13394157032611839 0.15992028124239549 0 -0.12443396879248619 0.14458833829328641 0 -0.1162693169135498 0.16726284586717019 0 -0.1344005544667787 0.17769708514514959 0 -0.1162693169135498 0.16726284586717019 0 -0.1176176273063563 0.1838198425528958 0 -0.1162693169135498 0.16726284586717019 0 -0.1176176273063563 0.1838198425528958 0 -0.1002771690307081 0.1733185175249301 0 -0.1002771690307081 0.1733185175249301 0 -0.086277569601895615 0.16735555952211181 0 -0.099712278087290551 0.18936093924787201 0 -0.1176176273063563 0.1838198425528958 0 -0.1002771690307081 0.1733185175249301 0 -0.10842693011102229 0.20224493431203419 0 -0.1002771690307081 0.1733185175249301 0 -0.092127407950395285 0.1443921007378256 0 -0.1080963235059761 0.1543189746553108 0 -0.1002771690307081 0.1733185175249301 0 -0.092127407950395285 0.1443921007378256 0 -0.1080963235059761 0.1543189746553108 0 -0.1162693169135498 0.16726284586717019 0 -0.1002771690307081 0.1733185175249301 0 -0.1002771690307081 0.1733185175249301 0 -0.086277569601895615 0.16735555952211181 0 -0.092127407950395285 0.1443921007378256 0 -0.086277569601895615 0.16735555952211181 0 -0.072842861116500665 0.14535017979635159 0 -0.086277569601895615 0.16735555952211181 0 -0.084878423685809667 0.18378887479852149 0 -0.075275522542591858 0.17406251713102641 0 -0.086277569601895615 0.16735555952211181 0 -0.084878423685809667 0.18378887479852149 0 -0.099712278087290551 0.18936093924787201 0 -0.086277569601895615 0.16735555952211181 0 -0.099712278087290551 0.18936093924787201 0 -0.075275522542591858 0.17406251713102641 0 -0.070885541010758835 0.1882274715793418 0 -0.057055546821747127 0.17289398358901609 0 -0.084878423685809667 0.18378887479852149 0 -0.075275522542591858 0.17406251713102641 0 -0.070885541010758835 0.1882274715793418 0 -0.086277569601895615 0.16735555952211181 0 -0.068808086926073014 0.16279432057741541 0 -0.072842861116500665 0.14535017979635159 0 -0.086277569601895615 0.16735555952211181 0 -0.075275522542591858 0.17406251713102641 0 -0.068808086926073014 0.16279432057741541 0 -0.075275522542591858 0.17406251713102641 0 -0.068808086926073014 0.16279432057741541 0 -0.057055546821747127 0.17289398358901609 0 -0.068808086926073014 0.16279432057741541 0 -0.072842861116500665 0.14535017979635159 0 -0.056646677164315547 0.15076007669640951 0 -0.072842861116500665 0.14535017979635159 0 -0.05940815263110566 0.1233448000705913 0 -0.083977646870082426 0.1154656839507209 0 -0.072842861116500665 0.14535017979635159 0 -0.05940815263110566 0.1233448000705913 0 -0.072842861116500665 0.14535017979635159 0 -0.056646677164315547 0.15076007669640951 0 -0.05940815263110566 0.1233448000705913 0 -0.1013354265733788 0.12811334555178591 0 -0.092127407950395285 0.1443921007378256 0 -0.083977646870082426 0.1154656839507209 0 -0.072842861116500665 0.14535017979635159 0 -0.092127407950395285 0.1443921007378256 0 -0.083977646870082426 0.1154656839507209 0 -0.092127407950395285 0.1443921007378256 0 -0.083977646870082426 0.1154656839507209 0 -0.086277569601895615 0.16735555952211181 0 -0.072842861116500665 0.14535017979635159 0 -0.092127407950395285 0.1443921007378256 0 -0.10307381929865141 0.24400419291373121 0 -0.097309309390385831 0.2203179747826898 0 -0.086087001270923794 0.2455565935372688 0 -0.1008513608980086 0.25749881238103101 0 -0.10307381929865141 0.24400419291373121 0 -0.086087001270923794 0.2455565935372688 0 -0.12720216381787719 0.24513161151087551 0 -0.10307381929865141 0.24400419291373121 0 -0.11334237351859031 0.22993683902540771 0 -0.12720216381787719 0.24513161151087551 0 -0.10307381929865141 0.24400419291373121 0 -0.12720216381787719 0.24513161151087551 0 -0.11334237351859031 0.22993683902540771 0 -0.1240988793204668 0.22570270079601501 0 -0.11334237351859031 0.22993683902540771 0 -0.1240988793204668 0.22570270079601501 0 -0.1150962322846667 0.21719767661635589 0 -0.1275928673476377 0.2137554492453978 0 -0.1240988793204668 0.22570270079601501 0 -0.1150962322846667 0.21719767661635589 0 -0.10307381929865141 0.24400419291373121 0 -0.11334237351859031 0.22993683902540771 0 -0.097309309390385831 0.2203179747826898 0 -0.11334237351859031 0.22993683902540771 0 -0.097309309390385831 0.2203179747826898 0 -0.1150962322846667 0.21719767661635589 0 -0.097309309390385831 0.2203179747826898 0 -0.1096246298286972 0.20649599896017409 0 -0.10842693011102229 0.20224493431203419 0 -0.097309309390385831 0.2203179747826898 0 -0.1150962322846667 0.21719767661635589 0 -0.1096246298286972 0.20649599896017409 0 -0.097309309390385831 0.2203179747826898 0 -0.10842693011102229 0.20224493431203419 0 -0.084519642686831403 0.20693370944056211 0 -0.10842693011102229 0.20224493431203419 0 -0.084519642686831403 0.20693370944056211 0 -0.1096246298286972 0.20649599896017409 0 -0.10842693011102229 0.20224493431203419 0 -0.1275928673476377 0.2137554492453978 0 -0.1150962322846667 0.21719767661635589 0 -0.1183529081253166 0.2075014411557434 0 -0.1183529081253166 0.2075014411557434 0 -0.1096246298286972 0.20649599896017409 0 -0.10842693011102229 0.20224493431203419 0 -0.1150962322846667 0.21719767661635589 0 -0.1183529081253166 0.2075014411557434 0 -0.1096246298286972 0.20649599896017409 0 -0.13102388105455931 0.19781314664475511 0 -0.10842693011102229 0.20224493431203419 0 -0.13102388105455931 0.19781314664475511 0 -0.1183529081253166 0.2075014411557434 0 -0.10842693011102229 0.20224493431203419 0 -0.13102388105455931 0.19781314664475511 0 -0.1176176273063563 0.1838198425528958 0 -0.10842693011102229 0.20224493431203419 0 -0.1002771690307081 0.1733185175249301 0 -0.099712278087290551 0.18936093924787201 0 -0.10842693011102229 0.20224493431203419 0 -0.1002771690307081 0.1733185175249301 0 -0.10842693011102229 0.20224493431203419 0 -0.099712278087290551 0.18936093924787201 0 -0.10842693011102229 0.20224493431203419 0 -0.084519642686831403 0.20693370944056211 0 -0.084878423685809667 0.18378887479852149 0 -0.070885541010758835 0.1882274715793418 0 -0.084519642686831403 0.20693370944056211 0 -0.084878423685809667 0.18378887479852149 0 -0.099712278087290551 0.18936093924787201 0 -0.084519642686831403 0.20693370944056211 0 -0.070885541010758835 0.1882274715793418 0 -0.084519642686831403 0.20693370944056211 0 -0.060612355262640527 0.21162248456909011 0 -0.084519642686831403 0.20693370944056211 0 -0.060612355262640527 0.21162248456909011 0 -0.084519642686831403 0.20693370944056211 0 -0.071181464182091606 0.22751107159076331 0 -0.060612355262640527 0.21162248456909011 0 -0.097309309390385831 0.2203179747826898 0 -0.084519642686831403 0.20693370944056211 0 -0.071181464182091606 0.22751107159076331 0 -0.097309309390385831 0.2203179747826898 0 -0.071181464182091606 0.22751107159076331 0 -0.086087001270923794 0.2455565935372688 0 -0.071181464182091606 0.22751107159076331 0 -0.069493876400734456 0.2495100909061044 0 -0.086087001270923794 0.2455565935372688 0 -0.071181464182091606 0.22751107159076331 0 -0.069493876400734456 0.2495100909061044 0 -0.05001679168122556 0.23665154764952501 0 -0.039287439221070357 0.26265333993166201 0 -0.05001679168122556 0.23665154764952501 0 -0.030364495892239569 0.24424720113204029 0 -0.05001679168122556 0.23665154764952501 0 -0.030539706961716661 0.22379300439294561 0 -0.030364495892239569 0.24424720113204029 0 -0.039287439221070357 0.26265333993166201 0 -0.069493876400734456 0.2495100909061044 0 -0.05001679168122556 0.23665154764952501 0 -0.069493876400734456 0.2495100909061044 0 -0.05001679168122556 0.23665154764952501 0 -0.071181464182091606 0.22751107159076331 0 -0.05001679168122556 0.23665154764952501 0 -0.049811077185224803 0.22317787357998839 0 -0.071181464182091606 0.22751107159076331 0 -0.049811077185224803 0.22317787357998839 0 -0.060612355262640527 0.21162248456909011 0 -0.05001679168122556 0.23665154764952501 0 -0.030539706961716661 0.22379300439294561 0 -0.05001679168122556 0.23665154764952501 0 -0.049811077185224803 0.22317787357998839 0 -0.030539706961716661 0.22379300439294561 0 -0.049811077185224803 0.22317787357998839 0 -0.036705067838449651 0.21631125969761819 0 -0.030539706961716661 0.22379300439294561 0 -0.036705067838449651 0.21631125969761819 0 -0.043058545982947817 0.20335660823720589 0 -0.060612355262640527 0.21162248456909011 0 -0.036705067838449651 0.21631125969761819 0 -0.043058545982947817 0.20335660823720589 0 -0.030340880125518641 0.20499841494488011 0 -0.049811077185224803 0.22317787357998839 0 -0.036705067838449651 0.21631125969761819 0 -0.060612355262640527 0.21162248456909011 0 -0.036705067838449651 0.21631125969761819 0 -0.060612355262640527 0.21162248456909011 0 -0.070885541010758835 0.1882274715793418 0 -0.060612355262640527 0.21162248456909011 0 -0.05266399392131868 0.19137442658194809 0 -0.043058545982947817 0.20335660823720589 0 -0.060612355262640527 0.21162248456909011 0 -0.05266399392131868 0.19137442658194809 0 -0.043058545982947817 0.20335660823720589 0 -0.05266399392131868 0.19137442658194809 0 -0.034970432766811603 0.19247645539249281 0 -0.05266399392131868 0.19137442658194809 0 -0.034970432766811603 0.19247645539249281 0 -0.039037835621877889 0.17931038541145161 0 -0.043058545982947817 0.20335660823720589 0 -0.034970432766811603 0.19247645539249281 0 -0.030340880125518641 0.20499841494488011 0 -0.034970432766811603 0.19247645539249281 0 -0.021695680945717239 0.19499629490305759 0 -0.019226715568421291 0.17957369182858199 0 -0.034970432766811603 0.19247645539249281 0 -0.021695680945717239 0.19499629490305759 0 -0.030340880125518641 0.20499841494488011 0 -0.021695680945717239 0.19499629490305759 0 -0.016726763618612771 0.20718418326778781 0 -0.030340880125518641 0.20499841494488011 0 -0.021695680945717239 0.19499629490305759 0 -0.003406223443772536 0.1932373578500165 0 -0.019226715568421291 0.17957369182858199 0 -0.021695680945717239 0.19499629490305759 0 -0.003406223443772536 0.1932373578500165 0 -0.016726763618612771 0.20718418326778781 0 -0.003406223443772536 0.1932373578500165 0 -0.016726763618612771 0.20718418326778781 0 0.002625625039731759 0.21300568861106101 0 -0.016726763618612771 0.20718418326778781 0 -0.015864197193850581 0.22197691089906679 0 0.002625625039731759 0.21300568861106101 0 -0.016726763618612771 0.20718418326778781 0 -0.026035323147629661 0.21485275464045969 0 -0.015864197193850581 0.22197691089906679 0 -0.016726763618612771 0.20718418326778781 0 -0.030340880125518641 0.20499841494488011 0 -0.026035323147629661 0.21485275464045969 0 -0.036705067838449651 0.21631125969761819 0 -0.030340880125518641 0.20499841494488011 0 -0.026035323147629661 0.21485275464045969 0 -0.036705067838449651 0.21631125969761819 0 -0.026035323147629661 0.21485275464045969 0 -0.030539706961716661 0.22379300439294561 0 -0.030539706961716661 0.22379300439294561 0 -0.022089094348624942 0.23153742197478949 0 -0.030364495892239569 0.24424720113204029 0 -0.026035323147629661 0.21485275464045969 0 -0.030539706961716661 0.22379300439294561 0 -0.015864197193850581 0.22197691089906679 0 -0.022089094348624942 0.23153742197478949 0 -0.015864197193850581 0.22197691089906679 0 -0.011587977346692939 0.23613257147510561 0 -0.030539706961716661 0.22379300439294561 0 -0.022089094348624942 0.23153742197478949 0 -0.015864197193850581 0.22197691089906679 0 -0.015864197193850581 0.22197691089906679 0 -0.0021247785171176151 0.22601735370835049 0 0.002625625039731759 0.21300568861106101 0 -0.011587977346692939 0.23613257147510561 0 0.01010793476754453 0.23251585263134841 0 -0.0021247785171176151 0.22601735370835049 0 -0.011587977346692939 0.23613257147510561 0 0.01010793476754453 0.23251585263134841 0 -0.015864197193850581 0.22197691089906679 0 -0.0021247785171176151 0.22601735370835049 0 -0.011587977346692939 0.23613257147510561 0 -0.013878136972569651 0.25506506865170991 0 -0.011587977346692939 0.23613257147510561 0 0.0059300298915795913 0.2474731915047787 0 -0.022089094348624942 0.23153742197478949 0 -0.011587977346692939 0.23613257147510561 0 -0.030364495892239569 0.24424720113204029 0 -0.013878136972569651 0.25506506865170991 0 -0.011587977346692939 0.23613257147510561 0 -0.030364495892239569 0.24424720113204029 0 -0.040273751790277923 0.1459112960477856 0 -0.056646677164315547 0.15076007669640951 0 -0.036206741116859488 0.16451850439864871 0 -0.040273751790277923 0.1459112960477856 0 -0.036206741116859488 0.16451850439864871 0 -0.021130278165483171 0.1543510626896796 0 -0.040273751790277923 0.1459112960477856 0 -0.036092286276845353 0.12195034943035191 0 -0.05940815263110566 0.1233448000705913 0 -0.040273751790277923 0.1459112960477856 0 -0.025972125879091 0.13667323492998931 0 -0.036092286276845353 0.12195034943035191 0 -0.040273751790277923 0.1459112960477856 0 -0.056646677164315547 0.15076007669640951 0 -0.05940815263110566 0.1233448000705913 0 -0.056646677164315547 0.15076007669640951 0 -0.057055546821747127 0.17289398358901609 0 -0.036206741116859488 0.16451850439864871 0 -0.068808086926073014 0.16279432057741541 0 -0.056646677164315547 0.15076007669640951 0 -0.057055546821747127 0.17289398358901609 0 -0.070885541010758835 0.1882274715793418 0 -0.05266399392131868 0.19137442658194809 0 -0.057055546821747127 0.17289398358901609 0 -0.05266399392131868 0.19137442658194809 0 -0.057055546821747127 0.17289398358901609 0 -0.039037835621877889 0.17931038541145161 0 -0.039037835621877889 0.17931038541145161 0 -0.036206741116859488 0.16451850439864871 0 -0.019226715568421291 0.17957369182858199 0 -0.057055546821747127 0.17289398358901609 0 -0.039037835621877889 0.17931038541145161 0 -0.036206741116859488 0.16451850439864871 0 -0.036206741116859488 0.16451850439864871 0 -0.019226715568421291 0.17957369182858199 0 -0.021130278165483171 0.1543510626896796 0 -0.034970432766811603 0.19247645539249281 0 -0.039037835621877889 0.17931038541145161 0 -0.019226715568421291 0.17957369182858199 0 -0.003406223443772536 0.1932373578500165 0 -0.019226715568421291 0.17957369182858199 0 0.0073925254234195204 0.1781571785659852 0 -0.019226715568421291 0.17957369182858199 0 -0.0020877106889532829 0.1584513335905324 0 0.0073925254234195204 0.1781571785659852 0 -0.019226715568421291 0.17957369182858199 0 0.0073925254234195204 0.1781571785659852 0 -0.019226715568421291 0.17957369182858199 0 -0.0020877106889532829 0.1584513335905324 0 -0.021130278165483171 0.1543510626896796 0 -0.0020877106889532829 0.1584513335905324 0 -0.021130278165483171 0.1543510626896796 0 -0.01156794680132861 0.13874548861508079 0 -0.0020877106889532829 0.1584513335905324 0 -0.01156794680132861 0.13874548861508079 0 0.0052848697609242856 0.14102107748987441 0 -0.0020877106889532829 0.1584513335905324 0 -0.01156794680132861 0.13874548861508079 0 -0.021130278165483171 0.1543510626896796 0 -0.025972125879091 0.13667323492998931 0 -0.01156794680132861 0.13874548861508079 0 -0.040273751790277923 0.1459112960477856 0 -0.021130278165483171 0.1543510626896796 0 -0.025972125879091 0.13667323492998931 0 -0.025972125879091 0.13667323492998931 0 -0.014806028460139181 0.1202461379679652 0 -0.036092286276845353 0.12195034943035191 0 -0.025972125879091 0.13667323492998931 0 -0.01156794680132861 0.13874548861508079 0 -0.014806028460139181 0.1202461379679652 0 -0.01156794680132861 0.13874548861508079 0 0.0029912304391329979 0.1245263923394986 0 0.0052848697609242856 0.14102107748987441 0 -0.01156794680132861 0.13874548861508079 0 -0.014806028460139181 0.1202461379679652 0 0.0029912304391329979 0.1245263923394986 0 -0.014806028460139181 0.1202461379679652 0 -0.00047529199730970658 0.1097243403541177 0 -0.012073866741242469 0.1029169965830885 0 -0.014806028460139181 0.1202461379679652 0 -0.00047529199730970658 0.1097243403541177 0 0.0029912304391329979 0.1245263923394986 0 -0.00047529199730970658 0.1097243403541177 0 -0.012073866741242469 0.1029169965830885 0 0.001281714263862485 0.097296058361715662 0 -0.012073866741242469 0.1029169965830885 0 -0.0070670887965758201 0.088578704133560615 0 0.001281714263862485 0.097296058361715662 0 -0.012073866741242469 0.1029169965830885 0 -0.029356947317417129 0.1011014517199714 0 -0.020927599149131861 0.086782661895465199 0 -0.014806028460139181 0.1202461379679652 0 -0.012073866741242469 0.1029169965830885 0 -0.029356947317417129 0.1011014517199714 0 -0.014806028460139181 0.1202461379679652 0 -0.029356947317417129 0.1011014517199714 0 -0.036092286276845353 0.12195034943035191 0 -0.0064452047556455023 0.069535701842990946 0 -0.004066418229630199 0.054354837343120382 0 0.006938182241853468 0.080309805575105642 0 -0.0064452047556455023 0.069535701842990946 0 -0.0141938621718399 0.073959148685890125 0 -0.016509947635750751 0.061444561089939197 0 -0.0064452047556455023 0.069535701842990946 0 -0.0043939779828601287 0.077610156520899365 0 0.006938182241853468 0.080309805575105642 0 -0.0064452047556455023 0.069535701842990946 0 -0.0043939779828601287 0.077610156520899365 0 -0.0141938621718399 0.073959148685890125 0 -0.012073866741242469 0.1029169965830885 0 -0.0070670887965758201 0.088578704133560615 0 -0.020927599149131861 0.086782661895465199 0 -0.0043939779828601287 0.077610156520899365 0 -0.0141938621718399 0.073959148685890125 0 -0.0070670887965758201 0.088578704133560615 0 -0.0141938621718399 0.073959148685890125 0 -0.0070670887965758201 0.088578704133560615 0 -0.020927599149131861 0.086782661895465199 0 -0.0043939779828601287 0.077610156520899365 0 -0.0070670887965758201 0.088578704133560615 0 0.006938182241853468 0.080309805575105642 0 -0.020927599149131861 0.086782661895465199 0 -0.027363364392216309 0.069923248723519321 0 -0.035510465475499527 0.084216421526761259 0 -0.029356947317417129 0.1011014517199714 0 -0.020927599149131861 0.086782661895465199 0 -0.035510465475499527 0.084216421526761259 0 -0.0141938621718399 0.073959148685890125 0 -0.020927599149131861 0.086782661895465199 0 -0.027363364392216309 0.069923248723519321 0 -0.027363364392216309 0.069923248723519321 0 -0.016509947635750751 0.061444561089939197 0 -0.03004215072405737 0.056537831217791393 0 -0.0141938621718399 0.073959148685890125 0 -0.027363364392216309 0.069923248723519321 0 -0.016509947635750751 0.061444561089939197 0 -0.027363364392216309 0.069923248723519321 0 -0.041980205369143923 0.069924639650581003 0 -0.03004215072405737 0.056537831217791393 0 -0.027363364392216309 0.069923248723519321 0 -0.041980205369143923 0.069924639650581003 0 -0.035510465475499527 0.084216421526761259 0 -0.041980205369143923 0.069924639650581003 0 -0.035510465475499527 0.084216421526761259 0 -0.05398582848507353 0.085849672891545242 0 -0.035510465475499527 0.084216421526761259 0 -0.05398582848507353 0.085849672891545242 0 -0.046666731544732228 0.1034604126881819 0 -0.041980205369143923 0.069924639650581003 0 -0.059939703881765463 0.067733364004902041 0 -0.045039719256251297 0.055287299538966848 0 -0.041980205369143923 0.069924639650581003 0 -0.05398582848507353 0.085849672891545242 0 -0.059939703881765463 0.067733364004902041 0 -0.029356947317417129 0.1011014517199714 0 -0.036092286276845353 0.12195034943035191 0 -0.046666731544732228 0.1034604126881819 0 -0.029356947317417129 0.1011014517199714 0 -0.035510465475499527 0.084216421526761259 0 -0.046666731544732228 0.1034604126881819 0 -0.05398582848507353 0.085849672891545242 0 -0.046666731544732228 0.1034604126881819 0 -0.063973249064152693 0.1029319673529311 0 -0.046666731544732228 0.1034604126881819 0 -0.05940815263110566 0.1233448000705913 0 -0.063973249064152693 0.1029319673529311 0 -0.036092286276845353 0.12195034943035191 0 -0.046666731544732228 0.1034604126881819 0 -0.05940815263110566 0.1233448000705913 0 -0.05940815263110566 0.1233448000705913 0 -0.083977646870082426 0.1154656839507209 0 -0.063973249064152693 0.1029319673529311 0 -0.083977646870082426 0.1154656839507209 0 -0.075827885789769595 0.086539267163616346 0 -0.097700089616715405 0.09318195521959588 0 -0.083977646870082426 0.1154656839507209 0 -0.075827885789769595 0.086539267163616346 0 -0.083977646870082426 0.1154656839507209 0 -0.063973249064152693 0.1029319673529311 0 -0.075827885789769595 0.086539267163616346 0 -0.05398582848507353 0.085849672891545242 0 -0.059939703881765463 0.067733364004902041 0 -0.075827885789769595 0.086539267163616346 0 -0.05398582848507353 0.085849672891545242 0 -0.063973249064152693 0.1029319673529311 0 -0.075827885789769595 0.086539267163616346 0 -0.059939703881765463 0.067733364004902041 0 -0.07762956131644301 0.067576275695346771 0 -0.068869462106625173 0.058124743548448689 0 -0.059939703881765463 0.067733364004902041 0 -0.075827885789769595 0.086539267163616346 0 -0.07762956131644301 0.067576275695346771 0 -0.075827885789769595 0.086539267163616346 0 -0.07762956131644301 0.067576275695346771 0 -0.091438309894317157 0.075639892300647743 0 -0.07762956131644301 0.067576275695346771 0 -0.091438309894317157 0.075639892300647743 0 -0.088546597500942237 0.062016723412521159 0 -0.075827885789769595 0.086539267163616346 0 -0.091438309894317157 0.075639892300647743 0 -0.097700089616715405 0.09318195521959588 0 -0.091438309894317157 0.075639892300647743 0 -0.097700089616715405 0.09318195521959588 0 -0.1087496860704672 0.077123465774616679 0 -0.097700089616715405 0.09318195521959588 0 -0.1087496860704672 0.077123465774616679 0 -0.1182868015716317 0.092254412687964832 0 -0.091438309894317157 0.075639892300647743 0 -0.1087496860704672 0.077123465774616679 0 -0.1023141913993275 0.060722704218071369 0 -0.091438309894317157 0.075639892300647743 0 -0.1023141913993275 0.060722704218071369 0 -0.088546597500942237 0.062016723412521159 0 -0.1087496860704672 0.077123465774616679 0 -0.119190471915151 0.062012018479697617 0 -0.1023141913993275 0.060722704218071369 0 -0.1288744869042647 0.07774724585412271 0 -0.1087496860704672 0.077123465774616679 0 -0.119190471915151 0.062012018479697617 0 -0.1288744869042647 0.07774724585412271 0 -0.1087496860704672 0.077123465774616679 0 -0.1182868015716317 0.092254412687964832 0 -0.1262591673505977 0.1068238956739086 0 -0.1182868015716317 0.092254412687964832 0 -0.1079202075040246 0.1120690094400088 0 -0.1262591673505977 0.1068238956739086 0 -0.1205717613055797 0.1176436980837537 0 -0.1079202075040246 0.1120690094400088 0 -0.1325986206714227 0.12191383071940259 0 -0.1151331545777611 0.12821276872612189 0 -0.1205717613055797 0.1176436980837537 0 -0.1151331545777611 0.12821276872612189 0 -0.1205717613055797 0.1176436980837537 0 -0.1079202075040246 0.1120690094400088 0 -0.1013354265733788 0.12811334555178591 0 -0.083977646870082426 0.1154656839507209 0 -0.1079202075040246 0.1120690094400088 0 -0.1151331545777611 0.12821276872612189 0 -0.1013354265733788 0.12811334555178591 0 -0.1079202075040246 0.1120690094400088 0 -0.097700089616715405 0.09318195521959588 0 -0.1182868015716317 0.092254412687964832 0 -0.1079202075040246 0.1120690094400088 0 -0.083977646870082426 0.1154656839507209 0 -0.097700089616715405 0.09318195521959588 0 -0.1079202075040246 0.1120690094400088 0 -0.1050502198788866 0.026274823504663671 0 -0.09944558913783591 0.018686011607713739 0 -0.10511285610326369 0.010277732002512649 0 -0.1050502198788866 0.026274823504663671 0 -0.094883187116036882 0.023780806261783811 0 -0.090397252628932251 0.034159985240279987 0 -0.094883187116036882 0.023780806261783811 0 -0.09944558913783591 0.018686011607713739 0 -0.092736093453156435 0.014410684661894791 0 -0.1050502198788866 0.026274823504663671 0 -0.094883187116036882 0.023780806261783811 0 -0.09944558913783591 0.018686011607713739 0 -0.093620069156946734 -0.0038576206878846849 0 -0.10511285610326369 0.010277732002512649 0 -0.092736093453156435 0.014410684661894791 0 -0.09944558913783591 0.018686011607713739 0 -0.10511285610326369 0.010277732002512649 0 -0.092736093453156435 0.014410684661894791 0 -0.10885487443822189 -0.00043438220934547919 0 -0.093620069156946734 -0.0038576206878846849 0 -0.10511285610326369 0.010277732002512649 0 -0.1186677120778013 0.001782042546421371 0 -0.1105275800532889 0.024291685589604841 0 -0.1050502198788866 0.026274823504663671 0 -0.1186677120778013 0.001782042546421371 0 -0.12863778192407579 0.01787533597989361 0 -0.1186677120778013 0.001782042546421371 0 -0.1190341017056845 0.021078127637974332 0 -0.1050502198788866 0.026274823504663671 0 -0.10511285610326369 0.010277732002512649 0 -0.1186677120778013 0.001782042546421371 0 -0.1199914485239682 -0.00059886477107955281 0 -0.10885487443822189 -0.00043438220934547919 0 -0.1186677120778013 0.001782042546421371 0 -0.10885487443822189 -0.00043438220934547919 0 -0.10511285610326369 0.010277732002512649 0 -0.1186677120778013 0.001782042546421371 0 -0.1199914485239682 -0.00059886477107955281 0 -0.1313148881743523 0.0036871420341860442 0 -0.1186677120778013 0.001782042546421371 0 -0.1199914485239682 -0.00059886477107955281 0 -0.1186677120778013 0.001782042546421371 0 -0.1186677120778013 0.001782042546421371 0 -0.1190341017056845 0.021078127637974332 0 -0.1105275800532889 0.024291685589604841 0 -0.1050502198788866 0.026274823504663671 0 -0.1186677120778013 0.001782042546421371 0 -0.1105275800532889 0.024291685589604841 0 -0.12863778192407579 0.01787533597989361 0 -0.1190341017056845 0.021078127637974332 0 -0.1226907427611215 0.030766731909375528 0 -0.1190341017056845 0.021078127637974332 0 -0.1105275800532889 0.024291685589604841 0 -0.1165352061779073 0.028592568410174171 0 -0.1105275800532889 0.024291685589604841 0 -0.1165352061779073 0.028592568410174171 0 -0.1138884001915343 0.03823372850374198 0 -0.1190341017056845 0.021078127637974332 0 -0.1165352061779073 0.028592568410174171 0 -0.1226907427611215 0.030766731909375528 0 -0.12616517463318169 0.044547985031046171 0 -0.1226907427611215 0.030766731909375528 0 -0.1138884001915343 0.03823372850374198 0 -0.1165352061779073 0.028592568410174171 0 -0.1226907427611215 0.030766731909375528 0 -0.1138884001915343 0.03823372850374198 0 -0.12616517463318169 0.044547985031046171 0 -0.1138884001915343 0.03823372850374198 0 -0.1136261866714473 0.049884847796911089 0 -0.1138884001915343 0.03823372850374198 0 -0.1136261866714473 0.049884847796911089 0 -0.1023874480287765 0.046801328632788269 0 -0.12616517463318169 0.044547985031046171 0 -0.119190471915151 0.062012018479697617 0 -0.1136261866714473 0.049884847796911089 0 -0.119190471915151 0.062012018479697617 0 -0.1136261866714473 0.049884847796911089 0 -0.1023141913993275 0.060722704218071369 0 -0.1136261866714473 0.049884847796911089 0 -0.1023141913993275 0.060722704218071369 0 -0.1023874480287765 0.046801328632788269 0 -0.1023141913993275 0.060722704218071369 0 -0.1023874480287765 0.046801328632788269 0 -0.091432727679971959 0.050767604462906041 0 -0.1023141913993275 0.060722704218071369 0 -0.088546597500942237 0.062016723412521159 0 -0.091432727679971959 0.050767604462906041 0 -0.1105275800532889 0.024291685589604841 0 -0.1138884001915343 0.03823372850374198 0 -0.1023874480287765 0.046801328632788269 0 -0.1050502198788866 0.026274823504663671 0 -0.1105275800532889 0.024291685589604841 0 -0.1023874480287765 0.046801328632788269 0 -0.1105275800532889 0.024291685589604841 0 -0.1023874480287765 0.046801328632788269 0 -0.1050502198788866 0.026274823504663671 0 -0.091432727679971959 0.050767604462906041 0 -0.1050502198788866 0.026274823504663671 0 -0.1023874480287765 0.046801328632788269 0 -0.091432727679971959 0.050767604462906041 0 -0.1050502198788866 0.026274823504663671 0 -0.090397252628932251 0.034159985240279987 0 -0.091432727679971959 0.050767604462906041 0 -0.090397252628932251 0.034159985240279987 0 -0.081383558637077066 0.044825411045885548 0 -0.091432727679971959 0.050767604462906041 0 -0.090397252628932251 0.034159985240279987 0 -0.081383558637077066 0.044825411045885548 0 -0.075436770253455146 0.036509209920880768 0 -0.090397252628932251 0.034159985240279987 0 -0.075436770253455146 0.036509209920880768 0 -0.084928855227451971 0.025137333785949009 0 -0.088546597500942237 0.062016723412521159 0 -0.091432727679971959 0.050767604462906041 0 -0.079918197214651571 0.055377140385633877 0 -0.081383558637077066 0.044825411045885548 0 -0.091432727679971959 0.050767604462906041 0 -0.079918197214651571 0.055377140385633877 0 -0.07762956131644301 0.067576275695346771 0 -0.088546597500942237 0.062016723412521159 0 -0.079918197214651571 0.055377140385633877 0 -0.07762956131644301 0.067576275695346771 0 -0.079918197214651571 0.055377140385633877 0 -0.068869462106625173 0.058124743548448689 0 -0.079918197214651571 0.055377140385633877 0 -0.070819364012630573 0.048139035482284168 0 -0.068869462106625173 0.058124743548448689 0 -0.081383558637077066 0.044825411045885548 0 -0.079918197214651571 0.055377140385633877 0 -0.070819364012630573 0.048139035482284168 0 -0.070819364012630573 0.048139035482284168 0 -0.058281063539417081 0.053080978189994993 0 -0.061247758378857972 0.043563975126810157 0 -0.070819364012630573 0.048139035482284168 0 -0.068869462106625173 0.058124743548448689 0 -0.058281063539417081 0.053080978189994993 0 -0.075436770253455146 0.036509209920880768 0 -0.063968500729413888 0.033118820403459891 0 -0.07471476110651018 0.025957850364613459 0 -0.081383558637077066 0.044825411045885548 0 -0.070819364012630573 0.048139035482284168 0 -0.075436770253455146 0.036509209920880768 0 -0.070819364012630573 0.048139035482284168 0 -0.075436770253455146 0.036509209920880768 0 -0.061247758378857972 0.043563975126810157 0 -0.075436770253455146 0.036509209920880768 0 -0.063968500729413888 0.033118820403459891 0 -0.061247758378857972 0.043563975126810157 0 -0.063968500729413888 0.033118820403459891 0 -0.064871159232654338 0.02228499199912147 0 -0.07471476110651018 0.025957850364613459 0 -0.064871159232654338 0.02228499199912147 0 -0.07471476110651018 0.025957850364613459 0 -0.07796438233954299 0.012192012204194269 0 -0.075436770253455146 0.036509209920880768 0 -0.07471476110651018 0.025957850364613459 0 -0.084928855227451971 0.025137333785949009 0 -0.084928855227451971 0.025137333785949009 0 -0.092736093453156435 0.014410684661894791 0 -0.07796438233954299 0.012192012204194269 0 -0.07471476110651018 0.025957850364613459 0 -0.084928855227451971 0.025137333785949009 0 -0.07796438233954299 0.012192012204194269 0 -0.094883187116036882 0.023780806261783811 0 -0.084928855227451971 0.025137333785949009 0 -0.092736093453156435 0.014410684661894791 0 -0.094883187116036882 0.023780806261783811 0 -0.090397252628932251 0.034159985240279987 0 -0.084928855227451971 0.025137333785949009 0 -0.093620069156946734 -0.0038576206878846849 0 -0.06617624525521773 -0.001472083466967122 0 -0.07796438233954299 0.012192012204194269 0 -0.093620069156946734 -0.0038576206878846849 0 -0.092736093453156435 0.014410684661894791 0 -0.07796438233954299 0.012192012204194269 0 -0.06617624525521773 -0.001472083466967122 0 -0.064871159232654338 0.02228499199912147 0 -0.07796438233954299 0.012192012204194269 0 -0.06617624525521773 -0.001472083466967122 0 -0.064871159232654338 0.02228499199912147 0 -0.050874364112823298 0.01622393003550807 0 -0.06617624525521773 -0.001472083466967122 0 -0.050874364112823298 0.01622393003550807 0 -0.03873242135348863 0.00091345375395045138 0 -0.064871159232654338 0.02228499199912147 0 -0.050874364112823298 0.01622393003550807 0 -0.054030421264356858 0.031421492896852928 0 -0.063968500729413888 0.033118820403459891 0 -0.064871159232654338 0.02228499199912147 0 -0.054030421264356858 0.031421492896852928 0 -0.050874364112823298 0.01622393003550807 0 -0.042771981531418118 0.02858402779825793 0 -0.054030421264356858 0.031421492896852928 0 -0.050874364112823298 0.01622393003550807 0 -0.042771981531418118 0.02858402779825793 0 -0.037681760627148848 0.016726207648838559 0 -0.042771981531418118 0.02858402779825793 0 -0.037681760627148848 0.016726207648838559 0 -0.029583045505351211 0.02506934082924971 0 -0.037681760627148848 0.016726207648838559 0 -0.03873242135348863 0.00091345375395045138 0 -0.026446990632662981 0.01284028582722664 0 -0.050874364112823298 0.01622393003550807 0 -0.037681760627148848 0.016726207648838559 0 -0.03873242135348863 0.00091345375395045138 0 -0.059939703881765463 0.067733364004902041 0 -0.058281063539417081 0.053080978189994993 0 -0.045039719256251297 0.055287299538966848 0 -0.059939703881765463 0.067733364004902041 0 -0.068869462106625173 0.058124743548448689 0 -0.058281063539417081 0.053080978189994993 0 -0.058281063539417081 0.053080978189994993 0 -0.050273382898479942 0.041495172174871787 0 -0.045039719256251297 0.055287299538966848 0 -0.058281063539417081 0.053080978189994993 0 -0.050273382898479942 0.041495172174871787 0 -0.061247758378857972 0.043563975126810157 0 -0.063968500729413888 0.033118820403459891 0 -0.061247758378857972 0.043563975126810157 0 -0.054030421264356858 0.031421492896852928 0 -0.050273382898479942 0.041495172174871787 0 -0.061247758378857972 0.043563975126810157 0 -0.054030421264356858 0.031421492896852928 0 -0.042771981531418118 0.02858402779825793 0 -0.050273382898479942 0.041495172174871787 0 -0.054030421264356858 0.031421492896852928 0 -0.042771981531418118 0.02858402779825793 0 -0.050273382898479942 0.041495172174871787 0 -0.03382211644305376 0.041818978746061747 0 -0.050273382898479942 0.041495172174871787 0 -0.03382211644305376 0.041818978746061747 0 -0.045039719256251297 0.055287299538966848 0 -0.042771981531418118 0.02858402779825793 0 -0.03382211644305376 0.041818978746061747 0 -0.029583045505351211 0.02506934082924971 0 -0.03382211644305376 0.041818978746061747 0 -0.045039719256251297 0.055287299538966848 0 -0.03004215072405737 0.056537831217791393 0 -0.041980205369143923 0.069924639650581003 0 -0.045039719256251297 0.055287299538966848 0 -0.03004215072405737 0.056537831217791393 0 -0.016509947635750751 0.061444561089939197 0 -0.03004215072405737 0.056537831217791393 0 -0.018663827266801589 0.048442763828937148 0 -0.03382211644305376 0.041818978746061747 0 -0.03004215072405737 0.056537831217791393 0 -0.018663827266801589 0.048442763828937148 0 -0.03382211644305376 0.041818978746061747 0 -0.01945962906385092 0.035131957625661819 0 -0.029583045505351211 0.02506934082924971 0 -0.03382211644305376 0.041818978746061747 0 -0.018663827266801589 0.048442763828937148 0 -0.01945962906385092 0.035131957625661819 0 -0.01945962906385092 0.035131957625661819 0 -0.0080827015044665426 0.041368416951048419 0 -0.0089162349011646883 0.030902709690445909 0 -0.0089162349011646883 0.030902709690445909 0 0.00076245255478216557 0.026097897575736041 0 0.0020320019940670412 0.037905060420581928 0 -0.0080827015044665426 0.041368416951048419 0 -0.0089162349011646883 0.030902709690445909 0 0.0020320019940670412 0.037905060420581928 0 -0.018663827266801589 0.048442763828937148 0 -0.01945962906385092 0.035131957625661819 0 -0.0080827015044665426 0.041368416951048419 0 -0.018663827266801589 0.048442763828937148 0 -0.0080827015044665426 0.041368416951048419 0 -0.004066418229630199 0.054354837343120382 0 -0.0080827015044665426 0.041368416951048419 0 -0.004066418229630199 0.054354837343120382 0 0.0020542517172397268 0.050742466287452243 0 -0.016509947635750751 0.061444561089939197 0 -0.018663827266801589 0.048442763828937148 0 -0.004066418229630199 0.054354837343120382 0 -0.0064452047556455023 0.069535701842990946 0 -0.016509947635750751 0.061444561089939197 0 -0.004066418229630199 0.054354837343120382 0 -0.026446990632662981 0.01284028582722664 0 -0.013643432784152171 0.019755748489705439 0 -0.01093729165058907 0.0026446382067872851 0 -0.03873242135348863 0.00091345375395045138 0 -0.01093729165058907 0.0026446382067872851 0 -0.022002908521446499 -0.003296217536309987 0 -0.03873242135348863 0.00091345375395045138 0 -0.01093729165058907 0.0026446382067872851 0 -0.03873242135348863 0.00091345375395045138 0 -0.026446990632662981 0.01284028582722664 0 -0.01093729165058907 0.0026446382067872851 0 -0.026446990632662981 0.01284028582722664 0 -0.029583045505351211 0.02506934082924971 0 -0.013643432784152171 0.019755748489705439 0 -0.037681760627148848 0.016726207648838559 0 -0.026446990632662981 0.01284028582722664 0 -0.029583045505351211 0.02506934082924971 0 -0.01945962906385092 0.035131957625661819 0 -0.029583045505351211 0.02506934082924971 0 -0.013643432784152171 0.019755748489705439 0 -0.01945962906385092 0.035131957625661819 0 -0.013643432784152171 0.019755748489705439 0 -0.0089162349011646883 0.030902709690445909 0 -0.013643432784152171 0.019755748489705439 0 -0.0089162349011646883 0.030902709690445909 0 0.00076245255478216557 0.026097897575736041 0 -0.013643432784152171 0.019755748489705439 0 -0.0054654612743873336 0.01420268699889576 0 0.00076245255478216557 0.026097897575736041 0 -0.0054654612743873336 0.01420268699889576 0 0.0037813723016785969 0.010546724488288259 0 0.00076245255478216557 0.026097897575736041 0 -0.0054654612743873336 0.01420268699889576 0 -0.01093729165058907 0.0026446382067872851 0 0.0037813723016785969 0.010546724488288259 0 -0.0091254757721494061 -0.0071540175361478938 0 -0.01093729165058907 0.0026446382067872851 0 0.0037813723016785969 0.010546724488288259 0 -0.013643432784152171 0.019755748489705439 0 -0.0054654612743873336 0.01420268699889576 0 -0.01093729165058907 0.0026446382067872851 0 -0.01093729165058907 0.0026446382067872851 0 0.0037813723016785969 0.010546724488288259 0 0.0037813723016785969 0.010546724488288259 0 0.023416187961812149 0.0049090854646312932 0 0.003746073912241465 -0.01532352594084075 0 0.0037813723016785969 0.010546724488288259 0 0.00076245255478216557 0.026097897575736041 0 0.014458912491688271 0.02883566506195567 0 0.00076245255478216557 0.026097897575736041 0 0.014458912491688271 0.02883566506195567 0 0.0074539412334906196 0.033147766861574092 0 0.0037813723016785969 0.010546724488288259 0 0.029565653124803661 0.024389666512886491 0 0.0037813723016785969 0.010546724488288259 0 0.014458912491688271 0.02883566506195567 0 0.029565653124803661 0.024389666512886491 0 0.014458912491688271 0.02883566506195567 0 0.029565653124803661 0.024389666512886491 0 0.02539031499151961 0.036294979842826737 0 0.0037813723016785969 0.010546724488288259 0 0.029565653124803661 0.024389666512886491 0 0.023416187961812149 0.0049090854646312932 0 0.0079872261816184443 0.054655475263595252 0 0.01323316756542631 0.048044500603670937 0 0.0087450774794475914 0.062563593010893301 0 -0.004066418229630199 0.054354837343120382 0 0.0068012041577630213 0.068595718283625109 0 0.0087450774794475914 0.062563593010893301 0 -0.004066418229630199 0.054354837343120382 0 0.0079872261816184443 0.054655475263595252 0 0.0087450774794475914 0.062563593010893301 0 -0.004066418229630199 0.054354837343120382 0 0.0020542517172397268 0.050742466287452243 0 0.0079872261816184443 0.054655475263595252 0 0.0020542517172397268 0.050742466287452243 0 0.0077044609209849504 0.049917530640716593 0 0.0079872261816184443 0.054655475263595252 0 0.0020542517172397268 0.050742466287452243 0 0.0077044609209849504 0.049917530640716593 0 0.0075431982196553227 0.046227680408147932 0 0.01323316756542631 0.048044500603670937 0 0.0075431982196553227 0.046227680408147932 0 0.0077044609209849504 0.049917530640716593 0 0.01323316756542631 0.048044500603670937 0 0.0075431982196553227 0.046227680408147932 0 0.0077044609209849504 0.049917530640716593 0 0.0079872261816184443 0.054655475263595252 0 0.01323316756542631 0.048044500603670937 0 -0.0080827015044665426 0.041368416951048419 0 0.012881936711624249 0.043702583987629121 0 0.0075431982196553227 0.046227680408147932 0 -0.0080827015044665426 0.041368416951048419 0 0.012881936711624249 0.043702583987629121 0 0.0020320019940670412 0.037905060420581928 0 -0.0080827015044665426 0.041368416951048419 0 0.0020542517172397268 0.050742466287452243 0 0.0075431982196553227 0.046227680408147932 0 -0.0080827015044665426 0.041368416951048419 0 0.012881936711624249 0.043702583987629121 0 0.012881936711624249 0.043702583987629121 0 0.012562397893425011 0.039752444388022751 0 0.0020320019940670412 0.037905060420581928 0 0.01323316756542631 0.048044500603670937 0 0.012881936711624249 0.043702583987629121 0 0.012881936711624249 0.043702583987629121 0 0.012562397893425011 0.039752444388022751 0 0.019825822133060979 0.038924239329916163 0 0.012881936711624249 0.043702583987629121 0 0.012562397893425011 0.039752444388022751 0 0.01323316756542631 0.048044500603670937 0 0.012881936711624249 0.043702583987629121 0 0.0075431982196553227 0.046227680408147932 0 0.012562397893425011 0.039752444388022751 0 0.0020320019940670412 0.037905060420581928 0 0.0074539412334906196 0.033147766861574092 0 0.00076245255478216557 0.026097897575736041 0 0.0020320019940670412 0.037905060420581928 0 0.0074539412334906196 0.033147766861574092 0 0.014458912491688271 0.02883566506195567 0 0.012562397893425011 0.039752444388022751 0 0.0074539412334906196 0.033147766861574092 0 0.014458912491688271 0.02883566506195567 0 0.012562397893425011 0.039752444388022751 0 0.019825822133060979 0.038924239329916163 0 0.012881936711624249 0.043702583987629121 0 0.03383554857704775 0.046035523369146479 0 0.012881936711624249 0.043702583987629121 0 0.019825822133060979 0.038924239329916163 0 0.03383554857704775 0.046035523369146479 0 0.01323316756542631 0.048044500603670937 0 0.012881936711624249 0.043702583987629121 0 0.03383554857704775 0.046035523369146479 0 0.014458912491688271 0.02883566506195567 0 0.019825822133060979 0.038924239329916163 0 0.02539031499151961 0.036294979842826737 0 0.029565653124803661 0.024389666512886491 0 0.02539031499151961 0.036294979842826737 0 0.033431591483072932 0.034766615215513628 0 0.02539031499151961 0.036294979842826737 0 0.03383554857704775 0.046035523369146479 0 0.033431591483072932 0.034766615215513628 0 0.019825822133060979 0.038924239329916163 0 0.02539031499151961 0.036294979842826737 0 0.03383554857704775 0.046035523369146479 0 0.01323316756542631 0.048044500603670937 0 0.037663454241387062 0.055845146884542188 0 0.01323316756542631 0.048044500603670937 0 0.037663454241387062 0.055845146884542188 0 0.03383554857704775 0.046035523369146479 0 0.01323316756542631 0.048044500603670937 0 0.022248679574231361 0.061965520467764192 0 0.037663454241387062 0.055845146884542188 0 0.01323316756542631 0.048044500603670937 0 0.022248679574231361 0.061965520467764192 0 0.015587975139381221 0.077154637205381113 0 0.022248679574231361 0.061965520467764192 0 0.037663454241387062 0.055845146884542188 0 0.031862584571858837 0.066152258575242887 0 0.03383554857704775 0.046035523369146479 0 0.054789160442471299 0.04836846275066374 0 0.037663454241387062 0.055845146884542188 0 0.03383554857704775 0.046035523369146479 0 0.054789160442471299 0.04836846275066374 0 0.03383554857704775 0.046035523369146479 0 0.044934849238920688 0.03234629113719481 0 0.054789160442471299 0.04836846275066374 0 0.03383554857704775 0.046035523369146479 0 0.033431591483072932 0.034766615215513628 0 0.044934849238920688 0.03234629113719481 0 0.044934849238920688 0.03234629113719481 0 0.061507694358818227 0.033534194637476297 0 0.054789160442471299 0.04836846275066374 0 0.061507694358818227 0.033534194637476297 0 0.054789160442471299 0.04836846275066374 0 0.066913476952574061 0.041636405815616402 0 0.037663454241387062 0.055845146884542188 0 0.062093740917348372 0.063645793165411704 0 0.037663454241387062 0.055845146884542188 0 0.054789160442471299 0.04836846275066374 0 0.062093740917348372 0.063645793165411704 0 0.029565653124803661 0.024389666512886491 0 0.023416187961812149 0.0049090854646312932 0 0.041887701135503573 0.011820808984924901 0 0.041887701135503573 0.011820808984924901 0 0.056666250796032949 0.00047863979663177481 0 0.039265032356291078 -0.0079797892390842985 0 0.023416187961812149 0.0049090854646312932 0 0.041887701135503573 0.011820808984924901 0 0.039265032356291078 -0.0079797892390842985 0 0.029565653124803661 0.024389666512886491 0 0.044934849238920688 0.03234629113719481 0 0.041887701135503573 0.011820808984924901 0 0.029565653124803661 0.024389666512886491 0 0.033431591483072932 0.034766615215513628 0 0.044934849238920688 0.03234629113719481 0 0.044934849238920688 0.03234629113719481 0 0.041887701135503573 0.011820808984924901 0 0.05797381284175919 0.020233797264014031 0 0.044934849238920688 0.03234629113719481 0 0.061507694358818227 0.033534194637476297 0 0.05797381284175919 0.020233797264014031 0 0.05797381284175919 0.020233797264014031 0 0.056666250796032949 0.00047863979663177481 0 0.072108437790104965 0.01059806120579896 0 0.041887701135503573 0.011820808984924901 0 0.05797381284175919 0.020233797264014031 0 0.056666250796032949 0.00047863979663177481 0 0.056666250796032949 0.00047863979663177481 0 0.072108437790104965 0.01059806120579896 0 0.07303362517206699 -0.0067381119874079659 0 0.072108437790104965 0.01059806120579896 0 0.081365669178546221 0.0037532753784225259 0 0.07303362517206699 -0.0067381119874079659 0 0.092460286044345558 0.0061498007409879346 0 0.087038799142971829 0.026897786134170858 0 0.10036453010978399 0.0092070872566232496 0 0.072108437790104965 0.01059806120579896 0 0.081365669178546221 0.0037532753784225259 0 0.081348734498137468 0.01488669370377956 0 0.081365669178546221 0.0037532753784225259 0 0.081348734498137468 0.01488669370377956 0 0.092460286044345558 0.0061498007409879346 0 0.081365669178546221 0.0037532753784225259 0 0.092460286044345558 0.0061498007409879346 0 0.087877262388076111 -0.0061300667710458617 0 0.081348734498137468 0.01488669370377956 0 0.092460286044345558 0.0061498007409879346 0 0.087038799142971829 0.026897786134170858 0 0.087038799142971829 0.026897786134170858 0 0.10036453010978399 0.0092070872566232496 0 0.092460286044345558 0.0061498007409879346 0 0.087038799142971829 0.026897786134170858 0 0.081348734498137468 0.01488669370377956 0 0.087038799142971829 0.026897786134170858 0 0.073028471458575453 0.025148811265354318 0 0.087038799142971829 0.026897786134170858 0 0.073028471458575453 0.025148811265354318 0 0.079560330471088042 0.036825897220081019 0 0.072108437790104965 0.01059806120579896 0 0.081348734498137468 0.01488669370377956 0 0.073028471458575453 0.025148811265354318 0 0.05797381284175919 0.020233797264014031 0 0.072108437790104965 0.01059806120579896 0 0.073028471458575453 0.025148811265354318 0 0.061507694358818227 0.033534194637476297 0 0.073028471458575453 0.025148811265354318 0 0.071339782791075113 0.034317957832935737 0 0.061507694358818227 0.033534194637476297 0 0.05797381284175919 0.020233797264014031 0 0.073028471458575453 0.025148811265354318 0 0.061507694358818227 0.033534194637476297 0 0.066913476952574061 0.041636405815616402 0 0.071339782791075113 0.034317957832935737 0 0.075108080346226944 0.041826468086984162 0 0.075742772307894835 0.050701402132181002 0 0.081917426780969055 0.046497235675027913 0 0.066913476952574061 0.041636405815616402 0 0.075108080346226944 0.041826468086984162 0 0.071339782791075113 0.034317957832935737 0 0.066913476952574061 0.041636405815616402 0 0.075108080346226944 0.041826468086984162 0 0.075742772307894835 0.050701402132181002 0 0.075108080346226944 0.041826468086984162 0 0.071339782791075113 0.034317957832935737 0 0.079560330471088042 0.036825897220081019 0 0.073028471458575453 0.025148811265354318 0 0.071339782791075113 0.034317957832935737 0 0.079560330471088042 0.036825897220081019 0 0.054789160442471299 0.04836846275066374 0 0.066913476952574061 0.041636405815616402 0 0.075742772307894835 0.050701402132181002 0 0.054789160442471299 0.04836846275066374 0 0.075742772307894835 0.050701402132181002 0 0.062093740917348372 0.063645793165411704 0 0.075742772307894835 0.050701402132181002 0 0.083919558034990516 0.056723985224051671 0 0.062093740917348372 0.063645793165411704 0 0.054789160442471299 0.04836846275066374 0 0.075742772307894835 0.050701402132181002 0 0.075742772307894835 0.050701402132181002 0 0.083919558034990516 0.056723985224051671 0 0.081917426780969055 0.046497235675027913 0 0.083919558034990516 0.056723985224051671 0 0.090160319724503502 0.046990661129887479 0 0.081917426780969055 0.046497235675027913 0 0.083919558034990516 0.056723985224051671 0 0.090160319724503502 0.046990661129887479 0 0.095726272543665406 0.053869825822367649 0 0.083919558034990516 0.056723985224051671 0 0.095726272543665406 0.053869825822367649 0 0.094786892377867707 0.064888477136800196 0 0.087038799142971829 0.026897786134170858 0 0.081917426780969055 0.046497235675027913 0 0.090895751421657608 0.038862409971576757 0 0.087038799142971829 0.026897786134170858 0 0.081917426780969055 0.046497235675027913 0 0.087038799142971829 0.026897786134170858 0 0.079560330471088042 0.036825897220081019 0 0.081917426780969055 0.046497235675027913 0 0.087038799142971829 0.026897786134170858 0 0.079560330471088042 0.036825897220081019 0 0.075108080346226944 0.041826468086984162 0 0.079560330471088042 0.036825897220081019 0 0.081917426780969055 0.046497235675027913 0 0.090160319724503502 0.046990661129887479 0 0.090895751421657608 0.038862409971576757 0 0.097914691205478313 0.042873850639783509 0 0.090160319724503502 0.046990661129887479 0 0.081917426780969055 0.046497235675027913 0 0.090895751421657608 0.038862409971576757 0 0.087038799142971829 0.026897786134170858 0 0.090895751421657608 0.038862409971576757 0 0.09735837470524937 0.031859599963049462 0 0.090895751421657608 0.038862409971576757 0 0.09735837470524937 0.031859599963049462 0 0.097914691205478313 0.042873850639783509 0 0.097914691205478313 0.042873850639783509 0 0.1085989923677812 0.051310419135467952 0 0.11150339848817591 0.038124593095925897 0 0.09735837470524937 0.031859599963049462 0 0.11150339848817591 0.038124593095925897 0 0.11020686738275209 0.026731088168573561 0 0.09735837470524937 0.031859599963049462 0 0.097914691205478313 0.042873850639783509 0 0.11150339848817591 0.038124593095925897 0 0.095726272543665406 0.053869825822367649 0 0.105261312388423 0.063644179241928195 0 0.094786892377867707 0.064888477136800196 0 0.097914691205478313 0.042873850639783509 0 0.095726272543665406 0.053869825822367649 0 0.1085989923677812 0.051310419135467952 0 0.090160319724503502 0.046990661129887479 0 0.097914691205478313 0.042873850639783509 0 0.095726272543665406 0.053869825822367649 0 0.095726272543665406 0.053869825822367649 0 0.1085989923677812 0.051310419135467952 0 0.105261312388423 0.063644179241928195 0 0.1085989923677812 0.051310419135467952 0 0.1222326967750796 0.062020639108365659 0 0.105261312388423 0.063644179241928195 0 0.1085989923677812 0.051310419135467952 0 0.118955582805865 0.047329426904436742 0 0.1222326967750796 0.062020639108365659 0 0.118955582805865 0.047329426904436742 0 0.1222326967750796 0.062020639108365659 0 0.1305837014863156 0.048522713650827498 0 0.11150339848817591 0.038124593095925897 0 0.12353023238446829 0.029235166788670958 0 0.11020686738275209 0.026731088168573561 0 0.1085989923677812 0.051310419135467952 0 0.118955582805865 0.047329426904436742 0 0.11150339848817591 0.038124593095925897 0 0.118955582805865 0.047329426904436742 0 0.11150339848817591 0.038124593095925897 0 0.12434789230521701 0.039708237622728751 0 0.118955582805865 0.047329426904436742 0 0.12434789230521701 0.039708237622728751 0 0.1305837014863156 0.048522713650827498 0 0.11150339848817591 0.038124593095925897 0 0.12434789230521701 0.039708237622728751 0 0.12353023238446829 0.029235166788670958 0 0.12353023238446829 0.029235166788670958 0 0.11020686738275209 0.026731088168573561 0 0.1180611765895544 0.020437579246225301 0 0.1180611765895544 0.020437579246225301 0 0.11572252236668561 0.0116692411477423 0 0.1080266629912317 0.016642136799357471 0 0.11020686738275209 0.026731088168573561 0 0.1180611765895544 0.020437579246225301 0 0.1080266629912317 0.016642136799357471 0 0.1180611765895544 0.020437579246225301 0 0.1219707788315316 0.01409088439813129 0 0.1283310130724731 0.018043306289712738 0 0.12353023238446829 0.029235166788670958 0 0.1180611765895544 0.020437579246225301 0 0.1283310130724731 0.018043306289712738 0 0.1180611765895544 0.020437579246225301 0 0.1219707788315316 0.01409088439813129 0 0.11572252236668561 0.0116692411477423 0 0.1219707788315316 0.01409088439813129 0 0.11572252236668561 0.0116692411477423 0 0.12512533190022671 0.0074767558158031679 0 0.1176134464119114 0.0034247542383424368 0 0.12512533190022671 0.0074767558158031679 0 0.12555281510781041 -0.002563318677247013 0 0.1176134464119114 0.0034247542383424368 0 0.11572252236668561 0.0116692411477423 0 0.12512533190022671 0.0074767558158031679 0 0.1176134464119114 0.0034247542383424368 0 0.1110834845912418 0.0064919215642282382 0 0.11572252236668561 0.0116692411477423 0 0.1176134464119114 0.0034247542383424368 0 0.1110834845912418 0.0064919215642282382 0 0.1136902610765962 -0.0084836116209242567 0 0.1110834845912418 0.0064919215642282382 0 0.11572252236668561 0.0116692411477423 0 0.1080266629912317 0.016642136799357471 0 0.10036453010978399 0.0092070872566232496 0 0.1136902610765962 -0.0084836116209242567 0 0.1110834845912418 0.0064919215642282382 0 0.10036453010978399 0.0092070872566232496 0 0.1080266629912317 0.016642136799357471 0 0.1110834845912418 0.0064919215642282382 0 0.10036453010978399 0.0092070872566232496 0 0.1136902610765962 -0.0084836116209242567 0 0.092460286044345558 0.0061498007409879346 0 0.10036453010978399 0.0092070872566232496 0 0.1007054653692496 -0.0025069258753060101 0 0.087038799142971829 0.026897786134170858 0 0.10036453010978399 0.0092070872566232496 0 0.10022511129259271 0.022222733923477091 0 0.087038799142971829 0.026897786134170858 0 0.09735837470524937 0.031859599963049462 0 0.10022511129259271 0.022222733923477091 0 0.09735837470524937 0.031859599963049462 0 0.11020686738275209 0.026731088168573561 0 0.10022511129259271 0.022222733923477091 0 0.11020686738275209 0.026731088168573561 0 0.10022511129259271 0.022222733923477091 0 0.1080266629912317 0.016642136799357471 0 0.10036453010978399 0.0092070872566232496 0 0.10022511129259271 0.022222733923477091 0 0.1080266629912317 0.016642136799357471 0 0.097656414697782537 0.1034457296528033 0 0.10652441485109659 0.092464414965748198 0 0.088720171470880071 0.092295847783991913 0 0.097656414697782537 0.1034457296528033 0 0.11721966321258701 0.10387087587248441 0 0.10652441485109659 0.092464414965748198 0 0.097656414697782537 0.1034457296528033 0 0.1046050349929656 0.11473416269888149 0 0.11721966321258701 0.10387087587248441 0 0.1046050349929656 0.11473416269888149 0 0.11683331524402429 0.1236638279261679 0 0.10107700777430061 0.1280007173425963 0 0.097656414697782537 0.1034457296528033 0 0.1046050349929656 0.11473416269888149 0 0.090849030703578304 0.1160220316407197 0 0.1046050349929656 0.11473416269888149 0 0.090849030703578304 0.1160220316407197 0 0.10107700777430061 0.1280007173425963 0 0.11683331524402429 0.1236638279261679 0 0.11721966321258701 0.10387087587248441 0 0.1324584110937625 0.115908802075576 0 0.1046050349929656 0.11473416269888149 0 0.11683331524402429 0.1236638279261679 0 0.11721966321258701 0.10387087587248441 0 0.10652441485109659 0.092464414965748198 0 0.10060101076770531 0.079549256376060001 0 0.12842481410652809 0.083160365143401457 0 0.114129958509434 0.072093609967438826 0 0.10060101076770531 0.079549256376060001 0 0.12842481410652809 0.083160365143401457 0 0.10060101076770531 0.079549256376060001 0 0.12842481410652809 0.083160365143401457 0 0.11721966321258701 0.10387087587248441 0 0.10652441485109659 0.092464414965748198 0 0.12842481410652809 0.083160365143401457 0 0.1222326967750796 0.062020639108365659 0 0.114129958509434 0.072093609967438826 0 0.12842481410652809 0.083160365143401457 0 0.1222326967750796 0.062020639108365659 0 0.114129958509434 0.072093609967438826 0 0.105261312388423 0.063644179241928195 0 0.114129958509434 0.072093609967438826 0 0.105261312388423 0.063644179241928195 0 0.10060101076770531 0.079549256376060001 0 0.105261312388423 0.063644179241928195 0 0.094786892377867707 0.064888477136800196 0 0.10060101076770531 0.079549256376060001 0 0.094786892377867707 0.064888477136800196 0 0.10060101076770531 0.079549256376060001 0 0.086524027593309571 0.071446439446281179 0 0.10652441485109659 0.092464414965748198 0 0.10060101076770531 0.079549256376060001 0 0.088720171470880071 0.092295847783991913 0 0.088720171470880071 0.092295847783991913 0 0.08354004870608818 0.08242042466215084 0 0.070911619395006023 0.092491269074181412 0 0.10060101076770531 0.079549256376060001 0 0.088720171470880071 0.092295847783991913 0 0.08354004870608818 0.08242042466215084 0 0.10060101076770531 0.079549256376060001 0 0.08354004870608818 0.08242042466215084 0 0.086524027593309571 0.071446439446281179 0 0.083919558034990516 0.056723985224051671 0 0.094786892377867707 0.064888477136800196 0 0.086524027593309571 0.071446439446281179 0 0.08354004870608818 0.08242042466215084 0 0.086524027593309571 0.071446439446281179 0 0.072289762359516035 0.077966282769485043 0 0.086524027593309571 0.071446439446281179 0 0.062093740917348372 0.063645793165411704 0 0.072289762359516035 0.077966282769485043 0 0.062093740917348372 0.063645793165411704 0 0.058379375185827982 0.079827487499400038 0 0.086524027593309571 0.071446439446281179 0 0.072289762359516035 0.077966282769485043 0 0.062093740917348372 0.063645793165411704 0 0.083919558034990516 0.056723985224051671 0 0.086524027593309571 0.071446439446281179 0 0.062093740917348372 0.063645793165411704 0 0.08354004870608818 0.08242042466215084 0 0.072289762359516035 0.077966282769485043 0 0.070911619395006023 0.092491269074181412 0 0.072289762359516035 0.077966282769485043 0 0.070911619395006023 0.092491269074181412 0 0.058379375185827982 0.079827487499400038 0 0.070911619395006023 0.092491269074181412 0 0.068625694227904488 0.111323183653421 0 0.058342824924585007 0.10182378173591521 0 0.070911619395006023 0.092491269074181412 0 0.082532332876766784 0.1055522966106761 0 0.068625694227904488 0.111323183653421 0 0.088720171470880071 0.092295847783991913 0 0.070911619395006023 0.092491269074181412 0 0.082532332876766784 0.1055522966106761 0 0.097656414697782537 0.1034457296528033 0 0.082532332876766784 0.1055522966106761 0 0.090849030703578304 0.1160220316407197 0 0.097656414697782537 0.1034457296528033 0 0.088720171470880071 0.092295847783991913 0 0.082532332876766784 0.1055522966106761 0 0.082532332876766784 0.1055522966106761 0 0.090849030703578304 0.1160220316407197 0 0.079332697324893425 0.1181574026172918 0 0.090849030703578304 0.1160220316407197 0 0.079332697324893425 0.1181574026172918 0 0.086609924698865248 0.13117518022284119 0 0.068625694227904488 0.111323183653421 0 0.05934954068966368 0.12662330354391199 0 0.072374330802683753 0.12873840779889331 0 0.079332697324893425 0.1181574026172918 0 0.068625694227904488 0.111323183653421 0 0.072374330802683753 0.12873840779889331 0 0.082532332876766784 0.1055522966106761 0 0.079332697324893425 0.1181574026172918 0 0.068625694227904488 0.111323183653421 0 0.053803827668862082 0.1133449704783312 0 0.05934954068966368 0.12662330354391199 0 0.043484326274734537 0.12775589280453431 0 0.053803827668862082 0.1133449704783312 0 0.043484326274734537 0.12775589280453431 0 0.068625694227904488 0.111323183653421 0 0.053803827668862082 0.1133449704783312 0 0.05934954068966368 0.12662330354391199 0 0.070911619395006023 0.092491269074181412 0 0.058342824924585007 0.10182378173591521 0 0.054492481820883343 0.09141957382260292 0 0.053803827668862082 0.1133449704783312 0 0.058342824924585007 0.10182378173591521 0 0.040163611542953337 0.098483200536148174 0 0.058342824924585007 0.10182378173591521 0 0.040163611542953337 0.098483200536148174 0 0.054492481820883343 0.09141957382260292 0 0.068625694227904488 0.111323183653421 0 0.053803827668862082 0.1133449704783312 0 0.058342824924585007 0.10182378173591521 0 0.053803827668862082 0.1133449704783312 0 0.040163611542953337 0.098483200536148174 0 0.036445792087868849 0.1144355139312607 0 0.040163611542953337 0.098483200536148174 0 0.036445792087868849 0.1144355139312607 0 0.01794278271333628 0.10626477380709121 0 0.053803827668862082 0.1133449704783312 0 0.036445792087868849 0.1144355139312607 0 0.043484326274734537 0.12775589280453431 0 0.036445792087868849 0.1144355139312607 0 0.025553803796971971 0.12421579446891411 0 0.043484326274734537 0.12775589280453431 0 0.062093740917348372 0.063645793165411704 0 0.058379375185827982 0.079827487499400038 0 0.04430393113089838 0.070361216396226611 0 0.037663454241387062 0.055845146884542188 0 0.062093740917348372 0.063645793165411704 0 0.04430393113089838 0.070361216396226611 0 0.058379375185827982 0.079827487499400038 0 0.042806533072386507 0.083443774709923993 0 0.04430393113089838 0.070361216396226611 0 0.070911619395006023 0.092491269074181412 0 0.058379375185827982 0.079827487499400038 0 0.054492481820883343 0.09141957382260292 0 0.058379375185827982 0.079827487499400038 0 0.054492481820883343 0.09141957382260292 0 0.042806533072386507 0.083443774709923993 0 0.040163611542953337 0.098483200536148174 0 0.054492481820883343 0.09141957382260292 0 0.042806533072386507 0.083443774709923993 0 0.040163611542953337 0.098483200536148174 0 0.033434645992502718 0.085394953159837736 0 0.042806533072386507 0.083443774709923993 0 0.040163611542953337 0.098483200536148174 0 0.033434645992502718 0.085394953159837736 0 0.025696353025803541 0.09039842468931987 0 0.033434645992502718 0.085394953159837736 0 0.042806533072386507 0.083443774709923993 0 0.032473139446630522 0.075030328545253683 0 0.042806533072386507 0.083443774709923993 0 0.04430393113089838 0.070361216396226611 0 0.032473139446630522 0.075030328545253683 0 0.04430393113089838 0.070361216396226611 0 0.032473139446630522 0.075030328545253683 0 0.031862584571858837 0.066152258575242887 0 0.037663454241387062 0.055845146884542188 0 0.04430393113089838 0.070361216396226611 0 0.031862584571858837 0.066152258575242887 0 0.022248679574231361 0.061965520467764192 0 0.031862584571858837 0.066152258575242887 0 0.02512270641583772 0.071824209902633315 0 0.032473139446630522 0.075030328545253683 0 0.031862584571858837 0.066152258575242887 0 0.02512270641583772 0.071824209902633315 0 0.032473139446630522 0.075030328545253683 0 0.02512270641583772 0.071824209902633315 0 0.026033592874739692 0.079619037318542973 0 0.02512270641583772 0.071824209902633315 0 0.026033592874739692 0.079619037318542973 0 0.015587975139381221 0.077154637205381113 0 0.022248679574231361 0.061965520467764192 0 0.02512270641583772 0.071824209902633315 0 0.015587975139381221 0.077154637205381113 0 0.025696353025803541 0.09039842468931987 0 0.015587975139381221 0.077154637205381113 0 0.01794278271333628 0.10626477380709121 0 0.015587975139381221 0.077154637205381113 0 0.01794278271333628 0.10626477380709121 0 0.026033592874739692 0.079619037318542973 0 0.025696353025803541 0.09039842468931987 0 0.015587975139381221 0.077154637205381113 0 0.033434645992502718 0.085394953159837736 0 0.026033592874739692 0.079619037318542973 0 0.025696353025803541 0.09039842468931987 0 0.033434645992502718 0.085394953159837736 0 0.032473139446630522 0.075030328545253683 0 0.026033592874739692 0.079619037318542973 0 0.006938182241853468 0.080309805575105642 0 0.01794278271333628 0.10626477380709121 0 -0.0070670887965758201 0.088578704133560615 0 0.006938182241853468 0.080309805575105642 0 0.001281714263862485 0.097296058361715662 0 0.006938182241853468 0.080309805575105642 0 0.015587975139381221 0.077154637205381113 0 0.01794278271333628 0.10626477380709121 0 -0.004066418229630199 0.054354837343120382 0 0.006938182241853468 0.080309805575105642 0 0.0068012041577630213 0.068595718283625109 0 0.01323316756542631 0.048044500603670937 0 0.015587975139381221 0.077154637205381113 0 0.01323316756542631 0.048044500603670937 0 0.015587975139381221 0.077154637205381113 0 0.0087450774794475914 0.062563593010893301 0 -0.004066418229630199 0.054354837343120382 0 0.006938182241853468 0.080309805575105642 0 0.006938182241853468 0.080309805575105642 0 0.015587975139381221 0.077154637205381113 0 0.0068012041577630213 0.068595718283625109 0 0.015587975139381221 0.077154637205381113 0 0.0068012041577630213 0.068595718283625109 0 0.0087450774794475914 0.062563593010893301 0 0.025553803796971971 0.12421579446891411 0 0.01794278271333628 0.10626477380709121 0 0.01794278271333628 0.10626477380709121 0 0.020310715697660572 0.13553716676175229 0 0.025553803796971971 0.12421579446891411 0 0.01794278271333628 0.10626477380709121 0 0.020310715697660572 0.13553716676175229 0 0.036445792087868849 0.1144355139312607 0 0.025553803796971971 0.12421579446891411 0 0.01794278271333628 0.10626477380709121 0 0.040163611542953337 0.098483200536148174 0 0.025696353025803541 0.09039842468931987 0 0.01794278271333628 0.10626477380709121 0 -0.00047529199730970658 0.1097243403541177 0 0.01794278271333628 0.10626477380709121 0 0.001281714263862485 0.097296058361715662 0 0.006938182241853468 0.080309805575105642 0 0.01794278271333628 0.10626477380709121 0 0.001281714263862485 0.097296058361715662 0 -0.00047529199730970658 0.1097243403541177 0 0.01794278271333628 0.10626477380709121 0 0.0029912304391329979 0.1245263923394986 0 0.01794278271333628 0.10626477380709121 0 0.0029912304391329979 0.1245263923394986 0 0.020310715697660572 0.13553716676175229 0 0.0029912304391329979 0.1245263923394986 0 0.020310715697660572 0.13553716676175229 0 0.0052848697609242856 0.14102107748987441 0 0.025553803796971971 0.12421579446891411 0 0.020310715697660572 0.13553716676175229 0 0.033164824880606958 0.14216681513073731 0 0.025553803796971971 0.12421579446891411 0 0.033164824880606958 0.14216681513073731 0 0.0157867850169244 0.14757548601518189 0 0.020278675152012721 0.16016199684836091 0 0.033164824880606958 0.14216681513073731 0 0.020310715697660572 0.13553716676175229 0 0.0157867850169244 0.14757548601518189 0 0.033164824880606958 0.14216681513073731 0 0.020278675152012721 0.16016199684836091 0 0.033164824880606958 0.14216681513073731 0 0.035504897971671598 0.1476860089348653 0 0.020278675152012721 0.16016199684836091 0 0.033164824880606958 0.14216681513073731 0 0.020278675152012721 0.16016199684836091 0 0.031185177632072559 0.1580121506045768 0 0.035504897971671598 0.1476860089348653 0 -0.0020877106889532829 0.1584513335905324 0 0.0157867850169244 0.14757548601518189 0 0.0052848697609242856 0.14102107748987441 0 -0.0020877106889532829 0.1584513335905324 0 0.0157867850169244 0.14757548601518189 0 0.020278675152012721 0.16016199684836091 0 0.020310715697660572 0.13553716676175229 0 0.0157867850169244 0.14757548601518189 0 0.0052848697609242856 0.14102107748987441 0 -0.0020877106889532829 0.1584513335905324 0 0.0073925254234195204 0.1781571785659852 0 0.020278675152012721 0.16016199684836091 0 -0.0020877106889532829 0.1584513335905324 0 0.0073925254234195204 0.1781571785659852 0 0.0073925254234195204 0.1781571785659852 0 0.020278675152012721 0.16016199684836091 0 -0.003406223443772536 0.1932373578500165 0 0.0073925254234195204 0.1781571785659852 0 0.0073925254234195204 0.1781571785659852 0 0.027536296361828201 0.17727249300220491 0 0.016794627497201141 0.1977006122645821 0 0.0073925254234195204 0.1781571785659852 0 0.027536296361828201 0.17727249300220491 0 0.0073925254234195204 0.1781571785659852 0 0.027536296361828201 0.17727249300220491 0 0.020278675152012721 0.16016199684836091 0 0.027536296361828201 0.17727249300220491 0 0.020278675152012721 0.16016199684836091 0 0.031185177632072559 0.1580121506045768 0 0.027536296361828201 0.17727249300220491 0 0.031185177632072559 0.1580121506045768 0 0.041567437085428302 0.16198484790775369 0 0.027536296361828201 0.17727249300220491 0 0.041567437085428302 0.16198484790775369 0 0.047629976199184243 0.17628368688064239 0 0.041567437085428302 0.16198484790775369 0 0.047629976199184243 0.17628368688064239 0 0.027536296361828201 0.17727249300220491 0 0.047629976199184243 0.17628368688064239 0 0.037827616822323037 0.19329934654393049 0 0.027536296361828201 0.17727249300220491 0 0.047629976199184243 0.17628368688064239 0 0.047629976199184243 0.17628368688064239 0 0.074356129340856614 0.17496849802294101 0 0.047629976199184243 0.17628368688064239 0 0.056926412029327689 0.19820985287525009 0 0.074356129340856614 0.17496849802294101 0 0.047629976199184243 0.17628368688064239 0 0.056926412029327689 0.19820985287525009 0 0.047629976199184243 0.17628368688064239 0 0.060058144624904497 0.16333703993999549 0 0.074356129340856614 0.17496849802294101 0 0.041567437085428302 0.16198484790775369 0 0.047629976199184243 0.17628368688064239 0 0.060058144624904497 0.16333703993999549 0 0.041567437085428302 0.16198484790775369 0 0.060058144624904497 0.16333703993999549 0 0.061607180390275143 0.14656074404762451 0 0.061607180390275143 0.14656074404762451 0 0.035504897971671598 0.1476860089348653 0 0.061607180390275143 0.14656074404762451 0 0.05934954068966368 0.12662330354391199 0 0.043484326274734537 0.12775589280453431 0 0.025553803796971971 0.12421579446891411 0 0.043484326274734537 0.12775589280453431 0 0.033164824880606958 0.14216681513073731 0 0.043484326274734537 0.12775589280453431 0 0.033164824880606958 0.14216681513073731 0 0.035504897971671598 0.1476860089348653 0 0.043484326274734537 0.12775589280453431 0 0.033164824880606958 0.14216681513073731 0 0.041567437085428302 0.16198484790775369 0 0.061607180390275143 0.14656074404762451 0 0.035504897971671598 0.1476860089348653 0 0.061607180390275143 0.14656074404762451 0 0.043484326274734537 0.12775589280453431 0 0.035504897971671598 0.1476860089348653 0 0.033164824880606958 0.14216681513073731 0 0.035504897971671598 0.1476860089348653 0 0.031185177632072559 0.1580121506045768 0 0.041567437085428302 0.16198484790775369 0 0.035504897971671598 0.1476860089348653 0 0.041567437085428302 0.16198484790775369 0 0.035504897971671598 0.1476860089348653 0 0.0232114499703116 0.2442381034411498 0 0.0059300298915795913 0.2474731915047787 0 0.019274790450831431 0.25799127517140319 0 0.0232114499703116 0.2442381034411498 0 0.01010793476754453 0.23251585263134841 0 0.031803846881781853 0.2288991337875905 0 -0.011587977346692939 0.23613257147510561 0 0.0059300298915795913 0.2474731915047787 0 0.01010793476754453 0.23251585263134841 0 0.0232114499703116 0.2442381034411498 0 0.0059300298915795913 0.2474731915047787 0 0.01010793476754453 0.23251585263134841 0 -0.0021247785171176151 0.22601735370835049 0 0.01010793476754453 0.23251585263134841 0 0.002625625039731759 0.21300568861106101 0 0.01010793476754453 0.23251585263134841 0 0.026146638469930501 0.2171399254053967 0 0.002625625039731759 0.21300568861106101 0 0.01010793476754453 0.23251585263134841 0 0.026146638469930501 0.2171399254053967 0 0.031803846881781853 0.2288991337875905 0 0.01010793476754453 0.23251585263134841 0 0.031803846881781853 0.2288991337875905 0 0.026146638469930501 0.2171399254053967 0 0.031803846881781853 0.2288991337875905 0 0.026146638469930501 0.2171399254053967 0 0.016794627497201141 0.1977006122645821 0 0.026146638469930501 0.2171399254053967 0 0.016794627497201141 0.1977006122645821 0 0.035824252622462853 0.20742494899463759 0 0.026146638469930501 0.2171399254053967 0 0.002625625039731759 0.21300568861106101 0 0.026146638469930501 0.2171399254053967 0 0.002625625039731759 0.21300568861106101 0 0.016794627497201141 0.1977006122645821 0 0.0073925254234195204 0.1781571785659852 0 0.016794627497201141 0.1977006122645821 0 -0.003406223443772536 0.1932373578500165 0 0.0073925254234195204 0.1781571785659852 0 0.016794627497201141 0.1977006122645821 0 -0.003406223443772536 0.1932373578500165 0 0.002625625039731759 0.21300568861106101 0 0.016794627497201141 0.1977006122645821 0 0.027536296361828201 0.17727249300220491 0 0.016794627497201141 0.1977006122645821 0 0.037827616822323037 0.19329934654393049 0 0.016794627497201141 0.1977006122645821 0 0.037827616822323037 0.19329934654393049 0 0.035824252622462853 0.20742494899463759 0 0.037827616822323037 0.19329934654393049 0 0.043712491183061947 0.2029271680044 0 0.056926412029327689 0.19820985287525009 0 0.037827616822323037 0.19329934654393049 0 0.043712491183061947 0.2029271680044 0 0.035824252622462853 0.20742494899463759 0 0.047629976199184243 0.17628368688064239 0 0.037827616822323037 0.19329934654393049 0 0.056926412029327689 0.19820985287525009 0 0.056926412029327689 0.19820985287525009 0 0.065203286429511148 0.21773132597857009 0 0.043712491183061947 0.2029271680044 0 0.056926412029327689 0.19820985287525009 0 0.045772328980575268 0.2130830718468899 0 0.056926412029327689 0.19820985287525009 0 0.055166165462907688 0.2146166070006387 0 0.045772328980575268 0.2130830718468899 0 0.056926412029327689 0.19820985287525009 0 0.055166165462907688 0.2146166070006387 0 0.065203286429511148 0.21773132597857009 0 0.056926412029327689 0.19820985287525009 0 0.045772328980575268 0.2130830718468899 0 0.055166165462907688 0.2146166070006387 0 0.063236987093439806 0.22365921439985709 0 0.065203286429511148 0.21773132597857009 0 0.055166165462907688 0.2146166070006387 0 0.045772328980575268 0.2130830718468899 0 0.044691812781685172 0.2203995699026268 0 0.045772328980575268 0.2130830718468899 0 0.035824252622462853 0.20742494899463759 0 0.044691812781685172 0.2203995699026268 0 0.026146638469930501 0.2171399254053967 0 0.035824252622462853 0.20742494899463759 0 0.044691812781685172 0.2203995699026268 0 0.043712491183061947 0.2029271680044 0 0.045772328980575268 0.2130830718468899 0 0.035824252622462853 0.20742494899463759 0 0.031803846881781853 0.2288991337875905 0 0.047520416987610857 0.22627917409372431 0 0.026146638469930501 0.2171399254053967 0 0.031803846881781853 0.2288991337875905 0 0.044691812781685172 0.2203995699026268 0 0.026146638469930501 0.2171399254053967 0 0.044691812781685172 0.2203995699026268 0 0.031803846881781853 0.2288991337875905 0 0.044691812781685172 0.2203995699026268 0 0.047520416987610857 0.22627917409372431 0 0.044691812781685172 0.2203995699026268 0 0.063236987093439806 0.22365921439985709 0 0.047520416987610857 0.22627917409372431 0 0.063236987093439806 0.22365921439985709 0 0.044691812781685172 0.2203995699026268 0 0.047520416987610857 0.22627917409372431 0 0.063236987093439806 0.22365921439985709 0 0.047520416987610857 0.22627917409372431 0 0.059299343973563907 0.23977397730384789 0 0.063236987093439806 0.22365921439985709 0 0.055166165462907688 0.2146166070006387 0 0.044691812781685172 0.2203995699026268 0 0.063236987093439806 0.22365921439985709 0 0.047520416987610857 0.22627917409372431 0 0.059299343973563907 0.23977397730384789 0 0.044668434310519069 0.25563977215764788 0 0.031803846881781853 0.2288991337875905 0 0.044668434310519069 0.25563977215764788 0 0.0232114499703116 0.2442381034411498 0 0.031803846881781853 0.2288991337875905 0 0.044668434310519069 0.25563977215764788 0 0.031803846881781853 0.2288991337875905 0 0.047520416987610857 0.22627917409372431 0 0.044668434310519069 0.25563977215764788 0 0.091210425798641789 0.24845453687558389 0 0.089506800060855984 0.23595161653583341 0 0.081335533398847609 0.24053925852869801 0 0.089506800060855984 0.23595161653583341 0 0.081335533398847609 0.24053925852869801 0 0.082244788735052934 0.22700017388527169 0 0.091210425798641789 0.24845453687558389 0 0.081335533398847609 0.24053925852869801 0 0.077256167510397183 0.24965772657166779 0 0.059299343973563907 0.23977397730384789 0 0.069352175175494288 0.24460917952387559 0 0.060411219109485367 0.25639687316600579 0 0.081335533398847609 0.24053925852869801 0 0.077256167510397183 0.24965772657166779 0 0.069352175175494288 0.24460917952387559 0 0.077256167510397183 0.24965772657166779 0 0.069352175175494288 0.24460917952387559 0 0.069349791039850617 0.25416777938360868 0 0.059299343973563907 0.23977397730384789 0 0.069352175175494288 0.24460917952387559 0 0.071093765675279724 0.23511636072830999 0 0.081335533398847609 0.24053925852869801 0 0.069352175175494288 0.24460917952387559 0 0.071093765675279724 0.23511636072830999 0 0.063236987093439806 0.22365921439985709 0 0.067060436231020121 0.22302184361446589 0 0.082244788735052934 0.22700017388527169 0 0.071093765675279724 0.23511636072830999 0 0.063236987093439806 0.22365921439985709 0 0.082244788735052934 0.22700017388527169 0 0.063236987093439806 0.22365921439985709 0 0.082244788735052934 0.22700017388527169 0 0.059299343973563907 0.23977397730384789 0 0.071093765675279724 0.23511636072830999 0 0.063236987093439806 0.22365921439985709 0 0.067060436231020121 0.22302184361446589 0 0.073464129146485188 0.2174532341177135 0 0.065203286429511148 0.21773132597857009 0 0.063236987093439806 0.22365921439985709 0 0.067060436231020121 0.22302184361446589 0 0.065203286429511148 0.21773132597857009 0 0.063236987093439806 0.22365921439985709 0 0.067060436231020121 0.22302184361446589 0 0.067060436231020121 0.22302184361446589 0 0.082244788735052934 0.22700017388527169 0 0.073464129146485188 0.2174532341177135 0 0.089506800060855984 0.23595161653583341 0 0.082244788735052934 0.22700017388527169 0 0.10125259037666599 0.2303411333706864 0 0.082244788735052934 0.22700017388527169 0 0.080394810941588277 0.2131135339426049 0 0.073464129146485188 0.2174532341177135 0 0.082244788735052934 0.22700017388527169 0 0.10125259037666599 0.2303411333706864 0 0.082244788735052934 0.22700017388527169 0 0.093902393565684375 0.2161287031301691 0 0.10125259037666599 0.2303411333706864 0 0.081335533398847609 0.24053925852869801 0 0.071093765675279724 0.23511636072830999 0 0.082244788735052934 0.22700017388527169 0 0.080394810941588277 0.2131135339426049 0 0.086089418368210727 0.20069859829074399 0 0.093902393565684375 0.2161287031301691 0 0.080394810941588277 0.2131135339426049 0 0.072417323395253419 0.20639929316765501 0 0.086089418368210727 0.20069859829074399 0 0.082244788735052934 0.22700017388527169 0 0.080394810941588277 0.2131135339426049 0 0.093902393565684375 0.2161287031301691 0 0.056926412029327689 0.19820985287525009 0 0.065203286429511148 0.21773132597857009 0 0.072417323395253419 0.20639929316765501 0 0.080394810941588277 0.2131135339426049 0 0.073464129146485188 0.2174532341177135 0 0.072417323395253419 0.20639929316765501 0 0.073464129146485188 0.2174532341177135 0 0.065203286429511148 0.21773132597857009 0 0.072417323395253419 0.20639929316765501 0 0.056926412029327689 0.19820985287525009 0 0.07552659373147548 0.19347613181642551 0 0.074356129340856614 0.17496849802294101 0 0.056926412029327689 0.19820985287525009 0 0.072417323395253419 0.20639929316765501 0 0.07552659373147548 0.19347613181642551 0 0.072417323395253419 0.20639929316765501 0 0.07552659373147548 0.19347613181642551 0 0.086089418368210727 0.20069859829074399 0 0.07552659373147548 0.19347613181642551 0 0.086089418368210727 0.20069859829074399 0 0.087178244475477534 0.18698148600864781 0 0.086089418368210727 0.20069859829074399 0 0.099098673243871518 0.18988614793460121 0 0.087178244475477534 0.18698148600864781 0 0.099098673243871518 0.18988614793460121 0 0.1171790732464361 0.19269838922403049 0 0.10647471650122441 0.20557584894505401 0 0.086089418368210727 0.20069859829074399 0 0.099098673243871518 0.18988614793460121 0 0.10647471650122441 0.20557584894505401 0 0.10647471650122441 0.20557584894505401 0 0.10951999043692109 0.21900990123757361 0 0.13357669256113991 0.21251770153611099 0 0.1171790732464361 0.19269838922403049 0 0.10647471650122441 0.20557584894505401 0 0.13357669256113991 0.21251770153611099 0 0.10647471650122441 0.20557584894505401 0 0.093902393565684375 0.2161287031301691 0 0.10951999043692109 0.21900990123757361 0 0.086089418368210727 0.20069859829074399 0 0.10647471650122441 0.20557584894505401 0 0.093902393565684375 0.2161287031301691 0 0.093902393565684375 0.2161287031301691 0 0.10125259037666599 0.2303411333706864 0 0.10951999043692109 0.21900990123757361 0 0.10125259037666599 0.2303411333706864 0 0.10951999043692109 0.21900990123757361 0 0.1123935591798908 0.2304861192058475 0 0.1123935591798908 0.2304861192058475 0 0.1264987206877955 0.23232810492835751 0 0.13357669256113991 0.21251770153611099 0 0.10951999043692109 0.21900990123757361 0 0.1123935591798908 0.2304861192058475 0 0.13357669256113991 0.21251770153611099 0 0.1123935591798908 0.2304861192058475 0 0.13357669256113991 0.21251770153611099 0 0.1123935591798908 0.2304861192058475 0 0.1190260291513007 0.24336637760556681 0 0.1076673099755391 0.24745849863492089 0 0.1190260291513007 0.24336637760556681 0 0.12801250373862871 0.242705269603991 0 0.1264987206877955 0.23232810492835751 0 0.1123935591798908 0.2304861192058475 0 0.1190260291513007 0.24336637760556681 0 0.1264987206877955 0.23232810492835751 0 0.1190260291513007 0.24336637760556681 0 0.12801250373862871 0.242705269603991 0 0.1262292453709509 0.25224871802668603 0 0.1190260291513007 0.24336637760556681 0 0.1076673099755391 0.24745849863492089 0 0.1146137975441518 0.25636162154516878 0 0.091210425798641789 0.24845453687558389 0 0.1123935591798908 0.2304861192058475 0 0.1076673099755391 0.24745849863492089 0 0.091210425798641789 0.24845453687558389 0 0.1123935591798908 0.2304861192058475 0 0.091210425798641789 0.24845453687558389 0 0.10125259037666599 0.2303411333706864 0 0.1123935591798908 0.2304861192058475 0 0.091210425798641789 0.24845453687558389 0 0.089506800060855984 0.23595161653583341 0 0.10125259037666599 0.2303411333706864 0 0.091489833389221883 0.15212185693260569 0 0.087709462808878633 0.14543547916038299 0 0.075130000108778572 0.15688742284101609 0 0.091489833389221883 0.15212185693260569 0 0.087709462808878633 0.14543547916038299 0 0.099991037096189034 0.1535764384429476 0 0.087709462808878633 0.14543547916038299 0 0.086609924698865248 0.13117518022284119 0 0.097302035127381642 0.13723039774974041 0 0.090849030703578304 0.1160220316407197 0 0.086609924698865248 0.13117518022284119 0 0.10107700777430061 0.1280007173425963 0 0.079332697324893425 0.1181574026172918 0 0.086609924698865248 0.13117518022284119 0 0.072374330802683753 0.12873840779889331 0 0.086609924698865248 0.13117518022284119 0 0.077075224675175691 0.13797745280743551 0 0.072374330802683753 0.12873840779889331 0 0.087709462808878633 0.14543547916038299 0 0.086609924698865248 0.13117518022284119 0 0.077075224675175691 0.13797745280743551 0 0.061607180390275143 0.14656074404762451 0 0.05934954068966368 0.12662330354391199 0 0.072374330802683753 0.12873840779889331 0 0.061607180390275143 0.14656074404762451 0 0.077075224675175691 0.13797745280743551 0 0.072374330802683753 0.12873840779889331 0 0.061607180390275143 0.14656074404762451 0 0.087709462808878633 0.14543547916038299 0 0.075130000108778572 0.15688742284101609 0 0.061607180390275143 0.14656074404762451 0 0.087709462808878633 0.14543547916038299 0 0.077075224675175691 0.13797745280743551 0 0.061607180390275143 0.14656074404762451 0 0.087709462808878633 0.14543547916038299 0 0.060058144624904497 0.16333703993999549 0 0.061607180390275143 0.14656074404762451 0 0.075130000108778572 0.15688742284101609 0 0.060058144624904497 0.16333703993999549 0 0.075130000108778572 0.15688742284101609 0 0.074356129340856614 0.17496849802294101 0 0.056926412029327689 0.19820985287525009 0 0.074356129340856614 0.17496849802294101 0 0.099098673243871518 0.18988614793460121 0 0.091365821279403431 0.1741314543529488 0 0.087178244475477534 0.18698148600864781 0 0.074356129340856614 0.17496849802294101 0 0.091365821279403431 0.1741314543529488 0 0.087178244475477534 0.18698148600864781 0 0.07552659373147548 0.19347613181642551 0 0.074356129340856614 0.17496849802294101 0 0.087178244475477534 0.18698148600864781 0 0.074356129340856614 0.17496849802294101 0 0.091365821279403431 0.1741314543529488 0 0.091489833389221883 0.15212185693260569 0 0.074356129340856614 0.17496849802294101 0 0.074356129340856614 0.17496849802294101 0 0.091365821279403431 0.1741314543529488 0 0.095988789765505345 0.16315235418523999 0 0.091489833389221883 0.15212185693260569 0 0.074356129340856614 0.17496849802294101 0 0.095988789765505345 0.16315235418523999 0 0.091489833389221883 0.15212185693260569 0 0.075130000108778572 0.15688742284101609 0 0.074356129340856614 0.17496849802294101 0 0.091489833389221883 0.15212185693260569 0 0.095988789765505345 0.16315235418523999 0 0.099991037096189034 0.1535764384429476 0 0.091365821279403431 0.1741314543529488 0 0.095988789765505345 0.16315235418523999 0 0.1053929171275233 0.17670992173985239 0 0.095988789765505345 0.16315235418523999 0 0.1053929171275233 0.17670992173985239 0 0.1109553542898573 0.1628622876633681 0 0.095988789765505345 0.16315235418523999 0 0.1109553542898573 0.1628622876633681 0 0.099991037096189034 0.1535764384429476 0 0.099098673243871518 0.18988614793460121 0 0.1171790732464361 0.19269838922403049 0 0.1053929171275233 0.17670992173985239 0 0.099098673243871518 0.18988614793460121 0 0.091365821279403431 0.1741314543529488 0 0.1053929171275233 0.17670992173985239 0 0.1053929171275233 0.17670992173985239 0 0.1226899684080867 0.17773326318002311 0 0.1109553542898573 0.1628622876633681 0 0.1171790732464361 0.19269838922403049 0 0.1053929171275233 0.17670992173985239 0 0.1226899684080867 0.17773326318002311 0 0.1226899684080867 0.17773326318002311 0 0.1109553542898573 0.1628622876633681 0 0.12729476182737709 0.1593002341220803 0 0.1109553542898573 0.1628622876633681 0 0.11381174522748209 0.1443102142731415 0 0.12729476182737709 0.1593002341220803 0 0.11381174522748209 0.1443102142731415 0 0.13057587745155461 0.13797429744117101 0 0.12729476182737709 0.1593002341220803 0 0.087709462808878633 0.14543547916038299 0 0.11381174522748209 0.1443102142731415 0 0.087709462808878633 0.14543547916038299 0 0.11381174522748209 0.1443102142731415 0 0.099991037096189034 0.1535764384429476 0 0.087709462808878633 0.14543547916038299 0 0.11381174522748209 0.1443102142731415 0 0.097302035127381642 0.13723039774974041 0 0.1109553542898573 0.1628622876633681 0 0.11381174522748209 0.1443102142731415 0 0.099991037096189034 0.1535764384429476 0 0.11381174522748209 0.1443102142731415 0 0.10107700777430061 0.1280007173425963 0 0.097302035127381642 0.13723039774974041 0 0.086609924698865248 0.13117518022284119 0 0.10107700777430061 0.1280007173425963 0 0.097302035127381642 0.13723039774974041 0 0.11683331524402429 0.1236638279261679 0 0.11381174522748209 0.1443102142731415 0 0.10107700777430061 0.1280007173425963 0 0.11683331524402429 0.1236638279261679 0 0.11381174522748209 0.1443102142731415 0 0.13057587745155461 0.13797429744117101 0 0.13057587745155461 0.13797429744117101 0 0.1471209814599522 0.13058140921255931 0 0.1324584110937625 0.115908802075576 0 0.11683331524402429 0.1236638279261679 0 0.13057587745155461 0.13797429744117101 0 0.1324584110937625 0.115908802075576 0 0.13057587745155461 0.13797429744117101 0 0.1471209814599522 0.13058140921255931 0 0.14593604985672931 0.15408129703750109 0 0.1471209814599522 0.13058140921255931 0 0.14593604985672931 0.15408129703750109 0 0.17451440921272321 0.1480831109771282 0 0.13057587745155461 0.13797429744117101 0 0.14593604985672931 0.15408129703750109 0 0.12729476182737709 0.1593002341220803 0 0.1226899684080867 0.17773326318002311 0 0.12729476182737709 0.1593002341220803 0 0.1427848158318436 0.17656883108062349 0 0.14593604985672931 0.15408129703750109 0 0.12729476182737709 0.1593002341220803 0 0.1427848158318436 0.17656883108062349 0 0.1226899684080867 0.17773326318002311 0 0.1427848158318436 0.17656883108062349 0 0.1352333063252745 0.1922698963720505 0 0.1427848158318436 0.17656883108062349 0 0.1627928869273049 0.17301972255204839 0 0.15475982594238899 0.1945492838663746 0 0.14593604985672931 0.15408129703750109 0 0.1427848158318436 0.17656883108062349 0 0.1627928869273049 0.17301972255204839 0 0.14593604985672931 0.15408129703750109 0 0.1627928869273049 0.17301972255204839 0 0.17451440921272321 0.1480831109771282 0 0.1627928869273049 0.17301972255204839 0 0.15475982594238899 0.1945492838663746 0 0.17488961870550479 0.18900372337539159 0 0.1627928869273049 0.17301972255204839 0 0.1838726020146392 0.17583208897527139 0 0.17488961870550479 0.18900372337539159 0 0.1838726020146392 0.17583208897527139 0 0.17488961870550479 0.18900372337539159 0 0.18976064625909289 0.18398044225048041 0 0.1838726020146392 0.17583208897527139 0 0.17451440921272321 0.1480831109771282 0 0.19036602048150569 0.1594184825169572 0 0.1838726020146392 0.17583208897527139 0 0.17451440921272321 0.1480831109771282 0 0.1627928869273049 0.17301972255204839 0 0.1838726020146392 0.17583208897527139 0 0.17451440921272321 0.1480831109771282 0 0.17451440921272321 0.1480831109771282 0 0.19309107088368271 0.14484199756110719 0 0.19036602048150569 0.1594184825169572 0 0.17451440921272321 0.1480831109771282 0 0.19042724449636619 0.13126615057344329 0 0.19309107088368271 0.14484199756110719 0 0.17451440921272321 0.1480831109771282 0 0.19042724449636619 0.13126615057344329 0 0.16515621641080719 0.12033413297898531 0 0.17451440921272321 0.1480831109771282 0 0.16515621641080719 0.12033413297898531 0 0.1471209814599522 0.13058140921255931 0 0.17451440921272321 0.1480831109771282 0 0.16515621641080719 0.12033413297898531 0 0.15310952913605899 0.23650018691640781 0 0.1471455627635897 0.2457753837098802 0 0.15702245646898699 0.24425875093583621 0 0.15310952913605899 0.23650018691640781 0 0.14636672693149011 0.2376277006844322 0 0.1471455627635897 0.2457753837098802 0 0.14636672693149011 0.2376277006844322 0 0.1471455627635897 0.2457753837098802 0 0.1403495765860788 0.2426204972051367 0 0.14636672693149011 0.2376277006844322 0 0.1403495765860788 0.2426204972051367 0 0.13972874817839259 0.2360988880315264 0 0.1471455627635897 0.2457753837098802 0 0.1403495765860788 0.2426204972051367 0 0.14054789815990409 0.25063786334563659 0 0.13439082339957409 0.24733376189263659 0 0.1403495765860788 0.2426204972051367 0 0.14054789815990409 0.25063786334563659 0 0.13439082339957409 0.24733376189263659 0 0.1403495765860788 0.2426204972051367 0 0.13391770008352219 0.23824938556670799 0 0.13439082339957409 0.24733376189263659 0 0.12801250373862871 0.242705269603991 0 0.13391770008352219 0.23824938556670799 0 0.13439082339957409 0.24733376189263659 0 0.12801250373862871 0.242705269603991 0 0.1262292453709509 0.25224871802668603 0 0.12801250373862871 0.242705269603991 0 0.13391770008352219 0.23824938556670799 0 0.1264987206877955 0.23232810492835751 0 0.1403495765860788 0.2426204972051367 0 0.13391770008352219 0.23824938556670799 0 0.13972874817839259 0.2360988880315264 0 0.13391770008352219 0.23824938556670799 0 0.13972874817839259 0.2360988880315264 0 0.13655799171468 0.22790477976652829 0 0.13655799171468 0.22790477976652829 0 0.1264987206877955 0.23232810492835751 0 0.13357669256113991 0.21251770153611099 0 0.13391770008352219 0.23824938556670799 0 0.13655799171468 0.22790477976652829 0 0.1264987206877955 0.23232810492835751 0 0.13655799171468 0.22790477976652829 0 0.14799639556924779 0.22718202499954379 0 0.13357669256113991 0.21251770153611099 0 0.14636672693149011 0.2376277006844322 0 0.13972874817839259 0.2360988880315264 0 0.14799639556924779 0.22718202499954379 0 0.13972874817839259 0.2360988880315264 0 0.13655799171468 0.22790477976652829 0 0.14799639556924779 0.22718202499954379 0 0.15310952913605899 0.23650018691640781 0 0.14799639556924779 0.22718202499954379 0 0.16023264147070379 0.23047046974772409 0 0.15310952913605899 0.23650018691640781 0 0.14636672693149011 0.2376277006844322 0 0.14799639556924779 0.22718202499954379 0 0.14799639556924779 0.22718202499954379 0 0.15707647809010061 0.2161196721680263 0 0.16023264147070379 0.23047046974772409 0 0.14799639556924779 0.22718202499954379 0 0.13357669256113991 0.21251770153611099 0 0.15707647809010061 0.2161196721680263 0 0.13357669256113991 0.21251770153611099 0 0.15475982594238899 0.1945492838663746 0 0.15707647809010061 0.2161196721680263 0 0.13357669256113991 0.21251770153611099 0 0.15475982594238899 0.1945492838663746 0 0.1171790732464361 0.19269838922403049 0 0.1226899684080867 0.17773326318002311 0 0.1352333063252745 0.1922698963720505 0 0.1171790732464361 0.19269838922403049 0 0.13357669256113991 0.21251770153611099 0 0.1352333063252745 0.1922698963720505 0 0.1427848158318436 0.17656883108062349 0 0.1352333063252745 0.1922698963720505 0 0.15475982594238899 0.1945492838663746 0 0.13357669256113991 0.21251770153611099 0 0.1352333063252745 0.1922698963720505 0 0.15475982594238899 0.1945492838663746 0 0.15475982594238899 0.1945492838663746 0 0.17488961870550479 0.18900372337539159 0 0.17110258795691369 0.20617846748778679 0 0.17488961870550479 0.18900372337539159 0 0.18941330461869851 0.2021149640965112 0 0.18976064625909289 0.18398044225048041 0 0.17488961870550479 0.18900372337539159 0 0.17110258795691369 0.20617846748778679 0 0.18941330461869851 0.2021149640965112 0 0.17479072504020959 0.22582008537061751 0 0.18941330461869851 0.2021149640965112 0 0.17479072504020959 0.22582008537061751 0 0.1887603772477861 0.2113233580116497 0 0.18941330461869851 0.2021149640965112 0 0.17110258795691369 0.20617846748778679 0 0.17479072504020959 0.22582008537061751 0 0.18941330461869851 0.2021149640965112 0 0.17479072504020959 0.22582008537061751 0 0.1887603772477861 0.2113233580116497 0 0.17110258795691369 0.20617846748778679 0 0.15707647809010061 0.2161196721680263 0 0.17479072504020959 0.22582008537061751 0 0.15475982594238899 0.1945492838663746 0 0.17110258795691369 0.20617846748778679 0 0.15707647809010061 0.2161196721680263 0 0.15707647809010061 0.2161196721680263 0 0.16023264147070379 0.23047046974772409 0 0.17479072504020959 0.22582008537061751 0 0.16023264147070379 0.23047046974772409 0 0.17479072504020959 0.22582008537061751 0 0.15702245646898699 0.24425875093583621 0 0.17479072504020959 0.22582008537061751 0 0.18801988381661741 0.22476916739305119 0 0.1887603772477861 0.2113233580116497 0 0.17479072504020959 0.22582008537061751 0 0.1850034562453251 0.23685279370016499 0 0.18801988381661741 0.22476916739305119 0 0.17479072504020959 0.22582008537061751 0 0.1741777379180495 0.24036135114870799 0 0.1850034562453251 0.23685279370016499 0 0.1741777379180495 0.24036135114870799 0 0.1850034562453251 0.23685279370016499 0 0.17898104065045961 0.2474072687337816 0 0.1850034562453251 0.23685279370016499 0 0.17898104065045961 0.2474072687337816 0 0.18959464865812731 0.24829286944273779 0 0.1741777379180495 0.24036135114870799 0 0.17898104065045961 0.2474072687337816 0 0.17099044361719101 0.2488693943575139 0 0.17479072504020959 0.22582008537061751 0 0.1741777379180495 0.24036135114870799 0 0.1614578453817532 0.2474344337515107 0 0.17479072504020959 0.22582008537061751 0 0.15702245646898699 0.24425875093583621 0 0.17479072504020959 0.22582008537061751 0 0.1614578453817532 0.2474344337515107 0 0.1741777379180495 0.24036135114870799 0 0.17099044361719101 0.2488693943575139 0 0.1614578453817532 0.2474344337515107 0 0.17479072504020959 0.22582008537061751 0 0.1614578453817532 0.2474344337515107 0 0.15702245646898699 0.24425875093583621 0 0.15310952913605899 0.23650018691640781 0 0.16023264147070379 0.23047046974772409 0 0.15702245646898699 0.24425875093583621 0 0.1614578453817532 0.2474344337515107 0 0.15702245646898699 0.24425875093583621 0 0.15153815421420841 0.2559992764354444 0 0.21144055363605849 0.24230977565934519 0 0.22323207568833711 0.23928934941960339 0 0.21784204116262049 0.25278755554682031 0 0.21144055363605849 0.24230977565934519 0 0.20956462797640071 0.25160063485033868 0 0.21784204116262049 0.25278755554682031 0 0.21144055363605849 0.24230977565934519 0 0.20805834899630929 0.23155401907470829 0 0.22323207568833711 0.23928934941960339 0 0.21144055363605849 0.24230977565934519 0 0.19852843938885731 0.23976918932948371 0 0.20805834899630929 0.23155401907470829 0 0.21144055363605849 0.24230977565934519 0 0.20089396658554831 0.25035318971589698 0 0.20956462797640071 0.25160063485033868 0 0.21144055363605849 0.24230977565934519 0 0.19852843938885731 0.23976918932948371 0 0.20089396658554831 0.25035318971589698 0 0.18959464865812731 0.24829286944273779 0 0.19852843938885731 0.23976918932948371 0 0.20089396658554831 0.25035318971589698 0 0.1850034562453251 0.23685279370016499 0 0.18959464865812731 0.24829286944273779 0 0.19852843938885731 0.23976918932948371 0 0.1850034562453251 0.23685279370016499 0 0.19852843938885731 0.23976918932948371 0 0.19617966221177541 0.22925248838404899 0 0.19852843938885731 0.23976918932948371 0 0.19617966221177541 0.22925248838404899 0 0.20805834899630929 0.23155401907470829 0 0.1850034562453251 0.23685279370016499 0 0.19617966221177541 0.22925248838404899 0 0.18801988381661741 0.22476916739305119 0 0.19617966221177541 0.22925248838404899 0 0.18801988381661741 0.22476916739305119 0 0.196114977213563 0.21935160758399941 0 0.19617966221177541 0.22925248838404899 0 0.196114977213563 0.21935160758399941 0 0.20650160781736079 0.22139064023123359 0 0.19617966221177541 0.22925248838404899 0 0.20650160781736079 0.22139064023123359 0 0.20805834899630929 0.23155401907470829 0 0.20805834899630929 0.23155401907470829 0 0.21915369559909939 0.22459374528779991 0 0.22323207568833711 0.23928934941960339 0 0.20650160781736079 0.22139064023123359 0 0.20805834899630929 0.23155401907470829 0 0.21915369559909939 0.22459374528779991 0 0.20650160781736079 0.22139064023123359 0 0.21622716454948709 0.2125537816236607 0 0.21915369559909939 0.22459374528779991 0 0.21622716454948709 0.2125537816236607 0 0.21111423696240089 0.2038458697173271 0 0.22379333606170271 0.2028552185440089 0 0.21111423696240089 0.2038458697173271 0 0.20327579833393089 0.2110381994331843 0 0.20273002945536281 0.19682663065268199 0 0.21622716454948709 0.2125537816236607 0 0.21111423696240089 0.2038458697173271 0 0.20327579833393089 0.2110381994331843 0 0.20650160781736079 0.22139064023123359 0 0.21622716454948709 0.2125537816236607 0 0.20327579833393089 0.2110381994331843 0 0.196114977213563 0.21935160758399941 0 0.20327579833393089 0.2110381994331843 0 0.1887603772477861 0.2113233580116497 0 0.196114977213563 0.21935160758399941 0 0.20650160781736079 0.22139064023123359 0 0.20327579833393089 0.2110381994331843 0 0.18801988381661741 0.22476916739305119 0 0.196114977213563 0.21935160758399941 0 0.1887603772477861 0.2113233580116497 0 0.1887603772477861 0.2113233580116497 0 0.20273002945536281 0.19682663065268199 0 0.18941330461869851 0.2021149640965112 0 0.1887603772477861 0.2113233580116497 0 0.20273002945536281 0.19682663065268199 0 0.20327579833393089 0.2110381994331843 0 0.1887603772477861 0.2113233580116497 0 0.20273002945536281 0.19682663065268199 0 0.18941330461869851 0.2021149640965112 0 0.20403588419718699 0.17840984282240471 0 0.18941330461869851 0.2021149640965112 0 0.18976064625909289 0.18398044225048041 0 0.20403588419718699 0.17840984282240471 0 0.20273002945536281 0.19682663065268199 0 0.18941330461869851 0.2021149640965112 0 0.20403588419718699 0.17840984282240471 0 0.20273002945536281 0.19682663065268199 0 0.21669968166293949 0.18232990329371429 0 0.21111423696240089 0.2038458697173271 0 0.20273002945536281 0.19682663065268199 0 0.21645597667294039 0.19485818978404981 0 0.21111423696240089 0.2038458697173271 0 0.21645597667294039 0.19485818978404981 0 0.22379333606170271 0.2028552185440089 0 0.20273002945536281 0.19682663065268199 0 0.21645597667294039 0.19485818978404981 0 0.21669968166293949 0.18232990329371429 0 0.21645597667294039 0.19485818978404981 0 0.2287351588853026 0.18830748628257951 0 0.21669968166293949 0.18232990329371429 0 0.21645597667294039 0.19485818978404981 0 0.22379333606170271 0.2028552185440089 0 0.2287351588853026 0.18830748628257951 0 0.22379333606170271 0.2028552185440089 0 0.2287351588853026 0.18830748628257951 0 0.23700491458685249 0.200285066111028 0 0.24896024116423709 0.2023075548469852 0 0.23700491458685249 0.200285066111028 0 0.2438789355878023 0.1813210369314022 0 0.2287351588853026 0.18830748628257951 0 0.23700491458685249 0.200285066111028 0 0.2438789355878023 0.1813210369314022 0 0.23700491458685249 0.200285066111028 0 0.24473308592962781 0.21259796082011609 0 0.23036904826141599 0.21404943148803771 0 0.24896024116423709 0.2023075548469852 0 0.23700491458685249 0.200285066111028 0 0.24473308592962781 0.21259796082011609 0 0.22379333606170271 0.2028552185440089 0 0.23700491458685249 0.200285066111028 0 0.23036904826141599 0.21404943148803771 0 0.21622716454948709 0.2125537816236607 0 0.22379333606170271 0.2028552185440089 0 0.23036904826141599 0.21404943148803771 0 0.21622716454948709 0.2125537816236607 0 0.23036904826141599 0.21404943148803771 0 0.21915369559909939 0.22459374528779991 0 0.21915369559909939 0.22459374528779991 0 0.23894179164141349 0.22988215710279519 0 0.22323207568833711 0.23928934941960339 0 0.23036904826141599 0.21404943148803771 0 0.21915369559909939 0.22459374528779991 0 0.23894179164141349 0.22988215710279519 0 0.24473308592962781 0.21259796082011609 0 0.23894179164141349 0.22988215710279519 0 0.25287704952803758 0.22551311518081091 0 0.24473308592962781 0.21259796082011609 0 0.23036904826141599 0.21404943148803771 0 0.23894179164141349 0.22988215710279519 0 0.24473308592962781 0.21259796082011609 0 0.25287704952803758 0.22551311518081091 0 0.23777700007207569 0.25352797534319121 0 0.26102101312644749 0.2384282695415057 0 0.23894179164141349 0.22988215710279519 0 0.23777700007207569 0.25352797534319121 0 0.26102101312644749 0.2384282695415057 0 0.22323207568833711 0.23928934941960339 0 0.21784204116262049 0.25278755554682031 0 0.23777700007207569 0.25352797534319121 0 0.23894179164141349 0.22988215710279519 0 0.22323207568833711 0.23928934941960339 0 0.23777700007207569 0.25352797534319121 0 0.2113657199558053 0.14748610909819801 0 0.21042154049881781 0.137149990034974 0 0.22715023804331011 0.1592355134831881 0 0.2128944385020074 0.15388295126845661 0 0.2113657199558053 0.14748610909819801 0 0.22715023804331011 0.1592355134831881 0 0.2113657199558053 0.14748610909819801 0 0.21042154049881781 0.137149990034974 0 0.20266668780938649 0.1393870205404823 0 0.20369569492550449 0.14777507016388891 0 0.2113657199558053 0.14748610909819801 0 0.20266668780938649 0.1393870205404823 0 0.20369569492550449 0.14777507016388891 0 0.2128944385020074 0.15388295126845661 0 0.2113657199558053 0.14748610909819801 0 0.20369569492550449 0.14777507016388891 0 0.2128944385020074 0.15388295126845661 0 0.20631536484844501 0.15763856053859021 0 0.20728403180471949 0.13204986731223661 0 0.2238666330746984 0.14763533674928059 0 0.21733098874317969 0.1343316336995124 0 0.20728403180471949 0.13204986731223661 0 0.2238666330746984 0.14763533674928059 0 0.20728403180471949 0.13204986731223661 0 0.21042154049881781 0.137149990034974 0 0.2238666330746984 0.14763533674928059 0 0.21733098874317969 0.1343316336995124 0 0.20728403180471949 0.13204986731223661 0 0.21519906743813949 0.12448764421075401 0 0.21733098874317969 0.1343316336995124 0 0.22297422265516131 0.13315368652577819 0 0.21519906743813949 0.12448764421075401 0 0.20728403180471949 0.13204986731223661 0 0.21042154049881781 0.137149990034974 0 0.20266668780938649 0.1393870205404823 0 0.20266668780938649 0.1393870205404823 0 0.19042724449636619 0.13126615057344329 0 0.19309107088368271 0.14484199756110719 0 0.20728403180471949 0.13204986731223661 0 0.20266668780938649 0.1393870205404823 0 0.19042724449636619 0.13126615057344329 0 0.20728403180471949 0.13204986731223661 0 0.19042724449636619 0.13126615057344329 0 0.19070143053474059 0.11646439787519269 0 0.20369569492550449 0.14777507016388891 0 0.20266668780938649 0.1393870205404823 0 0.19309107088368271 0.14484199756110719 0 0.20369569492550449 0.14777507016388891 0 0.19309107088368271 0.14484199756110719 0 0.198464563440159 0.15439961167231231 0 0.20369569492550449 0.14777507016388891 0 0.198464563440159 0.15439961167231231 0 0.20631536484844501 0.15763856053859021 0 0.19309107088368271 0.14484199756110719 0 0.198464563440159 0.15439961167231231 0 0.19036602048150569 0.1594184825169572 0 0.1838726020146392 0.17583208897527139 0 0.19036602048150569 0.1594184825169572 0 0.19517333996035449 0.17129470387504669 0 0.19036602048150569 0.1594184825169572 0 0.19517333996035449 0.17129470387504669 0 0.198854666061657 0.1623239475810182 0 0.19517333996035449 0.17129470387504669 0 0.198854666061657 0.1623239475810182 0 0.20415022074804531 0.16780341910414809 0 0.198464563440159 0.15439961167231231 0 0.198854666061657 0.1623239475810182 0 0.20631536484844501 0.15763856053859021 0 0.198854666061657 0.1623239475810182 0 0.20631536484844501 0.15763856053859021 0 0.20415022074804531 0.16780341910414809 0 0.198464563440159 0.15439961167231231 0 0.19036602048150569 0.1594184825169572 0 0.198854666061657 0.1623239475810182 0 0.1838726020146392 0.17583208897527139 0 0.19517333996035449 0.17129470387504669 0 0.18976064625909289 0.18398044225048041 0 0.19517333996035449 0.17129470387504669 0 0.18976064625909289 0.18398044225048041 0 0.20403588419718699 0.17840984282240471 0 0.19517333996035449 0.17129470387504669 0 0.20403588419718699 0.17840984282240471 0 0.20415022074804531 0.16780341910414809 0 0.20273002945536281 0.19682663065268199 0 0.20403588419718699 0.17840984282240471 0 0.21669968166293949 0.18232990329371429 0 0.21669968166293949 0.18232990329371429 0 0.21413046302492639 0.16836009715970129 0 0.22332471718972491 0.16809852599242631 0 0.20403588419718699 0.17840984282240471 0 0.21669968166293949 0.18232990329371429 0 0.21413046302492639 0.16836009715970129 0 0.20631536484844501 0.15763856053859021 0 0.20415022074804531 0.16780341910414809 0 0.21413046302492639 0.16836009715970129 0 0.20403588419718699 0.17840984282240471 0 0.20415022074804531 0.16780341910414809 0 0.21413046302492639 0.16836009715970129 0 0.21413046302492639 0.16836009715970129 0 0.21676699765851279 0.1607310254379572 0 0.22332471718972491 0.16809852599242631 0 0.20631536484844501 0.15763856053859021 0 0.21413046302492639 0.16836009715970129 0 0.21676699765851279 0.1607310254379572 0 0.2128944385020074 0.15388295126845661 0 0.20631536484844501 0.15763856053859021 0 0.21676699765851279 0.1607310254379572 0 0.21676699765851279 0.1607310254379572 0 0.22332471718972491 0.16809852599242631 0 0.22715023804331011 0.1592355134831881 0 0.22715023804331011 0.1592355134831881 0 0.23008766624110841 0.17438890057240319 0 0.2438789355878023 0.1813210369314022 0 0.2128944385020074 0.15388295126845661 0 0.21676699765851279 0.1607310254379572 0 0.22715023804331011 0.1592355134831881 0 0.22715023804331011 0.1592355134831881 0 0.24044923434467719 0.16322080618632451 0 0.2238666330746984 0.14763533674928059 0 0.22332471718972491 0.16809852599242631 0 0.22715023804331011 0.1592355134831881 0 0.23008766624110841 0.17438890057240319 0 0.2287351588853026 0.18830748628257951 0 0.21669968166293949 0.18232990329371429 0 0.23008766624110841 0.17438890057240319 0 0.21669968166293949 0.18232990329371429 0 0.22332471718972491 0.16809852599242631 0 0.23008766624110841 0.17438890057240319 0 0.2287351588853026 0.18830748628257951 0 0.23008766624110841 0.17438890057240319 0 0.2438789355878023 0.1813210369314022 0 0.2438789355878023 0.1813210369314022 0 0.24044923434467719 0.16322080618632451 0 0.25703183561465598 0.1788062756233684 0 0.22715023804331011 0.1592355134831881 0 0.2438789355878023 0.1813210369314022 0 0.24044923434467719 0.16322080618632451 0 0.24044923434467719 0.16322080618632451 0 0.25703183561465598 0.1788062756233684 0 0.22715023804331011 0.1592355134831881 0 0.2438789355878023 0.1813210369314022 0 0.24044923434467719 0.16322080618632451 0 0.25069316261496682 0.1538940140022072 0 0.25489466759703489 0.16517490763340431 0 0.24044923434467719 0.16322080618632451 0 0.23851910262185039 0.14875616885225121 0 0.25069316261496682 0.1538940140022072 0 0.24587986904064979 0.1408282300472459 0 0.23851910262185039 0.14875616885225121 0 0.25069316261496682 0.1538940140022072 0 0.24587986904064979 0.1408282300472459 0 0.23851910262185039 0.14875616885225121 0 0.2331625753195114 0.138599217661665 0 0.21042154049881781 0.137149990034974 0 0.22715023804331011 0.1592355134831881 0 0.24044923434467719 0.16322080618632451 0 0.2238666330746984 0.14763533674928059 0 0.24044923434467719 0.16322080618632451 0 0.23851910262185039 0.14875616885225121 0 0.2238666330746984 0.14763533674928059 0 0.21042154049881781 0.137149990034974 0 0.22715023804331011 0.1592355134831881 0 0.2238666330746984 0.14763533674928059 0 0.23851910262185039 0.14875616885225121 0 0.2238666330746984 0.14763533674928059 0 0.2331625753195114 0.138599217661665 0 0.22297422265516131 0.13315368652577819 0 0.2331625753195114 0.138599217661665 0 0.2279611608233568 0.1229170305346204 0 0.2331625753195114 0.138599217661665 0 0.24135211767827339 0.12822434029317459 0 0.2279611608233568 0.1229170305346204 0 0.22297422265516131 0.13315368652577819 0 0.2279611608233568 0.1229170305346204 0 0.21519906743813949 0.12448764421075401 0 0.21733098874317969 0.1343316336995124 0 0.2238666330746984 0.14763533674928059 0 0.22297422265516131 0.13315368652577819 0 0.2238666330746984 0.14763533674928059 0 0.22297422265516131 0.13315368652577819 0 0.2331625753195114 0.138599217661665 0 0.24587986904064979 0.1408282300472459 0 0.24135211767827339 0.12822434029317459 0 0.25796219359939682 0.12504353204682961 0 0.24587986904064979 0.1408282300472459 0 0.2331625753195114 0.138599217661665 0 0.24135211767827339 0.12822434029317459 0 0.24135211767827339 0.12822434029317459 0 0.2417947896084523 0.1137336911755121 0 0.25796219359939682 0.12504353204682961 0 0.24135211767827339 0.12822434029317459 0 0.2417947896084523 0.1137336911755121 0 0.2279611608233568 0.1229170305346204 0 0.2417947896084523 0.1137336911755121 0 0.23972002746181931 0.097604800212767212 0 0.2271818671699192 0.1080191324143681 0 0.2417947896084523 0.1137336911755121 0 0.23972002746181931 0.097604800212767212 0 0.2566379746589465 0.101932494779665 0 0.23972002746181931 0.097604800212767212 0 0.2118962241229965 0.09399369144542577 0 0.23972002746181931 0.097604800212767212 0 0.2271818671699192 0.1080191324143681 0 0.2118962241229965 0.09399369144542577 0 0.2417947896084523 0.1137336911755121 0 0.2271818671699192 0.1080191324143681 0 0.2279611608233568 0.1229170305346204 0 0.2271818671699192 0.1080191324143681 0 0.2279611608233568 0.1229170305346204 0 0.21442478802609199 0.1131474030729285 0 0.2279611608233568 0.1229170305346204 0 0.21519906743813949 0.12448764421075401 0 0.21442478802609199 0.1131474030729285 0 0.21519906743813949 0.12448764421075401 0 0.20589013740800269 0.1182547462590378 0 0.21442478802609199 0.1131474030729285 0 0.20728403180471949 0.13204986731223661 0 0.21519906743813949 0.12448764421075401 0 0.20589013740800269 0.1182547462590378 0 0.20589013740800269 0.1182547462590378 0 0.21442478802609199 0.1131474030729285 0 0.2016146503275868 0.10580000323328979 0 0.21442478802609199 0.1131474030729285 0 0.2118962241229965 0.09399369144542577 0 0.2016146503275868 0.10580000323328979 0 0.2271818671699192 0.1080191324143681 0 0.21442478802609199 0.1131474030729285 0 0.2118962241229965 0.09399369144542577 0 0.2016146503275868 0.10580000323328979 0 0.19070143053474059 0.11646439787519269 0 0.1840724207841738 0.090382582678084356 0 0.2118962241229965 0.09399369144542577 0 0.2016146503275868 0.10580000323328979 0 0.1840724207841738 0.090382582678084356 0 0.20728403180471949 0.13204986731223661 0 0.19070143053474059 0.11646439787519269 0 0.20728403180471949 0.13204986731223661 0 0.20589013740800269 0.1182547462590378 0 0.19070143053474059 0.11646439787519269 0 0.20589013740800269 0.1182547462590378 0 0.2016146503275868 0.10580000323328979 0 0.19070143053474059 0.11646439787519269 0 0.19232691480795691 0.072546707648229181 0 0.2075642818928688 0.072543049219394015 0 0.2037841544381834 0.062107215659268619 0 0.19232691480795691 0.072546707648229181 0 0.2037841544381834 0.062107215659268619 0 0.1891834265706272 0.058374946817576892 0 0.2118962241229965 0.09399369144542577 0 0.19232691480795691 0.072546707648229181 0 0.1840724207841738 0.090382582678084356 0 0.2118962241229965 0.09399369144542577 0 0.1840724207841738 0.090382582678084356 0 0.2118962241229965 0.09399369144542577 0 0.21730908416715311 0.076424999271109961 0 0.2075642818928688 0.072543049219394015 0 0.2118962241229965 0.09399369144542577 0 0.19232691480795691 0.072546707648229181 0 0.2075642818928688 0.072543049219394015 0 0.21730908416715311 0.076424999271109961 0 0.2075642818928688 0.072543049219394015 0 0.21553183099847431 0.067097547524405124 0 0.2075642818928688 0.072543049219394015 0 0.21553183099847431 0.067097547524405124 0 0.2037841544381834 0.062107215659268619 0 0.22889104938467689 0.077448634173783754 0 0.21625223440736721 0.052457849282619658 0 0.22523895755650189 0.067623109152578326 0 0.22889104938467689 0.077448634173783754 0 0.21625223440736721 0.052457849282619658 0 0.21553183099847431 0.067097547524405124 0 0.22889104938467689 0.077448634173783754 0 0.21625223440736721 0.052457849282619658 0 0.21730908416715311 0.076424999271109961 0 0.21553183099847431 0.067097547524405124 0 0.22889104938467689 0.077448634173783754 0 0.22523895755650189 0.067623109152578326 0 0.23331819480223839 0.070842700633878292 0 0.22889104938467689 0.077448634173783754 0 0.22523895755650189 0.067623109152578326 0 0.23331819480223839 0.070842700633878292 0 0.23302592166634351 0.060658318506319177 0 0.2118962241229965 0.09399369144542577 0 0.21730908416715311 0.076424999271109961 0 0.22889104938467689 0.077448634173783754 0 0.23972002746181931 0.097604800212767212 0 0.2118962241229965 0.09399369144542577 0 0.22889104938467689 0.077448634173783754 0 0.23972002746181931 0.097604800212767212 0 0.24152458545672281 0.079741277396597102 0 0.2570960405993637 0.084475803992938733 0 0.23972002746181931 0.097604800212767212 0 0.22889104938467689 0.077448634173783754 0 0.24152458545672281 0.079741277396597102 0 0.24152458545672281 0.079741277396597102 0 0.2489007251469337 0.072710992710673814 0 0.2570960405993637 0.084475803992938733 0 0.2406159314037607 0.068998764894590364 0 0.24313136431021601 0.059881953430707638 0 0.23302592166634351 0.060658318506319177 0 0.23331819480223839 0.070842700633878292 0 0.2406159314037607 0.068998764894590364 0 0.23302592166634351 0.060658318506319177 0 0.23331819480223839 0.070842700633878292 0 0.22889104938467689 0.077448634173783754 0 0.24152458545672281 0.079741277396597102 0 0.23331819480223839 0.070842700633878292 0 0.24152458545672281 0.079741277396597102 0 0.2406159314037607 0.068998764894590364 0 0.24152458545672281 0.079741277396597102 0 0.2406159314037607 0.068998764894590364 0 0.2489007251469337 0.072710992710673814 0 0.2406159314037607 0.068998764894590364 0 0.2489007251469337 0.072710992710673814 0 0.24605914494468739 0.066465163286172413 0 0.2489007251469337 0.072710992710673814 0 0.24605914494468739 0.066465163286172413 0 0.25158855891783921 0.064268942108717864 0 0.24605914494468739 0.066465163286172413 0 0.24313136431021601 0.059881953430707638 0 0.25158855891783921 0.064268942108717864 0 0.2406159314037607 0.068998764894590364 0 0.24605914494468739 0.066465163286172413 0 0.24313136431021601 0.059881953430707638 0 0.24313136431021601 0.059881953430707638 0 0.2493979367695284 0.057840931808013682 0 0.2493447283203829 0.051306525712486388 0 0.24313136431021601 0.059881953430707638 0 0.2493979367695284 0.057840931808013682 0 0.25158855891783921 0.064268942108717864 0 0.24313136431021601 0.059881953430707638 0 0.23665620522389269 0.052348178474069973 0 0.23302592166634351 0.060658318506319177 0 0.23665620522389269 0.052348178474069973 0 0.2493447283203829 0.051306525712486388 0 0.24290587705532521 0.045029514328570823 0 0.24313136431021601 0.059881953430707638 0 0.23665620522389269 0.052348178474069973 0 0.2493447283203829 0.051306525712486388 0 0.24290587705532521 0.045029514328570823 0 0.24243076654359541 0.035143659703962313 0 0.2585971745960548 0.041698406219025819 0 0.24243076654359541 0.035143659703962313 0 0.23408729772960959 0.041194616389570733 0 0.23054437534249819 0.031040673339705449 0 0.24290587705532521 0.045029514328570823 0 0.24243076654359541 0.035143659703962313 0 0.23408729772960959 0.041194616389570733 0 0.23665620522389269 0.052348178474069973 0 0.24290587705532521 0.045029514328570823 0 0.23408729772960959 0.041194616389570733 0 0.23665620522389269 0.052348178474069973 0 0.23408729772960959 0.041194616389570733 0 0.2222747961292611 0.042075257212896178 0 0.23408729772960959 0.041194616389570733 0 0.2222747961292611 0.042075257212896178 0 0.23054437534249819 0.031040673339705449 0 0.22523895755650189 0.067623109152578326 0 0.2222747961292611 0.042075257212896178 0 0.22523895755650189 0.067623109152578326 0 0.2222747961292611 0.042075257212896178 0 0.21625223440736721 0.052457849282619658 0 0.22523895755650189 0.067623109152578326 0 0.2222747961292611 0.042075257212896178 0 0.23302592166634351 0.060658318506319177 0 0.23665620522389269 0.052348178474069973 0 0.2222747961292611 0.042075257212896178 0 0.23302592166634351 0.060658318506319177 0 0.24420105038197121 0.0077544318699326632 0 0.23461838160800441 0.020262428118884079 0 0.22745096322130259 0.0026370498535452239 0 0.24420105038197121 0.0077544318699326632 0 0.23461838160800441 0.020262428118884079 0 0.25961041964918641 0.028915797107974681 0 0.24243076654359541 0.035143659703962313 0 0.23461838160800441 0.020262428118884079 0 0.25961041964918641 0.028915797107974681 0 0.24243076654359541 0.035143659703962313 0 0.23461838160800441 0.020262428118884079 0 0.23054437534249819 0.031040673339705449 0 0.2222747961292611 0.042075257212896178 0 0.23054437534249819 0.031040673339705449 0 0.21931063470202031 0.01652740527321394 0 0.2222747961292611 0.042075257212896178 0 0.21931063470202031 0.01652740527321394 0 0.23461838160800441 0.020262428118884079 0 0.23054437534249819 0.031040673339705449 0 0.21931063470202031 0.01652740527321394 0 0.21931063470202031 0.01652740527321394 0 0.22745096322130259 0.0026370498535452239 0 0.21634647327477949 -0.0090204466664684096 0 0.23461838160800441 0.020262428118884079 0 0.21931063470202031 0.01652740527321394 0 0.22745096322130259 0.0026370498535452239 0 0.21931063470202031 0.01652740527321394 0 0.20203683603682501 0.0046696201351641431 0 0.21634647327477949 -0.0090204466664684096 0 0.21931063470202031 0.01652740527321394 0 0.21634647327477949 -0.0090204466664684096 0 0.21931063470202031 0.01652740527321394 0 0.20712294201484471 0.01577112198953351 0 0.20203683603682501 0.0046696201351641431 0 0.2222747961292611 0.042075257212896178 0 0.21931063470202031 0.01652740527321394 0 0.21290297181272541 0.027514286844515699 0 0.21931063470202031 0.01652740527321394 0 0.20712294201484471 0.01577112198953351 0 0.21290297181272541 0.027514286844515699 0 0.20712294201484471 0.01577112198953351 0 0.21290297181272541 0.027514286844515699 0 0.20361341943005731 0.027467064391455479 0 0.21290297181272541 0.027514286844515699 0 0.20361341943005731 0.027467064391455479 0 0.21376085544485279 0.037378614432871757 0 0.20361341943005731 0.027467064391455479 0 0.19566683722513681 0.017217810787088492 0 0.19097460445274769 0.0024762795002911601 0 0.19566683722513681 0.017217810787088492 0 0.20035906999752559 0.031959342073885968 0 0.19451485085363451 0.02757431095028539 0 0.19566683722513681 0.017217810787088492 0 0.20035906999752559 0.031959342073885968 0 0.20361341943005731 0.027467064391455479 0 0.19566683722513681 0.017217810787088492 0 0.20035906999752559 0.031959342073885968 0 0.19451485085363451 0.02757431095028539 0 0.20035906999752559 0.031959342073885968 0 0.19311452335684809 0.033956382481909388 0 0.19451485085363451 0.02757431095028539 0 0.1889189728350274 0.027163708458257701 0 0.19311452335684809 0.033956382481909388 0 0.19451485085363451 0.02757431095028539 0 0.1889189728350274 0.027163708458257701 0 0.19566683722513681 0.017217810787088492 0 0.19566683722513681 0.017217810787088492 0 0.18697381097344329 0.01081858846645152 0 0.18397376565670789 0.0201254983997015 0 0.1889189728350274 0.027163708458257701 0 0.19566683722513681 0.017217810787088492 0 0.18397376565670789 0.0201254983997015 0 0.20361341943005731 0.027467064391455479 0 0.19097460445274769 0.0024762795002911601 0 0.20712294201484471 0.01577112198953351 0 0.19097460445274769 0.0024762795002911601 0 0.20203683603682501 0.0046696201351641431 0 0.20712294201484471 0.01577112198953351 0 0.20361341943005731 0.027467064391455479 0 0.19097460445274769 0.0024762795002911601 0 0.19566683722513681 0.017217810787088492 0 0.19097460445274769 0.0024762795002911601 0 0.19566683722513681 0.017217810787088492 0 0.19097460445274769 0.0024762795002911601 0 0.18697381097344329 0.01081858846645152 0 0.19097460445274769 0.0024762795002911601 0 0.18548873345474071 0.0031530025798066851 0 0.18697381097344329 0.01081858846645152 0 0.19097460445274769 0.0024762795002911601 0 0.18548873345474071 0.0031530025798066851 0 0.18944155683350289 -0.00055502235429191749 0 0.19097460445274769 0.0024762795002911601 0 0.18944155683350289 -0.00055502235429191749 0 0.21625223440736721 0.052457849282619658 0 0.19841364419826649 0.043355542657270388 0 0.2003007316280955 0.051984380989968319 0 0.2037841544381834 0.062107215659268619 0 0.21625223440736721 0.052457849282619658 0 0.2003007316280955 0.051984380989968319 0 0.21553183099847431 0.067097547524405124 0 0.2037841544381834 0.062107215659268619 0 0.21625223440736721 0.052457849282619658 0 0.20361341943005731 0.027467064391455479 0 0.21625223440736721 0.052457849282619658 0 0.20361341943005731 0.027467064391455479 0 0.21625223440736721 0.052457849282619658 0 0.21376085544485279 0.037378614432871757 0 0.2222747961292611 0.042075257212896178 0 0.21625223440736721 0.052457849282619658 0 0.21376085544485279 0.037378614432871757 0 0.21625223440736721 0.052457849282619658 0 0.19841364419826649 0.043355542657270388 0 0.20035906999752559 0.031959342073885968 0 0.20361341943005731 0.027467064391455479 0 0.21625223440736721 0.052457849282619658 0 0.20035906999752559 0.031959342073885968 0 0.2222747961292611 0.042075257212896178 0 0.21290297181272541 0.027514286844515699 0 0.21376085544485279 0.037378614432871757 0 0.19841364419826649 0.043355542657270388 0 0.20035906999752559 0.031959342073885968 0 0.19311452335684809 0.033956382481909388 0 0.19311452335684809 0.033956382481909388 0 0.18886320079480001 0.040592581631204543 0 0.1859265753431053 0.033936791149135531 0 0.1889189728350274 0.027163708458257701 0 0.19311452335684809 0.033956382481909388 0 0.1859265753431053 0.033936791149135531 0 0.19841364419826649 0.043355542657270388 0 0.19311452335684809 0.033956382481909388 0 0.18886320079480001 0.040592581631204543 0 0.18886320079480001 0.040592581631204543 0 0.19159210500496271 0.049182719484034479 0 0.18271532506514851 0.048812693495705592 0 0.19841364419826649 0.043355542657270388 0 0.18886320079480001 0.040592581631204543 0 0.19159210500496271 0.049182719484034479 0 0.19159210500496271 0.049182719484034479 0 0.1891834265706272 0.058374946817576892 0 0.18271532506514851 0.048812693495705592 0 0.19159210500496271 0.049182719484034479 0 0.2003007316280955 0.051984380989968319 0 0.1891834265706272 0.058374946817576892 0 0.19841364419826649 0.043355542657270388 0 0.19159210500496271 0.049182719484034479 0 0.2003007316280955 0.051984380989968319 0 0.2037841544381834 0.062107215659268619 0 0.2003007316280955 0.051984380989968319 0 0.1891834265706272 0.058374946817576892 0 0.1891834265706272 0.058374946817576892 0 0.17423458090336519 0.058269697083417643 0 0.1780266727476478 0.069834722944060956 0 0.1891834265706272 0.058374946817576892 0 0.17423458090336519 0.058269697083417643 0 0.18271532506514851 0.048812693495705592 0 0.17423458090336519 0.058269697083417643 0 0.17280400410203101 0.04700301211632131 0 0.18271532506514851 0.048812693495705592 0 0.18886320079480001 0.040592581631204543 0 0.18271532506514851 0.048812693495705592 0 0.17961463301510461 0.039453203841678733 0 0.18886320079480001 0.040592581631204543 0 0.1859265753431053 0.033936791149135531 0 0.17961463301510461 0.039453203841678733 0 0.1859265753431053 0.033936791149135531 0 0.17961463301510461 0.039453203841678733 0 0.17946139334102201 0.02973600286428732 0 0.17961463301510461 0.039453203841678733 0 0.168426433884449 0.03626348459786962 0 0.17946139334102201 0.02973600286428732 0 0.17280400410203101 0.04700301211632131 0 0.17961463301510461 0.039453203841678733 0 0.168426433884449 0.03626348459786962 0 0.17280400410203101 0.04700301211632131 0 0.18271532506514851 0.048812693495705592 0 0.17961463301510461 0.039453203841678733 0 0.17280400410203101 0.04700301211632131 0 0.168426433884449 0.03626348459786962 0 0.16086566074064479 0.049995318142772638 0 0.168426433884449 0.03626348459786962 0 0.16181808278794721 0.025063337243462231 0 0.15292364581278151 0.038940513391484313 0 0.168426433884449 0.03626348459786962 0 0.16086566074064479 0.049995318142772638 0 0.15292364581278151 0.038940513391484313 0 0.16086566074064479 0.049995318142772638 0 0.15147608974701279 0.059014912963671118 0 0.16312521172764879 0.062608250181650504 0 0.17423458090336519 0.058269697083417643 0 0.16086566074064479 0.049995318142772638 0 0.16312521172764879 0.062608250181650504 0 0.17423458090336519 0.058269697083417643 0 0.17280400410203101 0.04700301211632131 0 0.16086566074064479 0.049995318142772638 0 0.17293882762978949 0.0011622028259897731 0 0.180164941191158 0.0060145145584072296 0 0.1707168383509213 0.0110151747115158 0 0.17293882762978949 0.0011622028259897731 0 0.17951826627113571 4.5490741635218962e-05 0 0.180164941191158 0.0060145145584072296 0 0.17951826627113571 4.5490741635218962e-05 0 0.18548873345474071 0.0031530025798066851 0 0.180164941191158 0.0060145145584072296 0 0.18548873345474071 0.0031530025798066851 0 0.180164941191158 0.0060145145584072296 0 0.18697381097344329 0.01081858846645152 0 0.180164941191158 0.0060145145584072296 0 0.18697381097344329 0.01081858846645152 0 0.17911554725582199 0.014071503066166771 0 0.18697381097344329 0.01081858846645152 0 0.17911554725582199 0.014071503066166771 0 0.18397376565670789 0.0201254983997015 0 0.180164941191158 0.0060145145584072296 0 0.17911554725582199 0.014071503066166771 0 0.1707168383509213 0.0110151747115158 0 0.17911554725582199 0.014071503066166771 0 0.17374838010687979 0.022383739194757789 0 0.18397376565670789 0.0201254983997015 0 0.17911554725582199 0.014071503066166771 0 0.17374838010687979 0.022383739194757789 0 0.1707168383509213 0.0110151747115158 0 0.1889189728350274 0.027163708458257701 0 0.18397376565670789 0.0201254983997015 0 0.17946139334102201 0.02973600286428732 0 0.1889189728350274 0.027163708458257701 0 0.1859265753431053 0.033936791149135531 0 0.17946139334102201 0.02973600286428732 0 0.17374838010687979 0.022383739194757789 0 0.18397376565670789 0.0201254983997015 0 0.17946139334102201 0.02973600286428732 0 0.168426433884449 0.03626348459786962 0 0.17374838010687979 0.022383739194757789 0 0.17946139334102201 0.02973600286428732 0 0.168426433884449 0.03626348459786962 0 0.17374838010687979 0.022383739194757789 0 0.16181808278794721 0.025063337243462231 0 0.16181808278794721 0.025063337243462231 0 0.1707168383509213 0.0110151747115158 0 0.15598248710714621 0.01319185115301702 0 0.17374838010687979 0.022383739194757789 0 0.16181808278794721 0.025063337243462231 0 0.1707168383509213 0.0110151747115158 0 0.1707168383509213 0.0110151747115158 0 0.16280457073190571 0.00282618932945411 0 0.15598248710714621 0.01319185115301702 0 0.16280457073190571 0.00282618932945411 0 0.15228464608736131 0.0011191696354792479 0 0.15598248710714621 0.01319185115301702 0 0.17293882762978949 0.0011622028259897731 0 0.1707168383509213 0.0110151747115158 0 0.16280457073190571 0.00282618932945411 0 0.14457277906894581 0.007348769357045374 0 0.13529036253432411 0.0024561671934064948 0 0.14334174217049819 -0.0035028606501129249 0 0.14457277906894581 0.007348769357045374 0 0.15228464608736131 0.0011191696354792479 0 0.14334174217049819 -0.0035028606501129249 0 0.14457277906894581 0.007348769357045374 0 0.15228464608736131 0.0011191696354792479 0 0.15598248710714621 0.01319185115301702 0 0.14457277906894581 0.007348769357045374 0 0.15598248710714621 0.01319185115301702 0 0.14502774616604741 0.01725629948425152 0 0.14457277906894581 0.007348769357045374 0 0.14502774616604741 0.01725629948425152 0 0.1364518960707094 0.01269603782337903 0 0.14502774616604741 0.01725629948425152 0 0.14830569871532209 0.02773944035011992 0 0.13707727744567469 0.024698898554272999 0 0.15598248710714621 0.01319185115301702 0 0.14502774616604741 0.01725629948425152 0 0.14830569871532209 0.02773944035011992 0 0.16181808278794721 0.025063337243462231 0 0.15598248710714621 0.01319185115301702 0 0.14830569871532209 0.02773944035011992 0 0.16181808278794721 0.025063337243462231 0 0.14830569871532209 0.02773944035011992 0 0.15292364581278151 0.038940513391484313 0 0.14830569871532209 0.02773944035011992 0 0.13707727744567469 0.024698898554272999 0 0.13570956046486801 0.036403247187857937 0 0.12353023238446829 0.029235166788670958 0 0.13707727744567469 0.024698898554272999 0 0.13570956046486801 0.036403247187857937 0 0.12353023238446829 0.029235166788670958 0 0.13707727744567469 0.024698898554272999 0 0.1283310130724731 0.018043306289712738 0 0.13707727744567469 0.024698898554272999 0 0.1283310130724731 0.018043306289712738 0 0.1364518960707094 0.01269603782337903 0 0.14502774616604741 0.01725629948425152 0 0.13707727744567469 0.024698898554272999 0 0.1364518960707094 0.01269603782337903 0 0.1219707788315316 0.01409088439813129 0 0.1283310130724731 0.018043306289712738 0 0.12512533190022671 0.0074767558158031679 0 0.1283310130724731 0.018043306289712738 0 0.1364518960707094 0.01269603782337903 0 0.12512533190022671 0.0074767558158031679 0 0.12512533190022671 0.0074767558158031679 0 0.13529036253432411 0.0024561671934064948 0 0.12555281510781041 -0.002563318677247013 0 0.1364518960707094 0.01269603782337903 0 0.12512533190022671 0.0074767558158031679 0 0.13529036253432411 0.0024561671934064948 0 0.14457277906894581 0.007348769357045374 0 0.1364518960707094 0.01269603782337903 0 0.13529036253432411 0.0024561671934064948 0 0.16086566074064479 0.049995318142772638 0 0.1436126414880278 0.047551318995153087 0 0.15147608974701279 0.059014912963671118 0 0.15147608974701279 0.059014912963671118 0 0.13840122037396679 0.059048512619626542 0 0.14722903722731601 0.067449097741558564 0 0.1436126414880278 0.047551318995153087 0 0.15147608974701279 0.059014912963671118 0 0.13840122037396679 0.059048512619626542 0 0.1436126414880278 0.047551318995153087 0 0.15292364581278151 0.038940513391484313 0 0.13570956046486801 0.036403247187857937 0 0.14830569871532209 0.02773944035011992 0 0.15292364581278151 0.038940513391484313 0 0.13570956046486801 0.036403247187857937 0 0.16086566074064479 0.049995318142772638 0 0.1436126414880278 0.047551318995153087 0 0.15292364581278151 0.038940513391484313 0 0.1436126414880278 0.047551318995153087 0 0.13570956046486801 0.036403247187857937 0 0.1305837014863156 0.048522713650827498 0 0.12434789230521701 0.039708237622728751 0 0.12353023238446829 0.029235166788670958 0 0.13570956046486801 0.036403247187857937 0 0.12434789230521701 0.039708237622728751 0 0.13570956046486801 0.036403247187857937 0 0.1305837014863156 0.048522713650827498 0 0.1222326967750796 0.062020639108365659 0 0.1305837014863156 0.048522713650827498 0 0.13840122037396679 0.059048512619626542 0 0.1436126414880278 0.047551318995153087 0 0.1305837014863156 0.048522713650827498 0 0.13840122037396679 0.059048512619626542 0 0.1222326967750796 0.062020639108365659 0 0.13840122037396679 0.059048512619626542 0 0.13692505606454511 0.069461471287536866 0 0.1222326967750796 0.062020639108365659 0 0.13692505606454511 0.069461471287536866 0 0.12842481410652809 0.083160365143401457 0 0.13692505606454511 0.069461471287536866 0 0.14833751183983471 0.075628741824732115 0 0.12842481410652809 0.083160365143401457 0 0.13840122037396679 0.059048512619626542 0 0.13692505606454511 0.069461471287536866 0 0.14722903722731601 0.067449097741558564 0 0.13692505606454511 0.069461471287536866 0 0.14722903722731601 0.067449097741558564 0 0.14833751183983471 0.075628741824732115 0 0.14722903722731601 0.067449097741558564 0 0.14833751183983471 0.075628741824732115 0 0.15624826598917971 0.06813733679933992 0 0.15147608974701279 0.059014912963671118 0 0.14722903722731601 0.067449097741558564 0 0.15624826598917971 0.06813733679933992 0 0.1562486174453511 0.086771473910742913 0 0.12842481410652809 0.083160365143401457 0 0.139088098710928 0.096653642946301188 0 0.1562486174453511 0.086771473910742913 0 0.12842481410652809 0.083160365143401457 0 0.14833751183983471 0.075628741824732115 0 0.1562486174453511 0.086771473910742913 0 0.12842481410652809 0.083160365143401457 0 0.1562486174453511 0.086771473910742913 0 0.15579802360889131 0.092585154980842313 0 0.139088098710928 0.096653642946301188 0 0.11721966321258701 0.10387087587248441 0 0.12842481410652809 0.083160365143401457 0 0.139088098710928 0.096653642946301188 0 0.139088098710928 0.096653642946301188 0 0.1324584110937625 0.115908802075576 0 0.14792434625686821 0.11121262843885291 0 0.11721966321258701 0.10387087587248441 0 0.139088098710928 0.096653642946301188 0 0.1324584110937625 0.115908802075576 0 0.1471209814599522 0.13058140921255931 0 0.1324584110937625 0.115908802075576 0 0.14792434625686821 0.11121262843885291 0 0.1471209814599522 0.13058140921255931 0 0.14792434625686821 0.11121262843885291 0 0.16515621641080719 0.12033413297898531 0 0.15579802360889131 0.092585154980842313 0 0.139088098710928 0.096653642946301188 0 0.14792434625686821 0.11121262843885291 0 0.15579802360889131 0.092585154980842313 0 0.14792434625686821 0.11121262843885291 0 0.16515621641080719 0.12033413297898531 0 0.15579802360889131 0.092585154980842313 0 0.1703953417567928 0.1013075484847695 0 0.16515621641080719 0.12033413297898531 0 0.15579802360889131 0.092585154980842313 0 0.16515621641080719 0.12033413297898531 0 0.19070143053474059 0.11646439787519269 0 0.1703953417567928 0.1013075484847695 0 0.16515621641080719 0.12033413297898531 0 0.19042724449636619 0.13126615057344329 0 0.19070143053474059 0.11646439787519269 0 0.16515621641080719 0.12033413297898531 0 0.19070143053474059 0.11646439787519269 0 0.1703953417567928 0.1013075484847695 0 0.1840724207841738 0.090382582678084356 0 0.1840724207841738 0.090382582678084356 0 0.1780266727476478 0.069834722944060956 0 0.16527458592959079 0.076121994809400295 0 0.19232691480795691 0.072546707648229181 0 0.1840724207841738 0.090382582678084356 0 0.1780266727476478 0.069834722944060956 0 0.19232691480795691 0.072546707648229181 0 0.1891834265706272 0.058374946817576892 0 0.1780266727476478 0.069834722944060956 0 0.14833751183983471 0.075628741824732115 0 0.15624826598917971 0.06813733679933992 0 0.16527458592959079 0.076121994809400295 0 0.1780266727476478 0.069834722944060956 0 0.16527458592959079 0.076121994809400295 0 0.16312521172764879 0.062608250181650504 0 0.17423458090336519 0.058269697083417643 0 0.1780266727476478 0.069834722944060956 0 0.16312521172764879 0.062608250181650504 0 0.15147608974701279 0.059014912963671118 0 0.15624826598917971 0.06813733679933992 0 0.16312521172764879 0.062608250181650504 0 0.15624826598917971 0.06813733679933992 0 0.16527458592959079 0.076121994809400295 0 0.16312521172764879 0.062608250181650504 0 0.14833751183983471 0.075628741824732115 0 0.1562486174453511 0.086771473910742913 0 0.16527458592959079 0.076121994809400295 0 0.1562486174453511 0.086771473910742913 0 0.1703953417567928 0.1013075484847695 0 0.1840724207841738 0.090382582678084356 0 0.1562486174453511 0.086771473910742913 0 0.1840724207841738 0.090382582678084356 0 0.1562486174453511 0.086771473910742913 0 0.1840724207841738 0.090382582678084356 0 0.16527458592959079 0.076121994809400295 0 0.1562486174453511 0.086771473910742913 0 0.15579802360889131 0.092585154980842313 0 0.1703953417567928 0.1013075484847695 0 0.1008230189354211 0.47970219765235572 0 0.097881792892729524 0.48814488108318038 0 0.1095780197595264 0.4796415949836188 0 0.10511441069624421 0.47316014261245132 0 0.1008230189354211 0.47970219765235572 0 0.1095780197595264 0.4796415949836188 0 0.10511441069624421 0.47316014261245132 0 0.1095780197595264 0.4796415949836188 0 0.1124842516812055 0.47074657648399398 0 0.10511441069624421 0.47316014261245132 0 0.1124842516812055 0.47074657648399398 0 0.107781743056156 0.4658462045962658 0 0.10511441069624421 0.47316014261245132 0 0.10271853461737911 0.46847330352360927 0 0.107781743056156 0.4658462045962658 0 0.10511441069624421 0.47316014261245132 0 0.098290371220634817 0.47099848394624882 0 0.10271853461737911 0.46847330352360927 0 0.10511441069624421 0.47316014261245132 0 0.09889165017197564 0.47546041576584508 0 0.1008230189354211 0.47970219765235572 0 0.095470827669867142 0.47265917560596482 0 0.099220226803039158 0.46407640763086577 0 0.088143378117717525 0.47697499273704519 0 0.10511441069624421 0.47316014261245132 0 0.09889165017197564 0.47546041576584508 0 0.098290371220634817 0.47099848394624882 0 0.098290371220634817 0.47099848394624882 0 0.095470827669867142 0.47265917560596482 0 0.099220226803039158 0.46407640763086577 0 0.098290371220634817 0.47099848394624882 0 0.095470827669867142 0.47265917560596482 0 0.095470827669867142 0.47265917560596482 0 0.092356554508866082 0.47978807359804398 0 0.09889165017197564 0.47546041576584508 0 0.098290371220634817 0.47099848394624882 0 0.095470827669867142 0.47265917560596482 0 0.09889165017197564 0.47546041576584508 0 0.095470827669867142 0.47265917560596482 0 0.092356554508866082 0.47978807359804398 0 0.09889165017197564 0.47546041576584508 0 0.1008230189354211 0.47970219765235572 0 0.092356554508866082 0.47978807359804398 0 0.1008230189354211 0.47970219765235572 0 0.097881792892729524 0.48814488108318038 0 0.092356554508866082 0.47978807359804398 0 0.097881792892729524 0.48814488108318038 0 0.1153609446063177 0.48796320701937501 0 0.1095780197595264 0.4796415949836188 0 0.097881792892729524 0.48814488108318038 0 0.097557420685373319 0.5 0 0.1153609446063177 0.48796320701937501 0 0.097557420685373319 0.5 0 0.1153609446063177 0.48796320701937501 0 0.12674452513001941 0.5 0 0.1153609446063177 0.48796320701937501 0 0.1095780197595264 0.4796415949836188 0 0.1225464382533395 0.472348665879053 0 0.1095780197595264 0.4796415949836188 0 0.1124842516812055 0.47074657648399398 0 0.1225464382533395 0.472348665879053 0 0.1124842516812055 0.47074657648399398 0 0.1225464382533395 0.472348665879053 0 0.11697367233031331 0.46306191343108161 0 0.1225464382533395 0.472348665879053 0 0.11697367233031331 0.46306191343108161 0 0.12633267272451229 0.45835738220813438 0 0.11866278742582791 0.4544783211263142 0 0.11697367233031331 0.46306191343108161 0 0.12633267272451229 0.45835738220813438 0 0.11866278742582791 0.4544783211263142 0 0.1249050617149691 0.44921417262211177 0 0.12633267272451229 0.45835738220813438 0 0.11866278742582791 0.4544783211263142 0 0.111574918769461 0.45821205575433482 0 0.11697367233031331 0.46306191343108161 0 0.111574918769461 0.45821205575433482 0 0.11697367233031331 0.46306191343108161 0 0.107781743056156 0.4658462045962658 0 0.1124842516812055 0.47074657648399398 0 0.11697367233031331 0.46306191343108161 0 0.107781743056156 0.4658462045962658 0 0.11516657891632789 0.4455074639078217 0 0.13111293102961741 0.42693852018477829 0 0.12866428442776889 0.4409672625476479 0 0.11516657891632789 0.4455074639078217 0 0.10837114527897421 0.44312899519265919 0 0.11835010820856499 0.42732345951916051 0 0.1249050617149691 0.44921417262211177 0 0.11516657891632789 0.4455074639078217 0 0.12866428442776889 0.4409672625476479 0 0.11866278742582791 0.4544783211263142 0 0.1249050617149691 0.44921417262211177 0 0.11516657891632789 0.4455074639078217 0 0.11866278742582791 0.4544783211263142 0 0.111574918769461 0.45821205575433482 0 0.11516657891632789 0.4455074639078217 0 0.10837114527897421 0.44312899519265919 0 0.091100280908288908 0.43825012282386411 0 0.092683625090052374 0.45114923532169321 0 0.11516657891632789 0.4455074639078217 0 0.10837114527897421 0.44312899519265919 0 0.099220226803039158 0.46407640763086577 0 0.10837114527897421 0.44312899519265919 0 0.099220226803039158 0.46407640763086577 0 0.092683625090052374 0.45114923532169321 0 0.111574918769461 0.45821205575433482 0 0.11516657891632789 0.4455074639078217 0 0.099220226803039158 0.46407640763086577 0 0.11516657891632789 0.4455074639078217 0 0.099220226803039158 0.46407640763086577 0 0.10837114527897421 0.44312899519265919 0 0.099220226803039158 0.46407640763086577 0 0.10271853461737911 0.46847330352360927 0 0.107781743056156 0.4658462045962658 0 0.099220226803039158 0.46407640763086577 0 0.111574918769461 0.45821205575433482 0 0.107781743056156 0.4658462045962658 0 0.099220226803039158 0.46407640763086577 0 0.095470827669867142 0.47265917560596482 0 0.099220226803039158 0.46407640763086577 0 0.098290371220634817 0.47099848394624882 0 0.10271853461737911 0.46847330352360927 0 0.099220226803039158 0.46407640763086577 0 0.08642039227349782 0.46752343117514689 0 0.077752704055544034 0.44282661416718999 0 0.073698311874786496 0.46521586714497248 0 0.08642039227349782 0.46752343117514689 0 0.092683625090052374 0.45114923532169321 0 0.077752704055544034 0.44282661416718999 0 0.099220226803039158 0.46407640763086577 0 0.08642039227349782 0.46752343117514689 0 0.092683625090052374 0.45114923532169321 0 0.08642039227349782 0.46752343117514689 0 0.077752704055544034 0.44282661416718999 0 0.091100280908288908 0.43825012282386411 0 0.092683625090052374 0.45114923532169321 0 0.077752704055544034 0.44282661416718999 0 0.066386947726900472 0.43758259041495717 0 0.077752704055544034 0.44282661416718999 0 0.073698311874786496 0.46521586714497248 0 0.066386947726900472 0.43758259041495717 0 0.073698311874786496 0.46521586714497248 0 0.066386947726900472 0.43758259041495717 0 0.073698311874786496 0.46521586714497248 0 0.06691603659759196 0.45812001447635903 0 0.073698311874786496 0.46521586714497248 0 0.06691603659759196 0.45812001447635903 0 0.065503987419571266 0.46631299938575571 0 0.073698311874786496 0.46521586714497248 0 0.065503987419571266 0.46631299938575571 0 0.068126605321781261 0.47422260644928083 0 0.06691603659759196 0.45812001447635903 0 0.065503987419571266 0.46631299938575571 0 0.057715872042411957 0.46427212965415332 0 0.065503987419571266 0.46631299938575571 0 0.068126605321781261 0.47422260644928083 0 0.057541689653693127 0.47386929764946017 0 0.07699719794423357 0.47448487877499379 0 0.088143378117717525 0.47697499273704519 0 0.068597302133384233 0.4884874963685234 0 0.068126605321781261 0.47422260644928083 0 0.068597302133384233 0.4884874963685234 0 0.057541689653693127 0.47386929764946017 0 0.068126605321781261 0.47422260644928083 0 0.07699719794423357 0.47448487877499379 0 0.068597302133384233 0.4884874963685234 0 0.073698311874786496 0.46521586714497248 0 0.068126605321781261 0.47422260644928083 0 0.07699719794423357 0.47448487877499379 0 0.088143378117717525 0.47697499273704519 0 0.068597302133384233 0.4884874963685234 0 0.08642039227349782 0.46752343117514689 0 0.07699719794423357 0.47448487877499379 0 0.088143378117717525 0.47697499273704519 0 0.08642039227349782 0.46752343117514689 0 0.073698311874786496 0.46521586714497248 0 0.07699719794423357 0.47448487877499379 0 0.088143378117717525 0.47697499273704519 0 0.078256847179222488 0.48848749636852229 0 0.088143378117717525 0.47697499273704519 0 0.092356554508866082 0.47978807359804398 0 0.078256847179222488 0.48848749636852229 0 0.099220226803039158 0.46407640763086577 0 0.088143378117717525 0.47697499273704519 0 0.099220226803039158 0.46407640763086577 0 0.08642039227349782 0.46752343117514689 0 0.088143378117717525 0.47697499273704519 0 0.095470827669867142 0.47265917560596482 0 0.088143378117717525 0.47697499273704519 0 0.092356554508866082 0.47978807359804398 0 0.095470827669867142 0.47265917560596482 0 0.088143378117717525 0.47697499273704519 0 0.088143378117717525 0.47697499273704519 0 0.078256847179222488 0.48848749636852229 0 0.068597302133384233 0.4884874963685234 0 0.097881792892729524 0.48814488108318038 0 0.097557420685373319 0.5 0 0.078256847179222488 0.48848749636852229 0 0.097557420685373319 0.5 0 0.078256847179222488 0.48848749636852229 0 0.068370316240727258 0.49999999999999939 0 0.097881792892729524 0.48814488108318038 0 0.092356554508866082 0.47978807359804398 0 0.078256847179222488 0.48848749636852229 0 0.078256847179222488 0.48848749636852229 0 0.068370316240727258 0.49999999999999939 0 0.078256847179222488 0.48848749636852229 0 0.068597302133384233 0.4884874963685234 0 0.068370316240727258 0.49999999999999939 0 0.068597302133384233 0.4884874963685234 0 0.068370316240727258 0.49999999999999939 0 0.049051226149050733 0.50000000000000122 0 0.068597302133384233 0.4884874963685234 0 0.049051226149050733 0.50000000000000122 0 0.068597302133384233 0.4884874963685234 0 0.049051226149050733 0.50000000000000122 0 0.04420324950596221 0.48235916327727069 0 0.068597302133384233 0.4884874963685234 0 0.057541689653693127 0.47386929764946017 0 0.04420324950596221 0.48235916327727069 0 0.057541689653693127 0.47386929764946017 0 0.04420324950596221 0.48235916327727069 0 0.048880157217926268 0.4672772430387846 0 0.04420324950596221 0.48235916327727069 0 0.02510961620292165 0.48028832600918958 0 0.037768760758112627 0.46760045196764088 0 0.04420324950596221 0.48235916327727069 0 0.037768760758112627 0.46760045196764088 0 0.048880157217926268 0.4672772430387846 0 0.049051226149050733 0.50000000000000122 0 0.04420324950596221 0.48235916327727069 0 0.02277430885530396 0.5 0 0.02277430885530396 0.5 0 0.02510961620292165 0.48028832600918958 0 0.015410921458255429 0.48827156091911972 0 0.04420324950596221 0.48235916327727069 0 0.02277430885530396 0.5 0 0.02510961620292165 0.48028832600918958 0 0.02510961620292165 0.48028832600918958 0 0.024391016971706481 0.46382174597256021 0 0.037768760758112627 0.46760045196764088 0 0.02510961620292165 0.48028832600918958 0 0.0094092392300243553 0.47295194370183691 0 0.024391016971706481 0.46382174597256021 0 0.02510961620292165 0.48028832600918958 0 0.0094092392300243553 0.47295194370183691 0 0.015410921458255429 0.48827156091911972 0 0.0094092392300243553 0.47295194370183691 0 0.0043505215447717793 0.5 0 -0.002354738798079421 0.48796249383317519 0 0.0094092392300243553 0.47295194370183691 0 0.0043505215447717793 0.5 0 0.0094092392300243553 0.47295194370183691 0 0.015410921458255429 0.48827156091911972 0 0.0043505215447717793 0.5 0 0.02277430885530396 0.5 0 0.015410921458255429 0.48827156091911972 0 0.0043505215447717793 0.5 0 0.0094092392300243553 0.47295194370183691 0 0.014467956915276929 0.44605791343822121 0 -0.0048188216039126101 0.46151259084504048 0 0.0094092392300243553 0.47295194370183691 0 0.014467956915276929 0.44605791343822121 0 0.0094092392300243553 0.47295194370183691 0 0.014467956915276929 0.44605791343822121 0 0.024391016971706481 0.46382174597256021 0 0.014467956915276929 0.44605791343822121 0 0.024391016971706481 0.46382174597256021 0 0.035199511752196842 0.45221009474591262 0 0.014467956915276929 0.44605791343822121 0 0.035199511752196842 0.45221009474591262 0 0.0302858929403809 0.43596062533241409 0 0.035199511752196842 0.45221009474591262 0 0.049717119343831072 0.44016374992656332 0 0.0302858929403809 0.43596062533241409 0 0.035199511752196842 0.45221009474591262 0 0.049789955947346483 0.45708079329378831 0 0.049717119343831072 0.44016374992656332 0 0.024391016971706481 0.46382174597256021 0 0.035199511752196842 0.45221009474591262 0 0.037768760758112627 0.46760045196764088 0 0.035199511752196842 0.45221009474591262 0 0.037768760758112627 0.46760045196764088 0 0.049789955947346483 0.45708079329378831 0 0.037768760758112627 0.46760045196764088 0 0.048880157217926268 0.4672772430387846 0 0.049789955947346483 0.45708079329378831 0 0.06691603659759196 0.45812001447635903 0 0.049789955947346483 0.45708079329378831 0 0.057715872042411957 0.46427212965415332 0 0.048880157217926268 0.4672772430387846 0 0.049789955947346483 0.45708079329378831 0 0.057715872042411957 0.46427212965415332 0 0.057541689653693127 0.47386929764946017 0 0.048880157217926268 0.4672772430387846 0 0.057715872042411957 0.46427212965415332 0 0.065503987419571266 0.46631299938575571 0 0.057541689653693127 0.47386929764946017 0 0.057715872042411957 0.46427212965415332 0 0.06691603659759196 0.45812001447635903 0 0.049789955947346483 0.45708079329378831 0 0.049717119343831072 0.44016374992656332 0 0.06691603659759196 0.45812001447635903 0 0.049717119343831072 0.44016374992656332 0 0.066386947726900472 0.43758259041495717 0 0.06691603659759196 0.45812001447635903 0 0.049717119343831072 0.44016374992656332 0 0.066386947726900472 0.43758259041495717 0 0.055663505640301182 0.42739437872326058 0 0.059075583579014379 0.40994931368494181 0 0.066386947726900472 0.43758259041495717 0 0.049717119343831072 0.44016374992656332 0 0.055663505640301182 0.42739437872326058 0 0.049717119343831072 0.44016374992656332 0 0.055663505640301182 0.42739437872326058 0 0.047474371911458813 0.42188186086658008 0 0.055663505640301182 0.42739437872326058 0 0.047474371911458813 0.42188186086658008 0 0.059075583579014379 0.40994931368494181 0 0.047474371911458813 0.42188186086658008 0 0.059075583579014379 0.40994931368494181 0 0.046159393287810491 0.41049525778051388 0 0.059075583579014379 0.40994931368494181 0 0.046159393287810491 0.41049525778051388 0 0.048029421944530748 0.39969347269344019 0 0.046159393287810491 0.41049525778051388 0 0.038041453832444838 0.41245411553715128 0 0.038087872103809609 0.40049353740016008 0 0.047474371911458813 0.42188186086658008 0 0.046159393287810491 0.41049525778051388 0 0.038041453832444838 0.41245411553715128 0 0.047474371911458813 0.42188186086658008 0 0.038041453832444838 0.41245411553715128 0 0.032518202090070177 0.42220748537676772 0 0.038041453832444838 0.41245411553715128 0 0.029607638119970921 0.40667619220395052 0 0.038087872103809609 0.40049353740016008 0 0.038041453832444838 0.41245411553715128 0 0.032518202090070177 0.42220748537676772 0 0.029607638119970921 0.40667619220395052 0 0.049717119343831072 0.44016374992656332 0 0.032518202090070177 0.42220748537676772 0 0.049717119343831072 0.44016374992656332 0 0.032518202090070177 0.42220748537676772 0 0.0302858929403809 0.43596062533241409 0 0.049717119343831072 0.44016374992656332 0 0.047474371911458813 0.42188186086658008 0 0.032518202090070177 0.42220748537676772 0 0.014467956915276929 0.44605791343822121 0 0.0302858929403809 0.43596062533241409 0 0.019526674600529481 0.41916388317460568 0 0.032518202090070177 0.42220748537676772 0 0.0302858929403809 0.43596062533241409 0 0.019526674600529481 0.41916388317460568 0 0.014467956915276929 0.44605791343822121 0 0.019526674600529481 0.41916388317460568 0 0.032518202090070177 0.42220748537676772 0 0.015319284836309279 0.40425122082697201 0 0.032518202090070177 0.42220748537676772 0 0.029607638119970921 0.40667619220395052 0 0.015319284836309279 0.40425122082697201 0 0.032518202090070177 0.42220748537676772 0 0.019526674600529481 0.41916388317460568 0 0.015319284836309279 0.40425122082697201 0 0.019526674600529481 0.41916388317460568 0 0.0096320485100902797 0.41382040525217401 0 0.0058504377347851598 0.42522888637803768 0 0.019526674600529481 0.41916388317460568 0 0.0096320485100902797 0.41382040525217401 0 0.015319284836309279 0.40425122082697201 0 0.0096320485100902797 0.41382040525217401 0 0.00049274805565286545 0.40580609740154427 0 0.015319284836309279 0.40425122082697201 0 0.0096320485100902797 0.41382040525217401 0 0.00088672986204145802 0.41595938197190779 0 0.00049274805565286545 0.40580609740154427 0 0.0096320485100902797 0.41382040525217401 0 0.00088672986204145802 0.41595938197190779 0 0.0058504377347851598 0.42522888637803768 0 -0.0037196473675565412 0.43361757303232462 0 0.014467956915276929 0.44605791343822121 0 0.0058504377347851598 0.42522888637803768 0 0.014467956915276929 0.44605791343822121 0 0.019526674600529481 0.41916388317460568 0 0.0058504377347851598 0.42522888637803768 0 0.01331380959209465 0.38637426121802593 0 0.024293287410336539 0.37555558638417219 0 0.0029446262186104211 0.37205306275199912 0 -0.001879632417451628 0.38629495627717642 0 0.01331380959209465 0.38637426121802593 0 0.0029446262186104211 0.37205306275199912 0 -0.001879632417451628 0.38629495627717642 0 0.00049274805565286545 0.40580609740154427 0 0.015319284836309279 0.40425122082697201 0 -0.001879632417451628 0.38629495627717642 0 0.01331380959209465 0.38637426121802593 0 0.015319284836309279 0.40425122082697201 0 -0.001879632417451628 0.38629495627717642 0 0.015319284836309279 0.40425122082697201 0 0.01331380959209465 0.38637426121802593 0 0.015319284836309279 0.40425122082697201 0 0.025891481912668601 0.39371647984980951 0 0.029607638119970921 0.40667619220395052 0 0.025891481912668601 0.39371647984980951 0 0.038087872103809609 0.40049353740016008 0 0.029607638119970921 0.40667619220395052 0 0.015319284836309279 0.40425122082697201 0 0.025891481912668601 0.39371647984980951 0 0.01331380959209465 0.38637426121802593 0 0.025891481912668601 0.39371647984980951 0 0.024293287410336539 0.37555558638417219 0 0.025891481912668601 0.39371647984980951 0 0.024293287410336539 0.37555558638417219 0 0.037563397393841763 0.38429098603388401 0 0.037563397393841763 0.38429098603388401 0 0.044477553992081767 0.37567597729027991 0 0.036832959741674283 0.36736072302898931 0 0.024293287410336539 0.37555558638417219 0 0.037563397393841763 0.38429098603388401 0 0.036832959741674283 0.36736072302898931 0 0.037563397393841763 0.38429098603388401 0 0.04399442922972352 0.39208903153460889 0 0.051764219431128293 0.38231603695492627 0 0.037563397393841763 0.38429098603388401 0 0.044477553992081767 0.37567597729027991 0 0.051764219431128293 0.38231603695492627 0 0.025891481912668601 0.39371647984980951 0 0.037563397393841763 0.38429098603388401 0 0.038087872103809609 0.40049353740016008 0 0.037563397393841763 0.38429098603388401 0 0.038087872103809609 0.40049353740016008 0 0.04399442922972352 0.39208903153460889 0 0.038087872103809609 0.40049353740016008 0 0.04399442922972352 0.39208903153460889 0 0.048029421944530748 0.39969347269344019 0 0.046159393287810491 0.41049525778051388 0 0.038087872103809609 0.40049353740016008 0 0.048029421944530748 0.39969347269344019 0 0.04399442922972352 0.39208903153460889 0 0.048029421944530748 0.39969347269344019 0 0.051764219431128293 0.38231603695492627 0 0.059075583579014379 0.40994931368494181 0 0.048029421944530748 0.39969347269344019 0 0.051764219431128293 0.38231603695492627 0 0.059075583579014379 0.40994931368494181 0 0.060417327619636522 0.3934329801512767 0 0.051764219431128293 0.38231603695492627 0 0.059075583579014379 0.40994931368494181 0 0.051764219431128293 0.38231603695492627 0 0.060417327619636522 0.3934329801512767 0 0.051749639401682777 0.36873616314332008 0 0.060417327619636522 0.3934329801512767 0 0.051764219431128293 0.38231603695492627 0 0.051749639401682777 0.36873616314332008 0 0.060417327619636522 0.3934329801512767 0 0.072406698745070885 0.37605538887321532 0 0.051749639401682777 0.36873616314332008 0 0.044477553992081767 0.37567597729027991 0 0.051764219431128293 0.38231603695492627 0 0.051749639401682777 0.36873616314332008 0 0.060417327619636522 0.3934329801512767 0 0.072406698745070885 0.37605538887321532 0 0.079390558149421503 0.38884099335794542 0 0.072406698745070885 0.37605538887321532 0 0.079390558149421503 0.38884099335794542 0 0.091603165232483116 0.38121121738685732 0 0.079390558149421503 0.38884099335794542 0 0.091603165232483116 0.38121121738685732 0 0.092102710763477716 0.39618198916344949 0 0.092102710763477716 0.39618198916344949 0 0.076242229819665594 0.40195484026600958 0 0.086385511343456622 0.41320514168871542 0 0.079390558149421503 0.38884099335794542 0 0.092102710763477716 0.39618198916344949 0 0.076242229819665594 0.40195484026600958 0 0.060417327619636522 0.3934329801512767 0 0.079390558149421503 0.38884099335794542 0 0.076242229819665594 0.40195484026600958 0 0.060417327619636522 0.3934329801512767 0 0.069085015837590247 0.41812979715923332 0 0.060417327619636522 0.3934329801512767 0 0.076242229819665594 0.40195484026600958 0 0.069085015837590247 0.41812979715923332 0 0.076242229819665594 0.40195484026600958 0 0.069085015837590247 0.41812979715923332 0 0.086385511343456622 0.41320514168871542 0 0.059075583579014379 0.40994931368494181 0 0.060417327619636522 0.3934329801512767 0 0.069085015837590247 0.41812979715923332 0 0.066386947726900472 0.43758259041495717 0 0.077752704055544034 0.44282661416718999 0 0.069085015837590247 0.41812979715923332 0 0.066386947726900472 0.43758259041495717 0 0.059075583579014379 0.40994931368494181 0 0.069085015837590247 0.41812979715923332 0 0.077752704055544034 0.44282661416718999 0 0.069085015837590247 0.41812979715923332 0 0.066386947726900472 0.43758259041495717 0 0.059075583579014379 0.40994931368494181 0 0.077752704055544034 0.44282661416718999 0 0.069085015837590247 0.41812979715923332 0 0.084330732332650343 0.42766309668145069 0 0.091100280908288908 0.43825012282386411 0 0.077752704055544034 0.44282661416718999 0 0.084330732332650343 0.42766309668145069 0 0.084330732332650343 0.42766309668145069 0 0.086385511343456622 0.41320514168871542 0 0.097330149518371892 0.42590380756825091 0 0.091100280908288908 0.43825012282386411 0 0.084330732332650343 0.42766309668145069 0 0.097330149518371892 0.42590380756825091 0 0.069085015837590247 0.41812979715923332 0 0.084330732332650343 0.42766309668145069 0 0.086385511343456622 0.41320514168871542 0 0.086385511343456622 0.41320514168871542 0 0.10418918152313229 0.40881845410582202 0 0.097330149518371892 0.42590380756825091 0 0.10418918152313229 0.40881845410582202 0 0.097330149518371892 0.42590380756825091 0 0.1175220637549084 0.42218158275445222 0 0.10837114527897421 0.44312899519265919 0 0.091100280908288908 0.43825012282386411 0 0.097330149518371892 0.42590380756825091 0 0.10837114527897421 0.44312899519265919 0 0.097330149518371892 0.42590380756825091 0 0.1175220637549084 0.42218158275445222 0 0.11516657891632789 0.4455074639078217 0 0.13111293102961741 0.42693852018477829 0 0.10837114527897421 0.44312899519265919 0 0.1175220637549084 0.42218158275445222 0 0.11516657891632789 0.4455074639078217 0 0.11835010820856499 0.42732345951916051 0 0.13111293102961741 0.42693852018477829 0 0.10837114527897421 0.44312899519265919 0 0.1175220637549084 0.42218158275445222 0 0.11835010820856499 0.42732345951916051 0 0.11835010820856499 0.42732345951916051 0 0.12668594697468899 0.41700222298096651 0 0.1271998226967343 0.42263663790734612 0 0.1175220637549084 0.42218158275445222 0 0.1266729822308427 0.4012341703162452 0 0.12704132479110211 0.40378823985771828 0 0.11835010820856499 0.42732345951916051 0 0.12704132479110211 0.40378823985771828 0 0.10418918152313229 0.40881845410582202 0 0.1175220637549084 0.42218158275445222 0 0.1266729822308427 0.4012341703162452 0 0.11835010820856499 0.42732345951916051 0 0.12704132479110211 0.40378823985771828 0 0.12668594697468899 0.41700222298096651 0 0.1175220637549084 0.42218158275445222 0 0.11835010820856499 0.42732345951916051 0 0.12704132479110211 0.40378823985771828 0 0.1175220637549084 0.42218158275445222 0 0.1266729822308427 0.4012341703162452 0 0.10418918152313229 0.40881845410582202 0 0.1071798348671745 0.38933233826235042 0 0.1266729822308427 0.4012341703162452 0 0.1223114155137045 0.37588916494274321 0 0.1071798348671745 0.38933233826235042 0 0.1266729822308427 0.4012341703162452 0 0.1223114155137045 0.37588916494274321 0 0.1071798348671745 0.38933233826235042 0 0.1053875119386497 0.3716940553172613 0 0.091603165232483116 0.38121121738685732 0 0.1071798348671745 0.38933233826235042 0 0.1053875119386497 0.3716940553172613 0 0.091603165232483116 0.38121121738685732 0 0.092102710763477716 0.39618198916344949 0 0.1071798348671745 0.38933233826235042 0 0.092102710763477716 0.39618198916344949 0 0.10418918152313229 0.40881845410582202 0 0.1071798348671745 0.38933233826235042 0 0.092102710763477716 0.39618198916344949 0 0.086385511343456622 0.41320514168871542 0 0.10418918152313229 0.40881845410582202 0 0.105601996270883 0.35727296639109229 0 0.1155903140192068 0.34813747466264983 0 0.1041537364696242 0.34033191767185528 0 0.105601996270883 0.35727296639109229 0 0.1041537364696242 0.34033191767185528 0 0.089241545718908133 0.36450653667877708 0 0.1041537364696242 0.34033191767185528 0 0.089241545718908133 0.36450653667877708 0 0.096895953464581352 0.34504669682347011 0 0.1041537364696242 0.34033191767185528 0 0.089241545718908133 0.36450653667877708 0 0.091603165232483116 0.38121121738685732 0 0.1053875119386497 0.3716940553172613 0 0.089241545718908133 0.36450653667877708 0 0.105601996270883 0.35727296639109229 0 0.1053875119386497 0.3716940553172613 0 0.089241545718908133 0.36450653667877708 0 0.105601996270883 0.35727296639109229 0 0.1053875119386497 0.3716940553172613 0 0.11475789269033 0.36167877379668811 0 0.1223114155137045 0.37588916494274321 0 0.11475789269033 0.36167877379668811 0 0.12906637693284509 0.35546618628065929 0 0.1223114155137045 0.37588916494274321 0 0.1053875119386497 0.3716940553172613 0 0.11475789269033 0.36167877379668811 0 0.11475789269033 0.36167877379668811 0 0.1155903140192068 0.34813747466264983 0 0.12906637693284509 0.35546618628065929 0 0.105601996270883 0.35727296639109229 0 0.11475789269033 0.36167877379668811 0 0.1155903140192068 0.34813747466264983 0 0.1123409109261219 0.33501339004278102 0 0.13059593376904821 0.33987131981197688 0 0.1123409109261219 0.33501339004278102 0 0.13277932614443869 0.32173624826320069 0 0.1155903140192068 0.34813747466264983 0 0.1123409109261219 0.33501339004278102 0 0.13059593376904821 0.33987131981197688 0 0.1123409109261219 0.33501339004278102 0 0.1081263267479272 0.33389182727508288 0 0.1155903140192068 0.34813747466264983 0 0.1123409109261219 0.33501339004278102 0 0.1041537364696242 0.34033191767185528 0 0.1123409109261219 0.33501339004278102 0 0.1081263267479272 0.33389182727508288 0 0.12145920640638309 0.31227747889418972 0 0.1101988636463819 0.31850473222386322 0 0.1081263267479272 0.33389182727508288 0 0.12145920640638309 0.31227747889418972 0 0.1081263267479272 0.33389182727508288 0 0.12145920640638309 0.31227747889418972 0 0.1123409109261219 0.33501339004278102 0 0.12145920640638309 0.31227747889418972 0 0.13277932614443869 0.32173624826320069 0 0.1101988636463819 0.31850473222386322 0 0.1108814739259744 0.30782627552984332 0 0.12145920640638309 0.31227747889418972 0 0.095367998254560896 0.32235729005348118 0 0.1081263267479272 0.33389182727508288 0 0.086380243680003993 0.32810487509167502 0 0.1101988636463819 0.31850473222386322 0 0.10086617857916309 0.31365533223149039 0 0.1108814739259744 0.30782627552984332 0 0.1101988636463819 0.31850473222386322 0 0.10392673659474461 0.32286295841863938 0 0.10086617857916309 0.31365533223149039 0 0.1101988636463819 0.31850473222386322 0 0.10392673659474461 0.32286295841863938 0 0.1081263267479272 0.33389182727508288 0 0.10392673659474461 0.32286295841863938 0 0.095367998254560896 0.32235729005348118 0 0.1081263267479272 0.33389182727508288 0 0.10392673659474461 0.32286295841863938 0 0.095367998254560896 0.32235729005348118 0 0.10086617857916309 0.31365533223149039 0 0.1081263267479272 0.33389182727508288 0 0.086380243680003993 0.32810487509167502 0 0.1041537364696242 0.34033191767185528 0 0.1081263267479272 0.33389182727508288 0 0.086380243680003993 0.32810487509167502 0 0.096895953464581352 0.34504669682347011 0 0.1041537364696242 0.34033191767185528 0 0.086380243680003993 0.32810487509167502 0 0.1123409109261219 0.33501339004278102 0 0.1041537364696242 0.34033191767185528 0 0.1123409109261219 0.33501339004278102 0 0.1041537364696242 0.34033191767185528 0 0.1081263267479272 0.33389182727508288 0 0.1041537364696242 0.34033191767185528 0 0.1081263267479272 0.33389182727508288 0 0.096895953464581352 0.34504669682347011 0 0.1041537364696242 0.34033191767185528 0 0.096895953464581352 0.34504669682347011 0 0.082168478859884361 0.34245353477599599 0 0.086380243680003993 0.32810487509167502 0 0.082168478859884361 0.34245353477599599 0 0.086380243680003993 0.32810487509167502 0 0.067582073301809931 0.32366790251326127 0 0.086380243680003993 0.32810487509167502 0 0.067582073301809931 0.32366790251326127 0 0.083760583217827658 0.31111944940920472 0 0.095367998254560896 0.32235729005348118 0 0.086380243680003993 0.32810487509167502 0 0.083760583217827658 0.31111944940920472 0 0.095367998254560896 0.32235729005348118 0 0.10086617857916309 0.31365533223149039 0 0.083760583217827658 0.31111944940920472 0 0.082168478859884361 0.34245353477599599 0 0.067582073301809931 0.32366790251326127 0 0.060754633880456967 0.3365966386592204 0 0.082168478859884361 0.34245353477599599 0 0.068437265965663518 0.34837610095038613 0 0.060754633880456967 0.3365966386592204 0 0.068437265965663518 0.34837610095038613 0 0.089241545718908133 0.36450653667877708 0 0.06500638779578459 0.36258289904329383 0 0.096895953464581352 0.34504669682347011 0 0.082168478859884361 0.34245353477599599 0 0.089241545718908133 0.36450653667877708 0 0.082168478859884361 0.34245353477599599 0 0.068437265965663518 0.34837610095038613 0 0.089241545718908133 0.36450653667877708 0 0.072406698745070885 0.37605538887321532 0 0.091603165232483116 0.38121121738685732 0 0.089241545718908133 0.36450653667877708 0 0.072406698745070885 0.37605538887321532 0 0.06500638779578459 0.36258289904329383 0 0.051749639401682777 0.36873616314332008 0 0.072406698745070885 0.37605538887321532 0 0.089241545718908133 0.36450653667877708 0 0.06500638779578459 0.36258289904329383 0 0.06500638779578459 0.36258289904329383 0 0.051749639401682777 0.36873616314332008 0 0.051773714446696109 0.35279273943007988 0 0.068437265965663518 0.34837610095038613 0 0.051773714446696109 0.35279273943007988 0 0.060754633880456967 0.3365966386592204 0 0.068437265965663518 0.34837610095038613 0 0.06500638779578459 0.36258289904329383 0 0.051773714446696109 0.35279273943007988 0 0.051773714446696109 0.35279273943007988 0 0.033222049289363412 0.35282248058731752 0 0.036832959741674283 0.36736072302898931 0 0.051773714446696109 0.35279273943007988 0 0.033222049289363412 0.35282248058731752 0 0.046413065052247217 0.33307417059803263 0 0.051749639401682777 0.36873616314332008 0 0.051773714446696109 0.35279273943007988 0 0.036832959741674283 0.36736072302898931 0 0.044477553992081767 0.37567597729027991 0 0.051749639401682777 0.36873616314332008 0 0.036832959741674283 0.36736072302898931 0 0.033222049289363412 0.35282248058731752 0 0.036832959741674283 0.36736072302898931 0 0.01419226780871149 0.35957273825278457 0 0.024293287410336539 0.37555558638417219 0 0.036832959741674283 0.36736072302898931 0 0.01419226780871149 0.35957273825278457 0 0.033222049289363412 0.35282248058731752 0 0.02135186355852331 0.34877314753348643 0 0.01419226780871149 0.35957273825278457 0 0.02135186355852331 0.34877314753348643 0 0.01419226780871149 0.35957273825278457 0 0.013214900791486151 0.33951899685916709 0 0.033222049289363412 0.35282248058731752 0 0.02135186355852331 0.34877314753348643 0 0.027318132698782222 0.33835960270339682 0 -0.0031286704045364821 0.35648769551171489 0 0.01419226780871149 0.35957273825278457 0 4.640653836696535e-05 0.34323421613825628 0 0.01419226780871149 0.35957273825278457 0 4.640653836696535e-05 0.34323421613825628 0 0.013214900791486151 0.33951899685916709 0 -0.0031286704045364821 0.35648769551171489 0 0.01419226780871149 0.35957273825278457 0 0.0029446262186104211 0.37205306275199912 0 0.024293287410336539 0.37555558638417219 0 0.01419226780871149 0.35957273825278457 0 0.0029446262186104211 0.37205306275199912 0 0.014232366056411851 0.31940516235738198 0 0.0031760244529172579 0.32813079414463969 0 0.00074909824214197077 0.31135674283283699 0 0.014232366056411851 0.31940516235738198 0 0.0031760244529172579 0.32813079414463969 0 0.013214900791486151 0.33951899685916709 0 0.0031760244529172579 0.32813079414463969 0 4.640653836696535e-05 0.34323421613825628 0 0.013214900791486151 0.33951899685916709 0 0.013214900791486151 0.33951899685916709 0 0.027318132698782222 0.33835960270339682 0 0.027899582712967459 0.3240271683489695 0 0.02135186355852331 0.34877314753348643 0 0.013214900791486151 0.33951899685916709 0 0.027318132698782222 0.33835960270339682 0 0.014232366056411851 0.31940516235738198 0 0.027899582712967459 0.3240271683489695 0 0.030551997671510539 0.30923596889158711 0 0.014232366056411851 0.31940516235738198 0 0.013214900791486151 0.33951899685916709 0 0.027899582712967459 0.3240271683489695 0 0.027899582712967459 0.3240271683489695 0 0.046309509487877952 0.31166931018581162 0 0.030551997671510539 0.30923596889158711 0 0.027899582712967459 0.3240271683489695 0 0.046413065052247217 0.33307417059803263 0 0.046309509487877952 0.31166931018581162 0 0.033222049289363412 0.35282248058731752 0 0.027318132698782222 0.33835960270339682 0 0.046413065052247217 0.33307417059803263 0 0.027318132698782222 0.33835960270339682 0 0.027899582712967459 0.3240271683489695 0 0.046413065052247217 0.33307417059803263 0 0.067582073301809931 0.32366790251326127 0 0.046413065052247217 0.33307417059803263 0 0.060754633880456967 0.3365966386592204 0 0.051773714446696109 0.35279273943007988 0 0.046413065052247217 0.33307417059803263 0 0.060754633880456967 0.3365966386592204 0 0.067582073301809931 0.32366790251326127 0 0.046309509487877952 0.31166931018581162 0 0.067287998934371374 0.30265733887288881 0 0.067582073301809931 0.32366790251326127 0 0.046413065052247217 0.33307417059803263 0 0.046309509487877952 0.31166931018581162 0 0.052373593885834048 0.29707123294298737 0 0.046309509487877952 0.31166931018581162 0 0.067287998934371374 0.30265733887288881 0 0.052373593885834048 0.29707123294298737 0 0.057533021739254037 0.28238041052770613 0 0.067287998934371374 0.30265733887288881 0 0.052373593885834048 0.29707123294298737 0 0.057533021739254037 0.28238041052770613 0 0.038363845381832851 0.29157787218554299 0 0.057533021739254037 0.28238041052770613 0 0.038363845381832851 0.29157787218554299 0 0.057533021739254037 0.28238041052770613 0 0.067287998934371374 0.30265733887288881 0 0.057533021739254037 0.28238041052770613 0 0.038363845381832851 0.29157787218554299 0 0.041534867383445813 0.27361210752680448 0 0.052373593885834048 0.29707123294298737 0 0.038363845381832851 0.29157787218554299 0 0.046309509487877952 0.31166931018581162 0 0.038363845381832851 0.29157787218554299 0 0.046309509487877952 0.31166931018581162 0 0.030551997671510539 0.30923596889158711 0 0.014232366056411851 0.31940516235738198 0 0.019194669024412209 0.30077533384338118 0 0.030551997671510539 0.30923596889158711 0 0.038363845381832851 0.29157787218554299 0 0.019194669024412209 0.30077533384338118 0 0.030551997671510539 0.30923596889158711 0 0.038363845381832851 0.29157787218554299 0 0.01078622654400775 0.28395784613648639 0 0.024942234536897472 0.27207235609202618 0 0.038363845381832851 0.29157787218554299 0 0.019194669024412209 0.30077533384338118 0 0.01078622654400775 0.28395784613648639 0 0.038363845381832851 0.29157787218554299 0 0.019194669024412209 0.30077533384338118 0 0.019194669024412209 0.30077533384338118 0 0.01078622654400775 0.28395784613648639 0 0.0046566270704093476 0.29792734629064599 0 -0.01068642280188078 0.29359271381804808 0 0.01078622654400775 0.28395784613648639 0 0.0046566270704093476 0.29792734629064599 0 0.014232366056411851 0.31940516235738198 0 0.019194669024412209 0.30077533384338118 0 0.00074909824214197077 0.31135674283283699 0 0.019194669024412209 0.30077533384338118 0 0.0046566270704093476 0.29792734629064599 0 0.00074909824214197077 0.31135674283283699 0 -0.0023781964551506012 0.27053295266141347 0 0.0059300298915795913 0.2474731915047787 0 -0.0023781964551506012 0.27053295266141347 0 0.0059300298915795913 0.2474731915047787 0 0.019274790450831431 0.25799127517140319 0 -0.0023781964551506012 0.27053295266141347 0 0.024942234536897472 0.27207235609202618 0 0.019274790450831431 0.25799127517140319 0 -0.0023781964551506012 0.27053295266141347 0 0.01078622654400775 0.28395784613648639 0 0.024942234536897472 0.27207235609202618 0 0.024942234536897472 0.27207235609202618 0 0.019274790450831431 0.25799127517140319 0 0.044668434310519069 0.25563977215764788 0 0.0232114499703116 0.2442381034411498 0 0.019274790450831431 0.25799127517140319 0 0.044668434310519069 0.25563977215764788 0 0.024942234536897472 0.27207235609202618 0 0.044668434310519069 0.25563977215764788 0 0.041534867383445813 0.27361210752680448 0 0.038363845381832851 0.29157787218554299 0 0.024942234536897472 0.27207235609202618 0 0.041534867383445813 0.27361210752680448 0 0.057533021739254037 0.28238041052770613 0 0.044668434310519069 0.25563977215764788 0 0.041534867383445813 0.27361210752680448 0 0.057533021739254037 0.28238041052770613 0 0.044668434310519069 0.25563977215764788 0 0.057533021739254037 0.28238041052770613 0 0.044668434310519069 0.25563977215764788 0 0.060411219109485367 0.25639687316600579 0 0.059299343973563907 0.23977397730384789 0 0.044668434310519069 0.25563977215764788 0 0.060411219109485367 0.25639687316600579 0 0.077256167510397183 0.24965772657166779 0 0.069349791039850617 0.25416777938360868 0 0.070027292417392834 0.26642295454532022 0 0.069352175175494288 0.24460917952387559 0 0.060411219109485367 0.25639687316600579 0 0.069349791039850617 0.25416777938360868 0 0.060411219109485367 0.25639687316600579 0 0.069349791039850617 0.25416777938360868 0 0.070027292417392834 0.26642295454532022 0 0.091210425798641789 0.24845453687558389 0 0.070027292417392834 0.26642295454532022 0 0.091210425798641789 0.24845453687558389 0 0.089670486145315059 0.26696070280820949 0 0.070027292417392834 0.26642295454532022 0 0.091210425798641789 0.24845453687558389 0 0.077256167510397183 0.24965772657166779 0 0.070027292417392834 0.26642295454532022 0 0.089670486145315059 0.26696070280820949 0 0.073601753942284256 0.2746705566679572 0 0.089926943557754463 0.28151142075239982 0 0.089670486145315059 0.26696070280820949 0 0.073601753942284256 0.2746705566679572 0 0.057533021739254037 0.28238041052770613 0 0.060411219109485367 0.25639687316600579 0 0.070027292417392834 0.26642295454532022 0 0.057533021739254037 0.28238041052770613 0 0.073601753942284256 0.2746705566679572 0 0.089670486145315059 0.26696070280820949 0 0.073601753942284256 0.2746705566679572 0 0.070027292417392834 0.26642295454532022 0 0.057533021739254037 0.28238041052770613 0 0.073601753942284256 0.2746705566679572 0 0.070027292417392834 0.26642295454532022 0 0.057533021739254037 0.28238041052770613 0 0.073601753942284256 0.2746705566679572 0 0.075184403197162089 0.29007208907136162 0 0.057533021739254037 0.28238041052770613 0 0.075184403197162089 0.29007208907136162 0 0.067287998934371374 0.30265733887288881 0 0.075184403197162089 0.29007208907136162 0 0.067287998934371374 0.30265733887288881 0 0.083760583217827658 0.31111944940920472 0 0.067582073301809931 0.32366790251326127 0 0.067287998934371374 0.30265733887288881 0 0.083760583217827658 0.31111944940920472 0 0.075184403197162089 0.29007208907136162 0 0.083760583217827658 0.31111944940920472 0 0.096749875093645604 0.29787692664390608 0 0.075184403197162089 0.29007208907136162 0 0.089926943557754463 0.28151142075239982 0 0.096749875093645604 0.29787692664390608 0 0.073601753942284256 0.2746705566679572 0 0.075184403197162089 0.29007208907136162 0 0.089926943557754463 0.28151142075239982 0 0.10500063274519821 0.2856647955295169 0 0.096749875093645604 0.29787692664390608 0 0.1146707950265074 0.29613392243448028 0 0.089926943557754463 0.28151142075239982 0 0.10500063274519821 0.2856647955295169 0 0.096749875093645604 0.29787692664390608 0 0.096749875093645604 0.29787692664390608 0 0.1108814739259744 0.30782627552984332 0 0.1146707950265074 0.29613392243448028 0 0.10086617857916309 0.31365533223149039 0 0.096749875093645604 0.29787692664390608 0 0.1108814739259744 0.30782627552984332 0 0.10086617857916309 0.31365533223149039 0 0.083760583217827658 0.31111944940920472 0 0.096749875093645604 0.29787692664390608 0 0.12145920640638309 0.31227747889418972 0 0.1146707950265074 0.29613392243448028 0 0.13479208606483981 0.29066313051329667 0 0.1108814739259744 0.30782627552984332 0 0.12145920640638309 0.31227747889418972 0 0.1146707950265074 0.29613392243448028 0 0.1146707950265074 0.29613392243448028 0 0.121485919326542 0.28113608206627377 0 0.13479208606483981 0.29066313051329667 0 0.10500063274519821 0.2856647955295169 0 0.1146707950265074 0.29613392243448028 0 0.121485919326542 0.28113608206627377 0 0.121485919326542 0.28113608206627377 0 0.1241344254068759 0.26327242435705872 0 0.10621436369501561 0.27072311278592259 0 0.10500063274519821 0.2856647955295169 0 0.121485919326542 0.28113608206627377 0 0.10621436369501561 0.27072311278592259 0 0.1241344254068759 0.26327242435705872 0 0.1146137975441518 0.25636162154516878 0 0.10621436369501561 0.27072311278592259 0 0.1190260291513007 0.24336637760556681 0 0.1146137975441518 0.25636162154516878 0 0.1262292453709509 0.25224871802668603 0 0.1241344254068759 0.26327242435705872 0 0.1146137975441518 0.25636162154516878 0 0.1262292453709509 0.25224871802668603 0 0.091210425798641789 0.24845453687558389 0 0.1076673099755391 0.24745849863492089 0 0.1010927382037104 0.25862383794243748 0 0.091210425798641789 0.24845453687558389 0 0.089670486145315059 0.26696070280820949 0 0.1010927382037104 0.25862383794243748 0 0.1146137975441518 0.25636162154516878 0 0.1010927382037104 0.25862383794243748 0 0.10621436369501561 0.27072311278592259 0 0.089670486145315059 0.26696070280820949 0 0.1010927382037104 0.25862383794243748 0 0.10621436369501561 0.27072311278592259 0 0.1076673099755391 0.24745849863492089 0 0.1146137975441518 0.25636162154516878 0 0.1010927382037104 0.25862383794243748 0 0.089926943557754463 0.28151142075239982 0 0.10500063274519821 0.2856647955295169 0 0.10621436369501561 0.27072311278592259 0 0.089670486145315059 0.26696070280820949 0 0.089926943557754463 0.28151142075239982 0 0.10621436369501561 0.27072311278592259 0 0.14812496572329639 0.26904878213240369 0 0.13479208606483981 0.29066313051329667 0 0.14812496572329639 0.26904878213240369 0 0.1558504360767155 0.28738991708258721 0 0.16205455902884469 0.27395652673933352 0 0.14812496572329639 0.26904878213240369 0 0.13925418789776439 0.26269741650105499 0 0.13598645131933079 0.27620006938573999 0 0.1614578453817532 0.2474344337515107 0 0.14812496572329639 0.26904878213240369 0 0.15153815421420841 0.2559992764354444 0 0.15702245646898699 0.24425875093583621 0 0.13925418789776439 0.26269741650105499 0 0.15702245646898699 0.24425875093583621 0 0.15153815421420841 0.2559992764354444 0 0.13925418789776439 0.26269741650105499 0 0.1471455627635897 0.2457753837098802 0 0.13925418789776439 0.26269741650105499 0 0.14054789815990409 0.25063786334563659 0 0.1471455627635897 0.2457753837098802 0 0.15702245646898699 0.24425875093583621 0 0.13925418789776439 0.26269741650105499 0 0.1614578453817532 0.2474344337515107 0 0.14812496572329639 0.26904878213240369 0 0.14812496572329639 0.26904878213240369 0 0.15153815421420841 0.2559992764354444 0 0.13925418789776439 0.26269741650105499 0 0.13439082339957409 0.24733376189263659 0 0.14054789815990409 0.25063786334563659 0 0.13396620687610469 0.25530730341620173 0 0.13925418789776439 0.26269741650105499 0 0.14054789815990409 0.25063786334563659 0 0.13396620687610469 0.25530730341620173 0 0.1241344254068759 0.26327242435705872 0 0.13396620687610469 0.25530730341620173 0 0.1262292453709509 0.25224871802668603 0 0.13439082339957409 0.24733376189263659 0 0.13396620687610469 0.25530730341620173 0 0.1262292453709509 0.25224871802668603 0 0.1241344254068759 0.26327242435705872 0 0.13925418789776439 0.26269741650105499 0 0.13396620687610469 0.25530730341620173 0 0.14812496572329639 0.26904878213240369 0 0.13598645131933079 0.27620006938573999 0 0.13479208606483981 0.29066313051329667 0 0.121485919326542 0.28113608206627377 0 0.13925418789776439 0.26269741650105499 0 0.13598645131933079 0.27620006938573999 0 0.121485919326542 0.28113608206627377 0 0.13925418789776439 0.26269741650105499 0 0.121485919326542 0.28113608206627377 0 0.1241344254068759 0.26327242435705872 0 0.13925418789776439 0.26269741650105499 0 0.121485919326542 0.28113608206627377 0 0.13598645131933079 0.27620006938573999 0 0.13479208606483981 0.29066313051329667 0 0.12145920640638309 0.31227747889418972 0 0.13479208606483981 0.29066313051329667 0 0.1360280671715221 0.30634493823385273 0 0.12145920640638309 0.31227747889418972 0 0.13479208606483981 0.29066313051329667 0 0.1360280671715221 0.30634493823385273 0 0.15321774136275529 0.30845910648362013 0 0.13277932614443869 0.32173624826320069 0 0.13479208606483981 0.29066313051329667 0 0.1360280671715221 0.30634493823385273 0 0.15321774136275529 0.30845910648362013 0 0.13479208606483981 0.29066313051329667 0 0.15321774136275529 0.30845910648362013 0 0.1558504360767155 0.28738991708258721 0 0.14812496572329639 0.26904878213240369 0 0.13479208606483981 0.29066313051329667 0 0.1558504360767155 0.28738991708258721 0 0.1558504360767155 0.28738991708258721 0 0.17103182613096571 0.28234366969891828 0 0.17365615658107181 0.29518196470403951 0 0.15321774136275529 0.30845910648362013 0 0.1558504360767155 0.28738991708258721 0 0.17365615658107181 0.29518196470403951 0 0.15321774136275529 0.30845910648362013 0 0.17277700059862389 0.30917246686118971 0 0.17365615658107181 0.29518196470403951 0 0.15321774136275529 0.30845910648362013 0 0.17365615658107181 0.29518196470403951 0 0.17277700059862389 0.30917246686118971 0 0.17873723345205661 0.30207126475375562 0 0.1837848185068533 0.3148676845119322 0 0.17277700059862389 0.30917246686118971 0 0.17873723345205661 0.30207126475375562 0 0.17365615658107181 0.29518196470403951 0 0.17873723345205661 0.30207126475375562 0 0.1894456605414695 0.30748299826214859 0 0.1837848185068533 0.3148676845119322 0 0.17873723345205661 0.30207126475375562 0 0.17365615658107181 0.29518196470403951 0 0.19409457179938841 0.28190482292445879 0 0.17103182613096571 0.28234366969891828 0 0.17365615658107181 0.29518196470403951 0 0.19409457179938841 0.28190482292445879 0 0.17365615658107181 0.29518196470403951 0 0.19409457179938841 0.28190482292445879 0 0.17103182613096571 0.28234366969891828 0 0.1732309461249246 0.26939742065197397 0 0.19409457179938841 0.28190482292445879 0 0.1732309461249246 0.26939742065197397 0 0.1855994555810381 0.26441161047688938 0 0.19409457179938841 0.28190482292445879 0 0.17103182613096571 0.28234366969891828 0 0.1732309461249246 0.26939742065197397 0 0.16205455902884469 0.27395652673933352 0 0.1732309461249246 0.26939742065197397 0 0.16205455902884469 0.27395652673933352 0 0.16203462108832109 0.26160284413078411 0 0.14812496572329639 0.26904878213240369 0 0.16205455902884469 0.27395652673933352 0 0.16203462108832109 0.26160284413078411 0 0.1558504360767155 0.28738991708258721 0 0.17103182613096571 0.28234366969891828 0 0.16205455902884469 0.27395652673933352 0 0.1614578453817532 0.2474344337515107 0 0.14812496572329639 0.26904878213240369 0 0.16203462108832109 0.26160284413078411 0 0.1614578453817532 0.2474344337515107 0 0.16203462108832109 0.26160284413078411 0 0.16726430040335391 0.25435453939916819 0 0.1732309461249246 0.26939742065197397 0 0.16203462108832109 0.26160284413078411 0 0.17083183542746319 0.26042566669403211 0 0.16203462108832109 0.26160284413078411 0 0.17083183542746319 0.26042566669403211 0 0.16726430040335391 0.25435453939916819 0 0.17083183542746319 0.26042566669403211 0 0.16726430040335391 0.25435453939916819 0 0.1738210524574236 0.25454559719982411 0 0.17099044361719101 0.2488693943575139 0 0.1614578453817532 0.2474344337515107 0 0.16726430040335391 0.25435453939916819 0 0.17099044361719101 0.2488693943575139 0 0.16726430040335391 0.25435453939916819 0 0.1738210524574236 0.25454559719982411 0 0.17898104065045961 0.2474072687337816 0 0.17099044361719101 0.2488693943575139 0 0.1738210524574236 0.25454559719982411 0 0.1738210524574236 0.25454559719982411 0 0.1773917166965662 0.26123365775355262 0 0.18264221315852841 0.25539944507532902 0 0.17898104065045961 0.2474072687337816 0 0.1738210524574236 0.25454559719982411 0 0.18264221315852841 0.25539944507532902 0 0.1732309461249246 0.26939742065197397 0 0.17083183542746319 0.26042566669403211 0 0.1773917166965662 0.26123365775355262 0 0.1732309461249246 0.26939742065197397 0 0.1773917166965662 0.26123365775355262 0 0.1855994555810381 0.26441161047688938 0 0.17083183542746319 0.26042566669403211 0 0.1738210524574236 0.25454559719982411 0 0.1773917166965662 0.26123365775355262 0 0.1773917166965662 0.26123365775355262 0 0.1855994555810381 0.26441161047688938 0 0.18264221315852841 0.25539944507532902 0 0.17898104065045961 0.2474072687337816 0 0.18959464865812731 0.24829286944273779 0 0.18264221315852841 0.25539944507532902 0 0.18959464865812731 0.24829286944273779 0 0.18264221315852841 0.25539944507532902 0 0.19574006032389191 0.26035532724924731 0 0.1855994555810381 0.26441161047688938 0 0.18264221315852841 0.25539944507532902 0 0.19574006032389191 0.26035532724924731 0 0.19574006032389191 0.26035532724924731 0 0.20089396658554831 0.25035318971589698 0 0.20808195052137551 0.26095201847929222 0 0.18959464865812731 0.24829286944273779 0 0.19574006032389191 0.26035532724924731 0 0.20089396658554831 0.25035318971589698 0 0.1855994555810381 0.26441161047688938 0 0.19574006032389191 0.26035532724924731 0 0.19409457179938841 0.28190482292445879 0 0.19574006032389191 0.26035532724924731 0 0.20808195052137551 0.26095201847929222 0 0.19409457179938841 0.28190482292445879 0 0.21453298701770479 0.26862768114487823 0 0.20808195052137551 0.26095201847929222 0 0.19409457179938841 0.28190482292445879 0 0.21453298701770479 0.26862768114487823 0 0.19409457179938841 0.28190482292445879 0 0.20163388544352609 0.29129718573383973 0 0.21453298701770479 0.26862768114487823 0 0.22453053743499601 0.28052310671392472 0 0.20163388544352609 0.29129718573383973 0 0.21453298701770479 0.26862768114487823 0 0.19409457179938841 0.28190482292445879 0 0.21453298701770479 0.26862768114487823 0 0.20808195052137551 0.26095201847929222 0 0.21784204116262049 0.25278755554682031 0 0.20089396658554831 0.25035318971589698 0 0.20956462797640071 0.25160063485033868 0 0.20808195052137551 0.26095201847929222 0 0.21453298701770479 0.26862768114487823 0 0.20808195052137551 0.26095201847929222 0 0.20956462797640071 0.25160063485033868 0 0.20808195052137551 0.26095201847929222 0 0.21784204116262049 0.25278755554682031 0 0.21453298701770479 0.26862768114487823 0 0.23777700007207569 0.25352797534319121 0 0.21453298701770479 0.26862768114487823 0 0.23141910386869791 0.26794123068449782 0 0.23777700007207569 0.25352797534319121 0 0.21453298701770479 0.26862768114487823 0 0.21784204116262049 0.25278755554682031 0 0.23777700007207569 0.25352797534319121 0 0.21453298701770479 0.26862768114487823 0 0.23141910386869791 0.26794123068449782 0 0.22453053743499601 0.28052310671392472 0 0.21453298701770479 0.26862768114487823 0 0.22453053743499601 0.28052310671392472 0 0.23141910386869791 0.26794123068449782 0 0.22453053743499601 0.28052310671392472 0 0.2488358909500151 0.26908615953599702 0 0.22453053743499601 0.28052310671392472 0 0.2488358909500151 0.26908615953599702 0 0.2488358909500151 0.26908615953599702 0 0.23777700007207569 0.25352797534319121 0 0.25493463515009379 0.25433840845262362 0 0.23141910386869791 0.26794123068449782 0 0.2488358909500151 0.26908615953599702 0 0.23777700007207569 0.25352797534319121 0 0.22453053743499601 0.28052310671392472 0 0.2488358909500151 0.26908615953599702 0 0.2426384897026011 0.30206856429267592 0 0.23633794732846089 0.30792078221753749 0 0.2426384897026011 0.30206856429267592 0 0.241904393513802 0.3193634487573907 0 0.23984542957579011 0.30246615544119487 0 0.23633794732846089 0.30792078221753749 0 0.2426384897026011 0.30206856429267592 0 0.23984542957579011 0.30246615544119487 0 0.2426384897026011 0.30206856429267592 0 0.23984542957579011 0.30246615544119487 0 0.23633794732846089 0.30792078221753749 0 0.23072624977592299 0.30374316441510618 0 0.22453053743499601 0.28052310671392472 0 0.23984542957579011 0.30246615544119487 0 0.2426384897026011 0.30206856429267592 0 0.22453053743499601 0.28052310671392472 0 0.22536751617578399 0.29625489583388609 0 0.21561912212777609 0.29281372272241679 0 0.22453053743499601 0.28052310671392472 0 0.2426384897026011 0.30206856429267592 0 0.22453053743499601 0.28052310671392472 0 0.23984542957579011 0.30246615544119487 0 0.22536751617578399 0.29625489583388609 0 0.22536751617578399 0.29625489583388609 0 0.23072624977592299 0.30374316441510618 0 0.2265751740741882 0.31196257818131989 0 0.22536751617578399 0.29625489583388609 0 0.2265751740741882 0.31196257818131989 0 0.21094454945679869 0.30317970260801641 0 0.23984542957579011 0.30246615544119487 0 0.22536751617578399 0.29625489583388609 0 0.23072624977592299 0.30374316441510618 0 0.23633794732846089 0.30792078221753749 0 0.23072624977592299 0.30374316441510618 0 0.2265751740741882 0.31196257818131989 0 0.2265751740741882 0.31196257818131989 0 0.21094454945679869 0.30317970260801641 0 0.21078023910107899 0.317874887656866 0 0.22536751617578399 0.29625489583388609 0 0.21094454945679869 0.30317970260801641 0 0.21561912212777609 0.29281372272241679 0 0.21094454945679869 0.30317970260801641 0 0.1980939457468345 0.31232897979483409 0 0.21078023910107899 0.317874887656866 0 0.22453053743499601 0.28052310671392472 0 0.21561912212777609 0.29281372272241679 0 0.20163388544352609 0.29129718573383973 0 0.22453053743499601 0.28052310671392472 0 0.20163388544352609 0.29129718573383973 0 0.21094454945679869 0.30317970260801641 0 0.21561912212777609 0.29281372272241679 0 0.20163388544352609 0.29129718573383973 0 0.17873723345205661 0.30207126475375562 0 0.19409457179938841 0.28190482292445879 0 0.20163388544352609 0.29129718573383973 0 0.17873723345205661 0.30207126475375562 0 0.20163388544352609 0.29129718573383973 0 0.17873723345205661 0.30207126475375562 0 0.19616979479442179 0.30252689416124862 0 0.1894456605414695 0.30748299826214859 0 0.17873723345205661 0.30207126475375562 0 0.20163388544352609 0.29129718573383973 0 0.19616979479442179 0.30252689416124862 0 0.21094454945679869 0.30317970260801641 0 0.1980939457468345 0.31232897979483409 0 0.19616979479442179 0.30252689416124862 0 0.21094454945679869 0.30317970260801641 0 0.20163388544352609 0.29129718573383973 0 0.19616979479442179 0.30252689416124862 0 0.1980939457468345 0.31232897979483409 0 0.1894456605414695 0.30748299826214859 0 0.1837848185068533 0.3148676845119322 0 0.1980939457468345 0.31232897979483409 0 0.19616979479442179 0.30252689416124862 0 0.1894456605414695 0.30748299826214859 0 0.1980939457468345 0.31232897979483409 0 0.19236803426157531 0.32028549684256058 0 0.1837848185068533 0.3148676845119322 0 0.19236803426157531 0.32028549684256058 0 0.20133277658762161 0.32610465951752748 0 0.1857360828972569 0.32866437565516038 0 0.1980939457468345 0.31232897979483409 0 0.19236803426157531 0.32028549684256058 0 0.20133277658762161 0.32610465951752748 0 0.19743169696251769 0.34167359348421789 0 0.18309550459771851 0.34222889171176518 0 0.1857360828972569 0.32866437565516038 0 0.20133277658762161 0.32610465951752748 0 0.19743169696251769 0.34167359348421789 0 0.1857360828972569 0.32866437565516038 0 0.20133277658762161 0.32610465951752748 0 0.19743169696251769 0.34167359348421789 0 0.21695474963995179 0.33579851818263179 0 0.2265751740741882 0.31196257818131989 0 0.21695474963995179 0.33579851818263179 0 0.21078023910107899 0.317874887656866 0 0.20133277658762161 0.32610465951752748 0 0.21695474963995179 0.33579851818263179 0 0.21078023910107899 0.317874887656866 0 0.1980939457468345 0.31232897979483409 0 0.20133277658762161 0.32610465951752748 0 0.21078023910107899 0.317874887656866 0 0.2265751740741882 0.31196257818131989 0 0.21695474963995179 0.33579851818263179 0 0.241904393513802 0.3193634487573907 0 0.2265751740741882 0.31196257818131989 0 0.21695474963995179 0.33579851818263179 0 0.21695474963995179 0.33579851818263179 0 0.24776932383646169 0.34212687069113989 0 0.241904393513802 0.3193634487573907 0 0.2426384897026011 0.30206856429267592 0 0.241904393513802 0.3193634487573907 0 0.25881440396201277 0.32131521732793877 0 0.24776932383646169 0.34212687069113989 0 0.241904393513802 0.3193634487573907 0 0.25881440396201277 0.32131521732793877 0 0.23633794732846089 0.30792078221753749 0 0.2265751740741882 0.31196257818131989 0 0.241904393513802 0.3193634487573907 0 0.24776932383646169 0.34212687069113989 0 0.24501181041159029 0.36375341561728619 0 0.2284791539514591 0.35560538433667371 0 0.21695474963995179 0.33579851818263179 0 0.24776932383646169 0.34212687069113989 0 0.2284791539514591 0.35560538433667371 0 0.24501181041159029 0.36375341561728619 0 0.2284791539514591 0.35560538433667371 0 0.22532556066357631 0.37671365900836679 0 0.2284791539514591 0.35560538433667371 0 0.20733432520571549 0.35963445818394379 0 0.22532556066357631 0.37671365900836679 0 0.20733432520571549 0.35963445818394379 0 0.1977139007714791 0.38347039818525558 0 0.22532556066357631 0.37671365900836679 0 0.19743169696251769 0.34167359348421789 0 0.21695474963995179 0.33579851818263179 0 0.20733432520571549 0.35963445818394379 0 0.21695474963995179 0.33579851818263179 0 0.2284791539514591 0.35560538433667371 0 0.20733432520571549 0.35963445818394379 0 0.21695474963995179 0.33579851818263179 0 0.20733432520571549 0.35963445818394379 0 0.19743169696251769 0.34167359348421789 0 0.20733432520571549 0.35963445818394379 0 0.19048816549789749 0.35580952257198822 0 0.19743169696251769 0.34167359348421789 0 0.19048816549789749 0.35580952257198822 0 0.18309550459771851 0.34222889171176518 0 0.20733432520571549 0.35963445818394379 0 0.19048816549789749 0.35580952257198822 0 0.19066420880415191 0.37053774767724051 0 0.20733432520571549 0.35963445818394379 0 0.19066420880415191 0.37053774767724051 0 0.1977139007714791 0.38347039818525558 0 0.20733432520571549 0.35963445818394379 0 0.1977139007714791 0.38347039818525558 0 0.19048816549789749 0.35580952257198822 0 0.19066420880415191 0.37053774767724051 0 0.17634476582722061 0.36898021303341022 0 0.17634476582722061 0.36898021303341022 0 0.15911008262293491 0.3648606809797959 0 0.16643344971859941 0.38149836912256679 0 0.17634476582722061 0.36898021303341022 0 0.15911008262293491 0.3648606809797959 0 0.16966956105493591 0.35026938607658081 0 0.15911008262293491 0.3648606809797959 0 0.16966956105493591 0.35026938607658081 0 0.14885095661197431 0.3447292495811734 0 0.16966956105493591 0.35026938607658081 0 0.14885095661197431 0.3447292495811734 0 0.19048816549789749 0.35580952257198822 0 0.17634476582722061 0.36898021303341022 0 0.16966956105493591 0.35026938607658081 0 0.19048816549789749 0.35580952257198822 0 0.16966956105493591 0.35026938607658081 0 0.19048816549789749 0.35580952257198822 0 0.16966956105493591 0.35026938607658081 0 0.18309550459771851 0.34222889171176518 0 0.18309550459771851 0.34222889171176518 0 0.1857360828972569 0.32866437565516038 0 0.1721520165759845 0.33472758077087872 0 0.1857360828972569 0.32866437565516038 0 0.1721520165759845 0.33472758077087872 0 0.17052182119423859 0.32162710043255938 0 0.16966956105493591 0.35026938607658081 0 0.18309550459771851 0.34222889171176518 0 0.1721520165759845 0.33472758077087872 0 0.1857360828972569 0.32866437565516038 0 0.1837848185068533 0.3148676845119322 0 0.17052182119423859 0.32162710043255938 0 0.19236803426157531 0.32028549684256058 0 0.1857360828972569 0.32866437565516038 0 0.1837848185068533 0.3148676845119322 0 0.17277700059862389 0.30917246686118971 0 0.1837848185068533 0.3148676845119322 0 0.17052182119423859 0.32162710043255938 0 0.15321774136275529 0.30845910648362013 0 0.17277700059862389 0.30917246686118971 0 0.17052182119423859 0.32162710043255938 0 0.15321774136275529 0.30845910648362013 0 0.17052182119423859 0.32162710043255938 0 0.1535792682688184 0.33192530522945007 0 0.1721520165759845 0.33472758077087872 0 0.17052182119423859 0.32162710043255938 0 0.1535792682688184 0.33192530522945007 0 0.16966956105493591 0.35026938607658081 0 0.1721520165759845 0.33472758077087872 0 0.1535792682688184 0.33192530522945007 0 0.16966956105493591 0.35026938607658081 0 0.1535792682688184 0.33192530522945007 0 0.14885095661197431 0.3447292495811734 0 0.1535792682688184 0.33192530522945007 0 0.1414513711985699 0.33456553072145018 0 0.13277932614443869 0.32173624826320069 0 0.1535792682688184 0.33192530522945007 0 0.14885095661197431 0.3447292495811734 0 0.1535792682688184 0.33192530522945007 0 0.1414513711985699 0.33456553072145018 0 0.14885095661197431 0.3447292495811734 0 0.15321774136275529 0.30845910648362013 0 0.1535792682688184 0.33192530522945007 0 0.13277932614443869 0.32173624826320069 0 0.15321774136275529 0.30845910648362013 0 0.13277932614443869 0.32173624826320069 0 0.12145920640638309 0.31227747889418972 0 0.1360280671715221 0.30634493823385273 0 0.13277932614443869 0.32173624826320069 0 0.13059593376904821 0.33987131981197688 0 0.14885095661197431 0.3447292495811734 0 0.1414513711985699 0.33456553072145018 0 0.13059593376904821 0.33987131981197688 0 0.14885095661197431 0.3447292495811734 0 0.1123409109261219 0.33501339004278102 0 0.13277932614443869 0.32173624826320069 0 0.13059593376904821 0.33987131981197688 0 0.1414513711985699 0.33456553072145018 0 0.13277932614443869 0.32173624826320069 0 0.13059593376904821 0.33987131981197688 0 0.13059593376904821 0.33987131981197688 0 0.12906637693284509 0.35546618628065929 0 0.14885095661197431 0.3447292495811734 0 0.12906637693284509 0.35546618628065929 0 0.1422917489928068 0.36249113488872492 0 0.14885095661197431 0.3447292495811734 0 0.1155903140192068 0.34813747466264983 0 0.13059593376904821 0.33987131981197688 0 0.12906637693284509 0.35546618628065929 0 0.1422917489928068 0.36249113488872492 0 0.13582390070677691 0.38028675787803817 0 0.1223114155137045 0.37588916494274321 0 0.12906637693284509 0.35546618628065929 0 0.1422917489928068 0.36249113488872492 0 0.1223114155137045 0.37588916494274321 0 0.1422917489928068 0.36249113488872492 0 0.13582390070677691 0.38028675787803817 0 0.1422917489928068 0.36249113488872492 0 0.15107001353207261 0.38119573317631972 0 0.13582390070677691 0.38028675787803817 0 0.15911008262293491 0.3648606809797959 0 0.1422917489928068 0.36249113488872492 0 0.15107001353207261 0.38119573317631972 0 0.1422917489928068 0.36249113488872492 0 0.14885095661197431 0.3447292495811734 0 0.15911008262293491 0.3648606809797959 0 0.1422917489928068 0.36249113488872492 0 0.14885095661197431 0.3447292495811734 0 0.14234370800951379 0.39473083841919132 0 0.14715672972614099 0.40604783410685641 0 0.13747405387665951 0.40562329128216901 0 0.14234370800951379 0.39473083841919132 0 0.14715672972614099 0.40604783410685641 0 0.15590971318943261 0.39596979596836068 0 0.14715672972614099 0.40604783410685641 0 0.15590971318943261 0.39596979596836068 0 0.15802106013330469 0.40905164149218848 0 0.14234370800951379 0.39473083841919132 0 0.15590971318943261 0.39596979596836068 0 0.15107001353207261 0.38119573317631972 0 0.14234370800951379 0.39473083841919132 0 0.15107001353207261 0.38119573317631972 0 0.13582390070677691 0.38028675787803817 0 0.1223114155137045 0.37588916494274321 0 0.13582390070677691 0.38028675787803817 0 0.1266729822308427 0.4012341703162452 0 0.14234370800951379 0.39473083841919132 0 0.13582390070677691 0.38028675787803817 0 0.12704132479110211 0.40378823985771828 0 0.13582390070677691 0.38028675787803817 0 0.12704132479110211 0.40378823985771828 0 0.13582390070677691 0.38028675787803817 0 0.1266729822308427 0.4012341703162452 0 0.12704132479110211 0.40378823985771828 0 0.13582390070677691 0.38028675787803817 0 0.1266729822308427 0.4012341703162452 0 0.14234370800951379 0.39473083841919132 0 0.13747405387665951 0.40562329128216901 0 0.12704132479110211 0.40378823985771828 0 0.12704132479110211 0.40378823985771828 0 0.13231958106704761 0.41126069670785192 0 0.12668594697468899 0.41700222298096651 0 0.13747405387665951 0.40562329128216901 0 0.12704132479110211 0.40378823985771828 0 0.13231958106704761 0.41126069670785192 0 0.13231958106704761 0.41126069670785192 0 0.12668594697468899 0.41700222298096651 0 0.13265030457406579 0.41928234894447908 0 0.12668594697468899 0.41700222298096651 0 0.13265030457406579 0.41928234894447908 0 0.1271998226967343 0.42263663790734612 0 0.13231958106704761 0.41126069670785192 0 0.13265030457406579 0.41928234894447908 0 0.1398581541293055 0.41322949256984659 0 0.13265030457406579 0.41928234894447908 0 0.1398581541293055 0.41322949256984659 0 0.1406256305452229 0.42387225612815699 0 0.13747405387665951 0.40562329128216901 0 0.13231958106704761 0.41126069670785192 0 0.1398581541293055 0.41322949256984659 0 0.11835010820856499 0.42732345951916051 0 0.13111293102961741 0.42693852018477829 0 0.1271998226967343 0.42263663790734612 0 0.13265030457406579 0.41928234894447908 0 0.13111293102961741 0.42693852018477829 0 0.1271998226967343 0.42263663790734612 0 0.13111293102961741 0.42693852018477829 0 0.13942902109308281 0.43561812265784872 0 0.1406256305452229 0.42387225612815699 0 0.13265030457406579 0.41928234894447908 0 0.13111293102961741 0.42693852018477829 0 0.1406256305452229 0.42387225612815699 0 0.13111293102961741 0.42693852018477829 0 0.13942902109308281 0.43561812265784872 0 0.12866428442776889 0.4409672625476479 0 0.13942902109308281 0.43561812265784872 0 0.15136968342663629 0.43048310750260699 0 0.1603721420065912 0.44446462052629793 0 0.13942902109308281 0.43561812265784872 0 0.1406256305452229 0.42387225612815699 0 0.15136968342663629 0.43048310750260699 0 0.1406256305452229 0.42387225612815699 0 0.15136968342663629 0.43048310750260699 0 0.14933368901863001 0.4176819449093826 0 0.15136968342663629 0.43048310750260699 0 0.14933368901863001 0.4176819449093826 0 0.16318706767355759 0.42320263730634289 0 0.14715672972614099 0.40604783410685641 0 0.1398581541293055 0.41322949256984659 0 0.14933368901863001 0.4176819449093826 0 0.14715672972614099 0.40604783410685641 0 0.13747405387665951 0.40562329128216901 0 0.1398581541293055 0.41322949256984659 0 0.1398581541293055 0.41322949256984659 0 0.1406256305452229 0.42387225612815699 0 0.14933368901863001 0.4176819449093826 0 0.14715672972614099 0.40604783410685641 0 0.14933368901863001 0.4176819449093826 0 0.15802106013330469 0.40905164149218848 0 0.16318706767355759 0.42320263730634289 0 0.17847305190300641 0.43114227818787942 0 0.17051968164906131 0.40546552412585529 0 0.15802106013330469 0.40905164149218848 0 0.16318706767355759 0.42320263730634289 0 0.17051968164906131 0.40546552412585529 0 0.14933368901863001 0.4176819449093826 0 0.15802106013330469 0.40905164149218848 0 0.16318706767355759 0.42320263730634289 0 0.15136968342663629 0.43048310750260699 0 0.16318706767355759 0.42320263730634289 0 0.1603721420065912 0.44446462052629793 0 0.16318706767355759 0.42320263730634289 0 0.17847305190300641 0.43114227818787942 0 0.1603721420065912 0.44446462052629793 0 0.17847305190300641 0.43114227818787942 0 0.1880934763372428 0.40730633818656747 0 0.17847305190300641 0.43114227818787942 0 0.17051968164906131 0.40546552412585529 0 0.1880934763372428 0.40730633818656747 0 0.17051968164906131 0.40546552412585529 0 0.1816131441811891 0.38857214583411581 0 0.1880934763372428 0.40730633818656747 0 0.17051968164906131 0.40546552412585529 0 0.16643344971859941 0.38149836912256679 0 0.1816131441811891 0.38857214583411581 0 0.15590971318943261 0.39596979596836068 0 0.17051968164906131 0.40546552412585529 0 0.16643344971859941 0.38149836912256679 0 0.15590971318943261 0.39596979596836068 0 0.15802106013330469 0.40905164149218848 0 0.17051968164906131 0.40546552412585529 0 0.15911008262293491 0.3648606809797959 0 0.15107001353207261 0.38119573317631972 0 0.16643344971859941 0.38149836912256679 0 0.15590971318943261 0.39596979596836068 0 0.15107001353207261 0.38119573317631972 0 0.16643344971859941 0.38149836912256679 0 0.17634476582722061 0.36898021303341022 0 0.16643344971859941 0.38149836912256679 0 0.1816131441811891 0.38857214583411581 0 0.19066420880415191 0.37053774767724051 0 0.17634476582722061 0.36898021303341022 0 0.1816131441811891 0.38857214583411581 0 0.19066420880415191 0.37053774767724051 0 0.1816131441811891 0.38857214583411581 0 0.1977139007714791 0.38347039818525558 0 0.1977139007714791 0.38347039818525558 0 0.2111360593571652 0.40048699039310998 0 0.1880934763372428 0.40730633818656747 0 0.1977139007714791 0.38347039818525558 0 0.1880934763372428 0.40730633818656747 0 0.1816131441811891 0.38857214583411581 0 0.1977139007714791 0.38347039818525558 0 0.1880934763372428 0.40730633818656747 0 0.1977139007714791 0.38347039818525558 0 0.2111360593571652 0.40048699039310998 0 0.22532556066357631 0.37671365900836679 0 0.2111360593571652 0.40048699039310998 0 0.22532556066357631 0.37671365900836679 0 0.23285538901017969 0.39894383199743833 0 0.2111360593571652 0.40048699039310998 0 0.23285538901017969 0.39894383199743833 0 0.22040365899533471 0.41891789984879679 0 0.23285538901017969 0.39894383199743833 0 0.25272483726357953 0.38462447271440969 0 0.2512652830221348 0.40389499573295778 0 0.24501181041159029 0.36375341561728619 0 0.22532556066357631 0.37671365900836679 0 0.25272483726357953 0.38462447271440969 0 0.22532556066357631 0.37671365900836679 0 0.23285538901017969 0.39894383199743833 0 0.25272483726357953 0.38462447271440969 0 0.2400089653724225 0.41813572063433802 0 0.22884151860609969 0.44561526165978782 0 0.25455665371804259 0.43189280547423881 0 0.2400089653724225 0.41813572063433802 0 0.25455665371804259 0.43189280547423881 0 0.2512652830221348 0.40389499573295778 0 0.23285538901017969 0.39894383199743833 0 0.2400089653724225 0.41813572063433802 0 0.2512652830221348 0.40389499573295778 0 0.23285538901017969 0.39894383199743833 0 0.2400089653724225 0.41813572063433802 0 0.22040365899533471 0.41891789984879679 0 0.2400089653724225 0.41813572063433802 0 0.22040365899533471 0.41891789984879679 0 0.22884151860609969 0.44561526165978782 0 0.22040365899533471 0.41891789984879679 0 0.20286256175365619 0.41838273805211967 0 0.20453316151945841 0.43838816790947183 0 0.22040365899533471 0.41891789984879679 0 0.20453316151945841 0.43838816790947183 0 0.22884151860609969 0.44561526165978782 0 0.2111360593571652 0.40048699039310998 0 0.22040365899533471 0.41891789984879679 0 0.20286256175365619 0.41838273805211967 0 0.2111360593571652 0.40048699039310998 0 0.1880934763372428 0.40730633818656747 0 0.20286256175365619 0.41838273805211967 0 0.17847305190300641 0.43114227818787942 0 0.1880934763372428 0.40730633818656747 0 0.20286256175365619 0.41838273805211967 0 0.17847305190300641 0.43114227818787942 0 0.20286256175365619 0.41838273805211967 0 0.20453316151945841 0.43838816790947183 0 0.20876676105592831 0.46495229627122348 0 0.20453316151945841 0.43838816790947183 0 0.18676824598440259 0.45239418436903528 0 0.17847305190300641 0.43114227818787942 0 0.20453316151945841 0.43838816790947183 0 0.18676824598440259 0.45239418436903528 0 0.20876676105592831 0.46495229627122348 0 0.18810972453841601 0.47784525514092002 0 0.18676824598440259 0.45239418436903528 0 0.20876676105592831 0.46495229627122348 0 0.20453316151945841 0.43838816790947183 0 0.22884151860609969 0.44561526165978782 0 0.20876676105592831 0.46495229627122348 0 0.22884151860609969 0.44561526165978782 0 0.23441385045253499 0.47158328947250189 0 0.22884151860609969 0.44561526165978782 0 0.23441385045253499 0.47158328947250189 0 0.25009597415415952 0.45158073045742531 0 0.23441385045253499 0.47158328947250189 0 0.25009597415415952 0.45158073045742531 0 0.2628667743080042 0.46840812724835429 0 0.22884151860609969 0.44561526165978782 0 0.25009597415415952 0.45158073045742531 0 0.25455665371804259 0.43189280547423881 0 0.24349294290860379 0.5 0 0.23441385045253499 0.47158328947250189 0 0.2628667743080042 0.46840812724835429 0 0.20876676105592831 0.46495229627122348 0 0.23441385045253499 0.47158328947250189 0 0.2143058384639577 0.5 0 0.24349294290860379 0.5 0 0.23441385045253499 0.47158328947250189 0 0.2143058384639577 0.5 0 0.20876676105592831 0.46495229627122348 0 0.2143058384639577 0.5 0 0.18810972453841601 0.47784525514092002 0 0.2143058384639577 0.5 0 0.18810972453841601 0.47784525514092002 0 0.18511873401931159 0.5 0 0.18810972453841601 0.47784525514092002 0 0.18511873401931159 0.5 0 0.16492103317407039 0.48230474381803801 0 0.18511873401931159 0.5 0 0.16492103317407039 0.48230474381803801 0 0.1559316295746655 0.5 0 0.16492103317407039 0.48230474381803801 0 0.17050129401895511 0.46672410455336938 0 0.1512732130153385 0.466384096012607 0 0.18810972453841601 0.47784525514092002 0 0.16492103317407039 0.48230474381803801 0 0.17050129401895511 0.46672410455336938 0 0.18810972453841601 0.47784525514092002 0 0.18676824598440259 0.45239418436903528 0 0.17050129401895511 0.46672410455336938 0 0.18676824598440259 0.45239418436903528 0 0.1603721420065912 0.44446462052629793 0 0.17050129401895511 0.46672410455336938 0 0.17847305190300641 0.43114227818787942 0 0.18676824598440259 0.45239418436903528 0 0.1603721420065912 0.44446462052629793 0 0.1603721420065912 0.44446462052629793 0 0.17050129401895511 0.46672410455336938 0 0.1512732130153385 0.466384096012607 0 0.1512732130153385 0.466384096012607 0 0.1389769197332969 0.45068319790446759 0 0.13590221871919941 0.46528488216859221 0 0.1603721420065912 0.44446462052629793 0 0.1512732130153385 0.466384096012607 0 0.1389769197332969 0.45068319790446759 0 0.13942902109308281 0.43561812265784872 0 0.1603721420065912 0.44446462052629793 0 0.1389769197332969 0.45068319790446759 0 0.13942902109308281 0.43561812265784872 0 0.1389769197332969 0.45068319790446759 0 0.12866428442776889 0.4409672625476479 0 0.1249050617149691 0.44921417262211177 0 0.1389769197332969 0.45068319790446759 0 0.12866428442776889 0.4409672625476479 0 0.1249050617149691 0.44921417262211177 0 0.1389769197332969 0.45068319790446759 0 0.12633267272451229 0.45835738220813438 0 0.1389769197332969 0.45068319790446759 0 0.13590221871919941 0.46528488216859221 0 0.12633267272451229 0.45835738220813438 0 0.1225464382533395 0.472348665879053 0 0.13590221871919941 0.46528488216859221 0 0.12633267272451229 0.45835738220813438 0 0.1153609446063177 0.48796320701937501 0 0.1225464382533395 0.472348665879053 0 0.13859160387773581 0.48287500720133208 0 0.1225464382533395 0.472348665879053 0 0.13590221871919941 0.46528488216859221 0 0.13859160387773581 0.48287500720133208 0 0.13859160387773581 0.48287500720133208 0 0.12674452513001941 0.5 0 0.1559316295746655 0.5 0 0.1153609446063177 0.48796320701937501 0 0.13859160387773581 0.48287500720133208 0 0.12674452513001941 0.5 0 0.16492103317407039 0.48230474381803801 0 0.13859160387773581 0.48287500720133208 0 0.1559316295746655 0.5 0 0.1512732130153385 0.466384096012607 0 0.13590221871919941 0.46528488216859221 0 0.13859160387773581 0.48287500720133208 0 0.16492103317407039 0.48230474381803801 0 0.1512732130153385 0.466384096012607 0 0.13859160387773581 0.48287500720133208 0 0.34464673430532228 0.47969895277983038 0 0.37366195077693459 0.48020517394089002 0 0.35862518545294342 0.46322956550125638 0 0.34464673430532228 0.47969895277983038 0 0.35966207131907468 0.5 0 0.33105425624254198 0.5 0 0.34464673430532228 0.47969895277983038 0 0.35966207131907468 0.5 0 0.37366195077693459 0.48020517394089002 0 0.35966207131907468 0.5 0 0.37366195077693459 0.48020517394089002 0 0.38826988639560711 0.5 0 0.37366195077693459 0.48020517394089002 0 0.35862518545294342 0.46322956550125638 0 0.37525395542755741 0.45478206530869519 0 0.36273296908474778 0.43998321255009037 0 0.35862518545294342 0.46322956550125638 0 0.37525395542755741 0.45478206530869519 0 0.36273296908474778 0.43998321255009037 0 0.38285662948858618 0.43752695073228398 0 0.37525395542755741 0.45478206530869519 0 0.36273296908474778 0.43998321255009037 0 0.34842304151060771 0.44801642862584717 0 0.35862518545294342 0.46322956550125638 0 0.36273296908474778 0.43998321255009037 0 0.34842304151060771 0.44801642862584717 0 0.3478418966156846 0.43298588975235369 0 0.34842304151060771 0.44801642862584717 0 0.35862518545294342 0.46322956550125638 0 0.33218383013861752 0.45645272866426562 0 0.34464673430532228 0.47969895277983038 0 0.35862518545294342 0.46322956550125638 0 0.33218383013861752 0.45645272866426562 0 0.34842304151060771 0.44801642862584717 0 0.33218383013861752 0.45645272866426562 0 0.33296142231810127 0.4351773076871055 0 0.34842304151060771 0.44801642862584717 0 0.33296142231810127 0.4351773076871055 0 0.3478418966156846 0.43298588975235369 0 0.33218383013861752 0.45645272866426562 0 0.31494599030523163 0.43974278954920248 0 0.33296142231810127 0.4351773076871055 0 0.33218383013861752 0.45645272866426562 0 0.31494599030523163 0.43974278954920248 0 0.3141108029493328 0.45687159820366829 0 0.33218383013861752 0.45645272866426562 0 0.3141108029493328 0.45687159820366829 0 0.31306343689379101 0.47629003573626388 0 0.34464673430532228 0.47969895277983038 0 0.31306343689379101 0.47629003573626388 0 0.33105425624254198 0.5 0 0.34464673430532228 0.47969895277983038 0 0.33218383013861752 0.45645272866426562 0 0.31306343689379101 0.47629003573626388 0 0.31306343689379101 0.47629003573626388 0 0.33105425624254198 0.5 0 0.30186715179789592 0.5 0 0.31306343689379101 0.47629003573626388 0 0.33105425624254198 0.5 0 0.31306343689379101 0.47629003573626388 0 0.30186715179789592 0.5 0 0.28911000557959621 0.47945564689142922 0 0.31306343689379101 0.47629003573626388 0 0.28911000557959621 0.47945564689142922 0 0.29507261754503988 0.45258007147252771 0 0.30186715179789592 0.5 0 0.28911000557959621 0.47945564689142922 0 0.27268004735324991 0.5 0 0.28911000557959621 0.47945564689142922 0 0.27268004735324991 0.5 0 0.2628667743080042 0.46840812724835429 0 0.24349294290860379 0.5 0 0.27268004735324991 0.5 0 0.2628667743080042 0.46840812724835429 0 0.2628667743080042 0.46840812724835429 0 0.2735744872492013 0.44251752603580191 0 0.29507261754503988 0.45258007147252771 0 0.25009597415415952 0.45158073045742531 0 0.2735744872492013 0.44251752603580191 0 0.25455665371804259 0.43189280547423881 0 0.25009597415415952 0.45158073045742531 0 0.2628667743080042 0.46840812724835429 0 0.2735744872492013 0.44251752603580191 0 0.2735744872492013 0.44251752603580191 0 0.29507261754503988 0.45258007147252771 0 0.2955345215983447 0.43301858454150638 0 0.28911000557959621 0.47945564689142922 0 0.2628667743080042 0.46840812724835429 0 0.29507261754503988 0.45258007147252771 0 0.3141108029493328 0.45687159820366829 0 0.31306343689379101 0.47629003573626388 0 0.29507261754503988 0.45258007147252771 0 0.31306343689379101 0.47629003573626388 0 0.29507261754503988 0.45258007147252771 0 0.31494599030523163 0.43974278954920248 0 0.29507261754503988 0.45258007147252771 0 0.2955345215983447 0.43301858454150638 0 0.31494599030523163 0.43974278954920248 0 0.3141108029493328 0.45687159820366829 0 0.29507261754503988 0.45258007147252771 0 0.31494599030523163 0.43974278954920248 0 0.30639736071187862 0.41353297034130632 0 0.2955345215983447 0.43301858454150638 0 0.30639736071187862 0.41353297034130632 0 0.28273202572594769 0.42064346633638139 0 0.2910731673782273 0.39950916888014032 0 0.28273202572594769 0.42064346633638139 0 0.27054291277519271 0.40449857416725382 0 0.2910731673782273 0.39950916888014032 0 0.30639736071187862 0.41353297034130632 0 0.28273202572594769 0.42064346633638139 0 0.2955345215983447 0.43301858454150638 0 0.2735744872492013 0.44251752603580191 0 0.28273202572594769 0.42064346633638139 0 0.2955345215983447 0.43301858454150638 0 0.2735744872492013 0.44251752603580191 0 0.28273202572594769 0.42064346633638139 0 0.25455665371804259 0.43189280547423881 0 0.28273202572594769 0.42064346633638139 0 0.25455665371804259 0.43189280547423881 0 0.27054291277519271 0.40449857416725382 0 0.25455665371804259 0.43189280547423881 0 0.2512652830221348 0.40389499573295778 0 0.27054291277519271 0.40449857416725382 0 0.25272483726357953 0.38462447271440969 0 0.2512652830221348 0.40389499573295778 0 0.27054291277519271 0.40449857416725382 0 0.25272483726357953 0.38462447271440969 0 0.27054291277519271 0.40449857416725382 0 0.27901960983520763 0.38354907263507398 0 0.27054291277519271 0.40449857416725382 0 0.27901960983520763 0.38354907263507398 0 0.2910731673782273 0.39950916888014032 0 0.25272483726357953 0.38462447271440969 0 0.27901960983520763 0.38354907263507398 0 0.26549148651565307 0.36183068276237601 0 0.27901960983520763 0.38354907263507398 0 0.2910731673782273 0.39950916888014032 0 0.29933871129350947 0.38065942227769312 0 0.30639736071187862 0.41353297034130632 0 0.2910731673782273 0.39950916888014032 0 0.30840838392762798 0.39417150752313401 0 0.2910731673782273 0.39950916888014032 0 0.30840838392762798 0.39417150752313401 0 0.29933871129350947 0.38065942227769312 0 0.30639736071187862 0.41353297034130632 0 0.30840838392762798 0.39417150752313401 0 0.32144586849138002 0.40118578967347651 0 0.30840838392762798 0.39417150752313401 0 0.29933871129350947 0.38065942227769312 0 0.31733522150821208 0.37697428480235429 0 0.30840838392762798 0.39417150752313401 0 0.31733522150821208 0.37697428480235429 0 0.33124229531993088 0.39008596178167743 0 0.31733522150821208 0.37697428480235429 0 0.32932376441971278 0.37811166553043679 0 0.33124229531993088 0.39008596178167743 0 0.33745250175513891 0.38284081110378398 0 0.33920686011917472 0.37667806585267788 0 0.35407620671223422 0.38600041604022239 0 0.33124229531993088 0.39008596178167743 0 0.35407620671223422 0.38600041604022239 0 0.33124229531993088 0.39008596178167743 0 0.33745250175513891 0.38284081110378398 0 0.35407620671223422 0.38600041604022239 0 0.32932376441971278 0.37811166553043679 0 0.33745250175513891 0.38284081110378398 0 0.33920686011917472 0.37667806585267788 0 0.32932376441971278 0.37811166553043679 0 0.33124229531993088 0.39008596178167743 0 0.33745250175513891 0.38284081110378398 0 0.33124229531993088 0.39008596178167743 0 0.33551255078329728 0.39657009826990919 0 0.35407620671223422 0.38600041604022239 0 0.3431268080896781 0.40507287707614681 0 0.33551255078329728 0.39657009826990919 0 0.33560843581980537 0.40901990369323049 0 0.33124229531993088 0.39008596178167743 0 0.33551255078329728 0.39657009826990919 0 0.32144586849138002 0.40118578967347651 0 0.33551255078329728 0.39657009826990919 0 0.32144586849138002 0.40118578967347651 0 0.33560843581980537 0.40901990369323049 0 0.30840838392762798 0.39417150752313401 0 0.33124229531993088 0.39008596178167743 0 0.30840838392762798 0.39417150752313401 0 0.33124229531993088 0.39008596178167743 0 0.32144586849138002 0.40118578967347651 0 0.32144586849138002 0.40118578967347651 0 0.32501363170525599 0.41922022900738559 0 0.33560843581980537 0.40901990369323049 0 0.30639736071187862 0.41353297034130632 0 0.32144586849138002 0.40118578967347651 0 0.32501363170525599 0.41922022900738559 0 0.31494599030523163 0.43974278954920248 0 0.30639736071187862 0.41353297034130632 0 0.32501363170525599 0.41922022900738559 0 0.31494599030523163 0.43974278954920248 0 0.32501363170525599 0.41922022900738559 0 0.33296142231810127 0.4351773076871055 0 0.32501363170525599 0.41922022900738559 0 0.33296142231810127 0.4351773076871055 0 0.34020288889408318 0.42105043571822293 0 0.33296142231810127 0.4351773076871055 0 0.34020288889408318 0.42105043571822293 0 0.3478418966156846 0.43298588975235369 0 0.32501363170525599 0.41922022900738559 0 0.33560843581980537 0.40901990369323049 0 0.34020288889408318 0.42105043571822293 0 0.3431268080896781 0.40507287707614681 0 0.33560843581980537 0.40901990369323049 0 0.34874051631470931 0.41145552225428039 0 0.33560843581980537 0.40901990369323049 0 0.34020288889408318 0.42105043571822293 0 0.34874051631470931 0.41145552225428039 0 0.3431268080896781 0.40507287707614681 0 0.34874051631470931 0.41145552225428039 0 0.35466341809051533 0.40282826989763693 0 0.34020288889408318 0.42105043571822293 0 0.34874051631470931 0.41145552225428039 0 0.35518975195430941 0.42206433309822478 0 0.34874051631470931 0.41145552225428039 0 0.35518975195430941 0.42206433309822478 0 0.35989419683430041 0.41152076902814272 0 0.34874051631470931 0.41145552225428039 0 0.35989419683430041 0.41152076902814272 0 0.35466341809051533 0.40282826989763693 0 0.35989419683430041 0.41152076902814272 0 0.36143005538425232 0.40526120045998931 0 0.35466341809051533 0.40282826989763693 0 0.36273296908474778 0.43998321255009037 0 0.3478418966156846 0.43298588975235369 0 0.35518975195430941 0.42206433309822478 0 0.34020288889408318 0.42105043571822293 0 0.3478418966156846 0.43298588975235369 0 0.35518975195430941 0.42206433309822478 0 0.36273296908474778 0.43998321255009037 0 0.3706528647274992 0.42101786699357302 0 0.38285662948858618 0.43752695073228398 0 0.36273296908474778 0.43998321255009037 0 0.35518975195430941 0.42206433309822478 0 0.3706528647274992 0.42101786699357302 0 0.35989419683430041 0.41152076902814272 0 0.3706528647274992 0.42101786699357302 0 0.36753837577802639 0.4083691909099918 0 0.35989419683430041 0.41152076902814272 0 0.36753837577802639 0.4083691909099918 0 0.36143005538425232 0.40526120045998931 0 0.35518975195430941 0.42206433309822478 0 0.35989419683430041 0.41152076902814272 0 0.3706528647274992 0.42101786699357302 0 0.3706528647274992 0.42101786699357302 0 0.36753837577802639 0.4083691909099918 0 0.37833980286326713 0.40787517417202163 0 0.36753837577802639 0.4083691909099918 0 0.36451674205488382 0.39930374786986339 0 0.37833980286326713 0.40787517417202163 0 0.36451674205488382 0.39930374786986339 0 0.36143005538425232 0.40526120045998931 0 0.35466341809051533 0.40282826989763693 0 0.36753837577802639 0.4083691909099918 0 0.36451674205488382 0.39930374786986339 0 0.36143005538425232 0.40526120045998931 0 0.36038275122748198 0.39600168813737802 0 0.36509961022485632 0.39351004311996662 0 0.35407620671223422 0.38600041604022239 0 0.36451674205488382 0.39930374786986339 0 0.36038275122748198 0.39600168813737802 0 0.36509961022485632 0.39351004311996662 0 0.36509961022485632 0.39351004311996662 0 0.36811197967564002 0.38925875226247791 0 0.37596312476896598 0.39210213711874031 0 0.36451674205488382 0.39930374786986339 0 0.36509961022485632 0.39351004311996662 0 0.37596312476896598 0.39210213711874031 0 0.36811197967564002 0.38925875226247791 0 0.37450406369702288 0.38234537233450588 0 0.37596312476896598 0.39210213711874031 0 0.37450406369702288 0.38234537233450588 0 0.35407620671223422 0.38600041604022239 0 0.36700376012006891 0.36472508095021949 0 0.36811197967564002 0.38925875226247791 0 0.37450406369702288 0.38234537233450588 0 0.35407620671223422 0.38600041604022239 0 0.37450406369702288 0.38234537233450588 0 0.35407620671223422 0.38600041604022239 0 0.36509961022485632 0.39351004311996662 0 0.36811197967564002 0.38925875226247791 0 0.35407620671223422 0.38600041604022239 0 0.33920686011917472 0.37667806585267788 0 0.35407620671223422 0.38600041604022239 0 0.33932980171529908 0.36261473970469538 0 0.33551255078329728 0.39657009826990919 0 0.36451674205488382 0.39930374786986339 0 0.36038275122748198 0.39600168813737802 0 0.33551255078329728 0.39657009826990919 0 0.36038275122748198 0.39600168813737802 0 0.35407620671223422 0.38600041604022239 0 0.33551255078329728 0.39657009826990919 0 0.36451674205488382 0.39930374786986339 0 0.35466341809051533 0.40282826989763693 0 0.3431268080896781 0.40507287707614681 0 0.33551255078329728 0.39657009826990919 0 0.35466341809051533 0.40282826989763693 0 0.33551255078329728 0.39657009826990919 0 0.36451674205488382 0.39930374786986339 0 0.36038275122748198 0.39600168813737802 0 0.35407620671223422 0.38600041604022239 0 0.36425316032174981 0.34439043343983539 0 0.35177540070041752 0.32895487263837841 0 0.33932980171529908 0.36261473970469538 0 0.36700376012006891 0.36472508095021949 0 0.36425316032174981 0.34439043343983539 0 0.33932980171529908 0.36261473970469538 0 0.35407620671223422 0.38600041604022239 0 0.33932980171529908 0.36261473970469538 0 0.35407620671223422 0.38600041604022239 0 0.36700376012006891 0.36472508095021949 0 0.33932980171529908 0.36261473970469538 0 0.36700376012006891 0.36472508095021949 0 0.36425316032174981 0.34439043343983539 0 0.38418943439049269 0.3469767919982924 0 0.36425316032174981 0.34439043343983539 0 0.35177540070041752 0.32895487263837841 0 0.37896740468247081 0.31868068190759141 0 0.35177540070041752 0.32895487263837841 0 0.36624150147070639 0.30802218379977342 0 0.37896740468247081 0.31868068190759141 0 0.35177540070041752 0.32895487263837841 0 0.37896740468247081 0.31868068190759141 0 0.35177540070041752 0.32895487263837841 0 0.34433766505439989 0.30463152699390972 0 0.36624150147070639 0.30802218379977342 0 0.35177540070041752 0.32895487263837841 0 0.32458339671836511 0.33922906336916792 0 0.35177540070041752 0.32895487263837841 0 0.33289791417697862 0.32205698669045779 0 0.32458339671836511 0.33922906336916792 0 0.35177540070041752 0.32895487263837841 0 0.32458339671836511 0.33922906336916792 0 0.33932980171529908 0.36261473970469538 0 0.35177540070041752 0.32895487263837841 0 0.33289791417697862 0.32205698669045779 0 0.34433766505439989 0.30463152699390972 0 0.32321600320116611 0.33706057401714179 0 0.30977368278779499 0.31574298817497343 0 0.33289791417697862 0.32205698669045779 0 0.31659530651581252 0.31477193238324119 0 0.32321600320116611 0.33706057401714179 0 0.31659530651581252 0.31477193238324119 0 0.32321600320116611 0.33706057401714179 0 0.30977368278779499 0.31574298817497343 0 0.31659530651581252 0.31477193238324119 0 0.32321600320116611 0.33706057401714179 0 0.33289791417697862 0.32205698669045779 0 0.31659530651581252 0.31477193238324119 0 0.32664370515191038 0.30473199502282577 0 0.33289791417697862 0.32205698669045779 0 0.32321600320116611 0.33706057401714179 0 0.32458339671836511 0.33922906336916792 0 0.32321600320116611 0.33706057401714179 0 0.31358236527866112 0.34469995671048059 0 0.30073280913730438 0.33413738637796198 0 0.32218345968623852 0.34013585239531502 0 0.32458339671836511 0.33922906336916792 0 0.32321600320116611 0.33706057401714179 0 0.32218345968623852 0.34013585239531502 0 0.32458339671836511 0.33922906336916792 0 0.32321600320116611 0.33706057401714179 0 0.32458339671836511 0.33922906336916792 0 0.32218345968623852 0.34013585239531502 0 0.32458339671836511 0.33922906336916792 0 0.32020952197328739 0.34398241368912658 0 0.32218345968623852 0.34013585239531502 0 0.31358236527866112 0.34469995671048059 0 0.32020952197328739 0.34398241368912658 0 0.32321600320116611 0.33706057401714179 0 0.32218345968623852 0.34013585239531502 0 0.31358236527866112 0.34469995671048059 0 0.32458339671836511 0.33922906336916792 0 0.32980123451066978 0.3592298211083958 0 0.31358236527866112 0.34469995671048059 0 0.32113914074715272 0.35161908341258169 0 0.30882172474127162 0.35579258878345899 0 0.32458339671836511 0.33922906336916792 0 0.32113914074715272 0.35161908341258169 0 0.32980123451066978 0.3592298211083958 0 0.31358236527866112 0.34469995671048059 0 0.32020952197328739 0.34398241368912658 0 0.32113914074715272 0.35161908341258169 0 0.32113914074715272 0.35161908341258169 0 0.31880731059347339 0.36325090448267838 0 0.30882172474127162 0.35579258878345899 0 0.32113914074715272 0.35161908341258169 0 0.32980123451066978 0.3592298211083958 0 0.31880731059347339 0.36325090448267838 0 0.32458339671836511 0.33922906336916792 0 0.32020952197328739 0.34398241368912658 0 0.32113914074715272 0.35161908341258169 0 0.32458339671836511 0.33922906336916792 0 0.32980123451066978 0.3592298211083958 0 0.33932980171529908 0.36261473970469538 0 0.32458339671836511 0.33922906336916792 0 0.33932980171529908 0.36261473970469538 0 0.33920686011917472 0.37667806585267788 0 0.33932980171529908 0.36261473970469538 0 0.33358118677299298 0.36968512593042951 0 0.32980123451066978 0.3592298211083958 0 0.33358118677299298 0.36968512593042951 0 0.3261765189736574 0.36966317646950292 0 0.32980123451066978 0.3592298211083958 0 0.33932980171529908 0.36261473970469538 0 0.33358118677299298 0.36968512593042951 0 0.32932376441971278 0.37811166553043679 0 0.33358118677299298 0.36968512593042951 0 0.3261765189736574 0.36966317646950292 0 0.32932376441971278 0.37811166553043679 0 0.33920686011917472 0.37667806585267788 0 0.33358118677299298 0.36968512593042951 0 0.31733522150821208 0.37697428480235429 0 0.3261765189736574 0.36966317646950292 0 0.31880731059347339 0.36325090448267838 0 0.31733522150821208 0.37697428480235429 0 0.32932376441971278 0.37811166553043679 0 0.3261765189736574 0.36966317646950292 0 0.32980123451066978 0.3592298211083958 0 0.3261765189736574 0.36966317646950292 0 0.31880731059347339 0.36325090448267838 0 0.31733522150821208 0.37697428480235429 0 0.31880731059347339 0.36325090448267838 0 0.30709384012346069 0.36729714474892972 0 0.29933871129350947 0.38065942227769312 0 0.30709384012346069 0.36729714474892972 0 0.29116623248083712 0.35980852339846359 0 0.29933871129350947 0.38065942227769312 0 0.31733522150821208 0.37697428480235429 0 0.30709384012346069 0.36729714474892972 0 0.30709384012346069 0.36729714474892972 0 0.30882172474127162 0.35579258878345899 0 0.29116623248083712 0.35980852339846359 0 0.31880731059347339 0.36325090448267838 0 0.30709384012346069 0.36729714474892972 0 0.30882172474127162 0.35579258878345899 0 0.30882172474127162 0.35579258878345899 0 0.3002408675723805 0.34854218367721351 0 0.29116623248083712 0.35980852339846359 0 0.31358236527866112 0.34469995671048059 0 0.30882172474127162 0.35579258878345899 0 0.3002408675723805 0.34854218367721351 0 0.29116623248083712 0.35980852339846359 0 0.274990318221425 0.34056187036320118 0 0.3002408675723805 0.34854218367721351 0 0.29116623248083712 0.35980852339846359 0 0.274990318221425 0.34056187036320118 0 0.27901960983520763 0.38354907263507398 0 0.29933871129350947 0.38065942227769312 0 0.29116623248083712 0.35980852339846359 0 0.27901960983520763 0.38354907263507398 0 0.29116623248083712 0.35980852339846359 0 0.26549148651565307 0.36183068276237601 0 0.29116623248083712 0.35980852339846359 0 0.26549148651565307 0.36183068276237601 0 0.274990318221425 0.34056187036320118 0 0.24776932383646169 0.34212687069113989 0 0.24501181041159029 0.36375341561728619 0 0.26549148651565307 0.36183068276237601 0 0.24776932383646169 0.34212687069113989 0 0.26549148651565307 0.36183068276237601 0 0.274990318221425 0.34056187036320118 0 0.24501181041159029 0.36375341561728619 0 0.25272483726357953 0.38462447271440969 0 0.26549148651565307 0.36183068276237601 0 0.24776932383646169 0.34212687069113989 0 0.25881440396201277 0.32131521732793877 0 0.274990318221425 0.34056187036320118 0 0.25881440396201277 0.32131521732793877 0 0.274990318221425 0.34056187036320118 0 0.25881440396201277 0.32131521732793877 0 0.274990318221425 0.34056187036320118 0 0.28502125042024568 0.31740497464826961 0 0.274990318221425 0.34056187036320118 0 0.28502125042024568 0.31740497464826961 0 0.30073280913730438 0.33413738637796198 0 0.3002408675723805 0.34854218367721351 0 0.274990318221425 0.34056187036320118 0 0.30073280913730438 0.33413738637796198 0 0.32321600320116611 0.33706057401714179 0 0.30073280913730438 0.33413738637796198 0 0.30977368278779499 0.31574298817497343 0 0.31358236527866112 0.34469995671048059 0 0.3002408675723805 0.34854218367721351 0 0.30073280913730438 0.33413738637796198 0 0.28502125042024568 0.31740497464826961 0 0.30073280913730438 0.33413738637796198 0 0.30977368278779499 0.31574298817497343 0 0.30977368278779499 0.31574298817497343 0 0.29633136237442548 0.29442540233280379 0 0.30977368278779499 0.31574298817497343 0 0.30997460983045672 0.29248329074934137 0 0.29633136237442548 0.29442540233280379 0 0.31659530651581252 0.31477193238324119 0 0.30977368278779499 0.31574298817497343 0 0.30997460983045672 0.29248329074934137 0 0.28502125042024568 0.31740497464826961 0 0.30977368278779499 0.31574298817497343 0 0.29633136237442548 0.29442540233280379 0 0.30698599268034998 0.28242208121121881 0 0.29633136237442548 0.29442540233280379 0 0.29964652577244111 0.27209461603831459 0 0.30698599268034998 0.28242208121121881 0 0.30997460983045672 0.29248329074934137 0 0.31679076122384148 0.28279647577474548 0 0.30698599268034998 0.28242208121121881 0 0.30997460983045672 0.29248329074934137 0 0.30698599268034998 0.28242208121121881 0 0.30997460983045672 0.29248329074934137 0 0.29633136237442548 0.29442540233280379 0 0.30997460983045672 0.29248329074934137 0 0.29633136237442548 0.29442540233280379 0 0.29633136237442548 0.29442540233280379 0 0.26948492603851298 0.29824698331273802 0 0.29633136237442548 0.29442540233280379 0 0.26948492603851298 0.29824698331273802 0 0.28473630341972789 0.27603730734543258 0 0.29633136237442548 0.29442540233280379 0 0.28473630341972789 0.27603730734543258 0 0.28502125042024568 0.31740497464826961 0 0.29633136237442548 0.29442540233280379 0 0.26948492603851298 0.29824698331273802 0 0.25881440396201277 0.32131521732793877 0 0.28502125042024568 0.31740497464826961 0 0.26948492603851298 0.29824698331273802 0 0.2488358909500151 0.26908615953599702 0 0.2426384897026011 0.30206856429267592 0 0.26376737091517771 0.28061764536898082 0 0.26948492603851298 0.29824698331273802 0 0.26376737091517771 0.28061764536898082 0 0.28473630341972789 0.27603730734543258 0 0.2426384897026011 0.30206856429267592 0 0.26948492603851298 0.29824698331273802 0 0.26376737091517771 0.28061764536898082 0 0.2426384897026011 0.30206856429267592 0 0.26948492603851298 0.29824698331273802 0 0.2426384897026011 0.30206856429267592 0 0.25881440396201277 0.32131521732793877 0 0.2426384897026011 0.30206856429267592 0 0.25881440396201277 0.32131521732793877 0 0.26948492603851298 0.29824698331273802 0 0.2488358909500151 0.26908615953599702 0 0.25493463515009379 0.25433840845262362 0 0.27314124446503041 0.25764921235806132 0 0.2488358909500151 0.26908615953599702 0 0.27314124446503041 0.25764921235806132 0 0.25493463515009379 0.25433840845262362 0 0.27314124446503041 0.25764921235806132 0 0.26102101312644749 0.2384282695415057 0 0.2488358909500151 0.26908615953599702 0 0.26376737091517771 0.28061764536898082 0 0.27314124446503041 0.25764921235806132 0 0.27314124446503041 0.25764921235806132 0 0.28473630341972789 0.27603730734543258 0 0.26376737091517771 0.28061764536898082 0 0.27314124446503041 0.25764921235806132 0 0.28473630341972789 0.27603730734543258 0 0.27314124446503041 0.25764921235806132 0 0.29018548818220552 0.2496289992408022 0 0.27314124446503041 0.25764921235806132 0 0.28473630341972789 0.27603730734543258 0 0.29018548818220552 0.2496289992408022 0 0.29633136237442548 0.29442540233280379 0 0.28473630341972789 0.27603730734543258 0 0.29964652577244111 0.27209461603831459 0 0.28473630341972789 0.27603730734543258 0 0.29964652577244111 0.27209461603831459 0 0.29018548818220552 0.2496289992408022 0 0.29964652577244111 0.27209461603831459 0 0.30851620454312739 0.25795674066786078 0 0.31324530794113392 0.27297687683593841 0 0.30698599268034998 0.28242208121121881 0 0.31324530794113392 0.27297687683593841 0 0.31679076122384148 0.28279647577474548 0 0.30698599268034998 0.28242208121121881 0 0.29964652577244111 0.27209461603831459 0 0.31324530794113392 0.27297687683593841 0 0.29964652577244111 0.27209461603831459 0 0.30851620454312739 0.25795674066786078 0 0.29018548818220552 0.2496289992408022 0 0.30851620454312739 0.25795674066786078 0 0.32365835530599268 0.26388291896773358 0 0.32273272279804549 0.2458716006969742 0 0.30851620454312739 0.25795674066786078 0 0.32365835530599268 0.26388291896773358 0 0.31324530794113392 0.27297687683593841 0 0.32365835530599268 0.26388291896773358 0 0.33999986309681918 0.253831278915297 0 0.34086610445506121 0.27256361479040409 0 0.32365835530599268 0.26388291896773358 0 0.33999986309681918 0.253831278915297 0 0.32273272279804549 0.2458716006969742 0 0.32365835530599268 0.26388291896773358 0 0.34086610445506121 0.27256361479040409 0 0.32433486548536272 0.27638389178005002 0 0.34086610445506121 0.27256361479040409 0 0.32433486548536272 0.27638389178005002 0 0.32941303018190399 0.28971623829717857 0 0.32365835530599268 0.26388291896773358 0 0.32433486548536272 0.27638389178005002 0 0.31324530794113392 0.27297687683593841 0 0.32433486548536272 0.27638389178005002 0 0.31324530794113392 0.27297687683593841 0 0.31679076122384148 0.28279647577474548 0 0.30997460983045672 0.29248329074934137 0 0.31679076122384148 0.28279647577474548 0 0.32941303018190399 0.28971623829717857 0 0.30997460983045672 0.29248329074934137 0 0.32941303018190399 0.28971623829717857 0 0.30997460983045672 0.29248329074934137 0 0.32664370515191038 0.30473199502282577 0 0.32941303018190399 0.28971623829717857 0 0.32433486548536272 0.27638389178005002 0 0.31679076122384148 0.28279647577474548 0 0.32941303018190399 0.28971623829717857 0 0.31659530651581252 0.31477193238324119 0 0.30997460983045672 0.29248329074934137 0 0.31659530651581252 0.31477193238324119 0 0.30997460983045672 0.29248329074934137 0 0.32664370515191038 0.30473199502282577 0 0.32664370515191038 0.30473199502282577 0 0.32941303018190399 0.28971623829717857 0 0.34433766505439989 0.30463152699390972 0 0.33289791417697862 0.32205698669045779 0 0.32664370515191038 0.30473199502282577 0 0.34433766505439989 0.30463152699390972 0 0.34086610445506121 0.27256361479040409 0 0.32941303018190399 0.28971623829717857 0 0.34885145053335131 0.2869491858450155 0 0.32941303018190399 0.28971623829717857 0 0.34885145053335131 0.2869491858450155 0 0.32941303018190399 0.28971623829717857 0 0.34885145053335131 0.2869491858450155 0 0.34433766505439989 0.30463152699390972 0 0.34885145053335131 0.2869491858450155 0 0.34433766505439989 0.30463152699390972 0 0.36132390233785838 0.2927102251968533 0 0.34885145053335131 0.2869491858450155 0 0.36132390233785838 0.2927102251968533 0 0.35888702355582902 0.27892795912738427 0 0.34433766505439989 0.30463152699390972 0 0.36624150147070639 0.30802218379977342 0 0.36132390233785838 0.2927102251968533 0 0.36624150147070639 0.30802218379977342 0 0.37936376912108177 0.29148544930612108 0 0.37933356604176571 0.30453357131373687 0 0.36624150147070639 0.30802218379977342 0 0.36132390233785838 0.2927102251968533 0 0.37936376912108177 0.29148544930612108 0 0.36624150147070639 0.30802218379977342 0 0.37936376912108177 0.29148544930612108 0 0.36624150147070639 0.30802218379977342 0 0.37933356604176571 0.30453357131373687 0 0.37896740468247081 0.31868068190759141 0 0.37009453239795159 0.28563206624179038 0 0.3736145065484584 0.27355272588022339 0 0.37936376912108177 0.29148544930612108 0 0.36132390233785838 0.2927102251968533 0 0.37009453239795159 0.28563206624179038 0 0.37936376912108177 0.29148544930612108 0 0.36132390233785838 0.2927102251968533 0 0.37009453239795159 0.28563206624179038 0 0.35888702355582902 0.27892795912738427 0 0.37009453239795159 0.28563206624179038 0 0.37936376912108177 0.29148544930612108 0 0.37009453239795159 0.28563206624179038 0 0.3736145065484584 0.27355272588022339 0 0.35888702355582902 0.27892795912738427 0 0.3736145065484584 0.27355272588022339 0 0.35857164506229328 0.26215993681001931 0 0.35888702355582902 0.27892795912738427 0 0.35857164506229328 0.26215993681001931 0 0.37768262082232351 0.25313691772454189 0 0.35737850957550449 0.2442113371059583 0 0.3736145065484584 0.27355272588022339 0 0.35857164506229328 0.26215993681001931 0 0.37768262082232351 0.25313691772454189 0 0.33999986309681918 0.253831278915297 0 0.34086610445506121 0.27256361479040409 0 0.35857164506229328 0.26215993681001931 0 0.33999986309681918 0.253831278915297 0 0.35857164506229328 0.26215993681001931 0 0.35737850957550449 0.2442113371059583 0 0.34086610445506121 0.27256361479040409 0 0.35857164506229328 0.26215993681001931 0 0.35888702355582902 0.27892795912738427 0 0.34086610445506121 0.27256361479040409 0 0.34885145053335131 0.2869491858450155 0 0.35888702355582902 0.27892795912738427 0 0.39691997643744092 0.26936104620435769 0 0.39621313807619241 0.28787904705339151 0 0.406510324144843 0.28264463241667581 0 0.39691997643744092 0.26936104620435769 0 0.41447618375379852 0.24723664310259311 0 0.39691997643744092 0.26936104620435769 0 0.39454940445614572 0.24163930715972759 0 0.41447618375379852 0.24723664310259311 0 0.39691997643744092 0.26936104620435769 0 0.37768262082232351 0.25313691772454189 0 0.39454940445614572 0.24163930715972759 0 0.3736145065484584 0.27355272588022339 0 0.39691997643744092 0.26936104620435769 0 0.37768262082232351 0.25313691772454189 0 0.39691997643744092 0.26936104620435769 0 0.37936376912108177 0.29148544930612108 0 0.3736145065484584 0.27355272588022339 0 0.39691997643744092 0.26936104620435769 0 0.37936376912108177 0.29148544930612108 0 0.37936376912108177 0.29148544930612108 0 0.3927615888928036 0.29994597024146169 0 0.39621313807619241 0.28787904705339151 0 0.37936376912108177 0.29148544930612108 0 0.3927615888928036 0.29994597024146169 0 0.37933356604176571 0.30453357131373687 0 0.3927615888928036 0.29994597024146169 0 0.37896740468247081 0.31868068190759141 0 0.37936376912108177 0.29148544930612108 0 0.37933356604176571 0.30453357131373687 0 0.3927615888928036 0.29994597024146169 0 0.3927615888928036 0.29994597024146169 0 0.40615940866452421 0.30840649117680458 0 0.37896740468247081 0.31868068190759141 0 0.3927615888928036 0.29994597024146169 0 0.40615940866452421 0.30840649117680458 0 0.3927615888928036 0.29994597024146169 0 0.40615940866452421 0.30840649117680458 0 0.4055100317847925 0.29595813709834062 0 0.39691997643744092 0.26936104620435769 0 0.37936376912108177 0.29148544930612108 0 0.39621313807619241 0.28787904705339151 0 0.3927615888928036 0.29994597024146169 0 0.39621313807619241 0.28787904705339151 0 0.4055100317847925 0.29595813709834062 0 0.39621313807619241 0.28787904705339151 0 0.4055100317847925 0.29595813709834062 0 0.406510324144843 0.28264463241667581 0 0.406510324144843 0.28264463241667581 0 0.4192293937888818 0.29451940081628403 0 0.41685278877133891 0.27087802195943872 0 0.4192293937888818 0.29451940081628403 0 0.41685278877133891 0.27087802195943872 0 0.4055100317847925 0.29595813709834062 0 0.406510324144843 0.28264463241667581 0 0.4192293937888818 0.29451940081628403 0 0.4192293937888818 0.29451940081628403 0 0.42160599880642191 0.3181607796731295 0 0.4192293937888818 0.29451940081628403 0 0.41395525334147498 0.30546091956055099 0 0.42160599880642191 0.3181607796731295 0 0.40615940866452421 0.30840649117680458 0 0.41395525334147498 0.30546091956055099 0 0.42160599880642191 0.3181607796731295 0 0.40615940866452421 0.30840649117680458 0 0.41395525334147498 0.30546091956055099 0 0.4055100317847925 0.29595813709834062 0 0.4192293937888818 0.29451940081628403 0 0.41395525334147498 0.30546091956055099 0 0.40615940866452421 0.30840649117680458 0 0.4055100317847925 0.29595813709834062 0 0.41395525334147498 0.30546091956055099 0 0.4192293937888818 0.29451940081628403 0 0.44070104922814951 0.30302546901263211 0 0.42160599880642191 0.3181607796731295 0 0.4192293937888818 0.29451940081628403 0 0.42981925912036439 0.27228348289416993 0 0.44375663620791478 0.27776147931670248 0 0.4192293937888818 0.29451940081628403 0 0.44375663620791478 0.27776147931670248 0 0.44070104922814951 0.30302546901263211 0 0.4192293937888818 0.29451940081628403 0 0.42981925912036439 0.27228348289416993 0 0.41685278877133891 0.27087802195943872 0 0.42981925912036439 0.27228348289416993 0 0.43671704777096793 0.25893409683671381 0 0.44375663620791478 0.27776147931670248 0 0.42981925912036439 0.27228348289416993 0 0.41685278877133891 0.27087802195943872 0 0.42009873745943832 0.2635877291953419 0 0.39691997643744092 0.26936104620435769 0 0.406510324144843 0.28264463241667581 0 0.41685278877133891 0.27087802195943872 0 0.42009873745943832 0.2635877291953419 0 0.4242548841974727 0.24628829423035831 0 0.41447618375379852 0.24723664310259311 0 0.41685278877133891 0.27087802195943872 0 0.42009873745943832 0.2635877291953419 0 0.41447618375379852 0.24723664310259311 0 0.41685278877133891 0.27087802195943872 0 0.41447618375379852 0.24723664310259311 0 0.39691997643744092 0.26936104620435769 0 0.41685278877133891 0.27087802195943872 0 0.41447618375379852 0.24723664310259311 0 0.42009873745943832 0.2635877291953419 0 0.43671704777096793 0.25893409683671381 0 0.43607898996755118 0.24133159161644091 0 0.42981925912036439 0.27228348289416993 0 0.42009873745943832 0.2635877291953419 0 0.43671704777096793 0.25893409683671381 0 0.42009873745943832 0.2635877291953419 0 0.43607898996755118 0.24133159161644091 0 0.4242548841974727 0.24628829423035831 0 0.42009873745943832 0.2635877291953419 0 0.43607898996755118 0.24133159161644091 0 0.43671704777096793 0.25893409683671381 0 0.45422312872478998 0.2602205980692584 0 0.43901721571526969 0.24435508806597711 0 0.43671704777096793 0.25893409683671381 0 0.44375663620791478 0.27776147931670248 0 0.45422312872478998 0.2602205980692584 0 0.46161911044469311 0.28044239502063928 0 0.45422312872478998 0.2602205980692584 0 0.47293289942053962 0.26636214381971252 0 0.44375663620791478 0.27776147931670248 0 0.46161911044469311 0.28044239502063928 0 0.45422312872478998 0.2602205980692584 0 0.45422312872478998 0.2602205980692584 0 0.46987535211562897 0.2512368615807446 0 0.45934481047684628 0.24035091041351131 0 0.45422312872478998 0.2602205980692584 0 0.46987535211562897 0.2512368615807446 0 0.47293289942053962 0.26636214381971252 0 0.46987535211562897 0.2512368615807446 0 0.48320351671754608 0.25290392284019519 0 0.47293289942053962 0.26636214381971252 0 0.46161911044469311 0.28044239502063928 0 0.47293289942053962 0.26636214381971252 0 0.48032456472690188 0.28900282933186139 0 0.47293289942053962 0.26636214381971252 0 0.5 0.2777020067234236 0 0.48032456472690188 0.28900282933186139 0 0.48320351671754608 0.25290392284019519 0 0.47293289942053962 0.26636214381971252 0 0.5 0.2777020067234236 0 0.48320351671754608 0.25290392284019519 0 0.5 0.2777020067234236 0 0.5 0.25502228091600149 0 0.5 0.30038173253084549 0 0.48032456472690188 0.28900282933186139 0 0.48199924945178568 0.31033440770343368 0 0.5 0.30038173253084549 0 0.48199924945178568 0.31033440770343368 0 0.49999999999999589 0.3230614583382676 0 0.5 0.2777020067234236 0 0.5 0.30038173253084549 0 0.48032456472690188 0.28900282933186139 0 0.46161911044469311 0.28044239502063928 0 0.48032456472690188 0.28900282933186139 0 0.46539612904439343 0.29879429019311388 0 0.48032456472690188 0.28900282933186139 0 0.48199924945178568 0.31033440770343368 0 0.46539612904439343 0.29879429019311388 0 0.48199924945178568 0.31033440770343368 0 0.46539612904439343 0.29879429019311388 0 0.45969292036931081 0.31855529831757662 0 0.46539612904439343 0.29879429019311388 0 0.44070104922814951 0.30302546901263211 0 0.45969292036931081 0.31855529831757662 0 0.46161911044469311 0.28044239502063928 0 0.46539612904439343 0.29879429019311388 0 0.44070104922814951 0.30302546901263211 0 0.44375663620791478 0.27776147931670248 0 0.46161911044469311 0.28044239502063928 0 0.44070104922814951 0.30302546901263211 0 0.44375663620791478 0.27776147931670248 0 0.44070104922814951 0.30302546901263211 0 0.44070104922814951 0.30302546901263211 0 0.43764546224838091 0.32828945870856119 0 0.45969292036931081 0.31855529831757662 0 0.44070104922814951 0.30302546901263211 0 0.43764546224838091 0.32828945870856119 0 0.43764546224838091 0.32828945870856119 0 0.4540470782075372 0.33864683159164111 0 0.43563761791234129 0.34489057625252129 0 0.43764546224838091 0.32828945870856119 0 0.4540470782075372 0.33864683159164111 0 0.4540470782075372 0.33864683159164111 0 0.43563761791234129 0.34489057625252129 0 0.43764546224838091 0.32828945870856119 0 0.4540470782075372 0.33864683159164111 0 0.45969292036931081 0.31855529831757662 0 0.4540470782075372 0.33864683159164111 0 0.47702353910376633 0.33085414496495352 0 0.4540470782075372 0.33864683159164111 0 0.45969292036931081 0.31855529831757662 0 0.47702353910376633 0.33085414496495352 0 0.4540470782075372 0.33864683159164111 0 0.46773690467403028 0.34029613266458009 0 0.47702353910376633 0.33085414496495352 0 0.4540470782075372 0.33864683159164111 0 0.46773690467403028 0.34029613266458009 0 0.46152476846646862 0.34525691505316891 0 0.48199924945178568 0.31033440770343368 0 0.45969292036931081 0.31855529831757662 0 0.47702353910376633 0.33085414496495352 0 0.46773690467403028 0.34029613266458009 0 0.47702353910376633 0.33085414496495352 0 0.4815125096897529 0.34801833831769241 0 0.47702353910376633 0.33085414496495352 0 0.5 0.34147626771100148 0 0.49999999999999589 0.3230614583382676 0 0.47702353910376633 0.33085414496495352 0 0.5 0.34147626771100148 0 0.4815125096897529 0.34801833831769241 0 0.48199924945178568 0.31033440770343368 0 0.47702353910376633 0.33085414496495352 0 0.49999999999999589 0.3230614583382676 0 0.47702353910376633 0.33085414496495352 0 0.49999999999999589 0.3230614583382676 0 0.49999999999999611 0.35989107708373541 0 0.47745320219336729 0.36392525117593177 0 0.49999999999999611 0.35989107708373541 0 0.47745320219336729 0.36392525117593177 0 0.5 0.3851472324387526 0 0.5 0.34147626771100148 0 0.49999999999999611 0.35989107708373541 0 0.4815125096897529 0.34801833831769241 0 0.49999999999999611 0.35989107708373541 0 0.4815125096897529 0.34801833831769241 0 0.47745320219336729 0.36392525117593177 0 0.4815125096897529 0.34801833831769241 0 0.47745320219336729 0.36392525117593177 0 0.4668614121673576 0.35166715630595258 0 0.46773690467403028 0.34029613266458009 0 0.4815125096897529 0.34801833831769241 0 0.4668614121673576 0.35166715630595258 0 0.47745320219336729 0.36392525117593177 0 0.45490640438673863 0.36795942526812903 0 0.47745320219336729 0.36392525117593177 0 0.45490640438673863 0.36795942526812903 0 0.47132783646460158 0.38230964144254181 0 0.47745320219336729 0.36392525117593177 0 0.45490640438673863 0.36795942526812903 0 0.4668614121673576 0.35166715630595258 0 0.45490640438673863 0.36795942526812903 0 0.4668614121673576 0.35166715630595258 0 0.45694094298984472 0.35009375471582949 0 0.46773690467403028 0.34029613266458009 0 0.46152476846646862 0.34525691505316891 0 0.4668614121673576 0.35166715630595258 0 0.46152476846646862 0.34525691505316891 0 0.4668614121673576 0.35166715630595258 0 0.45694094298984472 0.35009375471582949 0 0.4540470782075372 0.33864683159164111 0 0.46152476846646862 0.34525691505316891 0 0.45694094298984472 0.35009375471582949 0 0.45490640438673863 0.36795942526812903 0 0.45694094298984472 0.35009375471582949 0 0.44749509152859479 0.34959022421350949 0 0.44749509152859479 0.34959022421350949 0 0.43235960658011102 0.37199359936033211 0 0.43563761791234129 0.34489057625252129 0 0.4540470782075372 0.33864683159164111 0 0.44749509152859479 0.34959022421350949 0 0.43563761791234129 0.34489057625252129 0 0.4540470782075372 0.33864683159164111 0 0.45694094298984472 0.35009375471582949 0 0.44749509152859479 0.34959022421350949 0 0.45490640438673863 0.36795942526812903 0 0.44749509152859479 0.34959022421350949 0 0.43235960658011102 0.37199359936033211 0 0.45490640438673863 0.36795942526812903 0 0.43235960658011102 0.37199359936033211 0 0.44514723513881888 0.37843946633967102 0 0.45490640438673863 0.36795942526812903 0 0.43235960658011102 0.37199359936033211 0 0.43235960658011102 0.37199359936033211 0 0.42711205583304529 0.37293251465344701 0 0.42466711159103859 0.34861132847298981 0 0.42711205583304529 0.37293251465344701 0 0.41778040784893178 0.36233809259036631 0 0.42466711159103859 0.34861132847298981 0 0.42711205583304529 0.37293251465344701 0 0.42466711159103859 0.34861132847298981 0 0.43235960658011102 0.37199359936033211 0 0.42711205583304529 0.37293251465344701 0 0.42711205583304529 0.37293251465344701 0 0.4153597776666007 0.37503528492307242 0 0.42711205583304529 0.37293251465344701 0 0.41778040784893178 0.36233809259036631 0 0.4153597776666007 0.37503528492307242 0 0.41778040784893178 0.36233809259036631 0 0.40976087352144819 0.36346998161700261 0 0.4153597776666007 0.37503528492307242 0 0.41778040784893178 0.36233809259036631 0 0.40976087352144819 0.36346998161700261 0 0.4120836766657659 0.35287912086724982 0 0.40976087352144819 0.36346998161700261 0 0.40522132815979339 0.37079879173790531 0 0.4153597776666007 0.37503528492307242 0 0.40522132815979339 0.37079879173790531 0 0.4153597776666007 0.37503528492307242 0 0.4120836766657659 0.35287912086724982 0 0.41225367569393989 0.33996438526922201 0 0.40123091468526789 0.34595427985242899 0 0.40976087352144819 0.36346998161700261 0 0.4120836766657659 0.35287912086724982 0 0.39852208933263922 0.35877415313028088 0 0.41778040784893178 0.36233809259036631 0 0.4120836766657659 0.35287912086724982 0 0.42466711159103859 0.34861132847298981 0 0.4120836766657659 0.35287912086724982 0 0.42466711159103859 0.34861132847298981 0 0.41225367569393989 0.33996438526922201 0 0.4120836766657659 0.35287912086724982 0 0.42466711159103859 0.34861132847298981 0 0.43235960658011102 0.37199359936033211 0 0.43563761791234129 0.34489057625252129 0 0.43235960658011102 0.37199359936033211 0 0.42466711159103859 0.34861132847298981 0 0.43563761791234129 0.34489057625252129 0 0.42466711159103859 0.34861132847298981 0 0.43563761791234129 0.34489057625252129 0 0.43764546224838091 0.32828945870856119 0 0.43563761791234129 0.34489057625252129 0 0.42313655519873372 0.33338605407305932 0 0.43764546224838091 0.32828945870856119 0 0.43563761791234129 0.34489057625252129 0 0.42466711159103859 0.34861132847298981 0 0.43563761791234129 0.34489057625252129 0 0.42313655519873372 0.33338605407305932 0 0.42466711159103859 0.34861132847298981 0 0.42313655519873372 0.33338605407305932 0 0.44070104922814951 0.30302546901263211 0 0.43764546224838091 0.32828945870856119 0 0.42160599880642191 0.3181607796731295 0 0.43764546224838091 0.32828945870856119 0 0.42313655519873372 0.33338605407305932 0 0.42160599880642191 0.3181607796731295 0 0.43764546224838091 0.32828945870856119 0 0.42160599880642191 0.3181607796731295 0 0.42313655519873372 0.33338605407305932 0 0.42160599880642191 0.3181607796731295 0 0.40615940866452421 0.30840649117680458 0 0.42160599880642191 0.3181607796731295 0 0.41245226714142491 0.32621893163786297 0 0.42313655519873372 0.33338605407305932 0 0.42160599880642191 0.3181607796731295 0 0.41245226714142491 0.32621893163786297 0 0.40615940866452421 0.30840649117680458 0 0.42160599880642191 0.3181607796731295 0 0.42466711159103859 0.34861132847298981 0 0.42313655519873372 0.33338605407305932 0 0.41225367569393989 0.33996438526922201 0 0.42313655519873372 0.33338605407305932 0 0.41245226714142491 0.32621893163786297 0 0.41225367569393989 0.33996438526922201 0 0.41245226714142491 0.32621893163786297 0 0.41225367569393989 0.33996438526922201 0 0.39910569734350171 0.33117694799710001 0 0.39910569734350171 0.33117694799710001 0 0.38418943439049269 0.3469767919982924 0 0.40123091468526789 0.34595427985242899 0 0.41225367569393989 0.33996438526922201 0 0.39910569734350171 0.33117694799710001 0 0.40123091468526789 0.34595427985242899 0 0.40615940866452421 0.30840649117680458 0 0.37896740468247081 0.31868068190759141 0 0.40615940866452421 0.30840649117680458 0 0.41245226714142491 0.32621893163786297 0 0.39910569734350171 0.33117694799710001 0 0.40615940866452421 0.30840649117680458 0 0.39910569734350171 0.33117694799710001 0 0.37896740468247081 0.31868068190759141 0 0.36425316032174981 0.34439043343983539 0 0.37896740468247081 0.31868068190759141 0 0.38418943439049269 0.3469767919982924 0 0.39910569734350171 0.33117694799710001 0 0.37896740468247081 0.31868068190759141 0 0.38418943439049269 0.3469767919982924 0 0.38418943439049269 0.3469767919982924 0 0.38525449443582283 0.3668630512060666 0 0.39852208933263922 0.35877415313028088 0 0.37450406369702288 0.38234537233450588 0 0.36700376012006891 0.36472508095021949 0 0.38525449443582283 0.3668630512060666 0 0.36700376012006891 0.36472508095021949 0 0.38418943439049269 0.3469767919982924 0 0.38525449443582283 0.3668630512060666 0 0.38525449443582283 0.3668630512060666 0 0.39561734310343422 0.36861154242389399 0 0.39852208933263922 0.35877415313028088 0 0.40522132815979339 0.37079879173790531 0 0.39493192068181221 0.37869032862879087 0 0.4153597776666007 0.37503528492307242 0 0.38525449443582283 0.3668630512060666 0 0.39561734310343422 0.36861154242389399 0 0.39493192068181221 0.37869032862879087 0 0.39561734310343422 0.36861154242389399 0 0.40522132815979339 0.37079879173790531 0 0.39493192068181221 0.37869032862879087 0 0.39561734310343422 0.36861154242389399 0 0.40522132815979339 0.37079879173790531 0 0.39852208933263922 0.35877415313028088 0 0.40976087352144819 0.36346998161700261 0 0.40522132815979339 0.37079879173790531 0 0.39852208933263922 0.35877415313028088 0 0.38418943439049269 0.3469767919982924 0 0.39852208933263922 0.35877415313028088 0 0.40123091468526789 0.34595427985242899 0 0.4120836766657659 0.35287912086724982 0 0.39852208933263922 0.35877415313028088 0 0.40123091468526789 0.34595427985242899 0 0.38636575017567693 0.38893542955239307 0 0.40724579329226879 0.3979671950689323 0 0.40552771803789001 0.38549326108501059 0 0.38636575017567693 0.38893542955239307 0 0.40724579329226879 0.3979671950689323 0 0.39352093332647031 0.40203739746981759 0 0.38636575017567693 0.38893542955239307 0 0.40724579329226879 0.3979671950689323 0 0.39493192068181221 0.37869032862879087 0 0.4153597776666007 0.37503528492307242 0 0.40552771803789001 0.38549326108501059 0 0.39493192068181221 0.37869032862879087 0 0.4153597776666007 0.37503528492307242 0 0.40552771803789001 0.38549326108501059 0 0.39493192068181221 0.37869032862879087 0 0.38636575017567693 0.38893542955239307 0 0.37450406369702288 0.38234537233450588 0 0.39493192068181221 0.37869032862879087 0 0.37450406369702288 0.38234537233450588 0 0.39493192068181221 0.37869032862879087 0 0.38636575017567693 0.38893542955239307 0 0.37450406369702288 0.38234537233450588 0 0.38525449443582283 0.3668630512060666 0 0.39493192068181221 0.37869032862879087 0 0.37450406369702288 0.38234537233450588 0 0.38636575017567693 0.38893542955239307 0 0.37596312476896598 0.39210213711874031 0 0.36451674205488382 0.39930374786986339 0 0.39352093332647031 0.40203739746981759 0 0.36451674205488382 0.39930374786986339 0 0.39352093332647031 0.40203739746981759 0 0.37596312476896598 0.39210213711874031 0 0.36451674205488382 0.39930374786986339 0 0.39352093332647031 0.40203739746981759 0 0.37833980286326713 0.40787517417202163 0 0.39352093332647031 0.40203739746981759 0 0.38636575017567693 0.38893542955239307 0 0.37596312476896598 0.39210213711874031 0 0.3706528647274992 0.42101786699357302 0 0.37833980286326713 0.40787517417202163 0 0.38386116487163041 0.42220402061333229 0 0.37833980286326713 0.40787517417202163 0 0.38868410872090992 0.41211738461559899 0 0.38386116487163041 0.42220402061333229 0 0.39352093332647031 0.40203739746981759 0 0.37833980286326713 0.40787517417202163 0 0.38868410872090992 0.41211738461559899 0 0.3706528647274992 0.42101786699357302 0 0.38386116487163041 0.42220402061333229 0 0.38285662948858618 0.43752695073228398 0 0.38386116487163041 0.42220402061333229 0 0.39996736382035752 0.4221204559849589 0 0.38285662948858618 0.43752695073228398 0 0.39996736382035752 0.4221204559849589 0 0.40330294267167549 0.44035602366090532 0 0.38285662948858618 0.43752695073228398 0 0.38868410872090992 0.41211738461559899 0 0.38386116487163041 0.42220402061333229 0 0.39996736382035752 0.4221204559849589 0 0.39352093332647031 0.40203739746981759 0 0.38868410872090992 0.41211738461559899 0 0.39748374572402723 0.41187024740418932 0 0.38868410872090992 0.41211738461559899 0 0.39996736382035752 0.4221204559849589 0 0.39748374572402723 0.41187024740418932 0 0.39996736382035752 0.4221204559849589 0 0.39748374572402723 0.41187024740418932 0 0.40776257702837132 0.41120575154638161 0 0.39352093332647031 0.40203739746981759 0 0.39748374572402723 0.41187024740418932 0 0.40776257702837132 0.41120575154638161 0 0.40776257702837132 0.41120575154638161 0 0.41185544816981412 0.41781883472983761 0 0.41745286085277361 0.41194635821016479 0 0.39996736382035752 0.4221204559849589 0 0.40776257702837132 0.41120575154638161 0 0.41185544816981412 0.41781883472983761 0 0.41185544816981412 0.41781883472983761 0 0.42023618844732191 0.41878290229284132 0 0.41745286085277361 0.41194635821016479 0 0.40776257702837132 0.41120575154638161 0 0.41745286085277361 0.41194635821016479 0 0.42259606978325798 0.40460703278893118 0 0.39996736382035752 0.4221204559849589 0 0.41185544816981412 0.41781883472983761 0 0.42466182397544983 0.43563986493662837 0 0.41185544816981412 0.41781883472983761 0 0.42023618844732191 0.41878290229284132 0 0.42466182397544983 0.43563986493662837 0 0.39996736382035752 0.4221204559849589 0 0.42466182397544983 0.43563986493662837 0 0.39996736382035752 0.4221204559849589 0 0.42466182397544983 0.43563986493662837 0 0.40330294267167549 0.44035602366090532 0 0.42466182397544983 0.43563986493662837 0 0.44026384215961267 0.42784910070764998 0 0.44341390038092648 0.44590601321550949 0 0.42466182397544983 0.43563986493662837 0 0.42812583640885871 0.40699896058547658 0 0.44026384215961267 0.42784910070764998 0 0.42466182397544983 0.43563986493662837 0 0.42812583640885871 0.40699896058547658 0 0.42023618844732191 0.41878290229284132 0 0.42466182397544983 0.43563986493662837 0 0.42812583640885871 0.40699896058547658 0 0.41745286085277361 0.41194635821016479 0 0.42812583640885871 0.40699896058547658 0 0.42259606978325798 0.40460703278893118 0 0.42023618844732191 0.41878290229284132 0 0.41745286085277361 0.41194635821016479 0 0.42812583640885871 0.40699896058547658 0 0.42812583640885871 0.40699896058547658 0 0.43119159949657881 0.38165083350831541 0 0.42812583640885871 0.40699896058547658 0 0.42259606978325798 0.40460703278893118 0 0.41881763057275251 0.38924301888658619 0 0.42812583640885871 0.40699896058547658 0 0.42879862515983369 0.38970973431283329 0 0.43119159949657881 0.38165083350831541 0 0.42812583640885871 0.40699896058547658 0 0.41881763057275251 0.38924301888658619 0 0.42879862515983369 0.38970973431283329 0 0.42812583640885871 0.40699896058547658 0 0.42259606978325798 0.40460703278893118 0 0.39352093332647031 0.40203739746981759 0 0.42259606978325798 0.40460703278893118 0 0.40724579329226879 0.3979671950689323 0 0.39352093332647031 0.40203739746981759 0 0.40776257702837132 0.41120575154638161 0 0.42259606978325798 0.40460703278893118 0 0.42259606978325798 0.40460703278893118 0 0.40724579329226879 0.3979671950689323 0 0.39352093332647031 0.40203739746981759 0 0.42259606978325798 0.40460703278893118 0 0.42259606978325798 0.40460703278893118 0 0.40724579329226879 0.3979671950689323 0 0.41881763057275251 0.38924301888658619 0 0.40552771803789001 0.38549326108501059 0 0.40724579329226879 0.3979671950689323 0 0.41881763057275251 0.38924301888658619 0 0.40552771803789001 0.38549326108501059 0 0.41881763057275251 0.38924301888658619 0 0.4153597776666007 0.37503528492307242 0 0.41881763057275251 0.38924301888658619 0 0.4153597776666007 0.37503528492307242 0 0.42784803287105311 0.38025367734422111 0 0.4153597776666007 0.37503528492307242 0 0.42784803287105311 0.38025367734422111 0 0.43235960658011102 0.37199359936033211 0 0.42711205583304529 0.37293251465344701 0 0.42784803287105311 0.38025367734422111 0 0.42711205583304529 0.37293251465344701 0 0.4153597776666007 0.37503528492307242 0 0.42784803287105311 0.38025367734422111 0 0.42784803287105311 0.38025367734422111 0 0.43119159949657881 0.38165083350831541 0 0.42711205583304529 0.37293251465344701 0 0.42784803287105311 0.38025367734422111 0 0.42784803287105311 0.38025367734422111 0 0.42879862515983369 0.38970973431283329 0 0.43119159949657881 0.38165083350831541 0 0.42784803287105311 0.38025367734422111 0 0.42879862515983369 0.38970973431283329 0 0.41881763057275251 0.38924301888658619 0 0.42784803287105311 0.38025367734422111 0 0.42879862515983369 0.38970973431283329 0 0.43235960658011102 0.37199359936033211 0 0.43119159949657881 0.38165083350831541 0 0.44514723513881888 0.37843946633967102 0 0.43235960658011102 0.37199359936033211 0 0.43119159949657881 0.38165083350831541 0 0.43235960658011102 0.37199359936033211 0 0.42784803287105311 0.38025367734422111 0 0.43119159949657881 0.38165083350831541 0 0.43119159949657881 0.38165083350831541 0 0.45412773299771608 0.3912350182701384 0 0.45490640438673863 0.36795942526812903 0 0.44514723513881888 0.37843946633967102 0 0.45412773299771608 0.3912350182701384 0 0.43119159949657881 0.38165083350831541 0 0.44514723513881888 0.37843946633967102 0 0.45412773299771608 0.3912350182701384 0 0.42812583640885871 0.40699896058547658 0 0.45412773299771608 0.3912350182701384 0 0.44953592366962469 0.41625999930785851 0 0.42812583640885871 0.40699896058547658 0 0.43119159949657881 0.38165083350831541 0 0.45412773299771608 0.3912350182701384 0 0.45412773299771608 0.3912350182701384 0 0.47132783646460158 0.38230964144254181 0 0.47706386649885618 0.40081920303195467 0 0.45412773299771608 0.3912350182701384 0 0.47706386649885618 0.40081920303195467 0 0.44953592366962469 0.41625999930785851 0 0.45412773299771608 0.3912350182701384 0 0.47706386649885618 0.40081920303195467 0 0.45490640438673863 0.36795942526812903 0 0.45412773299771608 0.3912350182701384 0 0.47132783646460158 0.38230964144254181 0 0.47132783646460158 0.38230964144254181 0 0.47706386649885618 0.40081920303195467 0 0.5 0.3851472324387526 0 0.47745320219336729 0.36392525117593177 0 0.47132783646460158 0.38230964144254181 0 0.5 0.3851472324387526 0 0.47706386649885618 0.40081920303195467 0 0.49999999999999678 0.41040338779376978 0 0.47706386649885618 0.40081920303195467 0 0.5 0.3851472324387526 0 0.49999999999999678 0.41040338779376978 0 0.49235609819115239 0.43478207675263197 0 0.49999999999999678 0.41040338779376978 0 0.5 0.46292691668878938 0 0.49235609819115239 0.43478207675263197 0 0.49999999999999678 0.41040338779376978 0 0.47094601093038863 0.42552103803024521 0 0.47706386649885618 0.40081920303195467 0 0.49999999999999678 0.41040338779376978 0 0.47094601093038863 0.42552103803024521 0 0.49235609819115239 0.43478207675263197 0 0.47094601093038863 0.42552103803024521 0 0.49235609819115239 0.43478207675263197 0 0.47094601093038863 0.42552103803024521 0 0.47023913308013748 0.43902975744807521 0 0.47094601093038863 0.42552103803024521 0 0.45558172636320132 0.43444066549277749 0 0.44953592366962469 0.41625999930785851 0 0.47094601093038863 0.42552103803024521 0 0.45558172636320132 0.43444066549277749 0 0.47023913308013748 0.43902975744807521 0 0.47094601093038863 0.42552103803024521 0 0.44953592366962469 0.41625999930785851 0 0.47706386649885618 0.40081920303195467 0 0.47094601093038863 0.42552103803024521 0 0.44953592366962469 0.41625999930785851 0 0.42812583640885871 0.40699896058547658 0 0.44953592366962469 0.41625999930785851 0 0.42812583640885871 0.40699896058547658 0 0.44953592366962469 0.41625999930785851 0 0.44026384215961267 0.42784910070764998 0 0.45558172636320132 0.43444066549277749 0 0.44026384215961267 0.42784910070764998 0 0.44341390038092648 0.44590601321550949 0 0.45558172636320132 0.43444066549277749 0 0.44953592366962469 0.41625999930785851 0 0.44026384215961267 0.42784910070764998 0 0.45558172636320132 0.43444066549277749 0 0.44341390038092648 0.44590601321550949 0 0.46033906150623771 0.44824787870115479 0 0.44341390038092648 0.44590601321550949 0 0.46033906150623771 0.44824787870115479 0 0.44341390038092648 0.44590601321550949 0 0.44845422258798873 0.45998225955233379 0 0.46366432977754019 0.45699246073209981 0 0.44845422258798873 0.45998225955233379 0 0.44291048559254331 0.47055660908861191 0 0.43486701088894592 0.45777400292390119 0 0.44341390038092648 0.44590601321550949 0 0.44845422258798873 0.45998225955233379 0 0.43486701088894592 0.45777400292390119 0 0.44845422258798873 0.45998225955233379 0 0.45797537134354582 0.46717150992552642 0 0.44291048559254331 0.47055660908861191 0 0.44845422258798873 0.45998225955233379 0 0.45797537134354582 0.46717150992552642 0 0.46366432977754019 0.45699246073209981 0 0.45797537134354582 0.46717150992552642 0 0.46366432977754019 0.45699246073209981 0 0.47066206212180989 0.46824832242105802 0 0.44341390038092648 0.44590601321550949 0 0.46366432977754019 0.45699246073209981 0 0.46033906150623771 0.44824787870115479 0 0.46366432977754019 0.45699246073209981 0 0.46033906150623771 0.44824787870115479 0 0.47726422263154888 0.45058974418680009 0 0.44341390038092648 0.44590601321550949 0 0.46366432977754019 0.45699246073209981 0 0.45558172636320132 0.43444066549277749 0 0.46033906150623771 0.44824787870115479 0 0.47023913308013748 0.43902975744807521 0 0.49235609819115239 0.43478207675263197 0 0.47726422263154888 0.45058974418680009 0 0.47023913308013748 0.43902975744807521 0 0.46033906150623771 0.44824787870115479 0 0.47726422263154888 0.45058974418680009 0 0.47023913308013748 0.43902975744807521 0 0.46033906150623771 0.44824787870115479 0 0.47726422263154888 0.45058974418680009 0 0.46366432977754019 0.45699246073209981 0 0.48391475917415377 0.46807890824869008 0 0.47066206212180989 0.46824832242105802 0 0.46366432977754019 0.45699246073209981 0 0.47726422263154888 0.45058974418680009 0 0.48391475917415377 0.46807890824869008 0 0.46366432977754019 0.45699246073209981 0 0.48391475917415377 0.46807890824869008 0 0.47726422263154888 0.45058974418680009 0 0.48391475917415377 0.46807890824869008 0 0.5 0.46292691668878938 0 0.49235609819115239 0.43478207675263197 0 0.47726422263154888 0.45058974418680009 0 0.5 0.46292691668878938 0 0.5 0.5 0 0.46418575663784672 0.4800778978335285 0 0.45158168243867752 0.5 0 0.48391475917415377 0.46807890824869008 0 0.5 0.46292691668878938 0 0.5 0.5 0 0.48391475917415377 0.46807890824869008 0 0.5 0.5 0 0.46418575663784672 0.4800778978335285 0 0.48391475917415377 0.46807890824869008 0 0.47066206212180989 0.46824832242105802 0 0.46418575663784672 0.4800778978335285 0 0.45797537134354582 0.46717150992552642 0 0.46418575663784672 0.4800778978335285 0 0.44291048559254331 0.47055660908861191 0 0.45797537134354582 0.46717150992552642 0 0.47066206212180989 0.46824832242105802 0 0.46418575663784672 0.4800778978335285 0 0.46418575663784672 0.4800778978335285 0 0.44291048559254331 0.47055660908861191 0 0.43506088372148649 0.4867881792306894 0 0.46418575663784672 0.4800778978335285 0 0.45158168243867752 0.5 0 0.43506088372148649 0.4867881792306894 0 0.43506088372148649 0.4867881792306894 0 0.41687770147213948 0.50000000000000067 0 0.42031347866345281 0.47159254829476033 0 0.45158168243867752 0.5 0 0.43506088372148649 0.4867881792306894 0 0.41687770147213948 0.50000000000000067 0 0.41687770147213948 0.50000000000000067 0 0.42031347866345281 0.47159254829476033 0 0.41687770147213948 0.50000000000000067 0 0.42031347866345281 0.47159254829476033 0 0.4014915826473715 0.48260779437643919 0 0.42031347866345281 0.47159254829476033 0 0.40507742013672737 0.4593571878321685 0 0.4014915826473715 0.48260779437643919 0 0.44291048559254331 0.47055660908861191 0 0.43506088372148649 0.4867881792306894 0 0.42031347866345281 0.47159254829476033 0 0.44291048559254331 0.47055660908861191 0 0.42031347866345281 0.47159254829476033 0 0.43486701088894592 0.45777400292390119 0 0.42031347866345281 0.47159254829476033 0 0.43486701088894592 0.45777400292390119 0 0.42374925585476569 0.44318509658951988 0 0.42031347866345281 0.47159254829476033 0 0.42374925585476569 0.44318509658951988 0 0.42466182397544983 0.43563986493662837 0 0.44341390038092648 0.44590601321550949 0 0.44341390038092648 0.44590601321550949 0 0.43486701088894592 0.45777400292390119 0 0.42374925585476569 0.44318509658951988 0 0.42466182397544983 0.43563986493662837 0 0.44341390038092648 0.44590601321550949 0 0.42374925585476569 0.44318509658951988 0 0.44341390038092648 0.44590601321550949 0 0.42374925585476569 0.44318509658951988 0 0.42466182397544983 0.43563986493662837 0 0.42374925585476569 0.44318509658951988 0 0.42466182397544983 0.43563986493662837 0 0.42374925585476569 0.44318509658951988 0 0.40330294267167549 0.44035602366090532 0 0.42374925585476569 0.44318509658951988 0 0.40330294267167549 0.44035602366090532 0 0.42374925585476569 0.44318509658951988 0 0.40507742013672737 0.4593571878321685 0 0.40330294267167549 0.44035602366090532 0 0.42031347866345281 0.47159254829476033 0 0.42374925585476569 0.44318509658951988 0 0.40507742013672737 0.4593571878321685 0 0.40507742013672737 0.4593571878321685 0 0.39115111446324741 0.45170734003180668 0 0.38926462459169009 0.46651447262498058 0 0.40330294267167549 0.44035602366090532 0 0.38285662948858618 0.43752695073228398 0 0.40507742013672737 0.4593571878321685 0 0.39115111446324741 0.45170734003180668 0 0.40330294267167549 0.44035602366090532 0 0.39115111446324741 0.45170734003180668 0 0.40330294267167549 0.44035602366090532 0 0.38285662948858618 0.43752695073228398 0 0.39115111446324741 0.45170734003180668 0 0.38285662948858618 0.43752695073228398 0 0.37525395542755741 0.45478206530869519 0 0.37366195077693459 0.48020517394089002 0 0.38926462459169009 0.46651447262498058 0 0.37525395542755741 0.45478206530869519 0 0.39115111446324741 0.45170734003180668 0 0.38926462459169009 0.46651447262498058 0 0.37525395542755741 0.45478206530869519 0 0.37366195077693459 0.48020517394089002 0 0.38926462459169009 0.46651447262498058 0 0.4014915826473715 0.48260779437643919 0 0.37366195077693459 0.48020517394089002 0 0.38826988639560711 0.5 0 0.4014915826473715 0.48260779437643919 0 0.41687770147213948 0.50000000000000067 0 0.38826988639560711 0.5 0 0.4014915826473715 0.48260779437643919 0 0.40507742013672737 0.4593571878321685 0 0.38926462459169009 0.46651447262498058 0 0.4014915826473715 0.48260779437643919 0 0.33189042310525479 0.082893444413299433 0 0.33998448217067251 0.090370209898809395 0 0.32917807308356639 0.101068070161665 0 0.33189042310525479 0.082893444413299433 0 0.33998448217067251 0.090370209898809395 0 0.34712525539663958 0.082040005401918165 0 0.34149219113060109 0.065037370838981159 0 0.34712525539663958 0.082040005401918165 0 0.32733946843218431 0.062077403392500473 0 0.33189042310525479 0.082893444413299433 0 0.34712525539663958 0.082040005401918165 0 0.32733946843218431 0.062077403392500473 0 0.34712525539663958 0.082040005401918165 0 0.32733946843218431 0.062077403392500473 0 0.31582483644321119 0.078911533211604129 0 0.32733946843218431 0.062077403392500473 0 0.30491758794119439 0.067159802081871306 0 0.33189042310525479 0.082893444413299433 0 0.31582483644321119 0.078911533211604129 0 0.32733946843218431 0.062077403392500473 0 0.31582483644321119 0.078911533211604129 0 0.32917807308356639 0.101068070161665 0 0.31328871523567747 0.09316133425695873 0 0.31582483644321119 0.078911533211604129 0 0.32917807308356639 0.101068070161665 0 0.33189042310525479 0.082893444413299433 0 0.31582483644321119 0.078911533211604129 0 0.32917807308356639 0.101068070161665 0 0.31668879944880363 0.11391463273440069 0 0.32917807308356639 0.101068070161665 0 0.30821190308510138 0.1041698714766067 0 0.31328871523567747 0.09316133425695873 0 0.32917807308356639 0.101068070161665 0 0.30821190308510138 0.1041698714766067 0 0.31668879944880363 0.11391463273440069 0 0.32681367206841783 0.1206210284677877 0 0.32917807308356639 0.101068070161665 0 0.31616401195661392 0.1248377243648759 0 0.31668879944880363 0.11391463273440069 0 0.32681367206841783 0.1206210284677877 0 0.34253130972392148 0.12322460711172591 0 0.34052938874107003 0.103001444234913 0 0.34679177675608458 0.11266440438244529 0 0.34253130972392148 0.12322460711172591 0 0.32917807308356639 0.101068070161665 0 0.32681367206841783 0.1206210284677877 0 0.34253130972392148 0.12322460711172591 0 0.33299705933522489 0.12972461698702331 0 0.32681367206841783 0.1206210284677877 0 0.34253130972392148 0.12322460711172591 0 0.32917807308356639 0.101068070161665 0 0.34253130972392148 0.12322460711172591 0 0.32917807308356639 0.101068070161665 0 0.34052938874107003 0.103001444234913 0 0.33998448217067251 0.090370209898809395 0 0.32917807308356639 0.101068070161665 0 0.34052938874107003 0.103001444234913 0 0.35870742064761257 0.1026966158782214 0 0.34679177675608458 0.11266440438244529 0 0.35101010845268799 0.088575688327605581 0 0.33998448217067251 0.090370209898809395 0 0.34052938874107003 0.103001444234913 0 0.35101010845268799 0.088575688327605581 0 0.34052938874107003 0.103001444234913 0 0.34679177675608458 0.11266440438244529 0 0.35101010845268799 0.088575688327605581 0 0.34679177675608458 0.11266440438244529 0 0.35101010845268799 0.088575688327605581 0 0.35870742064761257 0.1026966158782214 0 0.34679177675608458 0.11266440438244529 0 0.35739698689470439 0.11259274913849519 0 0.35870742064761257 0.1026966158782214 0 0.36525819748744848 0.091909002569608669 0 0.35101010845268799 0.088575688327605581 0 0.34253130972392148 0.12322460711172591 0 0.34679177675608458 0.11266440438244529 0 0.35724186548058767 0.1211353712691958 0 0.34679177675608458 0.11266440438244529 0 0.35739698689470439 0.11259274913849519 0 0.35724186548058767 0.1211353712691958 0 0.35724186548058767 0.1211353712691958 0 0.36747281137123811 0.11418080404072491 0 0.3695735249642183 0.1240652025460233 0 0.35739698689470439 0.11259274913849519 0 0.35724186548058767 0.1211353712691958 0 0.36747281137123811 0.11418080404072491 0 0.35870742064761257 0.1026966158782214 0 0.35739698689470439 0.11259274913849519 0 0.36747281137123811 0.11418080404072491 0 0.36747281137123811 0.11418080404072491 0 0.37075365190240811 0.1039683634689139 0 0.37943231933067589 0.1146488463042451 0 0.36747281137123811 0.11418080404072491 0 0.3695735249642183 0.1240652025460233 0 0.37943231933067589 0.1146488463042451 0 0.37075365190240811 0.1039683634689139 0 0.36525819748744848 0.091909002569608669 0 0.38289751067506522 0.096406548551769514 0 0.35870742064761257 0.1026966158782214 0 0.37075365190240811 0.1039683634689139 0 0.36525819748744848 0.091909002569608669 0 0.35870742064761257 0.1026966158782214 0 0.36747281137123811 0.11418080404072491 0 0.37075365190240811 0.1039683634689139 0 0.36906297541218042 0.080446760412267337 0 0.36525819748744848 0.091909002569608669 0 0.38289751067506522 0.096406548551769514 0 0.36906297541218042 0.080446760412267337 0 0.35971979646220392 0.081389058026102398 0 0.36525819748744848 0.091909002569608669 0 0.35971979646220392 0.081389058026102398 0 0.35101010845268799 0.088575688327605581 0 0.35522844014929422 0.064486972272766369 0 0.35971979646220392 0.081389058026102398 0 0.36525819748744848 0.091909002569608669 0 0.35101010845268799 0.088575688327605581 0 0.34712525539663958 0.082040005401918165 0 0.35101010845268799 0.088575688327605581 0 0.34868845257053688 0.074192224528490766 0 0.33998448217067251 0.090370209898809395 0 0.34712525539663958 0.082040005401918165 0 0.35101010845268799 0.088575688327605581 0 0.34149219113060109 0.065037370838981159 0 0.34712525539663958 0.082040005401918165 0 0.34868845257053688 0.074192224528490766 0 0.35101010845268799 0.088575688327605581 0 0.35522844014929422 0.064486972272766369 0 0.35101010845268799 0.088575688327605581 0 0.34868845257053688 0.074192224528490766 0 0.35522844014929422 0.064486972272766369 0 0.34149219113060109 0.065037370838981159 0 0.34868845257053688 0.074192224528490766 0 0.35522844014929422 0.064486972272766369 0 0.36906297541218042 0.080446760412267337 0 0.35971979646220392 0.081389058026102398 0 0.35522844014929422 0.064486972272766369 0 0.36906297541218042 0.080446760412267337 0 0.35522844014929422 0.064486972272766369 0 0.36958095060144303 0.062443381438691853 0 0.36906297541218042 0.080446760412267337 0 0.35522844014929422 0.064486972272766369 0 0.36906297541218042 0.080446760412267337 0 0.36958095060144303 0.062443381438691853 0 0.3831142634541726 0.067641483304395525 0 0.35522844014929422 0.064486972272766369 0 0.36958095060144303 0.062443381438691853 0 0.35832556353514261 0.046800898442051063 0 0.35832556353514261 0.046800898442051063 0 0.3766249582532501 0.049772439248887169 0 0.36958095060144303 0.062443381438691853 0 0.35832556353514261 0.046800898442051063 0 0.3766249582532501 0.049772439248887169 0 0.36942731687790031 0.036265483447151053 0 0.35832556353514261 0.046800898442051063 0 0.3766249582532501 0.049772439248887169 0 0.35832556353514261 0.046800898442051063 0 0.36256625741335857 0.022584483504814248 0 0.36942731687790031 0.036265483447151053 0 0.35832556353514261 0.046800898442051063 0 0.36256625741335857 0.022584483504814248 0 0.35832556353514261 0.046800898442051063 0 0.34951910649209628 0.036095477880651018 0 0.36256625741335857 0.022584483504814248 0 0.35832556353514261 0.046800898442051063 0 0.3389373181556703 0.043652545001653567 0 0.35832556353514261 0.046800898442051063 0 0.34951910649209628 0.036095477880651018 0 0.3389373181556703 0.043652545001653567 0 0.34951910649209628 0.036095477880651018 0 0.34678305165446083 0.02591880035232523 0 0.34030889558004218 0.033651151286977092 0 0.35522844014929422 0.064486972272766369 0 0.35832556353514261 0.046800898442051063 0 0.3440064053751935 0.051541015355131233 0 0.35832556353514261 0.046800898442051063 0 0.3440064053751935 0.051541015355131233 0 0.3389373181556703 0.043652545001653567 0 0.35522844014929422 0.064486972272766369 0 0.35832556353514261 0.046800898442051063 0 0.35522844014929422 0.064486972272766369 0 0.3440064053751935 0.051541015355131233 0 0.34149219113060109 0.065037370838981159 0 0.35522844014929422 0.064486972272766369 0 0.3440064053751935 0.051541015355131233 0 0.36256625741335857 0.022584483504814248 0 0.39199162463239651 0.023570540955039632 0 0.3668069512915747 -0.001631931432422531 0 0.36256625741335857 0.022584483504814248 0 0.3668069512915747 -0.001631931432422531 0 0.36942731687790031 0.036265483447151053 0 0.36256625741335857 0.022584483504814248 0 0.39199162463239651 0.023570540955039632 0 0.36256625741335857 0.022584483504814248 0 0.34678305165446083 0.02591880035232523 0 0.34868932605489189 0.0089370030536690299 0 0.34951910649209628 0.036095477880651018 0 0.36256625741335857 0.022584483504814248 0 0.34678305165446083 0.02591880035232523 0 0.36256625741335857 0.022584483504814248 0 0.34868932605489189 0.0089370030536690299 0 0.3668069512915747 -0.001631931432422531 0 0.34868932605489189 0.0089370030536690299 0 0.32862214952845842 0.0032053658218892962 0 0.33352063099689222 0.02399387476275839 0 0.34678305165446083 0.02591880035232523 0 0.34868932605489189 0.0089370030536690299 0 0.33352063099689222 0.02399387476275839 0 0.34678305165446083 0.02591880035232523 0 0.33352063099689222 0.02399387476275839 0 0.34030889558004218 0.033651151286977092 0 0.33352063099689222 0.02399387476275839 0 0.31750539088439361 0.02126110644825072 0 0.32129700919264992 0.034478087734800912 0 0.32862214952845842 0.0032053658218892962 0 0.33352063099689222 0.02399387476275839 0 0.31750539088439361 0.02126110644825072 0 0.32862214952845842 0.0032053658218892962 0 0.31750539088439361 0.02126110644825072 0 0.31323684074355568 -0.0014248617713456409 0 0.33329322307871889 0.05187790840894544 0 0.32413741027970178 0.044037944080986401 0 0.32733946843218431 0.062077403392500473 0 0.34149219113060109 0.065037370838981159 0 0.33329322307871889 0.05187790840894544 0 0.32733946843218431 0.062077403392500473 0 0.34149219113060109 0.065037370838981159 0 0.3440064053751935 0.051541015355131233 0 0.33329322307871889 0.05187790840894544 0 0.3440064053751935 0.051541015355131233 0 0.33329322307871889 0.05187790840894544 0 0.33278437060109151 0.038595058437497248 0 0.3440064053751935 0.051541015355131233 0 0.3389373181556703 0.043652545001653567 0 0.33278437060109151 0.038595058437497248 0 0.3440064053751935 0.051541015355131233 0 0.33278437060109151 0.038595058437497248 0 0.34951910649209628 0.036095477880651018 0 0.3389373181556703 0.043652545001653567 0 0.34030889558004218 0.033651151286977092 0 0.3389373181556703 0.043652545001653567 0 0.34030889558004218 0.033651151286977092 0 0.33278437060109151 0.038595058437497248 0 0.33352063099689222 0.02399387476275839 0 0.34030889558004218 0.033651151286977092 0 0.33278437060109151 0.038595058437497248 0 0.33352063099689222 0.02399387476275839 0 0.33278437060109151 0.038595058437497248 0 0.32129700919264992 0.034478087734800912 0 0.33329322307871889 0.05187790840894544 0 0.33278437060109151 0.038595058437497248 0 0.32413741027970178 0.044037944080986401 0 0.32413741027970178 0.044037944080986401 0 0.32129700919264992 0.034478087734800912 0 0.30755368146772888 0.042114801383082739 0 0.31750539088439361 0.02126110644825072 0 0.32129700919264992 0.034478087734800912 0 0.30755368146772888 0.042114801383082739 0 0.33278437060109151 0.038595058437497248 0 0.32413741027970178 0.044037944080986401 0 0.32129700919264992 0.034478087734800912 0 0.32733946843218431 0.062077403392500473 0 0.30755368146772888 0.042114801383082739 0 0.32413741027970178 0.044037944080986401 0 0.32733946843218431 0.062077403392500473 0 0.30755368146772888 0.042114801383082739 0 0.32733946843218431 0.062077403392500473 0 0.30755368146772888 0.042114801383082739 0 0.30491758794119439 0.067159802081871306 0 0.30755368146772888 0.042114801383082739 0 0.2961519661412495 0.05535693231966933 0 0.30491758794119439 0.067159802081871306 0 0.30755368146772888 0.042114801383082739 0 0.2961519661412495 0.05535693231966933 0 0.29024606915766882 0.048320663980287032 0 0.2961519661412495 0.05535693231966933 0 0.29213245388100528 0.06409606457452513 0 0.30491758794119439 0.067159802081871306 0 0.30755368146772888 0.042114801383082739 0 0.28776789450327339 0.022152199373665051 0 0.30755368146772888 0.042114801383082739 0 0.28379672355729468 0.03756121007447441 0 0.29024606915766882 0.048320663980287032 0 0.30755368146772888 0.042114801383082739 0 0.28379672355729468 0.03756121007447441 0 0.28776789450327339 0.022152199373665051 0 0.28379672355729468 0.03756121007447441 0 0.27982555261131631 0.052970220775283787 0 0.28379672355729468 0.03756121007447441 0 0.29024606915766882 0.048320663980287032 0 0.27982555261131631 0.052970220775283787 0 0.28688910163121562 0.057614761124227143 0 0.29024606915766882 0.048320663980287032 0 0.27982555261131631 0.052970220775283787 0 0.28688910163121562 0.057614761124227143 0 0.27921744186867009 0.059169206154796178 0 0.27982555261131631 0.052970220775283787 0 0.28688910163121562 0.057614761124227143 0 0.28365201330801698 0.065764474983283264 0 0.29213245388100528 0.06409606457452513 0 0.28688910163121562 0.057614761124227143 0 0.27921744186867009 0.059169206154796178 0 0.28365201330801698 0.065764474983283264 0 0.28688910163121562 0.057614761124227143 0 0.2961519661412495 0.05535693231966933 0 0.29213245388100528 0.06409606457452513 0 0.28688910163121562 0.057614761124227143 0 0.2961519661412495 0.05535693231966933 0 0.29024606915766882 0.048320663980287032 0 0.30280416808230431 0.01337385030745976 0 0.31323684074355568 -0.0014248617713456409 0 0.29430503235872751 -0.00321332342493744 0 0.31750539088439361 0.02126110644825072 0 0.30280416808230431 0.01337385030745976 0 0.31323684074355568 -0.0014248617713456409 0 0.31750539088439361 0.02126110644825072 0 0.30755368146772888 0.042114801383082739 0 0.30280416808230431 0.01337385030745976 0 0.30755368146772888 0.042114801383082739 0 0.30280416808230431 0.01337385030745976 0 0.28776789450327339 0.022152199373665051 0 0.28379672355729468 0.03756121007447441 0 0.28776789450327339 0.022152199373665051 0 0.28379672355729468 0.03756121007447441 0 0.28776789450327339 0.022152199373665051 0 0.27494675556545262 0.028039493776157332 0 0.28776789450327339 0.022152199373665051 0 0.29430503235872751 -0.00321332342493744 0 0.30280416808230431 0.01337385030745976 0 0.28776789450327339 0.022152199373665051 0 0.29430503235872751 -0.00321332342493744 0 0.28776789450327339 0.022152199373665051 0 0.27309304782332311 0.0073462114012203539 0 0.29430503235872751 -0.00321332342493744 0 0.28776789450327339 0.022152199373665051 0 0.27309304782332311 0.0073462114012203539 0 0.28776789450327339 0.022152199373665051 0 0.27309304782332311 0.0073462114012203539 0 0.27494675556545262 0.028039493776157332 0 0.27309304782332311 0.0073462114012203539 0 0.27494675556545262 0.028039493776157332 0 0.25961041964918641 0.028915797107974681 0 0.24420105038197121 0.0077544318699326632 0 0.25961041964918641 0.028915797107974681 0 0.24420105038197121 0.0077544318699326632 0 0.25961041964918641 0.028915797107974681 0 0.25853209477253369 -0.00058562564308046712 0 0.27309304782332311 0.0073462114012203539 0 0.25961041964918641 0.028915797107974681 0 0.25853209477253369 -0.00058562564308046712 0 0.26827209135180791 0.053137164631910441 0 0.27501978891640172 0.050077162346016751 0 0.2585971745960548 0.041698406219025819 0 0.26827209135180791 0.053137164631910441 0 0.27519395809919572 0.05480834392326972 0 0.27501978891640172 0.050077162346016751 0 0.26636459902463883 0.059256948076858669 0 0.27293383578642011 0.059017469670378367 0 0.26865613764408403 0.067040044909000021 0 0.26827209135180791 0.053137164631910441 0 0.26636459902463883 0.059256948076858669 0 0.27293383578642011 0.059017469670378367 0 0.26827209135180791 0.053137164631910441 0 0.27293383578642011 0.059017469670378367 0 0.27519395809919572 0.05480834392326972 0 0.27293383578642011 0.059017469670378367 0 0.27519395809919572 0.05480834392326972 0 0.27921744186867009 0.059169206154796178 0 0.27293383578642011 0.059017469670378367 0 0.27921744186867009 0.059169206154796178 0 0.27630462830223051 0.065233022326166526 0 0.27519395809919572 0.05480834392326972 0 0.27921744186867009 0.059169206154796178 0 0.27982555261131631 0.052970220775283787 0 0.27519395809919572 0.05480834392326972 0 0.27982555261131631 0.052970220775283787 0 0.27501978891640172 0.050077162346016751 0 0.25961041964918641 0.028915797107974681 0 0.27501978891640172 0.050077162346016751 0 0.27494675556545262 0.028039493776157332 0 0.25961041964918641 0.028915797107974681 0 0.27501978891640172 0.050077162346016751 0 0.28379672355729468 0.03756121007447441 0 0.27494675556545262 0.028039493776157332 0 0.27501978891640172 0.050077162346016751 0 0.28379672355729468 0.03756121007447441 0 0.27982555261131631 0.052970220775283787 0 0.27501978891640172 0.050077162346016751 0 0.25961041964918641 0.028915797107974681 0 0.27501978891640172 0.050077162346016751 0 0.2585971745960548 0.041698406219025819 0 0.24243076654359541 0.035143659703962313 0 0.25961041964918641 0.028915797107974681 0 0.2585971745960548 0.041698406219025819 0 0.2493447283203829 0.051306525712486388 0 0.24290587705532521 0.045029514328570823 0 0.2585971745960548 0.041698406219025819 0 0.2493447283203829 0.051306525712486388 0 0.26117265170745541 0.054129409536931787 0 0.25435845951589542 0.057960289992802227 0 0.2493447283203829 0.051306525712486388 0 0.2585971745960548 0.041698406219025819 0 0.26117265170745541 0.054129409536931787 0 0.26827209135180791 0.053137164631910441 0 0.2585971745960548 0.041698406219025819 0 0.26117265170745541 0.054129409536931787 0 0.26117265170745541 0.054129409536931787 0 0.25435845951589542 0.057960289992802227 0 0.26050492290234922 0.062790532467824803 0 0.26636459902463883 0.059256948076858669 0 0.26117265170745541 0.054129409536931787 0 0.26050492290234922 0.062790532467824803 0 0.26827209135180791 0.053137164631910441 0 0.26636459902463883 0.059256948076858669 0 0.26117265170745541 0.054129409536931787 0 0.25435845951589542 0.057960289992802227 0 0.25158855891783921 0.064268942108717864 0 0.26050492290234922 0.062790532467824803 0 0.2493979367695284 0.057840931808013682 0 0.2493447283203829 0.051306525712486388 0 0.25435845951589542 0.057960289992802227 0 0.2493979367695284 0.057840931808013682 0 0.25435845951589542 0.057960289992802227 0 0.25158855891783921 0.064268942108717864 0 0.25158855891783921 0.064268942108717864 0 0.25899645748999389 0.071222141817496754 0 0.26050492290234922 0.062790532467824803 0 0.2489007251469337 0.072710992710673814 0 0.25158855891783921 0.064268942108717864 0 0.25899645748999389 0.071222141817496754 0 0.2489007251469337 0.072710992710673814 0 0.25899645748999389 0.071222141817496754 0 0.2570960405993637 0.084475803992938733 0 0.25899645748999389 0.071222141817496754 0 0.2570960405993637 0.084475803992938733 0 0.26775804851011792 0.077325644374807517 0 0.25899645748999389 0.071222141817496754 0 0.26865613764408403 0.067040044909000021 0 0.26775804851011792 0.077325644374807517 0 0.26636459902463883 0.059256948076858669 0 0.26050492290234922 0.062790532467824803 0 0.26865613764408403 0.067040044909000021 0 0.25899645748999389 0.071222141817496754 0 0.26050492290234922 0.062790532467824803 0 0.26865613764408403 0.067040044909000021 0 0.2570960405993637 0.084475803992938733 0 0.2765042691359556 0.088921357942121859 0 0.2566379746589465 0.101932494779665 0 0.2570960405993637 0.084475803992938733 0 0.2765042691359556 0.088921357942121859 0 0.26775804851011792 0.077325644374807517 0 0.2765042691359556 0.088921357942121859 0 0.2775373376811926 0.074968873212480219 0 0.2890516003833502 0.074584352363574635 0 0.2765042691359556 0.088921357942121859 0 0.26775804851011792 0.077325644374807517 0 0.2775373376811926 0.074968873212480219 0 0.27293383578642011 0.059017469670378367 0 0.26865613764408403 0.067040044909000021 0 0.27630462830223051 0.065233022326166526 0 0.26865613764408403 0.067040044909000021 0 0.26775804851011792 0.077325644374807517 0 0.2775373376811926 0.074968873212480219 0 0.2775373376811926 0.074968873212480219 0 0.27630462830223051 0.065233022326166526 0 0.28365201330801698 0.065764474983283264 0 0.26865613764408403 0.067040044909000021 0 0.2775373376811926 0.074968873212480219 0 0.27630462830223051 0.065233022326166526 0 0.27921744186867009 0.059169206154796178 0 0.27630462830223051 0.065233022326166526 0 0.28365201330801698 0.065764474983283264 0 0.29213245388100528 0.06409606457452513 0 0.2890516003833502 0.074584352363574635 0 0.30491758794119439 0.067159802081871306 0 0.28365201330801698 0.065764474983283264 0 0.29213245388100528 0.06409606457452513 0 0.2890516003833502 0.074584352363574635 0 0.2775373376811926 0.074968873212480219 0 0.28365201330801698 0.065764474983283264 0 0.2890516003833502 0.074584352363574635 0 0.2765042691359556 0.088921357942121859 0 0.29994004833083099 0.088495862177959059 0 0.29130755489077281 0.103391507044684 0 0.2765042691359556 0.088921357942121859 0 0.2890516003833502 0.074584352363574635 0 0.29994004833083099 0.088495862177959059 0 0.31582483644321119 0.078911533211604129 0 0.29994004833083099 0.088495862177959059 0 0.30491758794119439 0.067159802081871306 0 0.31328871523567747 0.09316133425695873 0 0.31582483644321119 0.078911533211604129 0 0.29994004833083099 0.088495862177959059 0 0.2890516003833502 0.074584352363574635 0 0.29994004833083099 0.088495862177959059 0 0.30491758794119439 0.067159802081871306 0 0.30402730127884259 0.11851979818680219 0 0.28969419351297571 0.1190363516730255 0 0.298552223848567 0.13167056633127211 0 0.31616401195661392 0.1248377243648759 0 0.30402730127884259 0.11851979818680219 0 0.30877184312781092 0.1310124580689003 0 0.31616401195661392 0.1248377243648759 0 0.31668879944880363 0.11391463273440069 0 0.30402730127884259 0.11851979818680219 0 0.31668879944880363 0.11391463273440069 0 0.30402730127884259 0.11851979818680219 0 0.30821190308510138 0.1041698714766067 0 0.31328871523567747 0.09316133425695873 0 0.29994004833083099 0.088495862177959059 0 0.30821190308510138 0.1041698714766067 0 0.30402730127884259 0.11851979818680219 0 0.30821190308510138 0.1041698714766067 0 0.29130755489077281 0.103391507044684 0 0.29994004833083099 0.088495862177959059 0 0.30821190308510138 0.1041698714766067 0 0.29130755489077281 0.103391507044684 0 0.29130755489077281 0.103391507044684 0 0.28969419351297571 0.1190363516730255 0 0.27179982928378887 0.1105964454930691 0 0.30402730127884259 0.11851979818680219 0 0.29130755489077281 0.103391507044684 0 0.28969419351297571 0.1190363516730255 0 0.28969419351297571 0.1190363516730255 0 0.27501888630746418 0.124403236667864 0 0.28591174611138109 0.1309930583588039 0 0.27179982928378887 0.1105964454930691 0 0.27501888630746418 0.124403236667864 0 0.25796219359939682 0.12504353204682961 0 0.28969419351297571 0.1190363516730255 0 0.27179982928378887 0.1105964454930691 0 0.27501888630746418 0.124403236667864 0 0.2765042691359556 0.088921357942121859 0 0.29130755489077281 0.103391507044684 0 0.27179982928378887 0.1105964454930691 0 0.2765042691359556 0.088921357942121859 0 0.27179982928378887 0.1105964454930691 0 0.2566379746589465 0.101932494779665 0 0.23972002746181931 0.097604800212767212 0 0.2570960405993637 0.084475803992938733 0 0.2566379746589465 0.101932494779665 0 0.2417947896084523 0.1137336911755121 0 0.2566379746589465 0.101932494779665 0 0.25796219359939682 0.12504353204682961 0 0.27179982928378887 0.1105964454930691 0 0.2566379746589465 0.101932494779665 0 0.25796219359939682 0.12504353204682961 0 0.25796219359939682 0.12504353204682961 0 0.26972646902977843 0.13634679576759151 0 0.25978525857186302 0.14528451781988319 0 0.24587986904064979 0.1408282300472459 0 0.25796219359939682 0.12504353204682961 0 0.25978525857186302 0.14528451781988319 0 0.27501888630746418 0.124403236667864 0 0.25796219359939682 0.12504353204682961 0 0.26972646902977843 0.13634679576759151 0 0.27501888630746418 0.124403236667864 0 0.26972646902977843 0.13634679576759151 0 0.28591174611138109 0.1309930583588039 0 0.27153123302507692 0.1505561655225742 0 0.27860410865862723 0.1614482880446258 0 0.2849094853513901 0.1496017725066362 0 0.26972646902977843 0.13634679576759151 0 0.27153123302507692 0.1505561655225742 0 0.2849094853513901 0.1496017725066362 0 0.26972646902977843 0.13634679576759151 0 0.27153123302507692 0.1505561655225742 0 0.25978525857186302 0.14528451781988319 0 0.27153123302507692 0.1505561655225742 0 0.25978525857186302 0.14528451781988319 0 0.2646308435137259 0.1600994534741341 0 0.25978525857186302 0.14528451781988319 0 0.25069316261496682 0.1538940140022072 0 0.2646308435137259 0.1600994534741341 0 0.24587986904064979 0.1408282300472459 0 0.25978525857186302 0.14528451781988319 0 0.25069316261496682 0.1538940140022072 0 0.24044923434467719 0.16322080618632451 0 0.25489466759703489 0.16517490763340431 0 0.25703183561465598 0.1788062756233684 0 0.25069316261496682 0.1538940140022072 0 0.25489466759703489 0.16517490763340431 0 0.2646308435137259 0.1600994534741341 0 0.25489466759703489 0.16517490763340431 0 0.26241873488120793 0.1696307037391632 0 0.2646308435137259 0.1600994534741341 0 0.25489466759703489 0.16517490763340431 0 0.26241873488120793 0.1696307037391632 0 0.25703183561465598 0.1788062756233684 0 0.26241873488120793 0.1696307037391632 0 0.25703183561465598 0.1788062756233684 0 0.27198881151750792 0.1734501053820795 0 0.25703183561465598 0.1788062756233684 0 0.27198881151750792 0.1734501053820795 0 0.27129489473239971 0.18797515171928711 0 0.27198881151750792 0.1734501053820795 0 0.28508946737830693 0.17117030312955439 0 0.28597158382312782 0.18414382105281379 0 0.27198881151750792 0.1734501053820795 0 0.28597158382312782 0.18414382105281379 0 0.27129489473239971 0.18797515171928711 0 0.27153123302507692 0.1505561655225742 0 0.2646308435137259 0.1600994534741341 0 0.27860410865862723 0.1614482880446258 0 0.26241873488120793 0.1696307037391632 0 0.2646308435137259 0.1600994534741341 0 0.27198881151750792 0.1734501053820795 0 0.2646308435137259 0.1600994534741341 0 0.27198881151750792 0.1734501053820795 0 0.27860410865862723 0.1614482880446258 0 0.27198881151750792 0.1734501053820795 0 0.27860410865862723 0.1614482880446258 0 0.28508946737830693 0.17117030312955439 0 0.27860410865862723 0.1614482880446258 0 0.29259223681348329 0.16280656378549341 0 0.2849094853513901 0.1496017725066362 0 0.27860410865862723 0.1614482880446258 0 0.28508946737830693 0.17117030312955439 0 0.29259223681348329 0.16280656378549341 0 0.28508946737830693 0.17117030312955439 0 0.29259223681348329 0.16280656378549341 0 0.29629059607878849 0.17400273738275959 0 0.28597158382312782 0.18414382105281379 0 0.29629059607878849 0.17400273738275959 0 0.30267359603925892 0.18702208603580889 0 0.28508946737830693 0.17117030312955439 0 0.28597158382312782 0.18414382105281379 0 0.29629059607878849 0.17400273738275959 0 0.29629059607878849 0.17400273738275959 0 0.30267359603925892 0.18702208603580889 0 0.30952236682175199 0.17406939237798111 0 0.30267359603925892 0.18702208603580889 0 0.30952236682175199 0.17406939237798111 0 0.31652529532760248 0.18624700295846131 0 0.29259223681348329 0.16280656378549341 0 0.30327098825400439 0.16491365793416241 0 0.30478272625260749 0.15382864107182409 0 0.29259223681348329 0.16280656378549341 0 0.29629059607878849 0.17400273738275959 0 0.30327098825400439 0.16491365793416241 0 0.29629059607878849 0.17400273738275959 0 0.30952236682175199 0.17406939237798111 0 0.30327098825400439 0.16491365793416241 0 0.30952236682175199 0.17406939237798111 0 0.30327098825400439 0.16491365793416241 0 0.31272640101896898 0.16399236631745609 0 0.30327098825400439 0.16491365793416241 0 0.30478272625260749 0.15382864107182409 0 0.31272640101896898 0.16399236631745609 0 0.2946607153715331 0.14499198991246101 0 0.31959496171328788 0.15363718405733051 0 0.30478272625260749 0.15382864107182409 0 0.2946607153715331 0.14499198991246101 0 0.31959496171328788 0.15363718405733051 0 0.30992950480213499 0.14123409330057399 0 0.2946607153715331 0.14499198991246101 0 0.31959496171328788 0.15363718405733051 0 0.30992950480213499 0.14123409330057399 0 0.30877184312781092 0.1310124580689003 0 0.298552223848567 0.13167056633127211 0 0.30992950480213499 0.14123409330057399 0 0.30877184312781092 0.1310124580689003 0 0.31663405136186551 0.13594582794754251 0 0.30402730127884259 0.11851979818680219 0 0.30877184312781092 0.1310124580689003 0 0.298552223848567 0.13167056633127211 0 0.30992950480213499 0.14123409330057399 0 0.298552223848567 0.13167056633127211 0 0.2946607153715331 0.14499198991246101 0 0.26972646902977843 0.13634679576759151 0 0.28591174611138109 0.1309930583588039 0 0.2946607153715331 0.14499198991246101 0 0.298552223848567 0.13167056633127211 0 0.28591174611138109 0.1309930583588039 0 0.2946607153715331 0.14499198991246101 0 0.28969419351297571 0.1190363516730255 0 0.298552223848567 0.13167056633127211 0 0.28591174611138109 0.1309930583588039 0 0.29259223681348329 0.16280656378549341 0 0.30478272625260749 0.15382864107182409 0 0.2849094853513901 0.1496017725066362 0 0.30478272625260749 0.15382864107182409 0 0.2849094853513901 0.1496017725066362 0 0.26972646902977843 0.13634679576759151 0 0.2849094853513901 0.1496017725066362 0 0.2946607153715331 0.14499198991246101 0 0.30478272625260749 0.15382864107182409 0 0.2849094853513901 0.1496017725066362 0 0.2946607153715331 0.14499198991246101 0 0.26972646902977843 0.13634679576759151 0 0.2946607153715331 0.14499198991246101 0 0.27835772352043531 0.23766085513349999 0 0.26102101312644749 0.2384282695415057 0 0.26982546295004273 0.23313998565696781 0 0.27314124446503041 0.25764921235806132 0 0.27835772352043531 0.23766085513349999 0 0.26102101312644749 0.2384282695415057 0 0.27314124446503041 0.25764921235806132 0 0.27835772352043531 0.23766085513349999 0 0.29018548818220552 0.2496289992408022 0 0.27314124446503041 0.25764921235806132 0 0.26102101312644749 0.2384282695415057 0 0.23777700007207569 0.25352797534319121 0 0.25493463515009379 0.25433840845262362 0 0.26102101312644749 0.2384282695415057 0 0.26102101312644749 0.2384282695415057 0 0.25287704952803758 0.22551311518081091 0 0.26982546295004273 0.23313998565696781 0 0.25287704952803758 0.22551311518081091 0 0.26954695020901243 0.22353480904853229 0 0.25857663658460872 0.21392714999276341 0 0.23894179164141349 0.22988215710279519 0 0.26102101312644749 0.2384282695415057 0 0.25287704952803758 0.22551311518081091 0 0.25287704952803758 0.22551311518081091 0 0.26954695020901243 0.22353480904853229 0 0.26982546295004273 0.23313998565696781 0 0.26102101312644749 0.2384282695415057 0 0.25287704952803758 0.22551311518081091 0 0.27835772352043531 0.23766085513349999 0 0.26954695020901243 0.22353480904853229 0 0.28408533441144751 0.21896223071887649 0 0.27835772352043531 0.23766085513349999 0 0.26954695020901243 0.22353480904853229 0 0.26982546295004273 0.23313998565696781 0 0.27101854302138761 0.21231279961654539 0 0.26060763313229451 0.20340656037961621 0 0.28087460957441229 0.20006899615855769 0 0.27101854302138761 0.21231279961654539 0 0.28087460957441229 0.20006899615855769 0 0.28408533441144751 0.21896223071887649 0 0.26954695020901243 0.22353480904853229 0 0.27101854302138761 0.21231279961654539 0 0.28408533441144751 0.21896223071887649 0 0.26954695020901243 0.22353480904853229 0 0.27101854302138761 0.21231279961654539 0 0.25857663658460872 0.21392714999276341 0 0.24473308592962781 0.21259796082011609 0 0.25287704952803758 0.22551311518081091 0 0.25857663658460872 0.21392714999276341 0 0.24896024116423709 0.2023075548469852 0 0.25857663658460872 0.21392714999276341 0 0.26060763313229451 0.20340656037961621 0 0.24896024116423709 0.2023075548469852 0 0.24473308592962781 0.21259796082011609 0 0.25857663658460872 0.21392714999276341 0 0.27101854302138761 0.21231279961654539 0 0.25857663658460872 0.21392714999276341 0 0.26060763313229451 0.20340656037961621 0 0.24896024116423709 0.2023075548469852 0 0.2438789355878023 0.1813210369314022 0 0.26060763313229451 0.20340656037961621 0 0.2438789355878023 0.1813210369314022 0 0.25703183561465598 0.1788062756233684 0 0.26060763313229451 0.20340656037961621 0 0.25703183561465598 0.1788062756233684 0 0.26060763313229451 0.20340656037961621 0 0.27129489473239971 0.18797515171928711 0 0.2438789355878023 0.1813210369314022 0 0.26060763313229451 0.20340656037961621 0 0.28597158382312782 0.18414382105281379 0 0.27129489473239971 0.18797515171928711 0 0.28087460957441229 0.20006899615855769 0 0.26060763313229451 0.20340656037961621 0 0.27129489473239971 0.18797515171928711 0 0.28087460957441229 0.20006899615855769 0 0.28597158382312782 0.18414382105281379 0 0.30267359603925892 0.18702208603580889 0 0.29348474723329021 0.1956180509847926 0 0.28597158382312782 0.18414382105281379 0 0.28087460957441229 0.20006899615855769 0 0.29348474723329021 0.1956180509847926 0 0.28087460957441229 0.20006899615855769 0 0.29348474723329021 0.1956180509847926 0 0.29306527759290268 0.20782863444541319 0 0.30267359603925892 0.18702208603580889 0 0.30831492707427621 0.2034585858143429 0 0.31652529532760248 0.18624700295846131 0 0.30267359603925892 0.18702208603580889 0 0.29348474723329021 0.1956180509847926 0 0.30831492707427621 0.2034585858143429 0 0.29348474723329021 0.1956180509847926 0 0.30831492707427621 0.2034585858143429 0 0.29306527759290268 0.20782863444541319 0 0.30831492707427621 0.2034585858143429 0 0.30125389542823727 0.2197353934933963 0 0.31867907464402873 0.2254404801980549 0 0.30831492707427621 0.2034585858143429 0 0.29306527759290268 0.20782863444541319 0 0.30125389542823727 0.2197353934933963 0 0.29306527759290268 0.20782863444541319 0 0.28408533441144751 0.21896223071887649 0 0.30125389542823727 0.2197353934933963 0 0.28087460957441229 0.20006899615855769 0 0.29306527759290268 0.20782863444541319 0 0.28408533441144751 0.21896223071887649 0 0.27835772352043531 0.23766085513349999 0 0.29222243468834042 0.23351925294202189 0 0.28408533441144751 0.21896223071887649 0 0.29222243468834042 0.23351925294202189 0 0.28408533441144751 0.21896223071887649 0 0.30125389542823727 0.2197353934933963 0 0.30125389542823727 0.2197353934933963 0 0.3072297318993763 0.24160878612353431 0 0.31867907464402873 0.2254404801980549 0 0.29222243468834042 0.23351925294202189 0 0.30125389542823727 0.2197353934933963 0 0.3072297318993763 0.24160878612353431 0 0.30851620454312739 0.25795674066786078 0 0.3072297318993763 0.24160878612353431 0 0.29018548818220552 0.2496289992408022 0 0.3072297318993763 0.24160878612353431 0 0.29018548818220552 0.2496289992408022 0 0.29222243468834042 0.23351925294202189 0 0.3072297318993763 0.24160878612353431 0 0.29018548818220552 0.2496289992408022 0 0.27835772352043531 0.23766085513349999 0 0.29222243468834042 0.23351925294202189 0 0.29018548818220552 0.2496289992408022 0 0.33999986309681918 0.253831278915297 0 0.32273272279804549 0.2458716006969742 0 0.33831310729892877 0.23250939930936471 0 0.30851620454312739 0.25795674066786078 0 0.3072297318993763 0.24160878612353431 0 0.32273272279804549 0.2458716006969742 0 0.3072297318993763 0.24160878612353431 0 0.32273272279804549 0.2458716006969742 0 0.31867907464402873 0.2254404801980549 0 0.32273272279804549 0.2458716006969742 0 0.31867907464402873 0.2254404801980549 0 0.33831310729892877 0.23250939930936471 0 0.33831310729892877 0.23250939930936471 0 0.33575132928021922 0.20767024993938971 0 0.35537781853776201 0.22214854169079939 0 0.31867907464402873 0.2254404801980549 0 0.33831310729892877 0.23250939930936471 0 0.33575132928021922 0.20767024993938971 0 0.30831492707427621 0.2034585858143429 0 0.31867907464402873 0.2254404801980549 0 0.33575132928021922 0.20767024993938971 0 0.33575132928021922 0.20767024993938971 0 0.31652529532760248 0.18624700295846131 0 0.33088081697543992 0.1828942333326378 0 0.30831492707427621 0.2034585858143429 0 0.33575132928021922 0.20767024993938971 0 0.31652529532760248 0.18624700295846131 0 0.33575132928021922 0.20767024993938971 0 0.35526680439433872 0.18819359899584559 0 0.33088081697543992 0.1828942333326378 0 0.33575132928021922 0.20767024993938971 0 0.35526680439433872 0.18819359899584559 0 0.33575132928021922 0.20767024993938971 0 0.35526680439433872 0.18819359899584559 0 0.36322567357678881 0.2056067416393185 0 0.35526680439433872 0.18819359899584559 0 0.36322567357678881 0.2056067416393185 0 0.3802075125476464 0.1969392959409883 0 0.35526680439433872 0.18819359899584559 0 0.38157558893697252 0.18199153324631609 0 0.3802075125476464 0.1969392959409883 0 0.36322567357678881 0.2056067416393185 0 0.35537781853776201 0.22214854169079939 0 0.38029825449247112 0.22276154857322811 0 0.36322567357678881 0.2056067416393185 0 0.38029825449247112 0.22276154857322811 0 0.3802075125476464 0.1969392959409883 0 0.33575132928021922 0.20767024993938971 0 0.36322567357678881 0.2056067416393185 0 0.35537781853776201 0.22214854169079939 0 0.33831310729892877 0.23250939930936471 0 0.35537781853776201 0.22214854169079939 0 0.35737850957550449 0.2442113371059583 0 0.35537781853776201 0.22214854169079939 0 0.35737850957550449 0.2442113371059583 0 0.38029825449247112 0.22276154857322811 0 0.37768262082232351 0.25313691772454189 0 0.35737850957550449 0.2442113371059583 0 0.38029825449247112 0.22276154857322811 0 0.33999986309681918 0.253831278915297 0 0.33831310729892877 0.23250939930936471 0 0.35737850957550449 0.2442113371059583 0 0.33504562284292982 0.14935857244426251 0 0.33660741708024539 0.1445732202200361 0 0.3280655441798333 0.1490706171165157 0 0.33660741708024539 0.1445732202200361 0 0.33065729369120372 0.13893293261047751 0 0.3280655441798333 0.1490706171165157 0 0.33491373783493039 0.1535812215150319 0 0.33504562284292982 0.14935857244426251 0 0.3280655441798333 0.1490706171165157 0 0.33491373783493039 0.1535812215150319 0 0.33504562284292982 0.14935857244426251 0 0.34059579227670989 0.1502092309254664 0 0.33491373783493039 0.1535812215150319 0 0.34364617551032062 0.1546239093495671 0 0.34059579227670989 0.1502092309254664 0 0.34059579227670989 0.1502092309254664 0 0.33660741708024539 0.1445732202200361 0 0.34551253201635018 0.14151280258461579 0 0.33504562284292982 0.14935857244426251 0 0.34059579227670989 0.1502092309254664 0 0.33660741708024539 0.1445732202200361 0 0.33660741708024539 0.1445732202200361 0 0.3377553064166342 0.13571099987616919 0 0.34551253201635018 0.14151280258461579 0 0.34253130972392148 0.12322460711172591 0 0.3377553064166342 0.13571099987616919 0 0.34551253201635018 0.14151280258461579 0 0.34253130972392148 0.12322460711172591 0 0.3377553064166342 0.13571099987616919 0 0.33299705933522489 0.12972461698702331 0 0.33660741708024539 0.1445732202200361 0 0.3377553064166342 0.13571099987616919 0 0.33065729369120372 0.13893293261047751 0 0.3377553064166342 0.13571099987616919 0 0.33299705933522489 0.12972461698702331 0 0.33065729369120372 0.13893293261047751 0 0.33299705933522489 0.12972461698702331 0 0.33065729369120372 0.13893293261047751 0 0.32426642874053668 0.13161708493570701 0 0.33065729369120372 0.13893293261047751 0 0.32426642874053668 0.13161708493570701 0 0.32312179782780709 0.14149268884669161 0 0.32426642874053668 0.13161708493570701 0 0.31663405136186551 0.13594582794754251 0 0.32312179782780709 0.14149268884669161 0 0.31616401195661392 0.1248377243648759 0 0.32681367206841783 0.1206210284677877 0 0.32426642874053668 0.13161708493570701 0 0.32681367206841783 0.1206210284677877 0 0.33299705933522489 0.12972461698702331 0 0.32426642874053668 0.13161708493570701 0 0.31616401195661392 0.1248377243648759 0 0.32426642874053668 0.13161708493570701 0 0.31663405136186551 0.13594582794754251 0 0.31616401195661392 0.1248377243648759 0 0.30877184312781092 0.1310124580689003 0 0.31663405136186551 0.13594582794754251 0 0.30992950480213499 0.14123409330057399 0 0.31663405136186551 0.13594582794754251 0 0.31827466052077419 0.14405377806178871 0 0.31663405136186551 0.13594582794754251 0 0.31827466052077419 0.14405377806178871 0 0.32312179782780709 0.14149268884669161 0 0.30478272625260749 0.15382864107182409 0 0.32465596715382511 0.1580555096370119 0 0.30992950480213499 0.14123409330057399 0 0.31827466052077419 0.14405377806178871 0 0.31959496171328788 0.15363718405733051 0 0.30478272625260749 0.15382864107182409 0 0.31959496171328788 0.15363718405733051 0 0.32465596715382511 0.1580555096370119 0 0.33065729369120372 0.13893293261047751 0 0.32312179782780709 0.14149268884669161 0 0.3280655441798333 0.1490706171165157 0 0.31827466052077419 0.14405377806178871 0 0.32312179782780709 0.14149268884669161 0 0.32222961829955771 0.14838486324399769 0 0.32312179782780709 0.14149268884669161 0 0.32222961829955771 0.14838486324399769 0 0.3280655441798333 0.1490706171165157 0 0.33491373783493039 0.1535812215150319 0 0.3280655441798333 0.1490706171165157 0 0.31959496171328788 0.15363718405733051 0 0.32222961829955771 0.14838486324399769 0 0.3280655441798333 0.1490706171165157 0 0.31959496171328788 0.15363718405733051 0 0.31827466052077419 0.14405377806178871 0 0.32222961829955771 0.14838486324399769 0 0.31959496171328788 0.15363718405733051 0 0.31272640101896898 0.16399236631745609 0 0.32139995661265608 0.16909463056630111 0 0.32465596715382511 0.1580555096370119 0 0.30478272625260749 0.15382864107182409 0 0.31272640101896898 0.16399236631745609 0 0.32465596715382511 0.1580555096370119 0 0.30952236682175199 0.17406939237798111 0 0.31272640101896898 0.16399236631745609 0 0.32139995661265608 0.16909463056630111 0 0.32139995661265608 0.16909463056630111 0 0.32827204641492369 0.16583914702668659 0 0.3326745058293275 0.1715496024071915 0 0.32139995661265608 0.16909463056630111 0 0.32465596715382511 0.1580555096370119 0 0.32827204641492369 0.16583914702668659 0 0.30952236682175199 0.17406939237798111 0 0.32139995661265608 0.16909463056630111 0 0.31652529532760248 0.18624700295846131 0 0.32139995661265608 0.16909463056630111 0 0.31652529532760248 0.18624700295846131 0 0.33088081697543992 0.1828942333326378 0 0.35526680439433872 0.18819359899584559 0 0.33088081697543992 0.1828942333326378 0 0.3448887269712505 0.1745117977645072 0 0.32139995661265608 0.16909463056630111 0 0.33088081697543992 0.1828942333326378 0 0.3326745058293275 0.1715496024071915 0 0.33088081697543992 0.1828942333326378 0 0.3326745058293275 0.1715496024071915 0 0.3448887269712505 0.1745117977645072 0 0.33491373783493039 0.1535812215150319 0 0.31959496171328788 0.15363718405733051 0 0.34452920805504261 0.1622823782021999 0 0.31959496171328788 0.15363718405733051 0 0.34452920805504261 0.1622823782021999 0 0.31959496171328788 0.15363718405733051 0 0.32465596715382511 0.1580555096370119 0 0.34452920805504261 0.1622823782021999 0 0.32465596715382511 0.1580555096370119 0 0.33664672211937119 0.1664796986800611 0 0.34452920805504261 0.1622823782021999 0 0.32465596715382511 0.1580555096370119 0 0.34452920805504261 0.1622823782021999 0 0.32465596715382511 0.1580555096370119 0 0.32827204641492369 0.16583914702668659 0 0.33664672211937119 0.1664796986800611 0 0.32827204641492369 0.16583914702668659 0 0.3326745058293275 0.1715496024071915 0 0.33664672211937119 0.1664796986800611 0 0.33664672211937119 0.1664796986800611 0 0.34629048207653629 0.16777904028265681 0 0.3448887269712505 0.1745117977645072 0 0.3326745058293275 0.1715496024071915 0 0.33664672211937119 0.1664796986800611 0 0.3448887269712505 0.1745117977645072 0 0.33664672211937119 0.1664796986800611 0 0.34452920805504261 0.1622823782021999 0 0.34629048207653629 0.16777904028265681 0 0.33491373783493039 0.1535812215150319 0 0.34364617551032062 0.1546239093495671 0 0.34452920805504261 0.1622823782021999 0 0.34364617551032062 0.1546239093495671 0 0.34951572936383901 0.1563904878053968 0 0.34452920805504261 0.1622823782021999 0 0.34452920805504261 0.1622823782021999 0 0.36923778300463123 0.16753768101184829 0 0.34452920805504261 0.1622823782021999 0 0.3558881083914941 0.16001193446319981 0 0.36923778300463123 0.16753768101184829 0 0.34452920805504261 0.1622823782021999 0 0.35045707852925351 0.16433768761130671 0 0.36923778300463123 0.16753768101184829 0 0.34951572936383901 0.1563904878053968 0 0.34452920805504261 0.1622823782021999 0 0.3558881083914941 0.16001193446319981 0 0.35045707852925351 0.16433768761130671 0 0.35833465656067731 0.17481612927994039 0 0.36923778300463123 0.16753768101184829 0 0.34452920805504261 0.1622823782021999 0 0.35045707852925351 0.16433768761130671 0 0.34452920805504261 0.1622823782021999 0 0.34629048207653629 0.16777904028265681 0 0.35045707852925351 0.16433768761130671 0 0.34629048207653629 0.16777904028265681 0 0.34999273603442937 0.17036116373460269 0 0.3448887269712505 0.1745117977645072 0 0.34629048207653629 0.16777904028265681 0 0.34999273603442937 0.17036116373460269 0 0.35045707852925351 0.16433768761130671 0 0.34999273603442937 0.17036116373460269 0 0.35045707852925351 0.16433768761130671 0 0.35833465656067731 0.17481612927994039 0 0.34951572936383901 0.1563904878053968 0 0.3558881083914941 0.16001193446319981 0 0.35577905313541502 0.15438626896971111 0 0.34999273603442937 0.17036116373460269 0 0.3448887269712505 0.1745117977645072 0 0.35833465656067731 0.17481612927994039 0 0.35526680439433872 0.18819359899584559 0 0.3448887269712505 0.1745117977645072 0 0.35833465656067731 0.17481612927994039 0 0.35526680439433872 0.18819359899584559 0 0.37478227950845922 0.16871694805230289 0 0.35526680439433872 0.18819359899584559 0 0.36923778300463123 0.16753768101184829 0 0.37478227950845922 0.16871694805230289 0 0.35526680439433872 0.18819359899584559 0 0.35833465656067731 0.17481612927994039 0 0.36923778300463123 0.16753768101184829 0 0.35526680439433872 0.18819359899584559 0 0.37478227950845922 0.16871694805230289 0 0.38157558893697252 0.18199153324631609 0 0.36923778300463123 0.16753768101184829 0 0.35588454636427669 0.1453811440617869 0 0.3558881083914941 0.16001193446319981 0 0.36923778300463123 0.16753768101184829 0 0.35577905313541502 0.15438626896971111 0 0.36923778300463123 0.16753768101184829 0 0.37478227950845922 0.16871694805230289 0 0.37727284780064207 0.15890779719626591 0 0.36923778300463123 0.16753768101184829 0 0.37478227950845922 0.16871694805230289 0 0.36923778300463123 0.16753768101184829 0 0.37202043769518639 0.15660634964611139 0 0.37727284780064207 0.15890779719626591 0 0.36923778300463123 0.16753768101184829 0 0.37202043769518639 0.15660634964611139 0 0.36649610298107338 0.1534614645217888 0 0.36923778300463123 0.16753768101184829 0 0.35577905313541502 0.15438626896971111 0 0.35588454636427669 0.1453811440617869 0 0.37202043769518639 0.15660634964611139 0 0.37146101098097151 0.15088543028321511 0 0.37756650775012668 0.15182639042553531 0 0.36923778300463123 0.16753768101184829 0 0.36649610298107338 0.1534614645217888 0 0.35588454636427669 0.1453811440617869 0 0.37146101098097151 0.15088543028321511 0 0.3743810298496581 0.14615319720397699 0 0.37756650775012668 0.15182639042553531 0 0.37146101098097151 0.15088543028321511 0 0.36684097662881321 0.14637974961866329 0 0.36649610298107338 0.1534614645217888 0 0.37202043769518639 0.15660634964611139 0 0.37146101098097151 0.15088543028321511 0 0.36649610298107338 0.1534614645217888 0 0.3743810298496581 0.14615319720397699 0 0.36684097662881321 0.14637974961866329 0 0.37463414931306188 0.13861398908196421 0 0.37146101098097151 0.15088543028321511 0 0.3743810298496581 0.14615319720397699 0 0.36684097662881321 0.14637974961866329 0 0.36684097662881321 0.14637974961866329 0 0.36649610298107338 0.1534614645217888 0 0.35588454636427669 0.1453811440617869 0 0.36684097662881321 0.14637974961866329 0 0.35588454636427669 0.1453811440617869 0 0.36216121366407761 0.1348377698038086 0 0.35577905313541502 0.15438626896971111 0 0.35588454636427669 0.1453811440617869 0 0.34867641002108057 0.15065622829974051 0 0.35588454636427669 0.1453811440617869 0 0.34551253201635018 0.14151280258461579 0 0.34867641002108057 0.15065622829974051 0 0.34059579227670989 0.1502092309254664 0 0.34551253201635018 0.14151280258461579 0 0.34867641002108057 0.15065622829974051 0 0.34364617551032062 0.1546239093495671 0 0.34059579227670989 0.1502092309254664 0 0.34867641002108057 0.15065622829974051 0 0.34364617551032062 0.1546239093495671 0 0.34951572936383901 0.1563904878053968 0 0.34867641002108057 0.15065622829974051 0 0.34951572936383901 0.1563904878053968 0 0.35577905313541502 0.15438626896971111 0 0.34867641002108057 0.15065622829974051 0 0.34253130972392148 0.12322460711172591 0 0.35588454636427669 0.1453811440617869 0 0.34551253201635018 0.14151280258461579 0 0.34253130972392148 0.12322460711172591 0 0.35588454636427669 0.1453811440617869 0 0.34253130972392148 0.12322460711172591 0 0.35724186548058767 0.1211353712691958 0 0.36216121366407761 0.1348377698038086 0 0.34253130972392148 0.12322460711172591 0 0.35588454636427669 0.1453811440617869 0 0.36216121366407761 0.1348377698038086 0 0.36216121366407761 0.1348377698038086 0 0.38053980624664979 0.13159931103532729 0 0.3695735249642183 0.1240652025460233 0 0.36216121366407761 0.1348377698038086 0 0.38053980624664979 0.13159931103532729 0 0.35724186548058767 0.1211353712691958 0 0.3695735249642183 0.1240652025460233 0 0.36216121366407761 0.1348377698038086 0 0.36216121366407761 0.1348377698038086 0 0.37463414931306188 0.13861398908196421 0 0.38053980624664979 0.13159931103532729 0 0.36684097662881321 0.14637974961866329 0 0.36216121366407761 0.1348377698038086 0 0.37463414931306188 0.13861398908196421 0 0.37463414931306188 0.13861398908196421 0 0.38053980624664979 0.13159931103532729 0 0.38105004959367461 0.1442451102426589 0 0.37463414931306188 0.13861398908196421 0 0.38053980624664979 0.13159931103532729 0 0.38053980624664979 0.13159931103532729 0 0.40246312588995409 0.12773624228215349 0 0.40146716302387891 0.1178288595784641 0 0.40246312588995409 0.12773624228215349 0 0.40546639035591597 0.15761134248726319 0 0.40904925831234518 0.12657571172477719 0 0.38053980624664979 0.13159931103532729 0 0.40246312588995409 0.12773624228215349 0 0.39378940677180663 0.1497476336501162 0 0.38053980624664979 0.13159931103532729 0 0.40246312588995409 0.12773624228215349 0 0.40246312588995409 0.12773624228215349 0 0.40904925831234518 0.12657571172477719 0 0.40246312588995409 0.12773624228215349 0 0.40546639035591597 0.15761134248726319 0 0.40246312588995409 0.12773624228215349 0 0.39378940677180663 0.1497476336501162 0 0.40546639035591597 0.15761134248726319 0 0.38053980624664979 0.13159931103532729 0 0.39378940677180663 0.1497476336501162 0 0.38105004959367461 0.1442451102426589 0 0.39378940677180663 0.1497476336501162 0 0.38105004959367461 0.1442451102426589 0 0.37756650775012668 0.15182639042553531 0 0.39378940677180663 0.1497476336501162 0 0.37756650775012668 0.15182639042553531 0 0.37727284780064207 0.15890779719626591 0 0.3743810298496581 0.14615319720397699 0 0.38105004959367461 0.1442451102426589 0 0.37756650775012668 0.15182639042553531 0 0.3743810298496581 0.14615319720397699 0 0.37463414931306188 0.13861398908196421 0 0.38105004959367461 0.1442451102426589 0 0.37202043769518639 0.15660634964611139 0 0.37756650775012668 0.15182639042553531 0 0.37727284780064207 0.15890779719626591 0 0.37478227950845922 0.16871694805230289 0 0.39378940677180663 0.1497476336501162 0 0.37727284780064207 0.15890779719626591 0 0.37478227950845922 0.16871694805230289 0 0.39378940677180663 0.1497476336501162 0 0.37478227950845922 0.16871694805230289 0 0.39717250127446507 0.17347915694519331 0 0.39280264447766172 0.1623887702837189 0 0.37478227950845922 0.16871694805230289 0 0.39717250127446507 0.17347915694519331 0 0.37478227950845922 0.16871694805230289 0 0.39378940677180663 0.1497476336501162 0 0.39280264447766172 0.1623887702837189 0 0.37478227950845922 0.16871694805230289 0 0.38157558893697252 0.18199153324631609 0 0.39717250127446507 0.17347915694519331 0 0.39717250127446507 0.17347915694519331 0 0.40546639035591597 0.15761134248726319 0 0.40846965482187603 0.18748644269237319 0 0.38157558893697252 0.18199153324631609 0 0.39717250127446507 0.17347915694519331 0 0.39361742927147819 0.1879739455250973 0 0.39717250127446507 0.17347915694519331 0 0.40846965482187603 0.18748644269237319 0 0.39361742927147819 0.1879739455250973 0 0.39717250127446507 0.17347915694519331 0 0.39280264447766172 0.1623887702837189 0 0.40546639035591597 0.15761134248726319 0 0.39378940677180663 0.1497476336501162 0 0.39280264447766172 0.1623887702837189 0 0.40546639035591597 0.15761134248726319 0 0.40546639035591597 0.15761134248726319 0 0.40846965482187603 0.18748644269237319 0 0.42324004249922459 0.16360913767110269 0 0.40546639035591597 0.15761134248726319 0 0.40846965482187603 0.18748644269237319 0 0.40846965482187603 0.18748644269237319 0 0.4370941923261687 0.1763737826734352 0 0.42324004249922459 0.16360913767110269 0 0.40846965482187603 0.18748644269237319 0 0.4370941923261687 0.1763737826734352 0 0.43845282039245159 0.19838648260821881 0 0.4370941923261687 0.1763737826734352 0 0.42324004249922459 0.16360913767110269 0 0.44215260976646281 0.1576428365773368 0 0.42324004249922459 0.16360913767110269 0 0.42450967079667168 0.14441114335370539 0 0.44215260976646281 0.1576428365773368 0 0.42450967079667168 0.14441114335370539 0 0.44299064425086199 0.13990935288568229 0 0.44215260976646281 0.1576428365773368 0 0.42450967079667168 0.14441114335370539 0 0.43369872076121169 0.13187788998856151 0 0.42438326444863222 0.1238737340621836 0 0.42450967079667168 0.14441114335370539 0 0.43369872076121169 0.13187788998856151 0 0.44299064425086199 0.13990935288568229 0 0.43369872076121169 0.13187788998856151 0 0.43971727058491938 0.1211717563995913 0 0.42438326444863222 0.1238737340621836 0 0.42450967079667168 0.14441114335370539 0 0.40904925831234518 0.12657571172477719 0 0.42438326444863222 0.1238737340621836 0 0.42450967079667168 0.14441114335370539 0 0.40904925831234518 0.12657571172477719 0 0.40904925831234518 0.12657571172477719 0 0.42438326444863222 0.1238737340621836 0 0.40546639035591597 0.15761134248726319 0 0.42450967079667168 0.14441114335370539 0 0.40904925831234518 0.12657571172477719 0 0.40546639035591597 0.15761134248726319 0 0.42324004249922459 0.16360913767110269 0 0.42450967079667168 0.14441114335370539 0 0.37768262082232351 0.25313691772454189 0 0.39454940445614572 0.24163930715972759 0 0.38029825449247112 0.22276154857322811 0 0.39454940445614572 0.24163930715972759 0 0.38029825449247112 0.22276154857322811 0 0.41147291928783603 0.2173615428974833 0 0.38029825449247112 0.22276154857322811 0 0.39694576527067288 0.2031068671984228 0 0.41147291928783603 0.2173615428974833 0 0.38029825449247112 0.22276154857322811 0 0.3802075125476464 0.1969392959409883 0 0.39694576527067288 0.2031068671984228 0 0.3802075125476464 0.1969392959409883 0 0.39361742927147819 0.1879739455250973 0 0.39694576527067288 0.2031068671984228 0 0.38157558893697252 0.18199153324631609 0 0.3802075125476464 0.1969392959409883 0 0.39361742927147819 0.1879739455250973 0 0.40846965482187603 0.18748644269237319 0 0.39694576527067288 0.2031068671984228 0 0.41147291928783603 0.2173615428974833 0 0.40846965482187603 0.18748644269237319 0 0.39361742927147819 0.1879739455250973 0 0.39694576527067288 0.2031068671984228 0 0.40846965482187603 0.18748644269237319 0 0.41147291928783603 0.2173615428974833 0 0.40846965482187603 0.18748644269237319 0 0.42322629889938568 0.20653178780633469 0 0.43845282039245159 0.19838648260821881 0 0.42322629889938568 0.20653178780633469 0 0.41147291928783603 0.2173615428974833 0 0.43117289370717721 0.2199511645424396 0 0.42322629889938568 0.20653178780633469 0 0.43117289370717721 0.2199511645424396 0 0.43845282039245159 0.19838648260821881 0 0.40846965482187603 0.18748644269237319 0 0.42322629889938568 0.20653178780633469 0 0.41147291928783603 0.2173615428974833 0 0.41147291928783603 0.2173615428974833 0 0.43117289370717721 0.2199511645424396 0 0.42210971433802802 0.23761683714497511 0 0.41147291928783603 0.2173615428974833 0 0.42210971433802802 0.23761683714497511 0 0.41447618375379852 0.24723664310259311 0 0.41147291928783603 0.2173615428974833 0 0.41447618375379852 0.24723664310259311 0 0.43117289370717721 0.2199511645424396 0 0.43188920368813388 0.23239147010289549 0 0.42210971433802802 0.23761683714497511 0 0.42210971433802802 0.23761683714497511 0 0.42858319804779638 0.23940704827366741 0 0.4242548841974727 0.24628829423035831 0 0.43671704777096793 0.25893409683671381 0 0.43607898996755118 0.24133159161644091 0 0.43901721571526969 0.24435508806597711 0 0.43188920368813388 0.23239147010289549 0 0.42210971433802802 0.23761683714497511 0 0.42858319804779638 0.23940704827366741 0 0.43188920368813388 0.23239147010289549 0 0.42858319804779638 0.23940704827366741 0 0.43607898996755118 0.24133159161644091 0 0.42858319804779638 0.23940704827366741 0 0.43607898996755118 0.24133159161644091 0 0.4242548841974727 0.24628829423035831 0 0.39454940445614572 0.24163930715972759 0 0.41147291928783603 0.2173615428974833 0 0.41447618375379852 0.24723664310259311 0 0.42210971433802802 0.23761683714497511 0 0.4242548841974727 0.24628829423035831 0 0.41447618375379852 0.24723664310259311 0 0.42210971433802802 0.23761683714497511 0 0.41447618375379852 0.24723664310259311 0 0.43607898996755118 0.24133159161644091 0 0.45934481047684628 0.24035091041351131 0 0.43901721571526969 0.24435508806597711 0 0.45934481047684628 0.24035091041351131 0 0.43901721571526969 0.24435508806597711 0 0.45422312872478998 0.2602205980692584 0 0.45934481047684628 0.24035091041351131 0 0.43901721571526969 0.24435508806597711 0 0.43607898996755118 0.24133159161644091 0 0.4520592424756642 0.21907545403753989 0 0.43188920368813388 0.23239147010289549 0 0.43607898996755118 0.24133159161644091 0 0.4520592424756642 0.21907545403753989 0 0.43607898996755118 0.24133159161644091 0 0.45934481047684628 0.24035091041351131 0 0.4520592424756642 0.21907545403753989 0 0.43117289370717721 0.2199511645424396 0 0.43188920368813388 0.23239147010289549 0 0.4520592424756642 0.21907545403753989 0 0.45934481047684628 0.24035091041351131 0 0.4520592424756642 0.21907545403753989 0 0.47259379343619862 0.2169544770522204 0 0.4520592424756642 0.21907545403753989 0 0.46803949498377723 0.1968193164586389 0 0.4520592424756642 0.21907545403753989 0 0.46803949498377723 0.1968193164586389 0 0.47259379343619862 0.2169544770522204 0 0.43117289370717721 0.2199511645424396 0 0.4520592424756642 0.21907545403753989 0 0.43845282039245159 0.19838648260821881 0 0.4520592424756642 0.21907545403753989 0 0.43845282039245159 0.19838648260821881 0 0.46803949498377723 0.1968193164586389 0 0.43845282039245159 0.19838648260821881 0 0.46803949498377723 0.1968193164586389 0 0.45104973545920612 0.18631649503387551 0 0.46803949498377723 0.1968193164586389 0 0.48562391594012189 0.19747843821730701 0 0.48401974749189031 0.17456317887973791 0 0.48562391594012189 0.19747843821730701 0 0.5 0.20566405050599851 0 0.5 0.1789855459034172 0 0.48757802292294872 0.21775725072903021 0 0.5 0.20566405050599851 0 0.4999999999999995 0.2323425551085796 0 0.48562391594012189 0.19747843821730701 0 0.48757802292294872 0.21775725072903021 0 0.5 0.20566405050599851 0 0.46803949498377723 0.1968193164586389 0 0.48562391594012189 0.19747843821730701 0 0.47259379343619862 0.2169544770522204 0 0.48562391594012189 0.19747843821730701 0 0.48757802292294872 0.21775725072903021 0 0.47259379343619862 0.2169544770522204 0 0.45934481047684628 0.24035091041351131 0 0.47259379343619862 0.2169544770522204 0 0.47967240523842292 0.2363467327610454 0 0.48757802292294872 0.21775725072903021 0 0.47259379343619862 0.2169544770522204 0 0.47967240523842292 0.2363467327610454 0 0.48757802292294872 0.21775725072903021 0 0.4999999999999995 0.2323425551085796 0 0.47967240523842292 0.2363467327610454 0 0.4999999999999995 0.2323425551085796 0 0.47967240523842292 0.2363467327610454 0 0.48320351671754608 0.25290392284019519 0 0.5 0.25502228091600149 0 0.4999999999999995 0.2323425551085796 0 0.48320351671754608 0.25290392284019519 0 0.4999999999999995 0.2323425551085796 0 0.47967240523842292 0.2363467327610454 0 0.46987535211562897 0.2512368615807446 0 0.48320351671754608 0.25290392284019519 0 0.47967240523842292 0.2363467327610454 0 0.45934481047684628 0.24035091041351131 0 0.47967240523842292 0.2363467327610454 0 0.46987535211562897 0.2512368615807446 0 0.45934481047684628 0.24035091041351131 0 0.47967240523842292 0.2363467327610454 0 0.45996388292312479 0.15109102866082369 0 0.46804706777688398 0.13752144374744871 0 0.4546649485516559 0.1285478089928756 0 0.46804706777688398 0.13752144374744871 0 0.4546649485516559 0.1285478089928756 0 0.47153686300961928 0.11758056377545011 0 0.45996388292312479 0.15109102866082369 0 0.4546649485516559 0.1285478089928756 0 0.44299064425086199 0.13990935288568229 0 0.4546649485516559 0.1285478089928756 0 0.44299064425086199 0.13990935288568229 0 0.43971727058491938 0.1211717563995913 0 0.43369872076121169 0.13187788998856151 0 0.44299064425086199 0.13990935288568229 0 0.43971727058491938 0.1211717563995913 0 0.45996388292312479 0.15109102866082369 0 0.44299064425086199 0.13990935288568229 0 0.44215260976646281 0.1576428365773368 0 0.4370941923261687 0.1763737826734352 0 0.44215260976646281 0.1576428365773368 0 0.46061243413442732 0.17368639839520911 0 0.4370941923261687 0.1763737826734352 0 0.45104973545920612 0.18631649503387551 0 0.46061243413442732 0.17368639839520911 0 0.4370941923261687 0.1763737826734352 0 0.43845282039245159 0.19838648260821881 0 0.45104973545920612 0.18631649503387551 0 0.46803949498377723 0.1968193164586389 0 0.45104973545920612 0.18631649503387551 0 0.46061243413442732 0.17368639839520911 0 0.45996388292312479 0.15109102866082369 0 0.46061243413442732 0.17368639839520911 0 0.471440122662521 0.16430955287355731 0 0.45996388292312479 0.15109102866082369 0 0.44215260976646281 0.1576428365773368 0 0.46061243413442732 0.17368639839520911 0 0.46061243413442732 0.17368639839520911 0 0.471440122662521 0.16430955287355731 0 0.48401974749189031 0.17456317887973791 0 0.45996388292312479 0.15109102866082369 0 0.471440122662521 0.16430955287355731 0 0.47930880483063942 0.15431554531091141 0 0.471440122662521 0.16430955287355731 0 0.48401974749189031 0.17456317887973791 0 0.47930880483063942 0.15431554531091141 0 0.46803949498377723 0.1968193164586389 0 0.48401974749189031 0.17456317887973791 0 0.46803949498377723 0.1968193164586389 0 0.46061243413442732 0.17368639839520911 0 0.48401974749189031 0.17456317887973791 0 0.48562391594012189 0.19747843821730701 0 0.48401974749189031 0.17456317887973791 0 0.5 0.1789855459034172 0 0.48401974749189031 0.17456317887973791 0 0.500000000000002 0.15230704130083589 0 0.48401974749189031 0.17456317887973791 0 0.500000000000002 0.15230704130083589 0 0.47930880483063942 0.15431554531091141 0 0.48401974749189031 0.17456317887973791 0 0.5 0.1789855459034172 0 0.500000000000002 0.15230704130083589 0 0.500000000000002 0.15230704130083589 0 0.47930880483063942 0.15431554531091141 0 0.48321239759226642 0.1354363168800799 0 0.46804706777688398 0.13752144374744871 0 0.47930880483063942 0.15431554531091141 0 0.48321239759226642 0.1354363168800799 0 0.45996388292312479 0.15109102866082369 0 0.46804706777688398 0.13752144374744871 0 0.47930880483063942 0.15431554531091141 0 0.46804706777688398 0.13752144374744871 0 0.48321239759226642 0.1354363168800799 0 0.47153686300961928 0.11758056377545011 0 0.500000000000002 0.15230704130083589 0 0.48321239759226642 0.1354363168800799 0 0.5 0.12939261507258051 0 0.48321239759226642 0.1354363168800799 0 0.5 0.12939261507258051 0 0.48765052963135608 0.11828568771634571 0 0.5 0.12939261507258051 0 0.48765052963135608 0.11828568771634571 0 0.5 0.1064781888443249 0 0.48765052963135608 0.11828568771634571 0 0.5 0.1064781888443249 0 0.48595736198035622 0.1059587720363387 0 0.50000000000000022 0.094327558298040765 0 0.48595736198035622 0.1059587720363387 0 0.47123259093702491 0.093121861547532297 0 0.5 0.1064781888443249 0 0.50000000000000022 0.094327558298040765 0 0.48595736198035622 0.1059587720363387 0 0.48595736198035622 0.1059587720363387 0 0.47153686300961928 0.11758056377545011 0 0.47123259093702491 0.093121861547532297 0 0.48765052963135608 0.11828568771634571 0 0.48595736198035622 0.1059587720363387 0 0.47153686300961928 0.11758056377545011 0 0.48321239759226642 0.1354363168800799 0 0.48765052963135608 0.11828568771634571 0 0.47153686300961928 0.11758056377545011 0 0.50000000000000577 0.069806652223837973 0 0.4958743965302464 0.069136717548286875 0 0.49017971387711051 0.049222674939493623 0 0.4958743965302464 0.069136717548286875 0 0.50000000000000044 0.083563762616069473 0 0.48304651208379029 0.080608427832208285 0 0.50000000000000577 0.069806652223837973 0 0.4958743965302464 0.069136717548286875 0 0.4958743965302464 0.069136717548286875 0 0.50000000000000044 0.083563762616069473 0 0.50000000000000577 0.069806652223837973 0 0.4958743965302464 0.069136717548286875 0 0.50000000000000044 0.083563762616069473 0 0.50000000000000022 0.094327558298040765 0 0.47123259093702491 0.093121861547532297 0 0.48304651208379029 0.080608427832208285 0 0.50000000000000022 0.094327558298040765 0 0.47123259093702491 0.093121861547532297 0 0.50000000000000022 0.094327558298040765 0 0.50000000000000044 0.083563762616069473 0 0.48304651208379029 0.080608427832208285 0 0.47123259093702491 0.093121861547532297 0 0.48304651208379029 0.080608427832208285 0 0.45718936376475577 0.077467666153848508 0 0.48304651208379029 0.080608427832208285 0 0.47063688564052408 0.06503853317514674 0 0.45718936376475577 0.077467666153848508 0 0.4958743965302464 0.069136717548286875 0 0.47063688564052408 0.06503853317514674 0 0.4958743965302464 0.069136717548286875 0 0.47063688564052408 0.06503853317514674 0 0.47917548689038991 0.056305582819841951 0 0.4958743965302464 0.069136717548286875 0 0.48304651208379029 0.080608427832208285 0 0.47063688564052408 0.06503853317514674 0 0.47063688564052408 0.06503853317514674 0 0.44539937475080221 0.060940348802004662 0 0.47063688564052408 0.06503853317514674 0 0.45718936376475577 0.077467666153848508 0 0.44539937475080221 0.060940348802004662 0 0.47123259093702491 0.093121861547532297 0 0.45718936376475577 0.077467666153848508 0 0.44309835555026961 0.091916164797023858 0 0.47123259093702491 0.093121861547532297 0 0.44309835555026961 0.091916164797023858 0 0.45718936376475577 0.077467666153848508 0 0.44309835555026961 0.091916164797023858 0 0.42972246362612421 0.073180660769175232 0 0.45718936376475577 0.077467666153848508 0 0.42972246362612421 0.073180660769175232 0 0.44539937475080221 0.060940348802004662 0 0.4546649485516559 0.1285478089928756 0 0.47153686300961928 0.11758056377545011 0 0.45516074295384712 0.10813339434142299 0 0.47123259093702491 0.093121861547532297 0 0.44309835555026961 0.091916164797023858 0 0.45516074295384712 0.10813339434142299 0 0.47153686300961928 0.11758056377545011 0 0.47123259093702491 0.093121861547532297 0 0.45516074295384712 0.10813339434142299 0 0.44309835555026961 0.091916164797023858 0 0.45516074295384712 0.10813339434142299 0 0.43422885243188902 0.1075870824023183 0 0.4546649485516559 0.1285478089928756 0 0.45516074295384712 0.10813339434142299 0 0.43971727058491938 0.1211717563995913 0 0.45516074295384712 0.10813339434142299 0 0.43971727058491938 0.1211717563995913 0 0.43422885243188902 0.1075870824023183 0 0.42438326444863222 0.1238737340621836 0 0.41843938661648272 0.1070900150893299 0 0.43422885243188902 0.1075870824023183 0 0.43971727058491938 0.1211717563995913 0 0.42438326444863222 0.1238737340621836 0 0.43971727058491938 0.1211717563995913 0 0.42438326444863222 0.1238737340621836 0 0.43422885243188902 0.1075870824023183 0 0.41158372583006347 0.1165179535427204 0 0.41843938661648272 0.1070900150893299 0 0.40047151727633712 0.1079246314248969 0 0.42438326444863222 0.1238737340621836 0 0.41158372583006347 0.1165179535427204 0 0.41843938661648272 0.1070900150893299 0 0.40904925831234518 0.12657571172477719 0 0.42438326444863222 0.1238737340621836 0 0.41158372583006347 0.1165179535427204 0 0.40904925831234518 0.12657571172477719 0 0.41158372583006347 0.1165179535427204 0 0.40146716302387891 0.1178288595784641 0 0.41843938661648272 0.1070900150893299 0 0.42768267869053878 0.099325932583797336 0 0.41496412016351403 0.090710468046517223 0 0.41843938661648272 0.1070900150893299 0 0.41496412016351403 0.090710468046517223 0 0.40047151727633712 0.1079246314248969 0 0.41496412016351403 0.090710468046517223 0 0.40416375920660952 0.090247617006455214 0 0.40047151727633712 0.1079246314248969 0 0.41496412016351403 0.090710468046517223 0 0.40047151727633712 0.1079246314248969 0 0.44309835555026961 0.091916164797023858 0 0.42768267869053878 0.099325932583797336 0 0.41496412016351403 0.090710468046517223 0 0.44309835555026961 0.091916164797023858 0 0.42768267869053878 0.099325932583797336 0 0.43422885243188902 0.1075870824023183 0 0.41843938661648272 0.1070900150893299 0 0.42768267869053878 0.099325932583797336 0 0.43422885243188902 0.1075870824023183 0 0.44309835555026961 0.091916164797023858 0 0.41496412016351403 0.090710468046517223 0 0.42972246362612421 0.073180660769175232 0 0.41496412016351403 0.090710468046517223 0 0.44309835555026961 0.091916164797023858 0 0.42972246362612421 0.073180660769175232 0 0.41496412016351403 0.090710468046517223 0 0.42972246362612421 0.073180660769175232 0 0.42016186386108018 0.056842164428862571 0 0.44539937475080221 0.060940348802004662 0 0.42972246362612421 0.073180660769175232 0 0.41313791636630892 0.074195559424752824 0 0.42016186386108018 0.056842164428862571 0 0.42972246362612421 0.073180660769175232 0 0.41313791636630892 0.074195559424752824 0 0.41496412016351403 0.090710468046517223 0 0.41313791636630892 0.074195559424752824 0 0.41496412016351403 0.090710468046517223 0 0.40749093271507109 0.083871987554507796 0 0.41496412016351403 0.090710468046517223 0 0.40749093271507109 0.083871987554507796 0 0.40416375920660952 0.090247617006455214 0 0.41496412016351403 0.090710468046517223 0 0.40416375920660952 0.090247617006455214 0 0.40416375920660952 0.090247617006455214 0 0.39769793512385199 0.08033430574030595 0 0.40047151727633712 0.1079246314248969 0 0.41313791636630892 0.074195559424752824 0 0.40749093271507109 0.083871987554507796 0 0.39769793512385199 0.08033430574030595 0 0.40749093271507109 0.083871987554507796 0 0.40416375920660952 0.090247617006455214 0 0.39769793512385199 0.08033430574030595 0 0.39769793512385199 0.08033430574030595 0 0.3831142634541726 0.067641483304395525 0 0.39492435297135903 0.052743980055715477 0 0.41313791636630892 0.074195559424752824 0 0.39769793512385199 0.08033430574030595 0 0.39492435297135903 0.052743980055715477 0 0.39769793512385199 0.08033430574030595 0 0.39492435297135903 0.052743980055715477 0 0.39769793512385199 0.08033430574030595 0 0.3831142634541726 0.067641483304395525 0 0.38289751067506522 0.096406548551769514 0 0.36906297541218042 0.080446760412267337 0 0.3831142634541726 0.067641483304395525 0 0.38289751067506522 0.096406548551769514 0 0.36906297541218042 0.080446760412267337 0 0.38289751067506522 0.096406548551769514 0 0.38289751067506522 0.096406548551769514 0 0.37943231933067589 0.1146488463042451 0 0.3967320459379502 0.11236633669127161 0 0.38289751067506522 0.096406548551769514 0 0.3967320459379502 0.11236633669127161 0 0.37075365190240811 0.1039683634689139 0 0.38289751067506522 0.096406548551769514 0 0.37943231933067589 0.1146488463042451 0 0.38053980624664979 0.13159931103532729 0 0.3967320459379502 0.11236633669127161 0 0.3695735249642183 0.1240652025460233 0 0.38053980624664979 0.13159931103532729 0 0.37943231933067589 0.1146488463042451 0 0.38053980624664979 0.13159931103532729 0 0.37943231933067589 0.1146488463042451 0 0.3967320459379502 0.11236633669127161 0 0.38053980624664979 0.13159931103532729 0 0.3967320459379502 0.11236633669127161 0 0.40146716302387891 0.1178288595784641 0 0.40904925831234518 0.12657571172477719 0 0.40146716302387891 0.1178288595784641 0 0.40246312588995409 0.12773624228215349 0 0.40146716302387891 0.1178288595784641 0 0.40246312588995409 0.12773624228215349 0 0.40904925831234518 0.12657571172477719 0 0.40146716302387891 0.1178288595784641 0 0.41158372583006347 0.1165179535427204 0 0.40146716302387891 0.1178288595784641 0 0.40047151727633712 0.1079246314248969 0 0.3967320459379502 0.11236633669127161 0 0.40146716302387891 0.1178288595784641 0 0.40047151727633712 0.1079246314248969 0 0.40146716302387891 0.1178288595784641 0 0.40047151727633712 0.1079246314248969 0 0.3967320459379502 0.11236633669127161 0 0.40047151727633712 0.1079246314248969 0 0.3967320459379502 0.11236633669127161 0 0.40146716302387891 0.1178288595784641 0 0.38289751067506522 0.096406548551769514 0 0.3967320459379502 0.11236633669127161 0 0.40047151727633712 0.1079246314248969 0 0.39769793512385199 0.08033430574030595 0 0.38289751067506522 0.096406548551769514 0 0.40047151727633712 0.1079246314248969 0 0.39769793512385199 0.08033430574030595 0 0.40047151727633712 0.1079246314248969 0 0.39199162463239651 0.023570540955039632 0 0.41279956288015629 0.035645875175195088 0 0.41207472900801378 0.0089577419866719386 0 0.39199162463239651 0.023570540955039632 0 0.41207472900801378 0.0089577419866719386 0 0.38905889629343282 -0.0056028981456361926 0 0.39199162463239651 0.023570540955039632 0 0.38905889629343282 -0.0056028981456361926 0 0.39199162463239651 0.023570540955039632 0 0.38905889629343282 -0.0056028981456361926 0 0.3668069512915747 -0.001631931432422531 0 0.36942731687790031 0.036265483447151053 0 0.39199162463239651 0.023570540955039632 0 0.3766249582532501 0.049772439248887169 0 0.39199162463239651 0.023570540955039632 0 0.3766249582532501 0.049772439248887169 0 0.39492435297135903 0.052743980055715477 0 0.36958095060144303 0.062443381438691853 0 0.3831142634541726 0.067641483304395525 0 0.3766249582532501 0.049772439248887169 0 0.3766249582532501 0.049772439248887169 0 0.39492435297135903 0.052743980055715477 0 0.3831142634541726 0.067641483304395525 0 0.3766249582532501 0.049772439248887169 0 0.39492435297135903 0.052743980055715477 0 0.39199162463239651 0.023570540955039632 0 0.39492435297135903 0.052743980055715477 0 0.41279956288015629 0.035645875175195088 0 0.39199162463239651 0.023570540955039632 0 0.39492435297135903 0.052743980055715477 0 0.41279956288015629 0.035645875175195088 0 0.42016186386108018 0.056842164428862571 0 0.43163685283319708 0.042126864888565832 0 0.39492435297135903 0.052743980055715477 0 0.42016186386108018 0.056842164428862571 0 0.41313791636630892 0.074195559424752824 0 0.39492435297135903 0.052743980055715477 0 0.42016186386108018 0.056842164428862571 0 0.39492435297135903 0.052743980055715477 0 0.41279956288015629 0.035645875175195088 0 0.42016186386108018 0.056842164428862571 0 0.42016186386108018 0.056842164428862571 0 0.43163685283319708 0.042126864888565832 0 0.44539937475080221 0.060940348802004662 0 0.42016186386108018 0.056842164428862571 0 0.44539937475080221 0.060940348802004662 0 0.41279956288015629 0.035645875175195088 0 0.43163685283319708 0.042126864888565832 0 0.43183553694344051 0.025482098311225519 0 0.43163685283319708 0.042126864888565832 0 0.43183553694344051 0.025482098311225519 0 0.44716827203967302 0.019001746140351029 0 0.43183553694344051 0.025482098311225519 0 0.43460367403883321 0.009067923132103365 0 0.43892903208910278 0.016513024198804339 0 0.41279956288015629 0.035645875175195088 0 0.43183553694344051 0.025482098311225519 0 0.41207472900801378 0.0089577419866719386 0 0.41207472900801378 0.0089577419866719386 0 0.43460367403883321 0.009067923132103365 0 0.42467419613403079 -0.01149163567175053 0 0.43183553694344051 0.025482098311225519 0 0.41207472900801378 0.0089577419866719386 0 0.43460367403883321 0.009067923132103365 0 0.43460367403883321 0.009067923132103365 0 0.44891365127938321 0.0038371952909332248 0 0.44233831169280657 -0.0093084988090189197 0 0.44891365127938321 0.0038371952909332248 0 0.44716827203967302 0.019001746140351029 0 0.46269969124614901 -0.0041233726078638497 0 0.44891365127938321 0.0038371952909332248 0 0.44210864533446481 0.012500329211537429 0 0.44716827203967302 0.019001746140351029 0 0.43460367403883321 0.009067923132103365 0 0.44891365127938321 0.0038371952909332248 0 0.44210864533446481 0.012500329211537429 0 0.43460367403883321 0.009067923132103365 0 0.44210864533446481 0.012500329211537429 0 0.43892903208910278 0.016513024198804339 0 0.43163685283319708 0.042126864888565832 0 0.44747624964880062 0.027188663981864359 0 0.44716827203967302 0.019001746140351029 0 0.43183553694344051 0.025482098311225519 0 0.43892903208910278 0.016513024198804339 0 0.44716827203967302 0.019001746140351029 0 0.44747624964880062 0.027188663981864359 0 0.44716827203967302 0.019001746140351029 0 0.45775621881999851 0.0090619853819188349 0 0.44747624964880062 0.027188663981864359 0 0.45775621881999851 0.0090619853819188349 0 0.43163685283319708 0.042126864888565832 0 0.44716827203967302 0.019001746140351029 0 0.44210864533446481 0.012500329211537429 0 0.43892903208910278 0.016513024198804339 0 0.44716827203967302 0.019001746140351029 0 0.44747624964880062 0.027188663981864359 0 0.45683070827894129 0.023634865075828539 0 0.45402847895233728 0.034614305519625008 0 0.44747624964880062 0.027188663981864359 0 0.45683070827894129 0.023634865075828539 0 0.45775621881999851 0.0090619853819188349 0 0.45683070827894129 0.023634865075828539 0 0.46306619431336482 0.018799513659426979 0 0.45775621881999851 0.0090619853819188349 0 0.45683070827894129 0.023634865075828539 0 0.46182639966020539 0.028509856836307509 0 0.45402847895233728 0.034614305519625008 0 0.45683070827894129 0.023634865075828539 0 0.46182639966020539 0.028509856836307509 0 0.46306619431336482 0.018799513659426979 0 0.46182639966020539 0.028509856836307509 0 0.46777041222455601 0.026217939660706891 0 0.46306619431336482 0.018799513659426979 0 0.46182639966020539 0.028509856836307509 0 0.46777041222455601 0.026217939660706891 0 0.46777091636431839 0.033476912799519323 0 0.46777041222455601 0.026217939660706891 0 0.46306619431336482 0.018799513659426979 0 0.47058730561536782 0.017559648973266961 0 0.46306619431336482 0.018799513659426979 0 0.46765688619995888 0.0083711367365903681 0 0.47058730561536782 0.017559648973266961 0 0.44716827203967302 0.019001746140351029 0 0.46269969124614901 -0.0041233726078638497 0 0.44716827203967302 0.019001746140351029 0 0.45775621881999851 0.0090619853819188349 0 0.46269969124614901 -0.0041233726078638497 0 0.46306619431336482 0.018799513659426979 0 0.46765688619995888 0.0083711367365903681 0 0.45775621881999851 0.0090619853819188349 0 0.4676019985442782 0.0027861565022508192 0 0.45775621881999851 0.0090619853819188349 0 0.4680361879911964 -0.0090646932180266857 0 0.46765688619995888 0.0083711367365903681 0 0.4676019985442782 0.0027861565022508192 0 0.45775621881999851 0.0090619853819188349 0 0.43163685283319708 0.042126864888565832 0 0.44539937475080221 0.060940348802004662 0 0.45184930969454651 0.046540493112693981 0 0.43163685283319708 0.042126864888565832 0 0.45184930969454651 0.046540493112693981 0 0.45402847895233728 0.034614305519625008 0 0.43163685283319708 0.042126864888565832 0 0.44747624964880062 0.027188663981864359 0 0.45402847895233728 0.034614305519625008 0 0.46182639966020539 0.028509856836307509 0 0.45402847895233728 0.034614305519625008 0 0.46555616805092909 0.040900107104903403 0 0.46182639966020539 0.028509856836307509 0 0.46777091636431839 0.033476912799519323 0 0.46555616805092909 0.040900107104903403 0 0.45184930969454651 0.046540493112693981 0 0.46555616805092909 0.040900107104903403 0 0.46486299825763222 0.052289035700416708 0 0.45184930969454651 0.046540493112693981 0 0.45402847895233728 0.034614305519625008 0 0.46555616805092909 0.040900107104903403 0 0.47063688564052408 0.06503853317514674 0 0.44539937475080221 0.060940348802004662 0 0.46486299825763222 0.052289035700416708 0 0.44539937475080221 0.060940348802004662 0 0.45184930969454651 0.046540493112693981 0 0.46486299825763222 0.052289035700416708 0 0.47063688564052408 0.06503853317514674 0 0.46486299825763222 0.052289035700416708 0 0.47917548689038991 0.056305582819841951 0 0.46486299825763222 0.052289035700416708 0 0.47917548689038991 0.056305582819841951 0 0.47656076451860152 0.044009149187909553 0 0.47917548689038991 0.056305582819841951 0 0.47656076451860152 0.044009149187909553 0 0.49017971387711051 0.049222674939493623 0 0.47656076451860152 0.044009149187909553 0 0.49017971387711051 0.049222674939493623 0 0.48448503122397008 0.029308632330701679 0 0.46555616805092909 0.040900107104903403 0 0.47656076451860152 0.044009149187909553 0 0.47560124516952362 0.032743766035013687 0 0.46555616805092909 0.040900107104903403 0 0.46486299825763222 0.052289035700416708 0 0.47656076451860152 0.044009149187909553 0 0.46777091636431839 0.033476912799519323 0 0.46555616805092909 0.040900107104903403 0 0.47560124516952362 0.032743766035013687 0 0.47656076451860152 0.044009149187909553 0 0.47560124516952362 0.032743766035013687 0 0.48448503122397008 0.029308632330701679 0 0.4923227675425329 0.036829397820245358 0 0.5 0.043913174620120121 0 0.49343201321813268 0.02730826936890644 0 0.49017971387711051 0.049222674939493623 0 0.48448503122397008 0.029308632330701679 0 0.4923227675425329 0.036829397820245358 0 0.49017971387711051 0.049222674939493623 0 0.48448503122397008 0.029308632330701679 0 0.4923227675425329 0.036829397820245358 0 0.5 0.043913174620120121 0 0.49017971387711051 0.049222674939493623 0 0.50000000000000577 0.069806652223837973 0 0.5 0.043913174620120121 0 0.49017971387711051 0.049222674939493623 0 0.4958743965302464 0.069136717548286875 0 0.49017971387711051 0.049222674939493623 0 0.4958743965302464 0.069136717548286875 0 0.47917548689038991 0.056305582819841951 0 0.49017971387711051 0.049222674939493623 0 0.47560124516952362 0.032743766035013687 0 0.47879034857082969 0.0093945897219096727 0 0.47695870116595901 0.002776197108520759 0 0.47879034857082969 0.0093945897219096727 0 0.47695870116595901 0.002776197108520759 0 0.48851411707252929 0.0048739536715874917 0 0.46765688619995888 0.0083711367365903681 0 0.4676019985442782 0.0027861565022508192 0 0.47695870116595901 0.002776197108520759 0 0.46765688619995888 0.0083711367365903681 0 0.47695870116595901 0.002776197108520759 0 0.47058730561536782 0.017559648973266961 0 0.47560124516952362 0.032743766035013687 0 0.47695870116595901 0.002776197108520759 0 0.47560124516952362 0.032743766035013687 0 0.47695870116595901 0.002776197108520759 0 0.47058730561536782 0.017559648973266961 0 0.47879034857082969 0.0093945897219096727 0 0.489084179880928 0.017433971337081279 0 0.48448503122397008 0.029308632330701679 0 0.47879034857082969 0.0093945897219096727 0 0.48448503122397008 0.029308632330701679 0 0.47560124516952362 0.032743766035013687 0 0.47879034857082969 0.0093945897219096727 0 0.48448503122397008 0.029308632330701679 0 0.46777041222455601 0.026217939660706891 0 0.47560124516952362 0.032743766035013687 0 0.47058730561536782 0.017559648973266961 0 0.46777041222455601 0.026217939660706891 0 0.46777091636431839 0.033476912799519323 0 0.47560124516952362 0.032743766035013687 0 0.5 0.043913174620120121 0 0.49343201321813268 0.02730826936890644 0 0.5 0.018019697016402159 0 0.489084179880928 0.017433971337081279 0 0.48448503122397008 0.029308632330701679 0 0.49343201321813268 0.02730826936890644 0 0.4923227675425329 0.036829397820245358 0 0.48448503122397008 0.029308632330701679 0 0.49343201321813268 0.02730826936890644 0 0.489084179880928 0.017433971337081279 0 0.49343201321813268 0.02730826936890644 0 0.5 0.018019697016402159 0 0.5 0.018019697016402159 0 0.48851411707252929 0.0048739536715874917 0 0.5 -0.007873780587315693 0 0.489084179880928 0.017433971337081279 0 0.5 0.018019697016402159 0 0.48851411707252929 0.0048739536715874917 0 0.47879034857082969 0.0093945897219096727 0 0.489084179880928 0.017433971337081279 0 0.48851411707252929 0.0048739536715874917 0 0.5 -0.007873780587315693 0 0.48751708269125937 -0.01065708821738985 0 0.48906387940501223 -0.023604808894895749 0 0.48851411707252929 0.0048739536715874917 0 0.5 -0.007873780587315693 0 0.48751708269125937 -0.01065708821738985 0 0.47695870116595901 0.002776197108520759 0 0.48851411707252929 0.0048739536715874917 0 0.48751708269125937 -0.01065708821738985 0 0.4789858506346949 -0.02837224290140725 0 0.46269969124614901 -0.0041233726078638497 0 0.4680361879911964 -0.0090646932180266857 0 0.47695870116595901 0.002776197108520759 0 0.48751708269125937 -0.01065708821738985 0 0.4789858506346949 -0.02837224290140725 0 0.47695870116595901 0.002776197108520759 0 0.4789858506346949 -0.02837224290140725 0 0.47695870116595901 0.002776197108520759 0 0.4789858506346949 -0.02837224290140725 0 0.4680361879911964 -0.0090646932180266857 0 0.4676019985442782 0.0027861565022508192 0 0.47695870116595901 0.002776197108520759 0 0.4680361879911964 -0.0090646932180266857 0 0.4789858506346949 -0.02837224290140725 0 0.46904377841922612 -0.03790702125956788 0 0.46324645685252508 -0.021491767551176301 0 0.4789858506346949 -0.02837224290140725 0 0.46269969124614901 -0.0041233726078638497 0 0.4789858506346949 -0.02837224290140725 0 0.4680361879911964 -0.0090646932180266857 0 0.48751708269125937 -0.01065708821738985 0 0.4789858506346949 -0.02837224290140725 0 0.48906387940501223 -0.023604808894895749 0 0.5 -0.007873780587315693 0 0.48906387940501223 -0.023604808894895749 0 0.5 -0.0337672581910336 0 0.4789858506346949 -0.02837224290140725 0 0.48906387940501223 -0.023604808894895749 0 0.48938566383926352 -0.032440199833854003 0 0.48906387940501223 -0.023604808894895749 0 0.5 -0.0337672581910336 0 0.48938566383926352 -0.032440199833854003 0 0.4789858506346949 -0.02837224290140725 0 0.48949292531734701 -0.044016489348079488 0 0.48938566383926352 -0.032440199833854003 0 0.5 -0.0337672581910336 0 0.48949292531734701 -0.044016489348079488 0 0.49999999999999939 -0.059660735794751493 0 0.4789858506346949 -0.02837224290140725 0 0.48949292531734701 -0.044016489348079488 0 0.48949292531734651 -0.046899376847652358 0 0.5 -0.0337672581910336 0 0.48949292531734701 -0.044016489348079488 0 0.48938566383926352 -0.032440199833854003 0 0.48949292531734651 -0.046899376847652358 0 0.499999999999999 -0.065426510793896955 0 0.48015102745425742 -0.067698468981323714 0 0.49999999999999939 -0.059660735794751493 0 0.48949292531734651 -0.046899376847652358 0 0.499999999999999 -0.065426510793896955 0 0.48949292531734701 -0.044016489348079488 0 0.49999999999999939 -0.059660735794751493 0 0.48949292531734701 -0.044016489348079488 0 0.49999999999999939 -0.059660735794751493 0 0.48949292531734651 -0.046899376847652358 0 0.48949292531734651 -0.046899376847652358 0 0.499999999999999 -0.065426510793896955 0 0.48949292531734651 -0.046899376847652358 0 0.47923805494514682 -0.04754343878762924 0 0.48015102745425742 -0.067698468981323714 0 0.47923805494514682 -0.04754343878762924 0 0.48015102745425742 -0.067698468981323714 0 0.47923805494514682 -0.04754343878762924 0 0.46810884825017351 -0.06169475104060558 0 0.48015102745425742 -0.067698468981323714 0 0.47923805494514682 -0.04754343878762924 0 0.46904377841922612 -0.03790702125956788 0 0.46810884825017351 -0.06169475104060558 0 0.4789858506346949 -0.02837224290140725 0 0.47923805494514682 -0.04754343878762924 0 0.4789858506346949 -0.02837224290140725 0 0.48949292531734651 -0.046899376847652358 0 0.47923805494514682 -0.04754343878762924 0 0.4789858506346949 -0.02837224290140725 0 0.48949292531734651 -0.046899376847652358 0 0.4789858506346949 -0.02837224290140725 0 0.48949292531734701 -0.044016489348079488 0 0.4789858506346949 -0.02837224290140725 0 0.47923805494514682 -0.04754343878762924 0 0.46904377841922612 -0.03790702125956788 0 0.46904377841922612 -0.03790702125956788 0 0.4552235799714901 -0.035501624924812257 0 0.46810884825017351 -0.06169475104060558 0 0.46904377841922612 -0.03790702125956788 0 0.4552235799714901 -0.035501624924812257 0 0.46324645685252508 -0.021491767551176301 0 0.4552235799714901 -0.035501624924812257 0 0.46810884825017351 -0.06169475104060558 0 0.45285985843225501 -0.055088081447549272 0 0.4552235799714901 -0.035501624924812257 0 0.46810884825017351 -0.06169475104060558 0 0.45285985843225501 -0.055088081447549272 0 0.43879322849231389 -0.045549288064071332 0 0.44356919199723982 -0.062721163997219845 0 0.4552235799714901 -0.035501624924812257 0 0.43879322849231389 -0.045549288064071332 0 0.43722841811166863 -0.02808813376590346 0 0.4552235799714901 -0.035501624924812257 0 0.45285985843225501 -0.055088081447549272 0 0.43879322849231389 -0.045549288064071332 0 0.4552235799714901 -0.035501624924812257 0 0.44233831169280657 -0.0093084988090189197 0 0.4552235799714901 -0.035501624924812257 0 0.44233831169280657 -0.0093084988090189197 0 0.43722841811166863 -0.02808813376590346 0 0.4552235799714901 -0.035501624924812257 0 0.44233831169280657 -0.0093084988090189197 0 0.45548000636737268 -0.01484813082913755 0 0.44891365127938321 0.0038371952909332248 0 0.44233831169280657 -0.0093084988090189197 0 0.45235791514642792 -0.0061107017387717734 0 0.44233831169280657 -0.0093084988090189197 0 0.45235791514642792 -0.0061107017387717734 0 0.45548000636737268 -0.01484813082913755 0 0.45775621881999851 0.0090619853819188349 0 0.46269969124614901 -0.0041233726078638497 0 0.4680361879911964 -0.0090646932180266857 0 0.45235791514642792 -0.0061107017387717734 0 0.45548000636737268 -0.01484813082913755 0 0.46269969124614901 -0.0041233726078638497 0 0.45775621881999851 0.0090619853819188349 0 0.4680361879911964 -0.0090646932180266857 0 0.45548000636737268 -0.01484813082913755 0 0.46269969124614901 -0.0041233726078638497 0 0.46324645685252508 -0.021491767551176301 0 0.44891365127938321 0.0038371952909332248 0 0.45235791514642792 -0.0061107017387717734 0 0.46269969124614901 -0.0041233726078638497 0 0.4552235799714901 -0.035501624924812257 0 0.45548000636737268 -0.01484813082913755 0 0.46324645685252508 -0.021491767551176301 0 0.4789858506346949 -0.02837224290140725 0 0.46269969124614901 -0.0041233726078638497 0 0.46324645685252508 -0.021491767551176301 0 0.47318745432282722 -0.1112194568494143 0 0.45758772835722572 -0.1211367858543745 0 0.47879386417861358 -0.13483840168750641 0 0.47318745432282722 -0.1112194568494143 0 0.48561959419146788 -0.1199465620520868 0 0.47879386417861358 -0.13483840168750641 0 0.47318745432282722 -0.1112194568494143 0 0.48561959419146788 -0.1199465620520868 0 0.49049705826442941 -0.1072054222759419 0 0.48561959419146788 -0.1199465620520868 0 0.49049705826442941 -0.1072054222759419 0 0.50000000000000089 -0.1265229673954851 0 0.49049705826442941 -0.1072054222759419 0 0.50000000000000089 -0.1265229673954851 0 0.49049705826442941 -0.1072054222759419 0 0.5 -0.1061574818616223 0 0.50000000000000089 -0.1265229673954851 0 0.5 -0.1061574818616223 0 0.49375676141722369 -0.096179329710772726 0 0.5 -0.085791996327759634 0 0.49049705826442941 -0.1072054222759419 0 0.48106399996336802 -0.087853499175018251 0 0.49049705826442941 -0.1072054222759419 0 0.49375676141722369 -0.096179329710772726 0 0.48106399996336802 -0.087853499175018251 0 0.49049705826442941 -0.1072054222759419 0 0.5 -0.1061574818616223 0 0.49375676141722369 -0.096179329710772726 0 0.47318745432282722 -0.1112194568494143 0 0.48106399996336802 -0.087853499175018251 0 0.46646029839723602 -0.094109131123392087 0 0.47318745432282722 -0.1112194568494143 0 0.49049705826442941 -0.1072054222759419 0 0.48106399996336802 -0.087853499175018251 0 0.48106399996336802 -0.087853499175018251 0 0.46621538621845898 -0.080284353044526108 0 0.46646029839723602 -0.094109131123392087 0 0.49375676141722369 -0.096179329710772726 0 0.48106399996336802 -0.087853499175018251 0 0.5 -0.085791996327759634 0 0.48106399996336802 -0.087853499175018251 0 0.5 -0.085791996327759634 0 0.48015102745425742 -0.067698468981323714 0 0.5 -0.085791996327759634 0 0.499999999999999 -0.065426510793896955 0 0.48015102745425742 -0.067698468981323714 0 0.46810884825017351 -0.06169475104060558 0 0.48106399996336802 -0.087853499175018251 0 0.46810884825017351 -0.06169475104060558 0 0.48106399996336802 -0.087853499175018251 0 0.46621538621845898 -0.080284353044526108 0 0.46810884825017351 -0.06169475104060558 0 0.48106399996336802 -0.087853499175018251 0 0.48015102745425742 -0.067698468981323714 0 0.48106399996336802 -0.087853499175018251 0 0.48015102745425742 -0.067698468981323714 0 0.46810884825017351 -0.06169475104060558 0 0.45285985843225501 -0.055088081447549272 0 0.45543163302724488 -0.070740863477167432 0 0.46810884825017351 -0.06169475104060558 0 0.45543163302724488 -0.070740863477167432 0 0.46621538621845898 -0.080284353044526108 0 0.45543163302724488 -0.070740863477167432 0 0.44356919199723982 -0.062721163997219845 0 0.43881465442564221 -0.079441263145526922 0 0.45285985843225501 -0.055088081447549272 0 0.45543163302724488 -0.070740863477167432 0 0.44356919199723982 -0.062721163997219845 0 0.43881465442564221 -0.079441263145526922 0 0.45540711382494953 -0.087057050426289195 0 0.4437567028762251 -0.098475749777652902 0 0.45543163302724488 -0.070740863477167432 0 0.43881465442564221 -0.079441263145526922 0 0.45540711382494953 -0.087057050426289195 0 0.45543163302724488 -0.070740863477167432 0 0.45540711382494953 -0.087057050426289195 0 0.46621538621845898 -0.080284353044526108 0 0.45540711382494953 -0.087057050426289195 0 0.46621538621845898 -0.080284353044526108 0 0.46646029839723602 -0.094109131123392087 0 0.47318745432282722 -0.1112194568494143 0 0.46646029839723602 -0.094109131123392087 0 0.45649742109108782 -0.1040969181403318 0 0.45540711382494953 -0.087057050426289195 0 0.46646029839723602 -0.094109131123392087 0 0.45649742109108782 -0.1040969181403318 0 0.45540711382494953 -0.087057050426289195 0 0.45649742109108782 -0.1040969181403318 0 0.45540711382494953 -0.087057050426289195 0 0.45649742109108782 -0.1040969181403318 0 0.4437567028762251 -0.098475749777652902 0 0.4437567028762251 -0.098475749777652902 0 0.44661600265499107 -0.1140477823761034 0 0.43292946562129181 -0.108119685996104 0 0.45649742109108782 -0.1040969181403318 0 0.4437567028762251 -0.098475749777652902 0 0.44661600265499107 -0.1140477823761034 0 0.44661600265499107 -0.1140477823761034 0 0.43666855515660158 -0.1201600277862946 0 0.43292946562129181 -0.108119685996104 0 0.44661600265499107 -0.1140477823761034 0 0.43666855515660158 -0.1201600277862946 0 0.44647433011517001 -0.12630208019281811 0 0.44661600265499107 -0.1140477823761034 0 0.45758772835722572 -0.1211367858543745 0 0.44661600265499107 -0.1140477823761034 0 0.45758772835722572 -0.1211367858543745 0 0.44647433011517001 -0.12630208019281811 0 0.45649742109108782 -0.1040969181403318 0 0.44661600265499107 -0.1140477823761034 0 0.45758772835722572 -0.1211367858543745 0 0.45649742109108782 -0.1040969181403318 0 0.45758772835722572 -0.1211367858543745 0 0.47318745432282722 -0.1112194568494143 0 0.45649742109108782 -0.1040969181403318 0 0.45758772835722572 -0.1211367858543745 0 0.40669439049958689 -0.1136861717613401 0 0.42358006626765249 -0.1181244064186185 0 0.41829815158113293 -0.1023061945086116 0 0.40669439049958689 -0.1136861717613401 0 0.42358006626765249 -0.1181244064186185 0 0.41246131071374498 -0.12656601149269131 0 0.42358006626765249 -0.1181244064186185 0 0.43292946562129181 -0.108119685996104 0 0.41829815158113293 -0.1023061945086116 0 0.42358006626765249 -0.1181244064186185 0 0.43666855515660158 -0.1201600277862946 0 0.43374291112390229 -0.13420618394782891 0 0.42358006626765249 -0.1181244064186185 0 0.43666855515660158 -0.1201600277862946 0 0.43292946562129181 -0.108119685996104 0 0.4437567028762251 -0.098475749777652902 0 0.43292946562129181 -0.108119685996104 0 0.4297601450634258 -0.093899158318256543 0 0.43292946562129181 -0.108119685996104 0 0.4297601450634258 -0.093899158318256543 0 0.41829815158113293 -0.1023061945086116 0 0.40669439049958689 -0.1136861717613401 0 0.41829815158113293 -0.1023061945086116 0 0.40323318837382233 -0.094966920042573857 0 0.4297601450634258 -0.093899158318256543 0 0.41829815158113293 -0.1023061945086116 0 0.4159724630092369 -0.08287607356681935 0 0.41829815158113293 -0.1023061945086116 0 0.4159724630092369 -0.08287607356681935 0 0.40323318837382233 -0.094966920042573857 0 0.43881465442564221 -0.079441263145526922 0 0.4437567028762251 -0.098475749777652902 0 0.4297601450634258 -0.093899158318256543 0 0.43881465442564221 -0.079441263145526922 0 0.4297601450634258 -0.093899158318256543 0 0.4159724630092369 -0.08287607356681935 0 0.43881465442564221 -0.079441263145526922 0 0.4159724630092369 -0.08287607356681935 0 0.42463252075836072 -0.061086066721413312 0 0.44356919199723982 -0.062721163997219845 0 0.43881465442564221 -0.079441263145526922 0 0.42463252075836072 -0.061086066721413312 0 0.4159724630092369 -0.08287607356681935 0 0.40465078437918722 -0.067250517088289649 0 0.42463252075836072 -0.061086066721413312 0 0.40465078437918722 -0.067250517088289649 0 0.38319343961550528 -0.063949776346987952 0 0.39607704450882059 -0.080123215621825436 0 0.4159724630092369 -0.08287607356681935 0 0.40465078437918722 -0.067250517088289649 0 0.39607704450882059 -0.080123215621825436 0 0.38319343961550528 -0.063949776346987952 0 0.38026071127654149 -0.093123215447663776 0 0.36318174972899431 -0.071460897193551615 0 0.38319343961550528 -0.063949776346987952 0 0.38026071127654149 -0.093123215447663776 0 0.39607704450882059 -0.080123215621825436 0 0.38319343961550528 -0.063949776346987952 0 0.38026071127654149 -0.093123215447663776 0 0.38026071127654149 -0.093123215447663776 0 0.39607704450882059 -0.080123215621825436 0 0.40323318837382233 -0.094966920042573857 0 0.4159724630092369 -0.08287607356681935 0 0.39607704450882059 -0.080123215621825436 0 0.40323318837382233 -0.094966920042573857 0 0.38026071127654149 -0.093123215447663776 0 0.40323318837382233 -0.094966920042573857 0 0.39028058565569718 -0.1086317872954555 0 0.40669439049958689 -0.1136861717613401 0 0.40323318837382233 -0.094966920042573857 0 0.39028058565569718 -0.1086317872954555 0 0.40323318837382233 -0.094966920042573857 0 0.39028058565569718 -0.1086317872954555 0 0.38026071127654149 -0.093123215447663776 0 0.37732798293757408 -0.1222966545483393 0 0.38026071127654149 -0.093123215447663776 0 0.39028058565569718 -0.1086317872954555 0 0.37732798293757408 -0.1222966545483393 0 0.39028058565569718 -0.1086317872954555 0 0.37732798293757408 -0.1222966545483393 0 0.39028058565569718 -0.1086317872954555 0 0.37732798293757408 -0.1222966545483393 0 0.39770710588227692 -0.1286423748934763 0 0.40669439049958689 -0.1136861717613401 0 0.39028058565569718 -0.1086317872954555 0 0.39770710588227692 -0.1286423748934763 0 0.40669439049958689 -0.1136861717613401 0 0.39770710588227692 -0.1286423748934763 0 0.41246131071374498 -0.12656601149269131 0 0.42467419613403079 -0.01149163567175053 0 0.4174075420061889 -0.032840374034405817 0 0.40439250194667409 -0.016738472539950301 0 0.41207472900801378 0.0089577419866719386 0 0.42467419613403079 -0.01149163567175053 0 0.40439250194667409 -0.016738472539950301 0 0.43460367403883321 0.009067923132103365 0 0.44233831169280657 -0.0093084988090189197 0 0.42467419613403079 -0.01149163567175053 0 0.44233831169280657 -0.0093084988090189197 0 0.42467419613403079 -0.01149163567175053 0 0.43722841811166863 -0.02808813376590346 0 0.42467419613403079 -0.01149163567175053 0 0.43722841811166863 -0.02808813376590346 0 0.4174075420061889 -0.032840374034405817 0 0.43879322849231389 -0.045549288064071332 0 0.43722841811166863 -0.02808813376590346 0 0.4174075420061889 -0.032840374034405817 0 0.43879322849231389 -0.045549288064071332 0 0.42463252075836072 -0.061086066721413312 0 0.4174075420061889 -0.032840374034405817 0 0.43879322849231389 -0.045549288064071332 0 0.44356919199723982 -0.062721163997219845 0 0.42463252075836072 -0.061086066721413312 0 0.40465078437918722 -0.067250517088289649 0 0.42463252075836072 -0.061086066721413312 0 0.40452687454395858 -0.049464750890440931 0 0.42463252075836072 -0.061086066721413312 0 0.4174075420061889 -0.032840374034405817 0 0.40452687454395858 -0.049464750890440931 0 0.4174075420061889 -0.032840374034405817 0 0.40452687454395858 -0.049464750890440931 0 0.38612616795446908 -0.034776337246312183 0 0.38319343961550528 -0.063949776346987952 0 0.40452687454395858 -0.049464750890440931 0 0.38612616795446908 -0.034776337246312183 0 0.40465078437918722 -0.067250517088289649 0 0.38319343961550528 -0.063949776346987952 0 0.40452687454395858 -0.049464750890440931 0 0.38319343961550528 -0.063949776346987952 0 0.38612616795446908 -0.034776337246312183 0 0.37013211097008769 -0.042068977276404573 0 0.38319343961550528 -0.063949776346987952 0 0.38612616795446908 -0.034776337246312183 0 0.38612616795446908 -0.034776337246312183 0 0.37104764516979077 -0.02584834636965937 0 0.37013211097008769 -0.042068977276404573 0 0.38612616795446908 -0.034776337246312183 0 0.38905889629343282 -0.0056028981456361926 0 0.4174075420061889 -0.032840374034405817 0 0.38612616795446908 -0.034776337246312183 0 0.40439250194667409 -0.016738472539950301 0 0.38612616795446908 -0.034776337246312183 0 0.38905889629343282 -0.0056028981456361926 0 0.37104764516979077 -0.02584834636965937 0 0.38612616795446908 -0.034776337246312183 0 0.40439250194667409 -0.016738472539950301 0 0.38905889629343282 -0.0056028981456361926 0 0.41207472900801378 0.0089577419866719386 0 0.40439250194667409 -0.016738472539950301 0 0.38905889629343282 -0.0056028981456361926 0 0.38905889629343282 -0.0056028981456361926 0 0.3668069512915747 -0.001631931432422531 0 0.37104764516979077 -0.02584834636965937 0 0.3668069512915747 -0.001631931432422531 0 0.37104764516979077 -0.02584834636965937 0 0.35239886014730798 -0.016304837517442949 0 0.3668069512915747 -0.001631931432422531 0 0.37104764516979077 -0.02584834636965937 0 0.37104764516979077 -0.02584834636965937 0 0.35239886014730798 -0.016304837517442949 0 0.35704616129174049 -0.033753244443594788 0 0.35239886014730798 -0.016304837517442949 0 0.33685240666795552 -0.032504651870728908 0 0.35704616129174049 -0.033753244443594788 0 0.34868932605489189 0.0089370030536690299 0 0.35239886014730798 -0.016304837517442949 0 0.33550331309252218 -0.01305008125019071 0 0.34868932605489189 0.0089370030536690299 0 0.3668069512915747 -0.001631931432422531 0 0.35239886014730798 -0.016304837517442949 0 0.34868932605489189 0.0089370030536690299 0 0.32862214952845842 0.0032053658218892962 0 0.33550331309252218 -0.01305008125019071 0 0.32862214952845842 0.0032053658218892962 0 0.33550331309252218 -0.01305008125019071 0 0.32213634490020637 -0.018184644784907139 0 0.33550331309252218 -0.01305008125019071 0 0.32213634490020637 -0.018184644784907139 0 0.33685240666795552 -0.032504651870728908 0 0.35239886014730798 -0.016304837517442949 0 0.33550331309252218 -0.01305008125019071 0 0.33685240666795552 -0.032504651870728908 0 0.32213634490020637 -0.018184644784907139 0 0.31904759317806108 -0.037220124070190909 0 0.30084217021418191 -0.028578846223539879 0 0.32213634490020637 -0.018184644784907139 0 0.31904759317806108 -0.037220124070190909 0 0.33685240666795552 -0.032504651870728908 0 0.32862214952845842 0.0032053658218892962 0 0.32213634490020637 -0.018184644784907139 0 0.31323684074355568 -0.0014248617713456409 0 0.32802773603832552 -0.052888108449636227 0 0.31261683665981871 -0.079073351052194221 0 0.30737930806963631 -0.053944369022142377 0 0.32802773603832552 -0.052888108449636227 0 0.31904759317806108 -0.037220124070190909 0 0.30737930806963631 -0.053944369022142377 0 0.32802773603832552 -0.052888108449636227 0 0.31904759317806108 -0.037220124070190909 0 0.33685240666795552 -0.032504651870728908 0 0.32802773603832552 -0.052888108449636227 0 0.33685240666795552 -0.032504651870728908 0 0.35479978350356051 -0.052039409183738138 0 0.32802773603832552 -0.052888108449636227 0 0.35479978350356051 -0.052039409183738138 0 0.33527372805297018 -0.072049825729624789 0 0.33685240666795552 -0.032504651870728908 0 0.35479978350356051 -0.052039409183738138 0 0.35704616129174049 -0.033753244443594788 0 0.35479978350356051 -0.052039409183738138 0 0.35704616129174049 -0.033753244443594788 0 0.37013211097008769 -0.042068977276404573 0 0.37104764516979077 -0.02584834636965937 0 0.35704616129174049 -0.033753244443594788 0 0.37013211097008769 -0.042068977276404573 0 0.38319343961550528 -0.063949776346987952 0 0.35479978350356051 -0.052039409183738138 0 0.37013211097008769 -0.042068977276404573 0 0.38319343961550528 -0.063949776346987952 0 0.35479978350356051 -0.052039409183738138 0 0.36318174972899431 -0.071460897193551615 0 0.38026071127654149 -0.093123215447663776 0 0.36318174972899431 -0.071460897193551615 0 0.35270853420769588 -0.088855165018292659 0 0.36318174972899431 -0.071460897193551615 0 0.35270853420769588 -0.088855165018292659 0 0.33527372805297018 -0.072049825729624789 0 0.35479978350356051 -0.052039409183738138 0 0.36318174972899431 -0.071460897193551615 0 0.33527372805297018 -0.072049825729624789 0 0.37732798293757408 -0.1222966545483393 0 0.36650058089169901 -0.1152666765490438 0 0.36543621131789839 -0.13092283944178049 0 0.38026071127654149 -0.093123215447663776 0 0.37732798293757408 -0.1222966545483393 0 0.36650058089169901 -0.1152666765490438 0 0.36650058089169901 -0.1152666765490438 0 0.35190887787834668 -0.1226487346671342 0 0.36543621131789839 -0.13092283944178049 0 0.38026071127654149 -0.093123215447663776 0 0.36650058089169901 -0.1152666765490438 0 0.35756912104813632 -0.1073419386403031 0 0.38026071127654149 -0.093123215447663776 0 0.35270853420769588 -0.088855165018292659 0 0.35756912104813632 -0.1073419386403031 0 0.35270853420769588 -0.088855165018292659 0 0.34472617433868252 -0.1007638981933037 0 0.35756912104813632 -0.1073419386403031 0 0.34472617433868252 -0.1007638981933037 0 0.35756912104813632 -0.1073419386403031 0 0.33827861738220638 -0.1120290147911632 0 0.35756912104813632 -0.1073419386403031 0 0.35190887787834668 -0.1226487346671342 0 0.33827861738220638 -0.1120290147911632 0 0.36650058089169901 -0.1152666765490438 0 0.35756912104813632 -0.1073419386403031 0 0.35190887787834668 -0.1226487346671342 0 0.35190887787834668 -0.1226487346671342 0 0.33573534367238361 -0.1237681505905068 0 0.33827861738220638 -0.1120290147911632 0 0.33573534367238361 -0.1237681505905068 0 0.33827861738220638 -0.1120290147911632 0 0.32542312138041318 -0.1176091229172872 0 0.33827861738220638 -0.1120290147911632 0 0.32542312138041318 -0.1176091229172872 0 0.34472617433868252 -0.1007638981933037 0 0.33827861738220638 -0.1120290147911632 0 0.33034842471669162 -0.094829474323455981 0 0.35270853420769588 -0.088855165018292659 0 0.34472617433868252 -0.1007638981933037 0 0.33034842471669162 -0.094829474323455981 0 0.33827861738220638 -0.1120290147911632 0 0.33034842471669162 -0.094829474323455981 0 0.32542312138041318 -0.1176091229172872 0 0.33034842471669162 -0.094829474323455981 0 0.31629734789789088 -0.10193476863549419 0 0.32542312138041318 -0.1176091229172872 0 0.33034842471669162 -0.094829474323455981 0 0.32542312138041318 -0.1176091229172872 0 0.31629734789789088 -0.10193476863549419 0 0.32542312138041318 -0.1176091229172872 0 0.3063788190302259 -0.1133773012998343 0 0.32542312138041318 -0.1176091229172872 0 0.30051112342158109 -0.1284225246116818 0 0.33034842471669162 -0.094829474323455981 0 0.33527372805297018 -0.072049825729624789 0 0.35270853420769588 -0.088855165018292659 0 0.33034842471669162 -0.094829474323455981 0 0.33527372805297018 -0.072049825729624789 0 0.33034842471669162 -0.094829474323455981 0 0.33527372805297018 -0.072049825729624789 0 0.31261683665981871 -0.079073351052194221 0 0.33034842471669162 -0.094829474323455981 0 0.31629734789789088 -0.10193476863549419 0 0.31261683665981871 -0.079073351052194221 0 0.32802773603832552 -0.052888108449636227 0 0.33527372805297018 -0.072049825729624789 0 0.31261683665981871 -0.079073351052194221 0 0.31261683665981871 -0.079073351052194221 0 0.29211216854625721 -0.063792196279697719 0 0.30737930806963631 -0.053944369022142377 0 0.31261683665981871 -0.079073351052194221 0 0.28772544582441723 -0.081422338499279281 0 0.29211216854625721 -0.063792196279697719 0 0.31261683665981871 -0.079073351052194221 0 0.28772544582441723 -0.081422338499279281 0 0.30107428473295439 -0.098438991219043925 0 0.31629734789789088 -0.10193476863549419 0 0.31261683665981871 -0.079073351052194221 0 0.30107428473295439 -0.098438991219043925 0 0.28772544582441723 -0.081422338499279281 0 0.29211216854625721 -0.063792196279697719 0 0.27572632790728901 -0.057802507389305827 0 0.32542312138041318 -0.1176091229172872 0 0.3063788190302259 -0.1133773012998343 0 0.30051112342158109 -0.1284225246116818 0 0.31629734789789088 -0.10193476863549419 0 0.3063788190302259 -0.1133773012998343 0 0.30107428473295439 -0.098438991219043925 0 0.3063788190302259 -0.1133773012998343 0 0.30107428473295439 -0.098438991219043925 0 0.28049949946791181 -0.11120993413479011 0 0.28772544582441723 -0.081422338499279281 0 0.30107428473295439 -0.098438991219043925 0 0.28049949946791181 -0.11120993413479011 0 0.3063788190302259 -0.1133773012998343 0 0.28049949946791181 -0.11120993413479011 0 0.30051112342158109 -0.1284225246116818 0 0.25057957794838692 -0.1102923714957873 0 0.26298180215003758 -0.085007192396248196 0 0.28049949946791181 -0.11120993413479011 0 0.25057957794838692 -0.1102923714957873 0 0.26298180215003758 -0.085007192396248196 0 0.25057957794838692 -0.1102923714957873 0 0.26298180215003758 -0.085007192396248196 0 0.24292960922169141 -0.088970447548565451 0 0.28049949946791181 -0.11120993413479011 0 0.25057957794838692 -0.1102923714957873 0 0.25910853682594009 -0.12927302210649011 0 0.28772544582441723 -0.081422338499279281 0 0.26298180215003758 -0.085007192396248196 0 0.27572632790728901 -0.057802507389305827 0 0.28772544582441723 -0.081422338499279281 0 0.28049949946791181 -0.11120993413479011 0 0.26298180215003758 -0.085007192396248196 0 0.26298180215003758 -0.085007192396248196 0 0.25627944227590072 -0.05811554416993709 0 0.24349658013637851 -0.070306366754646743 0 0.26298180215003758 -0.085007192396248196 0 0.25627944227590072 -0.05811554416993709 0 0.27572632790728901 -0.057802507389305827 0 0.25627944227590072 -0.05811554416993709 0 0.27572632790728901 -0.057802507389305827 0 0.26121705216396363 -0.044246381947164792 0 0.25627944227590072 -0.05811554416993709 0 0.26121705216396363 -0.044246381947164792 0 0.24593811039432639 -0.042603703046392258 0 0.27572632790728901 -0.057802507389305827 0 0.27490612861107061 -0.032203011510453843 0 0.29006517667104098 -0.045085627005770727 0 0.27572632790728901 -0.057802507389305827 0 0.27490612861107061 -0.032203011510453843 0 0.26121705216396363 -0.044246381947164792 0 0.27490612861107061 -0.032203011510453843 0 0.26121705216396363 -0.044246381947164792 0 0.25318771213297458 -0.031813158424755503 0 0.26121705216396363 -0.044246381947164792 0 0.25318771213297458 -0.031813158424755503 0 0.24593811039432639 -0.042603703046392258 0 0.27490612861107061 -0.032203011510453843 0 0.25318771213297458 -0.031813158424755503 0 0.25782763903335237 -0.017745730829302669 0 0.25318771213297458 -0.031813158424755503 0 0.25782763903335237 -0.017745730829302669 0 0.24055664214415451 -0.021540917839981941 0 0.25782763903335237 -0.017745730829302669 0 0.25853209477253369 -0.00058562564308046712 0 0.24598182148935349 -0.0091049551621083507 0 0.25782763903335237 -0.017745730829302669 0 0.25853209477253369 -0.00058562564308046712 0 0.27658435213553151 -0.012496721038348989 0 0.27309304782332311 0.0073462114012203539 0 0.25853209477253369 -0.00058562564308046712 0 0.27658435213553151 -0.012496721038348989 0 0.27490612861107061 -0.032203011510453843 0 0.25782763903335237 -0.017745730829302669 0 0.27658435213553151 -0.012496721038348989 0 0.27490612861107061 -0.032203011510453843 0 0.27658435213553151 -0.012496721038348989 0 0.30084217021418191 -0.028578846223539879 0 0.27309304782332311 0.0073462114012203539 0 0.27658435213553151 -0.012496721038348989 0 0.29430503235872751 -0.00321332342493744 0 0.27658435213553151 -0.012496721038348989 0 0.29430503235872751 -0.00321332342493744 0 0.30084217021418191 -0.028578846223539879 0 0.31323684074355568 -0.0014248617713456409 0 0.29430503235872751 -0.00321332342493744 0 0.30084217021418191 -0.028578846223539879 0 0.29430503235872751 -0.00321332342493744 0 0.30084217021418191 -0.028578846223539879 0 0.32213634490020637 -0.018184644784907139 0 0.31323684074355568 -0.0014248617713456409 0 0.30084217021418191 -0.028578846223539879 0 0.30084217021418191 -0.028578846223539879 0 0.30737930806963631 -0.053944369022142377 0 0.29006517667104098 -0.045085627005770727 0 0.30084217021418191 -0.028578846223539879 0 0.30737930806963631 -0.053944369022142377 0 0.31904759317806108 -0.037220124070190909 0 0.30084217021418191 -0.028578846223539879 0 0.30737930806963631 -0.053944369022142377 0 0.29211216854625721 -0.063792196279697719 0 0.30737930806963631 -0.053944369022142377 0 0.29006517667104098 -0.045085627005770727 0 0.29211216854625721 -0.063792196279697719 0 0.27572632790728901 -0.057802507389305827 0 0.29006517667104098 -0.045085627005770727 0 0.27490612861107061 -0.032203011510453843 0 0.30084217021418191 -0.028578846223539879 0 0.29006517667104098 -0.045085627005770727 0 0.29573468859136481 -0.20516371475892331 0 0.29991390650835981 -0.20396773648689881 0 0.28460934031926138 -0.2201139018474953 0 0.29991390650835981 -0.20396773648689881 0 0.30039366469776879 -0.22087358820360861 0 0.28460934031926138 -0.2201139018474953 0 0.29991390650835981 -0.20396773648689881 0 0.28460934031926138 -0.2201139018474953 0 0.29573468859136481 -0.20516371475892331 0 0.28487556654571111 -0.20908939919172531 0 0.28661250728270399 -0.19937330928128169 0 0.29573468859136481 -0.20516371475892331 0 0.28487556654571111 -0.20908939919172531 0 0.28460934031926138 -0.2201139018474953 0 0.28487556654571111 -0.20908939919172531 0 0.28661250728270399 -0.19937330928128169 0 0.27806128082740927 -0.2011852150726941 0 0.28661250728270399 -0.19937330928128169 0 0.29581180156427572 -0.19404745579422 0 0.27943898376827242 -0.1872034444508418 0 0.28661250728270399 -0.19937330928128169 0 0.27806128082740927 -0.2011852150726941 0 0.27943898376827242 -0.1872034444508418 0 0.29573468859136481 -0.20516371475892331 0 0.28661250728270399 -0.19937330928128169 0 0.29581180156427572 -0.19404745579422 0 0.29573468859136481 -0.20516371475892331 0 0.29581180156427572 -0.19404745579422 0 0.29991390650835981 -0.20396773648689881 0 0.29581180156427572 -0.19404745579422 0 0.29991390650835981 -0.20396773648689881 0 0.31632560913605468 -0.18665355317705259 0 0.29991390650835981 -0.20396773648689881 0 0.32234396187791281 -0.19754886592425311 0 0.29991390650835981 -0.20396773648689881 0 0.31632560913605468 -0.18665355317705259 0 0.29991390650835981 -0.20396773648689881 0 0.30039366469776879 -0.22087358820360861 0 0.31575017080108803 -0.21574533160826109 0 0.29573468859136481 -0.20516371475892331 0 0.29991390650835981 -0.20396773648689881 0 0.30039366469776879 -0.22087358820360861 0 0.30246891753863808 -0.24487021080207469 0 0.31506067057131759 -0.23297848245959871 0 0.30039366469776879 -0.22087358820360861 0 0.31575017080108803 -0.21574533160826109 0 0.31506067057131759 -0.23297848245959871 0 0.30039366469776879 -0.22087358820360861 0 0.30246891753863808 -0.24487021080207469 0 0.27993109036218061 -0.2390188934351351 0 0.30246891753863808 -0.24487021080207469 0 0.27993109036218061 -0.2390188934351351 0 0.30246891753863808 -0.24487021080207469 0 0.27993109036218061 -0.2390188934351351 0 0.29194504677422189 -0.25209050748203399 0 0.30039366469776879 -0.22087358820360861 0 0.27993109036218061 -0.2390188934351351 0 0.30039366469776879 -0.22087358820360861 0 0.28460934031926138 -0.2201139018474953 0 0.27993109036218061 -0.2390188934351351 0 0.26930477413016413 -0.2362600672080927 0 0.25925776925176969 -0.2336516429944229 0 0.26865952503958968 -0.21741842903355851 0 0.28460934031926138 -0.2201139018474953 0 0.26930477413016413 -0.2362600672080927 0 0.26865952503958968 -0.21741842903355851 0 0.28460934031926138 -0.2201139018474953 0 0.27993109036218061 -0.2390188934351351 0 0.26930477413016413 -0.2362600672080927 0 0.28460934031926138 -0.2201139018474953 0 0.26930477413016413 -0.2362600672080927 0 0.27993109036218061 -0.2390188934351351 0 0.26858155682427631 -0.24908315743746789 0 0.29194504677422189 -0.25209050748203399 0 0.27993109036218061 -0.2390188934351351 0 0.26858155682427631 -0.24908315743746789 0 0.27993109036218061 -0.2390188934351351 0 0.26930477413016413 -0.2362600672080927 0 0.27993109036218061 -0.2390188934351351 0 0.26930477413016413 -0.2362600672080927 0 0.26858155682427631 -0.24908315743746789 0 0.26930477413016413 -0.2362600672080927 0 0.26858155682427631 -0.24908315743746789 0 0.25839316462476958 -0.247771706887878 0 0.26858155682427631 -0.24908315743746789 0 0.25839316462476958 -0.247771706887878 0 0.26930477413016413 -0.2362600672080927 0 0.25925776925176969 -0.2336516429944229 0 0.26930477413016413 -0.2362600672080927 0 0.25839316462476958 -0.247771706887878 0 0.25925776925176969 -0.2336516429944229 0 0.26930477413016413 -0.2362600672080927 0 0.25839316462476958 -0.247771706887878 0 0.25158726543732868 -0.24689565107307859 0 0.25925776925176969 -0.2336516429944229 0 0.25839316462476958 -0.247771706887878 0 0.25158726543732868 -0.24689565107307859 0 0.25925776925176969 -0.2336516429944229 0 0.25839316462476958 -0.247771706887878 0 0.25158726543732868 -0.24689565107307859 0 0.25925776925176969 -0.2336516429944229 0 0.26865952503958968 -0.21741842903355851 0 0.25564077173493671 -0.22071758991404561 0 0.25925776925176969 -0.2336516429944229 0 0.23880106979870719 -0.22834063231700491 0 0.25564077173493671 -0.22071758991404561 0 0.25925776925176969 -0.2336516429944229 0 0.26865952503958968 -0.21741842903355851 0 0.25564077173493671 -0.22071758991404561 0 0.26267641738411118 -0.20364738004711211 0 0.24872753118151561 -0.2092032725146819 0 0.25564077173493671 -0.22071758991404561 0 0.26267641738411118 -0.20364738004711211 0 0.26865952503958968 -0.21741842903355851 0 0.26267641738411118 -0.20364738004711211 0 0.26865952503958968 -0.21741842903355851 0 0.27806128082740927 -0.2011852150726941 0 0.26865952503958968 -0.21741842903355851 0 0.27806128082740927 -0.2011852150726941 0 0.28487556654571111 -0.20908939919172531 0 0.28460934031926138 -0.2201139018474953 0 0.26865952503958968 -0.21741842903355851 0 0.28487556654571111 -0.20908939919172531 0 0.26865952503958968 -0.21741842903355851 0 0.27806128082740927 -0.2011852150726941 0 0.27806128082740927 -0.2011852150726941 0 0.26478353146968819 -0.1886724223514647 0 0.27943898376827242 -0.1872034444508418 0 0.26267641738411118 -0.20364738004711211 0 0.27806128082740927 -0.2011852150726941 0 0.26478353146968819 -0.1886724223514647 0 0.26267641738411118 -0.20364738004711211 0 0.24692725717625419 -0.1901265764764565 0 0.24872753118151561 -0.2092032725146819 0 0.26267641738411118 -0.20364738004711211 0 0.26478353146968819 -0.1886724223514647 0 0.24692725717625419 -0.1901265764764565 0 0.26478353146968819 -0.1886724223514647 0 0.25591198848231672 -0.1768756352017222 0 0.24692725717625419 -0.1901265764764565 0 0.26478353146968819 -0.1886724223514647 0 0.25591198848231672 -0.1768756352017222 0 0.26752207452089488 -0.17307977985299039 0 0.25670651700180969 -0.1633508293491055 0 0.25068712750391681 -0.15004932800047041 0 0.24392770488688501 -0.1698728098398691 0 0.25591198848231672 -0.1768756352017222 0 0.25670651700180969 -0.1633508293491055 0 0.24392770488688501 -0.1698728098398691 0 0.25670651700180969 -0.1633508293491055 0 0.26984757230025641 -0.15716662221546879 0 0.25068712750391681 -0.15004932800047041 0 0.25670651700180969 -0.1633508293491055 0 0.26984757230025641 -0.15716662221546879 0 0.26752207452089488 -0.17307977985299039 0 0.25591198848231672 -0.1768756352017222 0 0.25670651700180969 -0.1633508293491055 0 0.26752207452089488 -0.17307977985299039 0 0.26984757230025641 -0.15716662221546879 0 0.26752207452089488 -0.17307977985299039 0 0.28389779556142669 -0.16949933546986859 0 0.27943898376827242 -0.1872034444508418 0 0.26752207452089488 -0.17307977985299039 0 0.28389779556142669 -0.16949933546986859 0 0.26478353146968819 -0.1886724223514647 0 0.27943898376827242 -0.1872034444508418 0 0.26752207452089488 -0.17307977985299039 0 0.25910853682594009 -0.12927302210649011 0 0.25068712750391681 -0.15004932800047041 0 0.27559912546274901 -0.13923592630607609 0 0.26984757230025641 -0.15716662221546879 0 0.25068712750391681 -0.15004932800047041 0 0.27559912546274901 -0.13923592630607609 0 0.25068712750391681 -0.15004932800047041 0 0.27559912546274901 -0.13923592630607609 0 0.26984757230025641 -0.15716662221546879 0 0.27559912546274901 -0.13923592630607609 0 0.29208805464933402 -0.15664375509374359 0 0.28049949946791181 -0.11120993413479011 0 0.25910853682594009 -0.12927302210649011 0 0.27559912546274901 -0.13923592630607609 0 0.28049949946791181 -0.11120993413479011 0 0.27559912546274901 -0.13923592630607609 0 0.30051112342158109 -0.1284225246116818 0 0.27559912546274901 -0.13923592630607609 0 0.30303937298432149 -0.1448796341918793 0 0.30051112342158109 -0.1284225246116818 0 0.27559912546274901 -0.13923592630607609 0 0.30051112342158109 -0.1284225246116818 0 0.27559912546274901 -0.13923592630607609 0 0.30303937298432149 -0.1448796341918793 0 0.29208805464933402 -0.15664375509374359 0 0.30303937298432149 -0.1448796341918793 0 0.29208805464933402 -0.15664375509374359 0 0.3060703237039879 -0.16543252206154521 0 0.30303937298432149 -0.1448796341918793 0 0.3060703237039879 -0.16543252206154521 0 0.3182335086075852 -0.15086125812780071 0 0.30303937298432149 -0.1448796341918793 0 0.30051112342158109 -0.1284225246116818 0 0.321828314993999 -0.1342351905225439 0 0.29648604822643931 -0.1810395426779014 0 0.28389779556142669 -0.16949933546986859 0 0.3060703237039879 -0.16543252206154521 0 0.27943898376827242 -0.1872034444508418 0 0.29648604822643931 -0.1810395426779014 0 0.28389779556142669 -0.16949933546986859 0 0.29581180156427572 -0.19404745579422 0 0.27943898376827242 -0.1872034444508418 0 0.29648604822643931 -0.1810395426779014 0 0.28389779556142669 -0.16949933546986859 0 0.29208805464933402 -0.15664375509374359 0 0.3060703237039879 -0.16543252206154521 0 0.26984757230025641 -0.15716662221546879 0 0.28389779556142669 -0.16949933546986859 0 0.29208805464933402 -0.15664375509374359 0 0.29581180156427572 -0.19404745579422 0 0.29648604822643931 -0.1810395426779014 0 0.31632560913605468 -0.18665355317705259 0 0.29648604822643931 -0.1810395426779014 0 0.3060703237039879 -0.16543252206154521 0 0.31632560913605468 -0.18665355317705259 0 0.31632560913605468 -0.18665355317705259 0 0.33273731176374999 -0.1693393698672068 0 0.33279537552597438 -0.183767921875721 0 0.31632560913605468 -0.18665355317705259 0 0.33273731176374999 -0.1693393698672068 0 0.3060703237039879 -0.16543252206154521 0 0.31632560913605468 -0.18665355317705259 0 0.33273731176374999 -0.1693393698672068 0 0.3060703237039879 -0.16543252206154521 0 0.33273731176374999 -0.1693393698672068 0 0.3182335086075852 -0.15086125812780071 0 0.33273731176374999 -0.1693393698672068 0 0.3491490143914453 -0.152025186557361 0 0.34884036439395533 -0.17344744374734869 0 0.33273731176374999 -0.1693393698672068 0 0.3491490143914453 -0.152025186557361 0 0.33273731176374999 -0.1693393698672068 0 0.33279537552597438 -0.183767921875721 0 0.34884036439395533 -0.17344744374734869 0 0.33279537552597438 -0.183767921875721 0 0.34884036439395533 -0.17344744374734869 0 0.34477401724746559 -0.19112999536160699 0 0.33573534367238361 -0.1237681505905068 0 0.32542312138041318 -0.1176091229172872 0 0.321828314993999 -0.1342351905225439 0 0.32542312138041318 -0.1176091229172872 0 0.321828314993999 -0.1342351905225439 0 0.32542312138041318 -0.1176091229172872 0 0.30051112342158109 -0.1284225246116818 0 0.321828314993999 -0.1342351905225439 0 0.321828314993999 -0.1342351905225439 0 0.3182335086075852 -0.15086125812780071 0 0.33373126532457908 -0.1436645185745086 0 0.30303937298432149 -0.1448796341918793 0 0.321828314993999 -0.1342351905225439 0 0.3182335086075852 -0.15086125812780071 0 0.321828314993999 -0.1342351905225439 0 0.3182335086075852 -0.15086125812780071 0 0.33273731176374999 -0.1693393698672068 0 0.33373126532457908 -0.1436645185745086 0 0.3491490143914453 -0.152025186557361 0 0.33373126532457908 -0.1436645185745086 0 0.34470409851831202 -0.13175795578163249 0 0.3491490143914453 -0.152025186557361 0 0.33273731176374999 -0.1693393698672068 0 0.3182335086075852 -0.15086125812780071 0 0.33373126532457908 -0.1436645185745086 0 0.33573534367238361 -0.1237681505905068 0 0.33373126532457908 -0.1436645185745086 0 0.34470409851831202 -0.13175795578163249 0 0.33573534367238361 -0.1237681505905068 0 0.321828314993999 -0.1342351905225439 0 0.33373126532457908 -0.1436645185745086 0 0.35536237059248582 -0.1331500646571486 0 0.3491490143914453 -0.152025186557361 0 0.36556071701913939 -0.13471100324751401 0 0.34470409851831202 -0.13175795578163249 0 0.35536237059248582 -0.1331500646571486 0 0.3491490143914453 -0.152025186557361 0 0.35190887787834668 -0.1226487346671342 0 0.33573534367238361 -0.1237681505905068 0 0.34470409851831202 -0.13175795578163249 0 0.35190887787834668 -0.1226487346671342 0 0.35536237059248582 -0.1331500646571486 0 0.36543621131789839 -0.13092283944178049 0 0.35190887787834668 -0.1226487346671342 0 0.34470409851831202 -0.13175795578163249 0 0.35536237059248582 -0.1331500646571486 0 0.3491490143914453 -0.152025186557361 0 0.36556071701913939 -0.13471100324751401 0 0.36556071701913939 -0.13471100324751401 0 0.36638239481807822 -0.15971106402323701 0 0.37527453758428397 -0.14272338898704651 0 0.3491490143914453 -0.152025186557361 0 0.36556071701913939 -0.13471100324751401 0 0.36638239481807822 -0.15971106402323701 0 0.3732210922309902 -0.16315012342575319 0 0.37527453758428397 -0.14272338898704651 0 0.36556071701913939 -0.13471100324751401 0 0.36638239481807822 -0.15971106402323701 0 0.3732210922309902 -0.16315012342575319 0 0.36638239481807822 -0.15971106402323701 0 0.37527453758428397 -0.14272338898704651 0 0.37732798293757408 -0.1222966545483393 0 0.36556071701913939 -0.13471100324751401 0 0.37527453758428397 -0.14272338898704651 0 0.35536237059248582 -0.1331500646571486 0 0.36556071701913939 -0.13471100324751401 0 0.36543621131789839 -0.13092283944178049 0 0.36556071701913939 -0.13471100324751401 0 0.36543621131789839 -0.13092283944178049 0 0.37732798293757408 -0.1222966545483393 0 0.36556071701913939 -0.13471100324751401 0 0.36543621131789839 -0.13092283944178049 0 0.37732798293757408 -0.1222966545483393 0 0.36556071701913939 -0.13471100324751401 0 0.34884036439395533 -0.17344744374734869 0 0.36720407261701832 -0.18471112479895979 0 0.34477401724746559 -0.19112999536160699 0 0.3491490143914453 -0.152025186557361 0 0.34884036439395533 -0.17344744374734869 0 0.36638239481807822 -0.15971106402323701 0 0.3732210922309902 -0.16315012342575319 0 0.36638239481807822 -0.15971106402323701 0 0.36720407261701832 -0.18471112479895979 0 0.34884036439395533 -0.17344744374734869 0 0.36638239481807822 -0.15971106402323701 0 0.36720407261701832 -0.18471112479895979 0 0.3732210922309902 -0.16315012342575319 0 0.36720407261701832 -0.18471112479895979 0 0.37116764687769488 -0.18357685786446001 0 0.36638239481807822 -0.15971106402323701 0 0.36720407261701832 -0.18471112479895979 0 0.3732210922309902 -0.16315012342575319 0 0.37116764687769488 -0.18357685786446001 0 0.36720407261701832 -0.18471112479895979 0 0.37116764687769488 -0.18357685786446001 0 0.36720407261701832 -0.18471112479895979 0 0.36815256286216902 -0.21356953353843361 0 0.36720407261701832 -0.18471112479895979 0 0.36815256286216902 -0.21356953353843361 0 0.35593675550687282 -0.19950024667567481 0 0.36720407261701832 -0.18471112479895979 0 0.37116764687769488 -0.18357685786446001 0 0.36815256286216902 -0.21356953353843361 0 0.37116764687769488 -0.18357685786446001 0 0.36815256286216902 -0.21356953353843361 0 0.36815256286216902 -0.21356953353843361 0 0.35752083638919518 -0.2104237730448181 0 0.35593675550687282 -0.19950024667567481 0 0.36815256286216902 -0.21356953353843361 0 0.35752083638919518 -0.2104237730448181 0 0.35836778241328182 -0.22458639192352059 0 0.35752083638919518 -0.2104237730448181 0 0.34300577369529378 -0.20608378865524449 0 0.34692907262215572 -0.2235511366167639 0 0.35752083638919518 -0.2104237730448181 0 0.34692907262215572 -0.2235511366167639 0 0.35752083638919518 -0.2104237730448181 0 0.35593675550687282 -0.19950024667567481 0 0.34300577369529378 -0.20608378865524449 0 0.36720407261701832 -0.18471112479895979 0 0.34477401724746559 -0.19112999536160699 0 0.36720407261701832 -0.18471112479895979 0 0.35593675550687282 -0.19950024667567481 0 0.34477401724746559 -0.19112999536160699 0 0.35593675550687282 -0.19950024667567481 0 0.34477401724746559 -0.19112999536160699 0 0.34300577369529378 -0.20608378865524449 0 0.34477401724746559 -0.19112999536160699 0 0.34300577369529378 -0.20608378865524449 0 0.32234396187791281 -0.19754886592425311 0 0.33279537552597438 -0.183767921875721 0 0.34477401724746559 -0.19112999536160699 0 0.32234396187791281 -0.19754886592425311 0 0.34477401724746559 -0.19112999536160699 0 0.32234396187791281 -0.19754886592425311 0 0.34300577369529378 -0.20608378865524449 0 0.33073280796082299 -0.21610225222932691 0 0.32234396187791281 -0.19754886592425311 0 0.34300577369529378 -0.20608378865524449 0 0.33073280796082299 -0.21610225222932691 0 0.34692907262215572 -0.2235511366167639 0 0.29991390650835981 -0.20396773648689881 0 0.31575017080108803 -0.21574533160826109 0 0.32234396187791281 -0.19754886592425311 0 0.33073280796082299 -0.21610225222932691 0 0.31575017080108803 -0.21574533160826109 0 0.32234396187791281 -0.19754886592425311 0 0.29991390650835981 -0.20396773648689881 0 0.31632560913605468 -0.18665355317705259 0 0.32234396187791281 -0.19754886592425311 0 0.31632560913605468 -0.18665355317705259 0 0.33279537552597438 -0.183767921875721 0 0.32234396187791281 -0.19754886592425311 0 0.30246891753863808 -0.24487021080207469 0 0.31506067057131759 -0.23297848245959871 0 0.32500674471509577 -0.25072152816901272 0 0.30246891753863808 -0.24487021080207469 0 0.32500674471509577 -0.25072152816901272 0 0.3261452232479003 -0.23506858118345161 0 0.31506067057131759 -0.23297848245959871 0 0.32500674471509577 -0.25072152816901272 0 0.31575017080108803 -0.21574533160826109 0 0.31506067057131759 -0.23297848245959871 0 0.32393522341972242 -0.2258409627995957 0 0.33073280796082299 -0.21610225222932691 0 0.31575017080108803 -0.21574533160826109 0 0.32393522341972242 -0.2258409627995957 0 0.3261452232479003 -0.23506858118345161 0 0.32393522341972242 -0.2258409627995957 0 0.33198724451748313 -0.22931016651734029 0 0.3261452232479003 -0.23506858118345161 0 0.31506067057131759 -0.23297848245959871 0 0.32393522341972242 -0.2258409627995957 0 0.33073280796082299 -0.21610225222932691 0 0.33198724451748313 -0.22931016651734029 0 0.34692907262215572 -0.2235511366167639 0 0.3261452232479003 -0.23506858118345161 0 0.33198724451748313 -0.22931016651734029 0 0.33633730885511642 -0.23667850018870989 0 0.33198724451748313 -0.22931016651734029 0 0.33633730885511642 -0.23667850018870989 0 0.33073280796082299 -0.21610225222932691 0 0.32393522341972242 -0.2258409627995957 0 0.33198724451748313 -0.22931016651734029 0 0.33198724451748313 -0.22931016651734029 0 0.33633730885511642 -0.23667850018870989 0 0.34692907262215572 -0.2235511366167639 0 0.33633730885511642 -0.23667850018870989 0 0.34692907262215572 -0.2235511366167639 0 0.3261452232479003 -0.23506858118345161 0 0.33633730885511642 -0.23667850018870989 0 0.32500674471509577 -0.25072152816901272 0 0.33633730885511642 -0.23667850018870989 0 0.34817974634548821 -0.25673775084311401 0 0.33633730885511642 -0.23667850018870989 0 0.32500674471509577 -0.25072152816901272 0 0.34817974634548821 -0.25673775084311401 0 0.33633730885511642 -0.23667850018870989 0 0.32500674471509577 -0.25072152816901272 0 0.33633730885511642 -0.23667850018870989 0 0.35155653396617059 -0.2411223765105428 0 0.34817974634548821 -0.25673775084311401 0 0.33633730885511642 -0.23667850018870989 0 0.35155653396617059 -0.2411223765105428 0 0.34692907262215572 -0.2235511366167639 0 0.35155653396617059 -0.2411223765105428 0 0.35836778241328182 -0.22458639192352059 0 0.36578395196764751 -0.23713139051865889 0 0.35155653396617059 -0.2411223765105428 0 0.34692907262215572 -0.2235511366167639 0 0.35836778241328182 -0.22458639192352059 0 0.35752083638919518 -0.2104237730448181 0 0.34692907262215572 -0.2235511366167639 0 0.35836778241328182 -0.22458639192352059 0 0.36815256286216902 -0.21356953353843361 0 0.36876184210118768 -0.2321072353292116 0 0.37645468063848342 -0.2222493514134104 0 0.36815256286216902 -0.21356953353843361 0 0.36876184210118768 -0.2321072353292116 0 0.36578395196764751 -0.23713139051865889 0 0.36815256286216902 -0.21356953353843361 0 0.36578395196764751 -0.23713139051865889 0 0.36815256286216902 -0.21356953353843361 0 0.36876184210118768 -0.2321072353292116 0 0.36815256286216902 -0.21356953353843361 0 0.35836778241328182 -0.22458639192352059 0 0.36578395196764751 -0.23713139051865889 0 0.35155653396617059 -0.2411223765105428 0 0.36578395196764751 -0.23713139051865889 0 0.36341534107312201 -0.26069324749888378 0 0.36578395196764751 -0.23713139051865889 0 0.36341534107312201 -0.26069324749888378 0 0.36578395196764751 -0.23713139051865889 0 0.37625135248034042 -0.25087409415659229 0 0.36341534107312201 -0.26069324749888378 0 0.36876184210118768 -0.2321072353292116 0 0.36578395196764751 -0.23713139051865889 0 0.37670264050964752 -0.24004748678957449 0 0.36578395196764751 -0.23713139051865889 0 0.37670264050964752 -0.24004748678957449 0 0.37625135248034042 -0.25087409415659229 0 0.37670264050964752 -0.24004748678957449 0 0.3913782163381096 -0.24232703637398331 0 0.37625135248034042 -0.25087409415659229 0 0.36876184210118768 -0.2321072353292116 0 0.37670264050964752 -0.24004748678957449 0 0.38251196388318282 -0.2316340684247272 0 0.37670264050964752 -0.24004748678957449 0 0.3913782163381096 -0.24232703637398331 0 0.38251196388318282 -0.2316340684247272 0 0.3913782163381096 -0.24232703637398331 0 0.39664018210230451 -0.23058911818577479 0 0.38251196388318282 -0.2316340684247272 0 0.40373605828806092 -0.24263157561017371 0 0.39664018210230451 -0.23058911818577479 0 0.41463373678707938 -0.2352056657441966 0 0.3913782163381096 -0.24232703637398331 0 0.40373605828806092 -0.24263157561017371 0 0.39664018210230451 -0.23058911818577479 0 0.3913782163381096 -0.24232703637398331 0 0.40373605828806092 -0.24263157561017371 0 0.40094653144504611 -0.25434067708238578 0 0.40621792325138711 -0.2220032574204909 0 0.39664018210230451 -0.23058911818577479 0 0.41463373678707938 -0.2352056657441966 0 0.40621792325138711 -0.2220032574204909 0 0.39664018210230451 -0.23058911818577479 0 0.39453344370570731 -0.214140993717643 0 0.39664018210230451 -0.23058911818577479 0 0.38521975188593971 -0.22220169296865941 0 0.39453344370570731 -0.214140993717643 0 0.39664018210230451 -0.23058911818577479 0 0.38521975188593971 -0.22220169296865941 0 0.38251196388318282 -0.2316340684247272 0 0.36876184210118768 -0.2321072353292116 0 0.38251196388318282 -0.2316340684247272 0 0.37645468063848342 -0.2222493514134104 0 0.38521975188593971 -0.22220169296865941 0 0.38251196388318282 -0.2316340684247272 0 0.37645468063848342 -0.2222493514134104 0 0.38521975188593971 -0.22220169296865941 0 0.37645468063848342 -0.2222493514134104 0 0.38230829089232699 -0.2143733440628818 0 0.36815256286216902 -0.21356953353843361 0 0.37645468063848342 -0.2222493514134104 0 0.38230829089232699 -0.2143733440628818 0 0.36815256286216902 -0.21356953353843361 0 0.38230829089232699 -0.2143733440628818 0 0.38718101536933569 -0.19970514867626279 0 0.38230829089232699 -0.2143733440628818 0 0.38718101536933569 -0.19970514867626279 0 0.39453344370570731 -0.214140993717643 0 0.38521975188593971 -0.22220169296865941 0 0.38230829089232699 -0.2143733440628818 0 0.39453344370570731 -0.214140993717643 0 0.37116764687769488 -0.18357685786446001 0 0.36815256286216902 -0.21356953353843361 0 0.38718101536933569 -0.19970514867626279 0 0.38718101536933569 -0.19970514867626279 0 0.40884069419199037 -0.1970362878972392 0 0.39586123466491691 -0.1765102260117056 0 0.39453344370570731 -0.214140993717643 0 0.41395194170740301 -0.21240633485140181 0 0.40884069419199037 -0.1970362878972392 0 0.40621792325138711 -0.2220032574204909 0 0.39453344370570731 -0.214140993717643 0 0.41395194170740301 -0.21240633485140181 0 0.38718101536933569 -0.19970514867626279 0 0.39453344370570731 -0.214140993717643 0 0.40884069419199037 -0.1970362878972392 0 0.41395194170740301 -0.21240633485140181 0 0.40884069419199037 -0.1970362878972392 0 0.43096428617551252 -0.20441551774955269 0 0.40884069419199037 -0.1970362878972392 0 0.42542878003724072 -0.18933472505055621 0 0.43096428617551252 -0.20441551774955269 0 0.40884069419199037 -0.1970362878972392 0 0.42542878003724072 -0.18933472505055621 0 0.41454731734389699 -0.17865609302816371 0 0.42542878003724072 -0.18933472505055621 0 0.43096428617551252 -0.20441551774955269 0 0.44150441960446413 -0.18619255151175851 0 0.41395194170740301 -0.21240633485140181 0 0.43096428617551252 -0.20441551774955269 0 0.42531016425620433 -0.22471271624146619 0 0.43096428617551252 -0.20441551774955269 0 0.42531016425620433 -0.22471271624146619 0 0.44397621672349291 -0.2185867682751691 0 0.42531016425620433 -0.22471271624146619 0 0.43893532912284078 -0.2384472092711179 0 0.44397621672349291 -0.2185867682751691 0 0.42531016425620433 -0.22471271624146619 0 0.42507446328041648 -0.2401726868624294 0 0.43893532912284078 -0.2384472092711179 0 0.42507446328041648 -0.2401726868624294 0 0.41508162476776522 -0.25069538066452762 0 0.4314114614681927 -0.25180246239083859 0 0.42507446328041648 -0.2401726868624294 0 0.43893532912284078 -0.2384472092711179 0 0.4314114614681927 -0.25180246239083859 0 0.42507446328041648 -0.2401726868624294 0 0.41463373678707938 -0.2352056657441966 0 0.41508162476776522 -0.25069538066452762 0 0.40373605828806092 -0.24263157561017371 0 0.41463373678707938 -0.2352056657441966 0 0.41508162476776522 -0.25069538066452762 0 0.40373605828806092 -0.24263157561017371 0 0.40094653144504611 -0.25434067708238578 0 0.41508162476776522 -0.25069538066452762 0 0.40621792325138711 -0.2220032574204909 0 0.41395194170740301 -0.21240633485140181 0 0.42531016425620433 -0.22471271624146619 0 0.40621792325138711 -0.2220032574204909 0 0.42531016425620433 -0.22471271624146619 0 0.41463373678707938 -0.2352056657441966 0 0.42531016425620433 -0.22471271624146619 0 0.42507446328041648 -0.2401726868624294 0 0.41463373678707938 -0.2352056657441966 0 0.39770710588227692 -0.1286423748934763 0 0.3949766295055247 -0.151896192354285 0 0.41423168765639112 -0.14084695431392749 0 0.37732798293757408 -0.1222966545483393 0 0.37527453758428397 -0.14272338898704651 0 0.37732798293757408 -0.1222966545483393 0 0.39770710588227692 -0.1286423748934763 0 0.37527453758428397 -0.14272338898704651 0 0.3732210922309902 -0.16315012342575319 0 0.37527453758428397 -0.14272338898704651 0 0.3949766295055247 -0.151896192354285 0 0.39770710588227692 -0.1286423748934763 0 0.37527453758428397 -0.14272338898704651 0 0.3949766295055247 -0.151896192354285 0 0.3949766295055247 -0.151896192354285 0 0.39586123466491691 -0.1765102260117056 0 0.41283780578633322 -0.16067295483411101 0 0.3732210922309902 -0.16315012342575319 0 0.3949766295055247 -0.151896192354285 0 0.39586123466491691 -0.1765102260117056 0 0.37116764687769488 -0.18357685786446001 0 0.38718101536933569 -0.19970514867626279 0 0.39586123466491691 -0.1765102260117056 0 0.37116764687769488 -0.18357685786446001 0 0.39586123466491691 -0.1765102260117056 0 0.3732210922309902 -0.16315012342575319 0 0.37116764687769488 -0.18357685786446001 0 0.39586123466491691 -0.1765102260117056 0 0.40884069419199037 -0.1970362878972392 0 0.39586123466491691 -0.1765102260117056 0 0.41454731734389699 -0.17865609302816371 0 0.39586123466491691 -0.1765102260117056 0 0.41454731734389699 -0.17865609302816371 0 0.41283780578633322 -0.16067295483411101 0 0.42542878003724072 -0.18933472505055621 0 0.4297680720390038 -0.16972627134720669 0 0.44150441960446413 -0.18619255151175851 0 0.42542878003724072 -0.18933472505055621 0 0.41454731734389699 -0.17865609302816371 0 0.4297680720390038 -0.16972627134720669 0 0.4297680720390038 -0.16972627134720669 0 0.41283780578633322 -0.16067295483411101 0 0.42717545903787918 -0.15017934342542391 0 0.4297680720390038 -0.16972627134720669 0 0.42717545903787918 -0.15017934342542391 0 0.44174180707595889 -0.15417145116209041 0 0.41454731734389699 -0.17865609302816371 0 0.4297680720390038 -0.16972627134720669 0 0.41283780578633322 -0.16067295483411101 0 0.3949766295055247 -0.151896192354285 0 0.41283780578633322 -0.16067295483411101 0 0.41423168765639112 -0.14084695431392749 0 0.41283780578633322 -0.16067295483411101 0 0.41423168765639112 -0.14084695431392749 0 0.42717545903787918 -0.15017934342542391 0 0.41423168765639112 -0.14084695431392749 0 0.42717545903787918 -0.15017934342542391 0 0.43374291112390229 -0.13420618394782891 0 0.42717545903787918 -0.15017934342542391 0 0.43374291112390229 -0.13420618394782891 0 0.44174180707595889 -0.15417145116209041 0 0.42358006626765249 -0.1181244064186185 0 0.43374291112390229 -0.13420618394782891 0 0.41246131071374498 -0.12656601149269131 0 0.39770710588227692 -0.1286423748934763 0 0.41423168765639112 -0.14084695431392749 0 0.41246131071374498 -0.12656601149269131 0 0.41423168765639112 -0.14084695431392749 0 0.43374291112390229 -0.13420618394782891 0 0.41246131071374498 -0.12656601149269131 0 0.45758772835722572 -0.1211367858543745 0 0.47879386417861358 -0.13483840168750641 0 0.45758772835722572 -0.1211367858543745 0 0.45890290565640901 -0.14169103500467059 0 0.45758772835722572 -0.1211367858543745 0 0.44647433011517001 -0.12630208019281811 0 0.45890290565640901 -0.14169103500467059 0 0.45758772835722572 -0.1211367858543745 0 0.45890290565640901 -0.14169103500467059 0 0.47879386417861358 -0.13483840168750641 0 0.43374291112390229 -0.13420618394782891 0 0.44647433011517001 -0.12630208019281811 0 0.45890290565640901 -0.14169103500467059 0 0.43666855515660158 -0.1201600277862946 0 0.43374291112390229 -0.13420618394782891 0 0.44647433011517001 -0.12630208019281811 0 0.43374291112390229 -0.13420618394782891 0 0.44174180707595889 -0.15417145116209041 0 0.45890290565640901 -0.14169103500467059 0 0.44174180707595889 -0.15417145116209041 0 0.45890290565640901 -0.14169103500467059 0 0.46021808295559169 -0.16224528415496661 0 0.45890290565640901 -0.14169103500467059 0 0.46021808295559169 -0.16224528415496661 0 0.45890290565640901 -0.14169103500467059 0 0.46021808295559169 -0.16224528415496661 0 0.48025993302135972 -0.15583063975322561 0 0.46021808295559169 -0.16224528415496661 0 0.4457109714181306 -0.1700370275018698 0 0.46153326025477448 -0.18279953330526269 0 0.44174180707595889 -0.15417145116209041 0 0.46021808295559169 -0.16224528415496661 0 0.4457109714181306 -0.1700370275018698 0 0.4297680720390038 -0.16972627134720669 0 0.44174180707595889 -0.15417145116209041 0 0.4457109714181306 -0.1700370275018698 0 0.4297680720390038 -0.16972627134720669 0 0.4457109714181306 -0.1700370275018698 0 0.44150441960446413 -0.18619255151175851 0 0.4457109714181306 -0.1700370275018698 0 0.44150441960446413 -0.18619255151175851 0 0.46153326025477448 -0.18279953330526269 0 0.46021808295559169 -0.16224528415496661 0 0.46153326025477448 -0.18279953330526269 0 0.46021808295559169 -0.16224528415496661 0 0.46153326025477448 -0.18279953330526269 0 0.47964121642294322 -0.17760522831702849 0 0.46153326025477448 -0.18279953330526269 0 0.47964121642294322 -0.17760522831702849 0 0.47447470673510828 -0.19786976557446051 0 0.47964121642294322 -0.17760522831702849 0 0.5 -0.17326807016190421 0 0.5 -0.19799612280316969 0 0.47964121642294322 -0.17760522831702849 0 0.5 -0.17326807016190421 0 0.48025993302135972 -0.15583063975322561 0 0.5 -0.17326807016190421 0 0.48025993302135972 -0.15583063975322561 0 0.50000000000000122 -0.1485400175206387 0 0.46021808295559169 -0.16224528415496661 0 0.47964121642294322 -0.17760522831702849 0 0.48025993302135972 -0.15583063975322561 0 0.45890290565640901 -0.14169103500467059 0 0.48025993302135972 -0.15583063975322561 0 0.47879386417861358 -0.13483840168750641 0 0.50000000000000122 -0.1485400175206387 0 0.47879386417861358 -0.13483840168750641 0 0.48025993302135972 -0.15583063975322561 0 0.50000000000000122 -0.1485400175206387 0 0.47879386417861358 -0.13483840168750641 0 0.48561959419146788 -0.1199465620520868 0 0.50000000000000089 -0.1265229673954851 0 0.47879386417861358 -0.13483840168750641 0 0.50000000000000122 -0.1485400175206387 0 0.50000000000000089 -0.1265229673954851 0 0.47879386417861358 -0.13483840168750641 0 0.45442334092460268 -0.22801157298836131 0 0.44397621672349291 -0.2185867682751691 0 0.4628384493837554 -0.2154724869697523 0 0.45442334092460268 -0.22801157298836131 0 0.46587265444972448 -0.22915883349353619 0 0.4535797837118053 -0.24068562811132149 0 0.45442334092460268 -0.22801157298836131 0 0.46587265444972448 -0.22915883349353619 0 0.4628384493837554 -0.2154724869697523 0 0.4535797837118053 -0.24068562811132149 0 0.47679558172830899 -0.24403034403856641 0 0.46587265444972448 -0.22915883349353619 0 0.4535797837118053 -0.24068562811132149 0 0.47679558172830899 -0.24403034403856641 0 0.4535797837118053 -0.24068562811132149 0 0.47679558172830899 -0.24403034403856641 0 0.46905318914120347 -0.2625761154732757 0 0.4535797837118053 -0.24068562811132149 0 0.43893532912284078 -0.2384472092711179 0 0.45442334092460268 -0.22801157298836131 0 0.4535797837118053 -0.24068562811132149 0 0.43893532912284078 -0.2384472092711179 0 0.4535797837118053 -0.24068562811132149 0 0.43893532912284078 -0.2384472092711179 0 0.44677599790470579 -0.25240949561237952 0 0.43893532912284078 -0.2384472092711179 0 0.44677599790470579 -0.25240949561237952 0 0.4314114614681927 -0.25180246239083859 0 0.45442334092460268 -0.22801157298836131 0 0.43893532912284078 -0.2384472092711179 0 0.44397621672349291 -0.2185867682751691 0 0.44397621672349291 -0.2185867682751691 0 0.45180950088674282 -0.200617203661168 0 0.4628384493837554 -0.2154724869697523 0 0.43096428617551252 -0.20441551774955269 0 0.44397621672349291 -0.2185867682751691 0 0.45180950088674282 -0.200617203661168 0 0.44150441960446413 -0.18619255151175851 0 0.46153326025477448 -0.18279953330526269 0 0.45180950088674282 -0.200617203661168 0 0.43096428617551252 -0.20441551774955269 0 0.44150441960446413 -0.18619255151175851 0 0.45180950088674282 -0.200617203661168 0 0.46153326025477448 -0.18279953330526269 0 0.45180950088674282 -0.200617203661168 0 0.47447470673510828 -0.19786976557446051 0 0.45180950088674282 -0.200617203661168 0 0.4628384493837554 -0.2154724869697523 0 0.47447470673510828 -0.19786976557446051 0 0.4628384493837554 -0.2154724869697523 0 0.47999689871614948 -0.2178752880539867 0 0.47447470673510828 -0.19786976557446051 0 0.47964121642294322 -0.17760522831702849 0 0.47447470673510828 -0.19786976557446051 0 0.5 -0.19799612280316969 0 0.47999689871614948 -0.2178752880539867 0 0.47447470673510828 -0.19786976557446051 0 0.5 -0.19799612280316969 0 0.47999689871614948 -0.2178752880539867 0 0.5 -0.19799612280316969 0 0.5 -0.22272417544443521 0 0.47999689871614948 -0.2178752880539867 0 0.5 -0.22272417544443521 0 0.47679558172830899 -0.24403034403856641 0 0.46587265444972448 -0.22915883349353619 0 0.47999689871614948 -0.2178752880539867 0 0.47679558172830899 -0.24403034403856641 0 0.46587265444972448 -0.22915883349353619 0 0.4628384493837554 -0.2154724869697523 0 0.47999689871614948 -0.2178752880539867 0 0.47679558172830899 -0.24403034403856641 0 0.50000000000000266 -0.24745222808570069 0 0.5 -0.22272417544443521 0 0.47679558172830899 -0.24403034403856641 0 0.50000000000000266 -0.24745222808570069 0 0.47679558172830899 -0.24403034403856641 0 0.50000000000000266 -0.24745222808570069 0 0.48607507308802339 -0.26308598991484289 0 0.50000000000000266 -0.24745222808570069 0 0.48607507308802339 -0.26308598991484289 0 0.5 -0.27690465914144252 0 0.48607507308802339 -0.26308598991484289 0 0.5 -0.27690465914144252 0 0.48452659457060182 -0.28446660283523001 0 0.48607507308802339 -0.26308598991484289 0 0.46905318914120347 -0.2625761154732757 0 0.48452659457060182 -0.28446660283523001 0 0.46905318914120347 -0.2625761154732757 0 0.46161430943235632 -0.28478399450489023 0 0.48452659457060182 -0.28446660283523001 0 0.46905318914120347 -0.2625761154732757 0 0.48452659457060182 -0.28446660283523001 0 0.47679558172830899 -0.24403034403856641 0 0.48607507308802339 -0.26308598991484289 0 0.46905318914120347 -0.2625761154732757 0 0.4535797837118053 -0.24068562811132149 0 0.46905318914120347 -0.2625761154732757 0 0.44677599790470579 -0.25240949561237952 0 0.4535797837118053 -0.24068562811132149 0 0.46905318914120347 -0.2625761154732757 0 0.46905318914120347 -0.2625761154732757 0 0.44090022607948648 -0.26853606281534398 0 0.46161430943235632 -0.28478399450489023 0 0.44090022607948648 -0.26853606281534398 0 0.44061225529937881 -0.28970248944545818 0 0.46161430943235632 -0.28478399450489023 0 0.46905318914120347 -0.2625761154732757 0 0.44090022607948648 -0.26853606281534398 0 0.44677599790470579 -0.25240949561237952 0 0.44090022607948648 -0.26853606281534398 0 0.44677599790470579 -0.25240949561237952 0 0.4314114614681927 -0.25180246239083859 0 0.44088952020452948 -0.30830073832620408 0 0.44061225529937881 -0.28970248944545818 0 0.45867335189487218 -0.30408331218651319 0 0.44061225529937881 -0.28970248944545818 0 0.46161430943235632 -0.28478399450489023 0 0.45867335189487218 -0.30408331218651319 0 0.46161430943235632 -0.28478399450489023 0 0.45867335189487218 -0.30408331218651319 0 0.47874657524341768 -0.3035734615733659 0 0.45867335189487218 -0.30408331218651319 0 0.47874657524341768 -0.3035734615733659 0 0.46922726066598908 -0.31826584852066381 0 0.46161430943235632 -0.28478399450489023 0 0.47874657524341768 -0.3035734615733659 0 0.48452659457060182 -0.28446660283523001 0 0.5 -0.27690465914144252 0 0.48452659457060182 -0.28446660283523001 0 0.5 -0.30635709019718421 0 0.48452659457060182 -0.28446660283523001 0 0.5 -0.30635709019718421 0 0.47874657524341768 -0.3035734615733659 0 0.48452659457060182 -0.28446660283523001 0 0.5 -0.30635709019718421 0 0.47874657524341768 -0.3035734615733659 0 0.5 -0.30635709019718421 0 0.49348699915856248 -0.31044218624671538 0 0.47874657524341768 -0.3035734615733659 0 0.49348699915856248 -0.31044218624671538 0 0.48126241790448659 -0.31932293815821827 0 0.49348699915856248 -0.31044218624671538 0 0.5 -0.33604135028047999 0 0.48807725428299131 -0.33542458809394882 0 0.5 -0.30635709019718421 0 0.49348699915856248 -0.31044218624671538 0 0.5 -0.33604135028047999 0 0.49348699915856248 -0.31044218624671538 0 0.48807725428299131 -0.33542458809394882 0 0.48126241790448659 -0.31932293815821827 0 0.49348699915856248 -0.31044218624671538 0 0.48807725428299131 -0.33542458809394882 0 0.48807725428299131 -0.33542458809394882 0 0.47677400017147242 -0.32890860635639718 0 0.46799143582885072 -0.3385568256263653 0 0.47677400017147242 -0.32890860635639718 0 0.46922726066598908 -0.31826584852066381 0 0.46799143582885072 -0.3385568256263653 0 0.47677400017147242 -0.32890860635639718 0 0.46922726066598908 -0.31826584852066381 0 0.48126241790448659 -0.31932293815821827 0 0.48807725428299131 -0.33542458809394882 0 0.47677400017147242 -0.32890860635639718 0 0.48126241790448659 -0.31932293815821827 0 0.47874657524341768 -0.3035734615733659 0 0.46922726066598908 -0.31826584852066381 0 0.48126241790448659 -0.31932293815821827 0 0.5 -0.33604135028047999 0 0.48266750940742009 -0.36040698994118209 0 0.5 -0.37575543572919162 0 0.48266750940742009 -0.36040698994118209 0 0.5 -0.37575543572919162 0 0.47725776453184893 -0.38538939178841553 0 0.48807725428299131 -0.33542458809394882 0 0.48266750940742009 -0.36040698994118209 0 0.5 -0.33604135028047999 0 0.48807725428299131 -0.33542458809394882 0 0.48266750940742009 -0.36040698994118209 0 0.48266750940742009 -0.36040698994118209 0 0.46225073203454481 -0.36412975355461152 0 0.46799143582885072 -0.3385568256263653 0 0.48807725428299131 -0.33542458809394882 0 0.48266750940742009 -0.36040698994118209 0 0.46799143582885072 -0.3385568256263653 0 0.48266750940742009 -0.36040698994118209 0 0.47725776453184893 -0.38538939178841553 0 0.48266750940742009 -0.36040698994118209 0 0.46225073203454481 -0.36412975355461152 0 0.47725776453184893 -0.38538939178841553 0 0.46225073203454481 -0.36412975355461152 0 0.44486714375186159 -0.36914673131319042 0 0.45261531919382503 -0.38295377263472252 0 0.46225073203454481 -0.36412975355461152 0 0.44783350961564722 -0.35013520392212782 0 0.46799143582885072 -0.3385568256263653 0 0.46225073203454481 -0.36412975355461152 0 0.44783350961564722 -0.35013520392212782 0 0.44486714375186159 -0.36914673131319042 0 0.44783350961564722 -0.35013520392212782 0 0.44486714375186159 -0.36914673131319042 0 0.42529319015275341 -0.36736790482211762 0 0.45867335189487218 -0.30408331218651319 0 0.46922726066598908 -0.31826584852066381 0 0.44831541773423939 -0.32613238296618291 0 0.46922726066598908 -0.31826584852066381 0 0.46799143582885072 -0.3385568256263653 0 0.44831541773423939 -0.32613238296618291 0 0.44783350961564722 -0.35013520392212782 0 0.46799143582885072 -0.3385568256263653 0 0.44831541773423939 -0.32613238296618291 0 0.44783350961564722 -0.35013520392212782 0 0.44831541773423939 -0.32613238296618291 0 0.42488897276308801 -0.3416977134302413 0 0.44088952020452948 -0.30830073832620408 0 0.44831541773423939 -0.32613238296618291 0 0.4265182688841645 -0.31894714384509332 0 0.44088952020452948 -0.30830073832620408 0 0.45867335189487218 -0.30408331218651319 0 0.44831541773423939 -0.32613238296618291 0 0.44831541773423939 -0.32613238296618291 0 0.4265182688841645 -0.31894714384509332 0 0.42488897276308801 -0.3416977134302413 0 0.42488897276308801 -0.3416977134302413 0 0.40771385600308518 -0.32266567467020107 0 0.39837531807008408 -0.33960378113679879 0 0.4265182688841645 -0.31894714384509332 0 0.40771385600308518 -0.32266567467020107 0 0.41158921128041781 -0.30929198953345349 0 0.4265182688841645 -0.31894714384509332 0 0.42488897276308801 -0.3416977134302413 0 0.40771385600308518 -0.32266567467020107 0 0.44486714375186159 -0.36914673131319042 0 0.42529319015275341 -0.36736790482211762 0 0.43495206688098031 -0.38231219962135449 0 0.44783350961564722 -0.35013520392212782 0 0.42488897276308801 -0.3416977134302413 0 0.42529319015275341 -0.36736790482211762 0 0.42488897276308801 -0.3416977134302413 0 0.39816916964519872 -0.35933231768684581 0 0.39837531807008408 -0.33960378113679879 0 0.42488897276308801 -0.3416977134302413 0 0.42529319015275341 -0.36736790482211762 0 0.39816916964519872 -0.35933231768684581 0 0.42529319015275341 -0.36736790482211762 0 0.39816916964519872 -0.35933231768684581 0 0.40278406806986239 -0.37921097054699499 0 0.39816916964519872 -0.35933231768684581 0 0.40278406806986239 -0.37921097054699499 0 0.38187193852200868 -0.38142147409714339 0 0.39816916964519872 -0.35933231768684581 0 0.377668979834411 -0.34825679175406038 0 0.39837531807008408 -0.33960378113679879 0 0.39816916964519872 -0.35933231768684581 0 0.377668979834411 -0.34825679175406038 0 0.37775622257394109 -0.36217056019352362 0 0.39816916964519872 -0.35933231768684581 0 0.38187193852200868 -0.38142147409714339 0 0.39816916964519872 -0.35933231768684581 0 0.37653299442483118 -0.37406626791604231 0 0.38187193852200868 -0.38142147409714339 0 0.39816916964519872 -0.35933231768684581 0 0.37775622257394109 -0.36217056019352362 0 0.37653299442483118 -0.37406626791604231 0 0.40771385600308518 -0.32266567467020107 0 0.3946829984266722 -0.30826818090515912 0 0.41158921128041781 -0.30929198953345349 0 0.40771385600308518 -0.32266567467020107 0 0.38343561210463739 -0.32606640814264581 0 0.3946829984266722 -0.30826818090515912 0 0.40771385600308518 -0.32266567467020107 0 0.39837531807008408 -0.33960378113679879 0 0.38343561210463739 -0.32606640814264581 0 0.377668979834411 -0.34825679175406038 0 0.39837531807008408 -0.33960378113679879 0 0.38343561210463739 -0.32606640814264581 0 0.377668979834411 -0.34825679175406038 0 0.38343561210463739 -0.32606640814264581 0 0.36900850296176391 -0.3355011485511647 0 0.38343561210463739 -0.32606640814264581 0 0.37541150197925971 -0.30286411735013302 0 0.36768435826399598 -0.31638277360014511 0 0.38343561210463739 -0.32606640814264581 0 0.37541150197925971 -0.30286411735013302 0 0.3946829984266722 -0.30826818090515912 0 0.37541150197925971 -0.30286411735013302 0 0.3946829984266722 -0.30826818090515912 0 0.39058083572473962 -0.28692387937378339 0 0.40493043490918568 -0.29739030403490951 0 0.3946829984266722 -0.30826818090515912 0 0.41158921128041781 -0.30929198953345349 0 0.40493043490918568 -0.29739030403490951 0 0.3946829984266722 -0.30826818090515912 0 0.39058083572473962 -0.28692387937378339 0 0.40493043490918568 -0.29739030403490951 0 0.39058083572473962 -0.28692387937378339 0 0.41028272838314278 -0.28393520376582099 0 0.37541150197925971 -0.30286411735013302 0 0.39058083572473962 -0.28692387937378339 0 0.36153831082273258 -0.27936508524529291 0 0.39058083572473962 -0.28692387937378339 0 0.3843230642497138 -0.2661213538894916 0 0.36153831082273258 -0.27936508524529291 0 0.3913782163381096 -0.24232703637398331 0 0.3843230642497138 -0.2661213538894916 0 0.37625135248034042 -0.25087409415659229 0 0.3913782163381096 -0.24232703637398331 0 0.3843230642497138 -0.2661213538894916 0 0.40094653144504611 -0.25434067708238578 0 0.3843230642497138 -0.2661213538894916 0 0.40094653144504611 -0.25434067708238578 0 0.40485150261637459 -0.26919434387571722 0 0.39058083572473962 -0.28692387937378339 0 0.3843230642497138 -0.2661213538894916 0 0.40485150261637459 -0.26919434387571722 0 0.39058083572473962 -0.28692387937378339 0 0.40485150261637459 -0.26919434387571722 0 0.41028272838314278 -0.28393520376582099 0 0.40485150261637459 -0.26919434387571722 0 0.42369928158409859 -0.26318329403805668 0 0.4241447170727779 -0.27752360991701241 0 0.40485150261637459 -0.26919434387571722 0 0.4241447170727779 -0.27752360991701241 0 0.41028272838314278 -0.28393520376582099 0 0.40485150261637459 -0.26919434387571722 0 0.41508162476776522 -0.25069538066452762 0 0.42369928158409859 -0.26318329403805668 0 0.40094653144504611 -0.25434067708238578 0 0.40485150261637459 -0.26919434387571722 0 0.41508162476776522 -0.25069538066452762 0 0.44090022607948648 -0.26853606281534398 0 0.42369928158409859 -0.26318329403805668 0 0.4314114614681927 -0.25180246239083859 0 0.41508162476776522 -0.25069538066452762 0 0.42369928158409859 -0.26318329403805668 0 0.4314114614681927 -0.25180246239083859 0 0.44090022607948648 -0.26853606281534398 0 0.42369928158409859 -0.26318329403805668 0 0.4241447170727779 -0.27752360991701241 0 0.44090022607948648 -0.26853606281534398 0 0.44061225529937881 -0.28970248944545818 0 0.4241447170727779 -0.27752360991701241 0 0.44061225529937881 -0.28970248944545818 0 0.4241447170727779 -0.27752360991701241 0 0.42410049817898121 -0.29918864421190472 0 0.44088952020452948 -0.30830073832620408 0 0.4265182688841645 -0.31894714384509332 0 0.42410049817898121 -0.29918864421190472 0 0.44088952020452948 -0.30830073832620408 0 0.44061225529937881 -0.28970248944545818 0 0.42410049817898121 -0.29918864421190472 0 0.4265182688841645 -0.31894714384509332 0 0.42410049817898121 -0.29918864421190472 0 0.41158921128041781 -0.30929198953345349 0 0.40493043490918568 -0.29739030403490951 0 0.42410049817898121 -0.29918864421190472 0 0.41158921128041781 -0.30929198953345349 0 0.40493043490918568 -0.29739030403490951 0 0.42410049817898121 -0.29918864421190472 0 0.41028272838314278 -0.28393520376582099 0 0.4241447170727779 -0.27752360991701241 0 0.42410049817898121 -0.29918864421190472 0 0.41028272838314278 -0.28393520376582099 0 0.5 -0.5 0 0.4825416670144998 -0.46232898042929138 0 0.5 -0.42889556496581771 0 0.44311464647797483 -0.5 0 0.44316076737192622 -0.48145731445333101 0 0.47017508743216019 -0.48216656118781498 0 0.44316076737192622 -0.48145731445333101 0 0.46084122010425088 -0.46757995349757742 0 0.44265363639469879 -0.46627813589640521 0 0.44316076737192622 -0.48145731445333101 0 0.47017508743216019 -0.48216656118781498 0 0.46084122010425088 -0.46757995349757742 0 0.44311464647797483 -0.5 0 0.5 -0.5 0 0.47017508743216019 -0.48216656118781498 0 0.5 -0.5 0 0.47017508743216019 -0.48216656118781498 0 0.4825416670144998 -0.46232898042929138 0 0.47017508743216019 -0.48216656118781498 0 0.4825416670144998 -0.46232898042929138 0 0.46084122010425088 -0.46757995349757742 0 0.4825416670144998 -0.46232898042929138 0 0.4641636131661363 -0.4496510763826817 0 0.46084122010425088 -0.46757995349757742 0 0.4825416670144998 -0.46232898042929138 0 0.48567358993757398 -0.43302401686895808 0 0.5 -0.42889556496581771 0 0.4641636131661363 -0.4496510763826817 0 0.46643827478070637 -0.4353541954828824 0 0.48567358993757398 -0.43302401686895808 0 0.4641636131661363 -0.4496510763826817 0 0.48567358993757398 -0.43302401686895808 0 0.4825416670144998 -0.46232898042929138 0 0.4641636131661363 -0.4496510763826817 0 0.48567358993757398 -0.43302401686895808 0 0.45430697344966908 -0.43763980172838468 0 0.4641636131661363 -0.4496510763826817 0 0.46643827478070637 -0.4353541954828824 0 0.45430697344966908 -0.43763980172838468 0 0.4641636131661363 -0.4496510763826817 0 0.44914378229676388 -0.44885291570321317 0 0.4641636131661363 -0.4496510763826817 0 0.46084122010425088 -0.46757995349757742 0 0.44265363639469879 -0.46627813589640521 0 0.4641636131661363 -0.4496510763826817 0 0.44265363639469879 -0.46627813589640521 0 0.4641636131661363 -0.4496510763826817 0 0.44265363639469879 -0.46627813589640521 0 0.44914378229676388 -0.44885291570321317 0 0.44265363639469879 -0.46627813589640521 0 0.44914378229676388 -0.44885291570321317 0 0.43084552567857898 -0.45283297058475452 0 0.44914378229676388 -0.44885291570321317 0 0.43258488457832311 -0.43225473313666118 0 0.43084552567857898 -0.45283297058475452 0 0.44914378229676388 -0.44885291570321317 0 0.43258488457832311 -0.43225473313666118 0 0.45430697344966908 -0.43763980172838468 0 0.44914378229676388 -0.44885291570321317 0 0.43258488457832311 -0.43225473313666118 0 0.45278642758609527 -0.42538907080444932 0 0.43258488457832311 -0.43225473313666118 0 0.45430697344966908 -0.43763980172838468 0 0.45278642758609527 -0.42538907080444932 0 0.43258488457832311 -0.43225473313666118 0 0.45278642758609527 -0.42538907080444932 0 0.44206957622592269 -0.41771127161853921 0 0.43258488457832311 -0.43225473313666118 0 0.44206957622592269 -0.41771127161853921 0 0.4578762718570083 -0.41066051073796672 0 0.44977919540945321 -0.4011364502692405 0 0.44206957622592269 -0.41771127161853921 0 0.4578762718570083 -0.41066051073796672 0 0.46775393108496888 -0.42354563256682293 0 0.44206957622592269 -0.41771127161853921 0 0.46775393108496888 -0.42354563256682293 0 0.4578762718570083 -0.41066051073796672 0 0.46775393108496888 -0.42354563256682293 0 0.47184801965627771 -0.41037179363564902 0 0.46775393108496888 -0.42354563256682293 0 0.46643827478070637 -0.4353541954828824 0 0.47184801965627771 -0.41037179363564902 0 0.45278642758609527 -0.42538907080444932 0 0.46775393108496888 -0.42354563256682293 0 0.46643827478070637 -0.4353541954828824 0 0.45278642758609527 -0.42538907080444932 0 0.44206957622592269 -0.41771127161853921 0 0.46775393108496888 -0.42354563256682293 0 0.45430697344966908 -0.43763980172838468 0 0.45278642758609527 -0.42538907080444932 0 0.46643827478070637 -0.4353541954828824 0 0.46643827478070637 -0.4353541954828824 0 0.47797438039617768 -0.42553199300053612 0 0.48567358993757398 -0.43302401686895808 0 0.46643827478070637 -0.4353541954828824 0 0.47797438039617768 -0.42553199300053612 0 0.47184801965627771 -0.41037179363564902 0 0.5 -0.42889556496581771 0 0.47184801965627771 -0.41037179363564902 0 0.47725776453184893 -0.38538939178841553 0 0.46643827478070637 -0.4353541954828824 0 0.47184801965627771 -0.41037179363564902 0 0.47797438039617768 -0.42553199300053612 0 0.48567358993757398 -0.43302401686895808 0 0.5 -0.42889556496581771 0 0.47797438039617768 -0.42553199300053612 0 0.5 -0.42889556496581771 0 0.47184801965627771 -0.41037179363564902 0 0.5 -0.42889556496581771 0 0.5 -0.37575543572919162 0 0.47725776453184893 -0.38538939178841553 0 0.47184801965627771 -0.41037179363564902 0 0.47725776453184893 -0.38538939178841553 0 0.46183453949015912 -0.39694135470248448 0 0.47184801965627771 -0.41037179363564902 0 0.47725776453184893 -0.38538939178841553 0 0.47725776453184893 -0.38538939178841553 0 0.46183453949015912 -0.39694135470248448 0 0.45261531919382503 -0.38295377263472252 0 0.46225073203454481 -0.36412975355461152 0 0.47725776453184893 -0.38538939178841553 0 0.45261531919382503 -0.38295377263472252 0 0.46183453949015912 -0.39694135470248448 0 0.44977919540945321 -0.4011364502692405 0 0.45261531919382503 -0.38295377263472252 0 0.4578762718570083 -0.41066051073796672 0 0.47184801965627771 -0.41037179363564902 0 0.46183453949015912 -0.39694135470248448 0 0.4578762718570083 -0.41066051073796672 0 0.46183453949015912 -0.39694135470248448 0 0.44977919540945321 -0.4011364502692405 0 0.44206957622592269 -0.41771127161853921 0 0.44977919540945321 -0.4011364502692405 0 0.4345002702803511 -0.39741534165248971 0 0.44977919540945321 -0.4011364502692405 0 0.45261531919382503 -0.38295377263472252 0 0.4345002702803511 -0.39741534165248971 0 0.44486714375186159 -0.36914673131319042 0 0.45261531919382503 -0.38295377263472252 0 0.43495206688098031 -0.38231219962135449 0 0.45261531919382503 -0.38295377263472252 0 0.4345002702803511 -0.39741534165248971 0 0.45261531919382503 -0.38295377263472252 0 0.43495206688098031 -0.38231219962135449 0 0.4345002702803511 -0.39741534165248971 0 0.42529319015275341 -0.36736790482211762 0 0.43495206688098031 -0.38231219962135449 0 0.41748441102610978 -0.39467724768425222 0 0.4345002702803511 -0.39741534165248971 0 0.41748441102610978 -0.39467724768425222 0 0.4163852213668765 -0.41187691067025611 0 0.43495206688098031 -0.38231219962135449 0 0.4345002702803511 -0.39741534165248971 0 0.41748441102610978 -0.39467724768425222 0 0.4345002702803511 -0.39741534165248971 0 0.4163852213668765 -0.41187691067025611 0 0.41748441102610978 -0.39467724768425222 0 0.41104512836780388 -0.41066387533318122 0 0.4163852213668765 -0.41187691067025611 0 0.41748441102610978 -0.39467724768425222 0 0.39645853344490611 -0.39604267471516252 0 0.41104512836780388 -0.41066387533318122 0 0.42529319015275341 -0.36736790482211762 0 0.41748441102610978 -0.39467724768425222 0 0.40278406806986239 -0.37921097054699499 0 0.40278406806986239 -0.37921097054699499 0 0.38187193852200868 -0.38142147409714339 0 0.39645853344490611 -0.39604267471516252 0 0.41748441102610978 -0.39467724768425222 0 0.40278406806986239 -0.37921097054699499 0 0.39645853344490611 -0.39604267471516252 0 0.38187193852200868 -0.38142147409714339 0 0.38055627312429569 -0.39437518123242021 0 0.39645853344490611 -0.39604267471516252 0 0.38187193852200868 -0.38142147409714339 0 0.39645853344490611 -0.39604267471516252 0 0.38187193852200868 -0.38142147409714339 0 0.37079683824823628 -0.39643258981108459 0 0.37653299442483118 -0.37406626791604231 0 0.37631247997867467 -0.37584882612005782 0 0.38187193852200868 -0.38142147409714339 0 0.37631247997867467 -0.37584882612005782 0 0.38187193852200868 -0.38142147409714339 0 0.37754295702267832 -0.40305364874772021 0 0.39429404269524121 -0.40685876204045041 0 0.37754295702267832 -0.40305364874772021 0 0.38702098426668752 -0.39999339377114002 0 0.39429404269524121 -0.40685876204045041 0 0.38055627312429569 -0.39437518123242021 0 0.38702098426668752 -0.39999339377114002 0 0.39645853344490611 -0.39604267471516252 0 0.37754295702267832 -0.40305364874772021 0 0.38055627312429569 -0.39437518123242021 0 0.38702098426668752 -0.39999339377114002 0 0.38187193852200868 -0.38142147409714339 0 0.38055627312429569 -0.39437518123242021 0 0.37079683824823628 -0.39643258981108459 0 0.37754295702267832 -0.40305364874772021 0 0.38055627312429569 -0.39437518123242021 0 0.37079683824823628 -0.39643258981108459 0 0.38702098426668752 -0.39999339377114002 0 0.39645853344490611 -0.39604267471516252 0 0.39429404269524121 -0.40685876204045041 0 0.39645853344490611 -0.39604267471516252 0 0.39429404269524121 -0.40685876204045041 0 0.41104512836780388 -0.41066387533318122 0 0.39645853344490611 -0.39604267471516252 0 0.41104512836780388 -0.41066387533318122 0 0.39881578020109032 -0.40975582890118029 0 0.39429404269524121 -0.40685876204045041 0 0.37926875908777807 -0.41059976721310443 0 0.39429404269524121 -0.40685876204045041 0 0.41104512836780388 -0.41066387533318122 0 0.39881578020109032 -0.40975582890118029 0 0.38790900560550878 -0.41833916778743663 0 0.39232389125049311 -0.43108550280817559 0 0.39881578020109032 -0.40975582890118029 0 0.39232389125049311 -0.43108550280817559 0 0.41408625499807761 -0.41371221682762122 0 0.39881578020109032 -0.40975582890118029 0 0.39429404269524121 -0.40685876204045041 0 0.41104512836780388 -0.41066387533318122 0 0.39881578020109032 -0.40975582890118029 0 0.37926875908777807 -0.41059976721310443 0 0.37754295702267832 -0.40305364874772021 0 0.39429404269524121 -0.40685876204045041 0 0.37926875908777807 -0.41059976721310443 0 0.39881578020109032 -0.40975582890118029 0 0.38790900560550878 -0.41833916778743663 0 0.37926875908777807 -0.41059976721310443 0 0.38790900560550878 -0.41833916778743663 0 0.37862462452877138 -0.42119170817262802 0 0.37926875908777807 -0.41059976721310443 0 0.39232389125049311 -0.43108550280817559 0 0.37056152750290661 -0.44845878878872719 0 0.37089020052047061 -0.42885930079020301 0 0.37862462452877138 -0.42119170817262802 0 0.39232389125049311 -0.43108550280817559 0 0.37089020052047061 -0.42885930079020301 0 0.38790900560550878 -0.41833916778743663 0 0.37862462452877138 -0.42119170817262802 0 0.39232389125049311 -0.43108550280817559 0 0.39232389125049311 -0.43108550280817559 0 0.41408625499807761 -0.41371221682762122 0 0.39232389125049311 -0.43108550280817559 0 0.41408625499807761 -0.41371221682762122 0 0.4048790565856899 -0.44167078910617669 0 0.41408625499807761 -0.41371221682762122 0 0.43258488457832311 -0.43225473313666118 0 0.4048790565856899 -0.44167078910617669 0 0.43258488457832311 -0.43225473313666118 0 0.4048790565856899 -0.44167078910617669 0 0.39881578020109032 -0.40975582890118029 0 0.41104512836780388 -0.41066387533318122 0 0.41408625499807761 -0.41371221682762122 0 0.41104512836780388 -0.41066387533318122 0 0.4163852213668765 -0.41187691067025611 0 0.41104512836780388 -0.41066387533318122 0 0.4163852213668765 -0.41187691067025611 0 0.41408625499807761 -0.41371221682762122 0 0.41104512836780388 -0.41066387533318122 0 0.41408625499807761 -0.41371221682762122 0 0.4163852213668765 -0.41187691067025611 0 0.41408625499807761 -0.41371221682762122 0 0.4163852213668765 -0.41187691067025611 0 0.41408625499807761 -0.41371221682762122 0 0.42628148429230012 -0.41888878306326921 0 0.44206957622592269 -0.41771127161853921 0 0.4163852213668765 -0.41187691067025611 0 0.42628148429230012 -0.41888878306326921 0 0.41408625499807761 -0.41371221682762122 0 0.42628148429230012 -0.41888878306326921 0 0.43258488457832311 -0.43225473313666118 0 0.44206957622592269 -0.41771127161853921 0 0.4163852213668765 -0.41187691067025611 0 0.44206957622592269 -0.41771127161853921 0 0.4345002702803511 -0.39741534165248971 0 0.4163852213668765 -0.41187691067025611 0 0.44206957622592269 -0.41771127161853921 0 0.42628148429230012 -0.41888878306326921 0 0.43258488457832311 -0.43225473313666118 0 0.41408625499807761 -0.41371221682762122 0 0.43258488457832311 -0.43225473313666118 0 0.43258488457832311 -0.43225473313666118 0 0.43084552567857898 -0.45283297058475452 0 0.41688382027957999 -0.45216666638394237 0 0.44265363639469879 -0.46627813589640521 0 0.42781128016323161 -0.46335330947773801 0 0.42510173820795888 -0.47176357526981239 0 0.44265363639469879 -0.46627813589640521 0 0.43084552567857898 -0.45283297058475452 0 0.42781128016323161 -0.46335330947773801 0 0.42781128016323161 -0.46335330947773801 0 0.42314727562780441 -0.45883084412902181 0 0.41774113910259858 -0.4672120072404371 0 0.42781128016323161 -0.46335330947773801 0 0.41774113910259858 -0.4672120072404371 0 0.42510173820795888 -0.47176357526981239 0 0.43084552567857898 -0.45283297058475452 0 0.42314727562780441 -0.45883084412902181 0 0.41688382027957999 -0.45216666638394237 0 0.43084552567857898 -0.45283297058475452 0 0.42781128016323161 -0.46335330947773801 0 0.42314727562780441 -0.45883084412902181 0 0.41774113910259858 -0.4672120072404371 0 0.39745718384782769 -0.45914942615806309 0 0.41383110120738092 -0.47723092472739492 0 0.41774113910259858 -0.4672120072404371 0 0.41688382027957999 -0.45216666638394237 0 0.39745718384782769 -0.45914942615806309 0 0.42314727562780441 -0.45883084412902181 0 0.41774113910259858 -0.4672120072404371 0 0.41688382027957999 -0.45216666638394237 0 0.41774113910259858 -0.4672120072404371 0 0.39745718384782769 -0.45914942615806309 0 0.43258488457832311 -0.43225473313666118 0 0.41688382027957999 -0.45216666638394237 0 0.4048790565856899 -0.44167078910617669 0 0.41688382027957999 -0.45216666638394237 0 0.4048790565856899 -0.44167078910617669 0 0.39745718384782769 -0.45914942615806309 0 0.39232389125049311 -0.43108550280817559 0 0.4048790565856899 -0.44167078910617669 0 0.37717322859305608 -0.45108684507569091 0 0.4048790565856899 -0.44167078910617669 0 0.37717322859305608 -0.45108684507569091 0 0.39745718384782769 -0.45914942615806309 0 0.4048790565856899 -0.44167078910617669 0 0.37717322859305608 -0.45108684507569091 0 0.39232389125049311 -0.43108550280817559 0 0.37717322859305608 -0.45108684507569091 0 0.37056152750290661 -0.44845878878872719 0 0.39232389125049311 -0.43108550280817559 0 0.37056152750290661 -0.44845878878872719 0 0.37905574410905851 -0.46769883090013198 0 0.39745718384782769 -0.45914942615806309 0 0.38974057271698492 -0.47752228106913941 0 0.37717322859305608 -0.45108684507569091 0 0.37558565427453489 -0.45908194460960883 0 0.39745718384782769 -0.45914942615806309 0 0.37717322859305608 -0.45108684507569091 0 0.39745718384782769 -0.45914942615806309 0 0.37905574410905851 -0.46769883090013198 0 0.37558565427453489 -0.45908194460960883 0 0.39745718384782769 -0.45914942615806309 0 0.38974057271698492 -0.47752228106913941 0 0.41383110120738092 -0.47723092472739492 0 0.38974057271698492 -0.47752228106913941 0 0.39925347480038359 -0.5 0 0.36565004422658881 -0.47781363741088401 0 0.39745718384782769 -0.45914942615806309 0 0.38974057271698492 -0.47752228106913941 0 0.41383110120738092 -0.47723092472739492 0 0.38974057271698492 -0.47752228106913941 0 0.36565004422658881 -0.47781363741088401 0 0.37905574410905851 -0.46769883090013198 0 0.38974057271698492 -0.47752228106913941 0 0.36565004422658881 -0.47781363741088401 0 0.38974057271698492 -0.47752228106913941 0 0.39925347480038359 -0.5 0 0.41383110120738092 -0.47723092472739492 0 0.39925347480038359 -0.5 0 0.41383110120738092 -0.47723092472739492 0 0.42114365962326128 -0.48290519541012861 0 0.44311464647797483 -0.5 0 0.39925347480038359 -0.5 0 0.42114365962326128 -0.48290519541012861 0 0.41774113910259858 -0.4672120072404371 0 0.41383110120738092 -0.47723092472739492 0 0.42510173820795888 -0.47176357526981239 0 0.41383110120738092 -0.47723092472739492 0 0.42114365962326128 -0.48290519541012861 0 0.42510173820795888 -0.47176357526981239 0 0.44265363639469879 -0.46627813589640521 0 0.42114365962326128 -0.48290519541012861 0 0.44316076737192622 -0.48145731445333101 0 0.44265363639469879 -0.46627813589640521 0 0.42114365962326128 -0.48290519541012861 0 0.44265363639469879 -0.46627813589640521 0 0.42114365962326128 -0.48290519541012861 0 0.42510173820795888 -0.47176357526981239 0 0.44311464647797483 -0.5 0 0.44316076737192622 -0.48145731445333101 0 0.42114365962326128 -0.48290519541012861 0 0.31644628235489852 -0.5 0 0.32282525476229051 -0.47833157017434619 0 0.30409099378838828 -0.47855814659606399 0 0.31644628235489852 -0.5 0 0.32282525476229051 -0.47833157017434619 0 0.3393584689181639 -0.50000000000002198 0 0.32282525476229051 -0.47833157017434619 0 0.30409099378838828 -0.47855814659606399 0 0.32282525476229051 -0.47833157017434619 0 0.31347613263830881 -0.46620576138970848 0 0.30409099378838828 -0.47855814659606399 0 0.32282525476229051 -0.47833157017434619 0 0.33058320820465681 -0.46445694196863541 0 0.31347613263830881 -0.46620576138970848 0 0.32282525476229051 -0.47833157017434619 0 0.34155951573619281 -0.47810499375264121 0 0.32282525476229051 -0.47833157017434619 0 0.34155951573619281 -0.47810499375264121 0 0.33058320820465681 -0.46445694196863541 0 0.32282525476229051 -0.47833157017434619 0 0.34155951573619281 -0.47810499375264121 0 0.3393584689181639 -0.50000000000002198 0 0.34155951573619281 -0.47810499375264121 0 0.3393584689181639 -0.50000000000002198 0 0.34155951573619281 -0.47810499375264121 0 0.3393584689181639 -0.50000000000002198 0 0.36565004422658881 -0.47781363741088401 0 0.39925347480038359 -0.5 0 0.3393584689181639 -0.50000000000002198 0 0.36565004422658881 -0.47781363741088401 0 0.37905574410905851 -0.46769883090013198 0 0.36565004422658881 -0.47781363741088401 0 0.36928042456514609 -0.46357290101910492 0 0.34155951573619281 -0.47810499375264121 0 0.36565004422658881 -0.47781363741088401 0 0.34155951573619281 -0.47810499375264121 0 0.36565004422658881 -0.47781363741088401 0 0.3566555353265492 -0.45956019218981647 0 0.3566555353265492 -0.45956019218981647 0 0.37056152750290661 -0.44845878878872719 0 0.34628190161534428 -0.45175642152556889 0 0.34155951573619281 -0.47810499375264121 0 0.3566555353265492 -0.45956019218981647 0 0.34420253133034961 -0.45181348442531499 0 0.3566555353265492 -0.45956019218981647 0 0.34420253133034961 -0.45181348442531499 0 0.34628190161534428 -0.45175642152556889 0 0.36565004422658881 -0.47781363741088401 0 0.3566555353265492 -0.45956019218981647 0 0.36928042456514609 -0.46357290101910492 0 0.3566555353265492 -0.45956019218981647 0 0.36945514488899911 -0.45370989998508321 0 0.37056152750290661 -0.44845878878872719 0 0.3566555353265492 -0.45956019218981647 0 0.37056152750290661 -0.44845878878872719 0 0.3566555353265492 -0.45956019218981647 0 0.36945514488899911 -0.45370989998508321 0 0.36928042456514609 -0.46357290101910492 0 0.37558565427453489 -0.45908194460960883 0 0.36945514488899911 -0.45370989998508321 0 0.36928042456514609 -0.46357290101910492 0 0.37717322859305608 -0.45108684507569091 0 0.37558565427453489 -0.45908194460960883 0 0.36945514488899911 -0.45370989998508321 0 0.37905574410905851 -0.46769883090013198 0 0.37558565427453489 -0.45908194460960883 0 0.36928042456514609 -0.46357290101910492 0 0.37717322859305608 -0.45108684507569091 0 0.36945514488899911 -0.45370989998508321 0 0.37717322859305608 -0.45108684507569091 0 0.37056152750290661 -0.44845878878872719 0 0.37717322859305608 -0.45108684507569091 0 0.36945514488899911 -0.45370989998508321 0 0.37056152750290661 -0.44845878878872719 0 0.37056152750290661 -0.44845878878872719 0 0.34628190161534428 -0.45175642152556889 0 0.34553960053970723 -0.43851293195537627 0 0.37056152750290661 -0.44845878878872719 0 0.34553960053970723 -0.43851293195537627 0 0.35863318512680509 -0.43134059618465898 0 0.37056152750290661 -0.44845878878872719 0 0.34553960053970723 -0.43851293195537627 0 0.34420253133034961 -0.45181348442531499 0 0.34628190161534428 -0.45175642152556889 0 0.34553960053970723 -0.43851293195537627 0 0.34420253133034961 -0.45181348442531499 0 0.34628190161534428 -0.45175642152556889 0 0.34420253133034961 -0.45181348442531499 0 0.34553960053970723 -0.43851293195537627 0 0.34420253133034961 -0.45181348442531499 0 0.33299527899893672 -0.44360956060000478 0 0.31849463016207169 -0.45251897079131709 0 0.34553960053970723 -0.43851293195537627 0 0.33299527899893672 -0.44360956060000478 0 0.33272107957605213 -0.43341775385389297 0 0.34420253133034961 -0.45181348442531499 0 0.31849463016207169 -0.45251897079131709 0 0.34420253133034961 -0.45181348442531499 0 0.34553960053970723 -0.43851293195537627 0 0.33299527899893672 -0.44360956060000478 0 0.33299527899893672 -0.44360956060000478 0 0.32408883995415572 -0.43809268155313452 0 0.33272107957605213 -0.43341775385389297 0 0.34420253133034961 -0.45181348442531499 0 0.33058320820465681 -0.46445694196863541 0 0.31849463016207169 -0.45251897079131709 0 0.34155951573619281 -0.47810499375264121 0 0.34420253133034961 -0.45181348442531499 0 0.34155951573619281 -0.47810499375264121 0 0.34420253133034961 -0.45181348442531499 0 0.33058320820465681 -0.46445694196863541 0 0.33058320820465681 -0.46445694196863541 0 0.31347613263830881 -0.46620576138970848 0 0.31849463016207169 -0.45251897079131709 0 0.31849463016207169 -0.45251897079131709 0 0.32408883995415572 -0.43809268155313452 0 0.31077857759927052 -0.43192362294208692 0 0.33299527899893672 -0.44360956060000478 0 0.31849463016207169 -0.45251897079131709 0 0.32408883995415572 -0.43809268155313452 0 0.32545463343444769 -0.42899349957837091 0 0.32209988842575682 -0.41306802055572001 0 0.31077857759927052 -0.43192362294208692 0 0.32408883995415572 -0.43809268155313452 0 0.32545463343444769 -0.42899349957837091 0 0.33272107957605213 -0.43341775385389297 0 0.32408883995415572 -0.43809268155313452 0 0.32545463343444769 -0.42899349957837091 0 0.31077857759927052 -0.43192362294208692 0 0.32209988842575682 -0.41306802055572001 0 0.32008107835836719 -0.39811903457242209 0 0.29598893901940809 -0.4141953550194718 0 0.32209988842575682 -0.41306802055572001 0 0.34821083783210721 -0.41194068609200668 0 0.32209988842575682 -0.41306802055572001 0 0.33765506818466268 -0.42477343856603311 0 0.34821083783210721 -0.41194068609200668 0 0.32209988842575682 -0.41306802055572001 0 0.34821083783210721 -0.41194068609200668 0 0.33439175622832329 -0.40199878878903927 0 0.32545463343444769 -0.42899349957837091 0 0.32209988842575682 -0.41306802055572001 0 0.33765506818466268 -0.42477343856603311 0 0.33765506818466268 -0.42477343856603311 0 0.34469846624998401 -0.43180614601617379 0 0.34645285909646473 -0.429428253863961 0 0.32545463343444769 -0.42899349957837091 0 0.33765506818466268 -0.42477343856603311 0 0.33272107957605213 -0.43341775385389297 0 0.34553960053970723 -0.43851293195537627 0 0.33272107957605213 -0.43341775385389297 0 0.33765506818466268 -0.42477343856603311 0 0.33272107957605213 -0.43341775385389297 0 0.34469846624998401 -0.43180614601617379 0 0.34553960053970723 -0.43851293195537627 0 0.33272107957605213 -0.43341775385389297 0 0.34469846624998401 -0.43180614601617379 0 0.33765506818466268 -0.42477343856603311 0 0.34645285909646473 -0.429428253863961 0 0.34821083783210721 -0.41194068609200668 0 0.34553960053970723 -0.43851293195537627 0 0.34469846624998401 -0.43180614601617379 0 0.34645285909646473 -0.429428253863961 0 0.34553960053970723 -0.43851293195537627 0 0.34645285909646473 -0.429428253863961 0 0.35863318512680509 -0.43134059618465898 0 0.34553960053970723 -0.43851293195537627 0 0.34645285909646473 -0.429428253863961 0 0.34645285909646473 -0.429428253863961 0 0.35863318512680509 -0.43134059618465898 0 0.35972173797446599 -0.4114437055250274 0 0.34469846624998401 -0.43180614601617379 0 0.34645285909646473 -0.429428253863961 0 0.35863318512680509 -0.43134059618465898 0 0.37089020052047061 -0.42885930079020301 0 0.35972173797446599 -0.4114437055250274 0 0.37056152750290661 -0.44845878878872719 0 0.35863318512680509 -0.43134059618465898 0 0.37089020052047061 -0.42885930079020301 0 0.37862462452877138 -0.42119170817262802 0 0.37089020052047061 -0.42885930079020301 0 0.35972173797446599 -0.4114437055250274 0 0.37754295702267832 -0.40305364874772021 0 0.37926875908777807 -0.41059976721310443 0 0.35972173797446599 -0.4114437055250274 0 0.37862462452877138 -0.42119170817262802 0 0.37926875908777807 -0.41059976721310443 0 0.35972173797446599 -0.4114437055250274 0 0.37926875908777807 -0.41059976721310443 0 0.35972173797446599 -0.4114437055250274 0 0.34645285909646473 -0.429428253863961 0 0.35972173797446599 -0.4114437055250274 0 0.35972173797446599 -0.4114437055250274 0 0.34821083783210721 -0.41194068609200668 0 0.35950385840573168 -0.39969183031743022 0 0.34645285909646473 -0.429428253863961 0 0.35972173797446599 -0.4114437055250274 0 0.34821083783210721 -0.41194068609200668 0 0.34645285909646473 -0.429428253863961 0 0.34821083783210721 -0.41194068609200668 0 0.35972173797446599 -0.4114437055250274 0 0.34821083783210721 -0.41194068609200668 0 0.34821083783210721 -0.41194068609200668 0 0.35015885903755101 -0.39256266281973989 0 0.34821083783210721 -0.41194068609200668 0 0.35015885903755101 -0.39256266281973989 0 0.33439175622832329 -0.40199878878903927 0 0.35015885903755101 -0.39256266281973989 0 0.35950385840573168 -0.39969183031743022 0 0.36323465720052389 -0.38337535202466599 0 0.34821083783210721 -0.41194068609200668 0 0.35015885903755101 -0.39256266281973989 0 0.35950385840573168 -0.39969183031743022 0 0.37754295702267832 -0.40305364874772021 0 0.35972173797446599 -0.4114437055250274 0 0.37079683824823628 -0.39643258981108459 0 0.35972173797446599 -0.4114437055250274 0 0.37079683824823628 -0.39643258981108459 0 0.35972173797446599 -0.4114437055250274 0 0.35950385840573168 -0.39969183031743022 0 0.37079683824823628 -0.39643258981108459 0 0.35950385840573168 -0.39969183031743022 0 0.37079683824823628 -0.39643258981108459 0 0.36323465720052389 -0.38337535202466599 0 0.38187193852200868 -0.38142147409714339 0 0.37079683824823628 -0.39643258981108459 0 0.36323465720052389 -0.38337535202466599 0 0.37653299442483118 -0.37406626791604231 0 0.36323465720052389 -0.38337535202466599 0 0.35210688024299169 -0.37318463954747272 0 0.37631247997867467 -0.37584882612005782 0 0.38187193852200868 -0.38142147409714339 0 0.36323465720052389 -0.38337535202466599 0 0.37653299442483118 -0.37406626791604231 0 0.37631247997867467 -0.37584882612005782 0 0.36323465720052389 -0.38337535202466599 0 0.35015885903755101 -0.39256266281973989 0 0.35210688024299169 -0.37318463954747272 0 0.35015885903755101 -0.39256266281973989 0 0.34358448977665668 -0.38298198773318382 0 0.35210688024299169 -0.37318463954747272 0 0.35015885903755101 -0.39256266281973989 0 0.36323465720052389 -0.38337535202466599 0 0.35210688024299169 -0.37318463954747272 0 0.34025039416916542 -0.37822384104103968 0 0.34358448977665668 -0.38298198773318382 0 0.35210688024299169 -0.37318463954747272 0 0.35015885903755101 -0.39256266281973989 0 0.33383915745895149 -0.39037834256183868 0 0.34358448977665668 -0.38298198773318382 0 0.34025039416916542 -0.37822384104103968 0 0.33524621783409081 -0.38012949077474573 0 0.34358448977665668 -0.38298198773318382 0 0.34025039416916542 -0.37822384104103968 0 0.33524621783409081 -0.38012949077474573 0 0.33647035311273388 -0.37262025972834589 0 0.33524621783409081 -0.38012949077474573 0 0.32267872906671913 -0.3838166355780559 0 0.33647035311273388 -0.37262025972834589 0 0.33524621783409081 -0.38012949077474573 0 0.33383915745895149 -0.39037834256183868 0 0.32267872906671913 -0.3838166355780559 0 0.33524621783409081 -0.38012949077474573 0 0.33383915745895149 -0.39037834256183868 0 0.34358448977665668 -0.38298198773318382 0 0.35015885903755101 -0.39256266281973989 0 0.33383915745895149 -0.39037834256183868 0 0.33439175622832329 -0.40199878878903927 0 0.33383915745895149 -0.39037834256183868 0 0.33439175622832329 -0.40199878878903927 0 0.32008107835836719 -0.39811903457242209 0 0.32008107835836719 -0.39811903457242209 0 0.32267872906671913 -0.3838166355780559 0 0.30409224414730818 -0.39011982149346552 0 0.33383915745895149 -0.39037834256183868 0 0.32008107835836719 -0.39811903457242209 0 0.32267872906671913 -0.3838166355780559 0 0.32209988842575682 -0.41306802055572001 0 0.33439175622832329 -0.40199878878903927 0 0.32008107835836719 -0.39811903457242209 0 0.32267872906671913 -0.3838166355780559 0 0.33647035311273388 -0.37262025972834589 0 0.30634332348886351 -0.37153286433751848 0 0.30409224414730818 -0.39011982149346552 0 0.28700077429998061 -0.39173966311670128 0 0.30634332348886351 -0.37153286433751848 0 0.32267872906671913 -0.3838166355780559 0 0.30409224414730818 -0.39011982149346552 0 0.30634332348886351 -0.37153286433751848 0 0.32008107835836719 -0.39811903457242209 0 0.29598893901940809 -0.4141953550194718 0 0.32008107835836719 -0.39811903457242209 0 0.30409224414730818 -0.39011982149346552 0 0.29598893901940809 -0.4141953550194718 0 0.28700077429998061 -0.39173966311670128 0 0.27790242742838689 -0.40352194841673811 0 0.29598893901940809 -0.4141953550194718 0 0.30409224414730818 -0.39011982149346552 0 0.28700077429998061 -0.39173966311670128 0 0.29598893901940809 -0.4141953550194718 0 0.28700077429998061 -0.39173966311670128 0 0.30634332348886351 -0.37153286433751848 0 0.27621629386499302 -0.370445468946692 0 0.25524912299832098 -0.38200881152066862 0 0.26967055079624369 -0.39146181012157583 0 0.27621629386499302 -0.370445468946692 0 0.28700077429998061 -0.39173966311670128 0 0.26967055079624369 -0.39146181012157583 0 0.27621629386499302 -0.370445468946692 0 0.25524912299832098 -0.38200881152066862 0 0.25543138794190728 -0.39779400128855491 0 0.26967055079624369 -0.39146181012157583 0 0.25543138794190728 -0.39779400128855491 0 0.26674458087962538 -0.40608702675119041 0 0.25090657366063313 -0.41146640545743562 0 0.25524912299832098 -0.38200881152066862 0 0.25543138794190728 -0.39779400128855491 0 0.2405883040438167 -0.39410592899404939 0 0.25543138794190728 -0.39779400128855491 0 0.25090657366063313 -0.41146640545743562 0 0.24461806235260219 -0.40547911482343718 0 0.25543138794190728 -0.39779400128855491 0 0.26674458087962538 -0.40608702675119041 0 0.26967055079624369 -0.39146181012157583 0 0.26674458087962538 -0.40608702675119041 0 0.26967055079624369 -0.39146181012157583 0 0.27790242742838689 -0.40352194841673811 0 0.28700077429998061 -0.39173966311670128 0 0.26967055079624369 -0.39146181012157583 0 0.27790242742838689 -0.40352194841673811 0 0.27032449324490632 -0.41530341178770508 0 0.27168855565693201 -0.4304106335559682 0 0.29598893901940809 -0.4141953550194718 0 0.26674458087962538 -0.40608702675119041 0 0.27790242742838689 -0.40352194841673811 0 0.27032449324490632 -0.41530341178770508 0 0.26674458087962538 -0.40608702675119041 0 0.27032449324490632 -0.41530341178770508 0 0.2485614248518116 -0.42876462740467192 0 0.26674458087962538 -0.40608702675119041 0 0.25090657366063313 -0.41146640545743562 0 0.2485614248518116 -0.42876462740467192 0 0.26674458087962538 -0.40608702675119041 0 0.2485614248518116 -0.42876462740467192 0 0.27168855565693201 -0.4304106335559682 0 0.2473881722944562 -0.44662591209246483 0 0.2485614248518116 -0.42876462740467192 0 0.27032449324490632 -0.41530341178770508 0 0.27168855565693201 -0.4304106335559682 0 0.2485614248518116 -0.42876462740467192 0 0.27168855565693201 -0.4304106335559682 0 0.29113999507682481 -0.43358466932772982 0 0.28067352688826752 -0.44278742589111458 0 0.27168855565693201 -0.4304106335559682 0 0.29598893901940809 -0.4141953550194718 0 0.27168855565693201 -0.4304106335559682 0 0.29113999507682481 -0.43358466932772982 0 0.29598893901940809 -0.4141953550194718 0 0.27790242742838689 -0.40352194841673811 0 0.27032449324490632 -0.41530341178770508 0 0.29598893901940809 -0.4141953550194718 0 0.27032449324490632 -0.41530341178770508 0 0.29598893901940809 -0.4141953550194718 0 0.32209988842575682 -0.41306802055572001 0 0.29598893901940809 -0.4141953550194718 0 0.31077857759927052 -0.43192362294208692 0 0.32209988842575682 -0.41306802055572001 0 0.29598893901940809 -0.4141953550194718 0 0.29113999507682481 -0.43358466932772982 0 0.29598893901940809 -0.4141953550194718 0 0.31077857759927052 -0.43192362294208692 0 0.31849463016207169 -0.45251897079131709 0 0.31077857759927052 -0.43192362294208692 0 0.29278672899379499 -0.45322445715735932 0 0.29113999507682481 -0.43358466932772982 0 0.31077857759927052 -0.43192362294208692 0 0.29278672899379499 -0.45322445715735932 0 0.31849463016207169 -0.45251897079131709 0 0.29278672899379499 -0.45322445715735932 0 0.31347613263830881 -0.46620576138970848 0 0.31849463016207169 -0.45251897079131709 0 0.29278672899379499 -0.45322445715735932 0 0.31347613263830881 -0.46620576138970848 0 0.29278672899379499 -0.45322445715735932 0 0.30409099378838828 -0.47855814659606399 0 0.29278672899379499 -0.45322445715735932 0 0.2791910421873337 -0.47392270151934712 0 0.30409099378838828 -0.47855814659606399 0 0.29113999507682481 -0.43358466932772982 0 0.29278672899379499 -0.45322445715735932 0 0.28067352688826752 -0.44278742589111458 0 0.29278672899379499 -0.45322445715735932 0 0.28067352688826752 -0.44278742589111458 0 0.26707882782551817 -0.45392994352340149 0 0.27168855565693201 -0.4304106335559682 0 0.28067352688826752 -0.44278742589111458 0 0.26707882782551817 -0.45392994352340149 0 0.27168855565693201 -0.4304106335559682 0 0.2473881722944562 -0.44662591209246483 0 0.27168855565693201 -0.4304106335559682 0 0.26707882782551817 -0.45392994352340149 0 0.2473881722944562 -0.44662591209246483 0 0.25313573724869581 -0.46656418664734522 0 0.26707882782551817 -0.45392994352340149 0 0.2473881722944562 -0.44662591209246483 0 0.29278672899379499 -0.45322445715735932 0 0.26707882782551817 -0.45392994352340149 0 0.25313573724869581 -0.46656418664734522 0 0.26707882782551817 -0.45392994352340149 0 0.2791910421873337 -0.47392270151934712 0 0.29278672899379499 -0.45322445715735932 0 0.26707882782551817 -0.45392994352340149 0 0.2791910421873337 -0.47392270151934712 0 0.25313573724869581 -0.46656418664734522 0 0.2791910421873337 -0.47392270151934712 0 0.26642110145981779 -0.49137327623721372 0 0.25313573724869581 -0.46656418664734522 0 0.26642110145981779 -0.49137327623721372 0 0.23930810712800279 -0.48274655247442683 0 0.26642110145981779 -0.49137327623721372 0 0.26801159672008318 -0.5 0 0.24248909764853349 -0.5 0 0.26642110145981779 -0.49137327623721372 0 0.23930810712800279 -0.48274655247442683 0 0.2791910421873337 -0.47392270151934712 0 0.26642110145981779 -0.49137327623721372 0 0.29353409579163292 -0.50000000000000022 0 0.26642110145981779 -0.49137327623721372 0 0.29353409579163292 -0.50000000000000022 0 0.26642110145981779 -0.49137327623721372 0 0.26801159672008318 -0.5 0 0.29353409579163292 -0.50000000000000022 0 0.2791910421873337 -0.47392270151934712 0 0.29353409579163292 -0.50000000000000022 0 0.30409099378838828 -0.47855814659606399 0 0.31644628235489852 -0.5 0 0.29353409579163292 -0.50000000000000022 0 0.30409099378838828 -0.47855814659606399 0 0.33436847594397467 -0.28724262320936461 0 0.33792822166651337 -0.31151804281868822 0 0.32348636381596502 -0.30292194727627442 0 0.33792822166651337 -0.31151804281868822 0 0.32348636381596502 -0.30292194727627442 0 0.31595357368389509 -0.31969490117648719 0 0.32348636381596502 -0.30292194727627442 0 0.31595357368389509 -0.31969490117648719 0 0.3056951839694767 -0.29323222190055748 0 0.33436847594397467 -0.28724262320936461 0 0.3056951839694767 -0.29323222190055748 0 0.31187021868735942 -0.26700285364334619 0 0.33436847594397467 -0.28724262320936461 0 0.32348636381596502 -0.30292194727627442 0 0.3056951839694767 -0.29323222190055748 0 0.33436847594397467 -0.28724262320936461 0 0.33306569935252889 -0.26700867732202471 0 0.31187021868735942 -0.26700285364334619 0 0.31446536575655398 -0.26022556390054269 0 0.32500674471509577 -0.25072152816901272 0 0.31187021868735942 -0.26700285364334619 0 0.32500674471509577 -0.25072152816901272 0 0.31187021868735942 -0.26700285364334619 0 0.32500674471509577 -0.25072152816901272 0 0.33306569935252889 -0.26700867732202471 0 0.31187021868735942 -0.26700285364334619 0 0.30246891753863808 -0.24487021080207469 0 0.31446536575655398 -0.26022556390054269 0 0.32500674471509577 -0.25072152816901272 0 0.32500674471509577 -0.25072152816901272 0 0.33306569935252889 -0.26700867732202471 0 0.34817974634548821 -0.25673775084311401 0 0.32500674471509577 -0.25072152816901272 0 0.34817974634548821 -0.25673775084311401 0 0.33306569935252889 -0.26700867732202471 0 0.34428805811618579 -0.27258853415494949 0 0.34817974634548821 -0.25673775084311401 0 0.33436847594397467 -0.28724262320936461 0 0.33306569935252889 -0.26700867732202471 0 0.34428805811618579 -0.27258853415494949 0 0.34428805811618579 -0.27258853415494949 0 0.34817974634548821 -0.25673775084311401 0 0.36153831082273258 -0.27936508524529291 0 0.34817974634548821 -0.25673775084311401 0 0.36153831082273258 -0.27936508524529291 0 0.33436847594397467 -0.28724262320936461 0 0.34428805811618579 -0.27258853415494949 0 0.36153831082273258 -0.27936508524529291 0 0.34817974634548821 -0.25673775084311401 0 0.36341534107312201 -0.26069324749888378 0 0.36153831082273258 -0.27936508524529291 0 0.35155653396617059 -0.2411223765105428 0 0.34817974634548821 -0.25673775084311401 0 0.36341534107312201 -0.26069324749888378 0 0.34817974634548821 -0.25673775084311401 0 0.36341534107312201 -0.26069324749888378 0 0.3843230642497138 -0.2661213538894916 0 0.37625135248034042 -0.25087409415659229 0 0.36341534107312201 -0.26069324749888378 0 0.3843230642497138 -0.2661213538894916 0 0.36341534107312201 -0.26069324749888378 0 0.36341534107312201 -0.26069324749888378 0 0.36153831082273258 -0.27936508524529291 0 0.3843230642497138 -0.2661213538894916 0 0.36341534107312201 -0.26069324749888378 0 0.36153831082273258 -0.27936508524529291 0 0.37541150197925971 -0.30286411735013302 0 0.36153831082273258 -0.27936508524529291 0 0.35918045317781089 -0.30281997382083908 0 0.37541150197925971 -0.30286411735013302 0 0.36153831082273258 -0.27936508524529291 0 0.36153831082273258 -0.27936508524529291 0 0.35918045317781089 -0.30281997382083908 0 0.33436847594397467 -0.28724262320936461 0 0.36153831082273258 -0.27936508524529291 0 0.35918045317781089 -0.30281997382083908 0 0.33436847594397467 -0.28724262320936461 0 0.33792822166651337 -0.31151804281868822 0 0.35918045317781089 -0.30281997382083908 0 0.37541150197925971 -0.30286411735013302 0 0.35918045317781089 -0.30281997382083908 0 0.36768435826399598 -0.31638277360014511 0 0.36768435826399598 -0.31638277360014511 0 0.36900850296176391 -0.3355011485511647 0 0.35682259553287032 -0.32627486239638348 0 0.38343561210463739 -0.32606640814264581 0 0.36768435826399598 -0.31638277360014511 0 0.36900850296176391 -0.3355011485511647 0 0.35918045317781089 -0.30281997382083908 0 0.36768435826399598 -0.31638277360014511 0 0.35682259553287032 -0.32627486239638348 0 0.36900850296176391 -0.3355011485511647 0 0.35682259553287032 -0.32627486239638348 0 0.35446473788792981 -0.34972975097192799 0 0.35682259553287032 -0.32627486239638348 0 0.35446473788792981 -0.34972975097192799 0 0.35682259553287032 -0.32627486239638348 0 0.35446473788792981 -0.34972975097192799 0 0.33827621843390437 -0.33067502756318079 0 0.35918045317781089 -0.30281997382083908 0 0.35682259553287032 -0.32627486239638348 0 0.33792822166651337 -0.31151804281868822 0 0.35682259553287032 -0.32627486239638348 0 0.33827621843390437 -0.33067502756318079 0 0.33792822166651337 -0.31151804281868822 0 0.35918045317781089 -0.30281997382083908 0 0.35682259553287032 -0.32627486239638348 0 0.37653299442483118 -0.37406626791604231 0 0.35210688024299169 -0.37318463954747272 0 0.3681275935759063 -0.36748567378055241 0 0.36611427706186378 -0.36052122746517112 0 0.35210688024299169 -0.37318463954747272 0 0.37653299442483118 -0.37406626791604231 0 0.3681275935759063 -0.36748567378055241 0 0.35210688024299169 -0.37318463954747272 0 0.37775622257394109 -0.36217056019352362 0 0.37653299442483118 -0.37406626791604231 0 0.3681275935759063 -0.36748567378055241 0 0.37775622257394109 -0.36217056019352362 0 0.3681275935759063 -0.36748567378055241 0 0.36611427706186378 -0.36052122746517112 0 0.377668979834411 -0.34825679175406038 0 0.36611427706186378 -0.36052122746517112 0 0.35446473788792981 -0.34972975097192799 0 0.377668979834411 -0.34825679175406038 0 0.36900850296176391 -0.3355011485511647 0 0.35446473788792981 -0.34972975097192799 0 0.377668979834411 -0.34825679175406038 0 0.37775622257394109 -0.36217056019352362 0 0.36611427706186378 -0.36052122746517112 0 0.35210688024299169 -0.37318463954747272 0 0.33647035311273388 -0.37262025972834589 0 0.34473275196436592 -0.36059737914893708 0 0.35210688024299169 -0.37318463954747272 0 0.33647035311273388 -0.37262025972834589 0 0.35446473788792981 -0.34972975097192799 0 0.35210688024299169 -0.37318463954747272 0 0.36611427706186378 -0.36052122746517112 0 0.35446473788792981 -0.34972975097192799 0 0.35210688024299169 -0.37318463954747272 0 0.35446473788792981 -0.34972975097192799 0 0.34473275196436592 -0.36059737914893708 0 0.35210688024299169 -0.37318463954747272 0 0.34473275196436592 -0.36059737914893708 0 0.33647035311273388 -0.37262025972834589 0 0.32621196339831349 -0.34615758045241701 0 0.34025039416916542 -0.37822384104103968 0 0.35210688024299169 -0.37318463954747272 0 0.33647035311273388 -0.37262025972834589 0 0.33647035311273388 -0.37262025972834589 0 0.32621196339831349 -0.34615758045241701 0 0.35446473788792981 -0.34972975097192799 0 0.34473275196436592 -0.36059737914893708 0 0.32621196339831349 -0.34615758045241701 0 0.33647035311273388 -0.37262025972834589 0 0.30634332348886351 -0.37153286433751848 0 0.33647035311273388 -0.37262025972834589 0 0.32621196339831349 -0.34615758045241701 0 0.30634332348886351 -0.37153286433751848 0 0.33792822166651337 -0.31151804281868822 0 0.33827621843390437 -0.33067502756318079 0 0.31595357368389509 -0.31969490117648719 0 0.35446473788792981 -0.34972975097192799 0 0.32621196339831349 -0.34615758045241701 0 0.33827621843390437 -0.33067502756318079 0 0.32621196339831349 -0.34615758045241701 0 0.31595357368389509 -0.31969490117648719 0 0.32621196339831349 -0.34615758045241701 0 0.33827621843390437 -0.33067502756318079 0 0.31595357368389509 -0.31969490117648719 0 0.32621196339831349 -0.34615758045241701 0 0.31595357368389509 -0.31969490117648719 0 0.30840702293175598 -0.33348823449046799 0 0.32621196339831349 -0.34615758045241701 0 0.30840702293175598 -0.33348823449046799 0 0.29332637961465158 -0.34577053773942878 0 0.31595357368389509 -0.31969490117648719 0 0.29951078179206408 -0.31950137981999321 0 0.30840702293175598 -0.33348823449046799 0 0.29951078179206408 -0.31950137981999321 0 0.30840702293175598 -0.33348823449046799 0 0.29332637961465158 -0.34577053773942878 0 0.29951078179206408 -0.31950137981999321 0 0.29332637961465158 -0.34577053773942878 0 0.27567140387936773 -0.33121015734642872 0 0.29951078179206408 -0.31950137981999321 0 0.29332637961465158 -0.34577053773942878 0 0.29951078179206408 -0.31950137981999321 0 0.27613175225162889 -0.31437168458447812 0 0.27567140387936773 -0.33121015734642872 0 0.32621196339831349 -0.34615758045241701 0 0.30634332348886351 -0.37153286433751848 0 0.29332637961465158 -0.34577053773942878 0 0.30634332348886351 -0.37153286433751848 0 0.27621629386499302 -0.370445468946692 0 0.30634332348886351 -0.37153286433751848 0 0.29332637961465158 -0.34577053773942878 0 0.27621629386499302 -0.370445468946692 0 0.27621629386499302 -0.370445468946692 0 0.27175178129021982 -0.34887791329124979 0 0.25155389652099108 -0.36072190067612359 0 0.29332637961465158 -0.34577053773942878 0 0.27621629386499302 -0.370445468946692 0 0.27175178129021982 -0.34887791329124979 0 0.27175178129021982 -0.34887791329124979 0 0.25155389652099108 -0.36072190067612359 0 0.25619685271406578 -0.3408769877228105 0 0.25524912299832098 -0.38200881152066862 0 0.27621629386499302 -0.370445468946692 0 0.25155389652099108 -0.36072190067612359 0 0.27613175225162889 -0.31437168458447812 0 0.27567140387936773 -0.33121015734642872 0 0.25659979580982079 -0.32190235622953117 0 0.27175178129021982 -0.34887791329124979 0 0.27567140387936773 -0.33121015734642872 0 0.25619685271406578 -0.3408769877228105 0 0.29332637961465158 -0.34577053773942878 0 0.27175178129021982 -0.34887791329124979 0 0.27567140387936773 -0.33121015734642872 0 0.25619685271406578 -0.3408769877228105 0 0.25659979580982079 -0.32190235622953117 0 0.24176024303678989 -0.33109258603206121 0 0.27567140387936773 -0.33121015734642872 0 0.25619685271406578 -0.3408769877228105 0 0.25659979580982079 -0.32190235622953117 0 0.27613175225162889 -0.31437168458447812 0 0.25659979580982079 -0.32190235622953117 0 0.26307570021137539 -0.30759849709716791 0 0.25659979580982079 -0.32190235622953117 0 0.26307570021137539 -0.30759849709716791 0 0.24058436220802781 -0.31247235406834789 0 0.26307570021137539 -0.30759849709716791 0 0.25415473663785809 -0.29543513586935521 0 0.24058436220802781 -0.31247235406834789 0 0.26307570021137539 -0.30759849709716791 0 0.24058436220802781 -0.31247235406834789 0 0.26307570021137539 -0.30759849709716791 0 0.25415473663785809 -0.29543513586935521 0 0.27051621285229749 -0.29051411888390638 0 0.25694161885588801 -0.28258316889527191 0 0.25415473663785809 -0.29543513586935521 0 0.27051621285229749 -0.29051411888390638 0 0.25694161885588801 -0.28258316889527191 0 0.25415473663785809 -0.29543513586935521 0 0.24498458793603259 -0.28371723128110993 0 0.25694161885588801 -0.28258316889527191 0 0.27051621285229749 -0.29051411888390638 0 0.26694478906933922 -0.27766993159328618 0 0.27051621285229749 -0.29051411888390638 0 0.28913314566322529 -0.28919218821131609 0 0.27859253479390911 -0.2779902113250442 0 0.27051621285229749 -0.29051411888390638 0 0.27859253479390911 -0.2779902113250442 0 0.26694478906933922 -0.27766993159328618 0 0.26307570021137539 -0.30759849709716791 0 0.28556703821472279 -0.30272464012598688 0 0.26307570021137539 -0.30759849709716791 0 0.27051621285229749 -0.29051411888390638 0 0.28556703821472279 -0.30272464012598688 0 0.27613175225162889 -0.31437168458447812 0 0.26307570021137539 -0.30759849709716791 0 0.28556703821472279 -0.30272464012598688 0 0.29951078179206408 -0.31950137981999321 0 0.27613175225162889 -0.31437168458447812 0 0.28556703821472279 -0.30272464012598688 0 0.27051621285229749 -0.29051411888390638 0 0.28556703821472279 -0.30272464012598688 0 0.28913314566322529 -0.28919218821131609 0 0.28556703821472279 -0.30272464012598688 0 0.28913314566322529 -0.28919218821131609 0 0.3056951839694767 -0.29323222190055748 0 0.28913314566322529 -0.28919218821131609 0 0.30238258171803889 -0.28468698883875321 0 0.29562028461363921 -0.27982879350269929 0 0.28913314566322529 -0.28919218821131609 0 0.29562028461363921 -0.27982879350269929 0 0.28869588023715842 -0.27520458026341049 0 0.28913314566322529 -0.28919218821131609 0 0.30238258171803889 -0.28468698883875321 0 0.3056951839694767 -0.29323222190055748 0 0.30238258171803889 -0.28468698883875321 0 0.3056951839694767 -0.29323222190055748 0 0.30662902934567782 -0.27349874984637262 0 0.30238258171803889 -0.28468698883875321 0 0.3056951839694767 -0.29323222190055748 0 0.29951078179206408 -0.31950137981999321 0 0.28556703821472279 -0.30272464012598688 0 0.3056951839694767 -0.29323222190055748 0 0.29951078179206408 -0.31950137981999321 0 0.3056951839694767 -0.29323222190055748 0 0.31595357368389509 -0.31969490117648719 0 0.3056951839694767 -0.29323222190055748 0 0.31595357368389509 -0.31969490117648719 0 0.29951078179206408 -0.31950137981999321 0 0.3056951839694767 -0.29323222190055748 0 0.31446536575655398 -0.26022556390054269 0 0.2993170500339688 -0.26375035914265238 0 0.28703180593683608 -0.25863736183244029 0 0.30246891753863808 -0.24487021080207469 0 0.31446536575655398 -0.26022556390054269 0 0.29194504677422189 -0.25209050748203399 0 0.31446536575655398 -0.26022556390054269 0 0.29194504677422189 -0.25209050748203399 0 0.28703180593683608 -0.25863736183244029 0 0.31446536575655398 -0.26022556390054269 0 0.28703180593683608 -0.25863736183244029 0 0.31446536575655398 -0.26022556390054269 0 0.2993170500339688 -0.26375035914265238 0 0.30704931775316141 -0.26684028062196707 0 0.31446536575655398 -0.26022556390054269 0 0.31187021868735942 -0.26700285364334619 0 0.30704931775316141 -0.26684028062196707 0 0.3056951839694767 -0.29323222190055748 0 0.31187021868735942 -0.26700285364334619 0 0.30662902934567782 -0.27349874984637262 0 0.3056951839694767 -0.29323222190055748 0 0.31187021868735942 -0.26700285364334619 0 0.31187021868735942 -0.26700285364334619 0 0.30662902934567782 -0.27349874984637262 0 0.31187021868735942 -0.26700285364334619 0 0.30704931775316141 -0.26684028062196707 0 0.30662902934567782 -0.27349874984637262 0 0.30238258171803889 -0.28468698883875321 0 0.30662902934567782 -0.27349874984637262 0 0.29562028461363921 -0.27982879350269929 0 0.30662902934567782 -0.27349874984637262 0 0.29792715592594349 -0.27048248263366248 0 0.29562028461363921 -0.27982879350269929 0 0.2993170500339688 -0.26375035914265238 0 0.30704931775316141 -0.26684028062196707 0 0.29792715592594349 -0.27048248263366248 0 0.30704931775316141 -0.26684028062196707 0 0.30662902934567782 -0.27349874984637262 0 0.29792715592594349 -0.27048248263366248 0 0.2993170500339688 -0.26375035914265238 0 0.29792715592594349 -0.27048248263366248 0 0.29102178546981172 -0.26701158087729049 0 0.29792715592594349 -0.27048248263366248 0 0.29102178546981172 -0.26701158087729049 0 0.28869588023715842 -0.27520458026341049 0 0.29792715592594349 -0.27048248263366248 0 0.29562028461363921 -0.27982879350269929 0 0.28869588023715842 -0.27520458026341049 0 0.28913314566322529 -0.28919218821131609 0 0.28869588023715842 -0.27520458026341049 0 0.27859253479390911 -0.2779902113250442 0 0.28869588023715842 -0.27520458026341049 0 0.2834849117262514 -0.26888472853355477 0 0.27859253479390911 -0.2779902113250442 0 0.29102178546981172 -0.26701158087729049 0 0.28869588023715842 -0.27520458026341049 0 0.2834849117262514 -0.26888472853355477 0 0.26858155682427631 -0.24908315743746789 0 0.29194504677422189 -0.25209050748203399 0 0.28703180593683608 -0.25863736183244029 0 0.29102178546981172 -0.26701158087729049 0 0.2834849117262514 -0.26888472853355477 0 0.28703180593683608 -0.25863736183244029 0 0.2993170500339688 -0.26375035914265238 0 0.29102178546981172 -0.26701158087729049 0 0.28703180593683608 -0.25863736183244029 0 0.28703180593683608 -0.25863736183244029 0 0.27278026921518278 -0.26647572046479151 0 0.25959824611711818 -0.25704915976433651 0 0.26858155682427631 -0.24908315743746789 0 0.28703180593683608 -0.25863736183244029 0 0.25959824611711818 -0.25704915976433651 0 0.26858155682427631 -0.24908315743746789 0 0.29194504677422189 -0.25209050748203399 0 0.28703180593683608 -0.25863736183244029 0 0.25959824611711818 -0.25704915976433651 0 0.2834849117262514 -0.26888472853355477 0 0.28703180593683608 -0.25863736183244029 0 0.27278026921518278 -0.26647572046479151 0 0.2834849117262514 -0.26888472853355477 0 0.27859253479390911 -0.2779902113250442 0 0.27278026921518278 -0.26647572046479151 0 0.27278026921518278 -0.26647572046479151 0 0.26694478906933922 -0.27766993159328618 0 0.26029708110670619 -0.27095807161928143 0 0.27859253479390911 -0.2779902113250442 0 0.27278026921518278 -0.26647572046479151 0 0.26694478906933922 -0.27766993159328618 0 0.25694161885588801 -0.28258316889527191 0 0.26694478906933922 -0.27766993159328618 0 0.26029708110670619 -0.27095807161928143 0 0.26029708110670619 -0.27095807161928143 0 0.25959824611711818 -0.25704915976433651 0 0.245318838734598 -0.2697115062136024 0 0.25694161885588801 -0.28258316889527191 0 0.26029708110670619 -0.27095807161928143 0 0.245318838734598 -0.2697115062136024 0 0.26858155682427631 -0.24908315743746789 0 0.25839316462476958 -0.247771706887878 0 0.25959824611711818 -0.25704915976433651 0 0.26858155682427631 -0.24908315743746789 0 0.25959824611711818 -0.25704915976433651 0 0.27278026921518278 -0.26647572046479151 0 0.26029708110670619 -0.27095807161928143 0 0.25959824611711818 -0.25704915976433651 0 0.25959824611711818 -0.25704915976433651 0 0.245318838734598 -0.2697115062136024 0 0.25959824611711818 -0.25704915976433651 0 0.25011943807415588 -0.25650040624361509 0 0.245318838734598 -0.2697115062136024 0 0.25839316462476958 -0.247771706887878 0 0.25158726543732868 -0.24689565107307859 0 0.25011943807415588 -0.25650040624361509 0 0.25839316462476958 -0.247771706887878 0 0.25011943807415588 -0.25650040624361509 0 0.25959824611711818 -0.25704915976433651 0 0.25011943807415588 -0.25650040624361509 0 0.25839316462476958 -0.247771706887878 0 0.25959824611711818 -0.25704915976433651 0 0.25011943807415588 -0.25650040624361509 0 0.25158726543732868 -0.24689565107307859 0 0.25011943807415588 -0.25650040624361509 0 0.24615734716411439 -0.25627103021590908 0 0.25158726543732868 -0.24689565107307859 0 0.24615734716411439 -0.25627103021590908 0 0.24615734716411439 -0.25627103021590908 0 0.2395921625953096 -0.26760657734169507 0 0.21878799409030761 -0.25468654524785872 0 0.25011943807415588 -0.25650040624361509 0 0.24615734716411439 -0.25627103021590908 0 0.25011943807415588 -0.25650040624361509 0 0.2395921625953096 -0.26760657734169507 0 0.25011943807415588 -0.25650040624361509 0 0.245318838734598 -0.2697115062136024 0 0.2395921625953096 -0.26760657734169507 0 0.24615734716411439 -0.25627103021590908 0 0.2395921625953096 -0.26760657734169507 0 0.25011943807415588 -0.25650040624361509 0 0.24615734716411439 -0.25627103021590908 0 0.2395921625953096 -0.26760657734169507 0 0.25694161885588801 -0.28258316889527191 0 0.245318838734598 -0.2697115062136024 0 0.24498458793603259 -0.28371723128110993 0 0.245318838734598 -0.2697115062136024 0 0.2395921625953096 -0.26760657734169507 0 0.23103943135207849 -0.2823738526628693 0 0.245318838734598 -0.2697115062136024 0 0.23103943135207849 -0.2823738526628693 0 0.24498458793603259 -0.28371723128110993 0 0.2395921625953096 -0.26760657734169507 0 0.23103943135207849 -0.2823738526628693 0 0.245318838734598 -0.2697115062136024 0 0.23103943135207849 -0.2823738526628693 0 0.2395921625953096 -0.26760657734169507 0 0.22854113077405999 -0.27926530618029438 0 0.23103943135207849 -0.2823738526628693 0 0.22854113077405999 -0.27926530618029438 0 0.2306100595927755 -0.27061443595559498 0 0.22623320224765239 -0.27472946503660239 0 0.2395921625953096 -0.26760657734169507 0 0.22854113077405999 -0.27926530618029438 0 0.2395921625953096 -0.26760657734169507 0 0.22854113077405999 -0.27926530618029438 0 0.2306100595927755 -0.27061443595559498 0 0.2306100595927755 -0.27061443595559498 0 0.22182241394273 -0.26904468722129299 0 0.22623320224765239 -0.27472946503660239 0 0.22182241394273 -0.26904468722129299 0 0.2219431506266481 -0.27511804905618292 0 0.2158868584917597 -0.27353426346790122 0 0.22182241394273 -0.26904468722129299 0 0.22623320224765239 -0.27472946503660239 0 0.2219431506266481 -0.27511804905618292 0 0.22623320224765239 -0.27472946503660239 0 0.2219431506266481 -0.27511804905618292 0 0.22154054840930421 -0.2808273890172483 0 0.2219431506266481 -0.27511804905618292 0 0.22154054840930421 -0.2808273890172483 0 0.21690063571526069 -0.27972668101820181 0 0.22854113077405999 -0.27926530618029438 0 0.22623320224765239 -0.27472946503660239 0 0.22154054840930421 -0.2808273890172483 0 0.24615734716411439 -0.25627103021590908 0 0.21878799409030761 -0.25468654524785872 0 0.24615734716411439 -0.25627103021590908 0 0.21878799409030761 -0.25468654524785872 0 0.2270383327424644 -0.24373571075628059 0 0.2306100595927755 -0.27061443595559498 0 0.22182241394273 -0.26904468722129299 0 0.21878799409030761 -0.25468654524785872 0 0.2395921625953096 -0.26760657734169507 0 0.2306100595927755 -0.27061443595559498 0 0.21878799409030761 -0.25468654524785872 0 0.21878799409030761 -0.25468654524785872 0 0.210513856545644 -0.25085675410529967 0 0.2085089894309145 -0.26117494604697161 0 0.210513856545644 -0.25085675410529967 0 0.2085089894309145 -0.26117494604697161 0 0.19943104744425461 -0.25601554228820061 0 0.21878799409030761 -0.25468654524785872 0 0.2085089894309145 -0.26117494604697161 0 0.21466651263147049 -0.26617586197680748 0 0.22182241394273 -0.26904468722129299 0 0.21878799409030761 -0.25468654524785872 0 0.21466651263147049 -0.26617586197680748 0 0.22182241394273 -0.26904468722129299 0 0.21466651263147049 -0.26617586197680748 0 0.2158868584917597 -0.27353426346790122 0 0.21466651263147049 -0.26617586197680748 0 0.2158868584917597 -0.27353426346790122 0 0.2083263072016408 -0.2724388679000132 0 0.2219431506266481 -0.27511804905618292 0 0.21690063571526069 -0.27972668101820181 0 0.2158868584917597 -0.27353426346790122 0 0.2158868584917597 -0.27353426346790122 0 0.21145916727314701 -0.27873264109997342 0 0.2083263072016408 -0.2724388679000132 0 0.21690063571526069 -0.27972668101820181 0 0.2158868584917597 -0.27353426346790122 0 0.21145916727314701 -0.27873264109997342 0 0.21145916727314701 -0.27873264109997342 0 0.2083263072016408 -0.2724388679000132 0 0.205487230545044 -0.28181696911686438 0 0.2083263072016408 -0.2724388679000132 0 0.20118046118385319 -0.27692483608055962 0 0.205487230545044 -0.28181696911686438 0 0.2085089894309145 -0.26117494604697161 0 0.2083263072016408 -0.2724388679000132 0 0.1985782956455425 -0.26830957973140462 0 0.2085089894309145 -0.26117494604697161 0 0.21466651263147049 -0.26617586197680748 0 0.2083263072016408 -0.2724388679000132 0 0.2083263072016408 -0.2724388679000132 0 0.1985782956455425 -0.26830957973140462 0 0.20118046118385319 -0.27692483608055962 0 0.1985782956455425 -0.26830957973140462 0 0.20118046118385319 -0.27692483608055962 0 0.1943310516994062 -0.27804864503856691 0 0.20118046118385319 -0.27692483608055962 0 0.19888558028541151 -0.28359848471782878 0 0.205487230545044 -0.28181696911686438 0 0.20118046118385319 -0.27692483608055962 0 0.1943310516994062 -0.27804864503856691 0 0.19888558028541151 -0.28359848471782878 0 0.1943310516994062 -0.27804864503856691 0 0.18879411984885691 -0.28106366686402368 0 0.18769558083658491 -0.2732768823877913 0 0.1985782956455425 -0.26830957973140462 0 0.1943310516994062 -0.27804864503856691 0 0.18769558083658491 -0.2732768823877913 0 0.1985782956455425 -0.26830957973140462 0 0.18769558083658491 -0.2732768823877913 0 0.191837778470624 -0.26049988493280679 0 0.191837778470624 -0.26049988493280679 0 0.19160611785932369 -0.25011544887893922 0 0.17948765058678839 -0.2552318667542402 0 0.191837778470624 -0.26049988493280679 0 0.19160611785932369 -0.25011544887893922 0 0.19943104744425461 -0.25601554228820061 0 0.1985782956455425 -0.26830957973140462 0 0.191837778470624 -0.26049988493280679 0 0.19943104744425461 -0.25601554228820061 0 0.2085089894309145 -0.26117494604697161 0 0.1985782956455425 -0.26830957973140462 0 0.19943104744425461 -0.25601554228820061 0 0.19676672884965721 -0.3003777747161544 0 0.19914469415150229 -0.31066395468213642 0 0.19118883846120721 -0.30228950328183618 0 0.19676672884965721 -0.3003777747161544 0 0.20303450676708451 -0.29859865794799523 0 0.19914469415150229 -0.31066395468213642 0 0.19676672884965721 -0.3003777747161544 0 0.19183605049680191 -0.29689315750942169 0 0.1980041662035599 -0.29594056516477502 0 0.19676672884965721 -0.3003777747161544 0 0.20303450676708451 -0.29859865794799523 0 0.1980041662035599 -0.29594056516477502 0 0.19914469415150229 -0.31066395468213642 0 0.19118883846120721 -0.30228950328183618 0 0.1919497825009614 -0.31466759483487888 0 0.19914469415150229 -0.31066395468213642 0 0.19118883846120721 -0.30228950328183618 0 0.19118883846120721 -0.30228950328183618 0 0.1919497825009614 -0.31466759483487888 0 0.1801170532682031 -0.3128203636428516 0 0.19676672884965721 -0.3003777747161544 0 0.19118883846120721 -0.30228950328183618 0 0.19183605049680191 -0.29689315750942169 0 0.19183605049680191 -0.29689315750942169 0 0.1931404258472563 -0.28605859959311097 0 0.1968313697894348 -0.29081588658298618 0 0.18879411984885691 -0.28106366686402368 0 0.19183605049680191 -0.29689315750942169 0 0.1931404258472563 -0.28605859959311097 0 0.1943310516994062 -0.27804864503856691 0 0.18879411984885691 -0.28106366686402368 0 0.1931404258472563 -0.28605859959311097 0 0.1943310516994062 -0.27804864503856691 0 0.1931404258472563 -0.28605859959311097 0 0.19888558028541151 -0.28359848471782878 0 0.1931404258472563 -0.28605859959311097 0 0.19888558028541151 -0.28359848471782878 0 0.1968313697894348 -0.29081588658298618 0 0.19888558028541151 -0.28359848471782878 0 0.1968313697894348 -0.29081588658298618 0 0.20360608939595501 -0.28813851844996291 0 0.19888558028541151 -0.28359848471782878 0 0.205487230545044 -0.28181696911686438 0 0.20360608939595501 -0.28813851844996291 0 0.1980041662035599 -0.29594056516477502 0 0.1968313697894348 -0.29081588658298618 0 0.2015521751148211 -0.29301734906731769 0 0.19183605049680191 -0.29689315750942169 0 0.1980041662035599 -0.29594056516477502 0 0.1968313697894348 -0.29081588658298618 0 0.1968313697894348 -0.29081588658298618 0 0.2015521751148211 -0.29301734906731769 0 0.20360608939595501 -0.28813851844996291 0 0.20303450676708451 -0.29859865794799523 0 0.1980041662035599 -0.29594056516477502 0 0.2015521751148211 -0.29301734906731769 0 0.20303450676708451 -0.29859865794799523 0 0.20790441319004649 -0.29201624695349299 0 0.21514945149030201 -0.2964643835015664 0 0.20303450676708451 -0.29859865794799523 0 0.2015521751148211 -0.29301734906731769 0 0.20790441319004649 -0.29201624695349299 0 0.2015521751148211 -0.29301734906731769 0 0.20790441319004649 -0.29201624695349299 0 0.20360608939595501 -0.28813851844996291 0 0.205487230545044 -0.28181696911686438 0 0.20360608939595501 -0.28813851844996291 0 0.21121794652170409 -0.28537291390624803 0 0.20790441319004649 -0.29201624695349299 0 0.20360608939595501 -0.28813851844996291 0 0.21121794652170409 -0.28537291390624803 0 0.20790441319004649 -0.29201624695349299 0 0.21121794652170409 -0.28537291390624803 0 0.21317721024799169 -0.28973043205125171 0 0.21145916727314701 -0.27873264109997342 0 0.205487230545044 -0.28181696911686438 0 0.21121794652170409 -0.28537291390624803 0 0.22154054840930421 -0.2808273890172483 0 0.21603834256568979 -0.28529627757984932 0 0.21749009895281121 -0.29092403501889458 0 0.21690063571526069 -0.27972668101820181 0 0.21145916727314701 -0.27873264109997342 0 0.21121794652170409 -0.28537291390624803 0 0.21690063571526069 -0.27972668101820181 0 0.21121794652170409 -0.28537291390624803 0 0.21603834256568979 -0.28529627757984932 0 0.21121794652170409 -0.28537291390624803 0 0.21603834256568979 -0.28529627757984932 0 0.21317721024799169 -0.28973043205125171 0 0.21603834256568979 -0.28529627757984932 0 0.21317721024799169 -0.28973043205125171 0 0.21749009895281121 -0.29092403501889458 0 0.22154054840930421 -0.2808273890172483 0 0.21690063571526069 -0.27972668101820181 0 0.21603834256568979 -0.28529627757984932 0 0.20790441319004649 -0.29201624695349299 0 0.21317721024799169 -0.28973043205125171 0 0.21514945149030201 -0.2964643835015664 0 0.21317721024799169 -0.28973043205125171 0 0.21749009895281121 -0.29092403501889458 0 0.21514945149030201 -0.2964643835015664 0 0.21514945149030201 -0.2964643835015664 0 0.21466219067313519 -0.31065104450125752 0 0.22285081101260659 -0.29651244858206333 0 0.19914469415150229 -0.31066395468213642 0 0.21514945149030201 -0.2964643835015664 0 0.20303450676708451 -0.29859865794799523 0 0.19914469415150229 -0.31066395468213642 0 0.21514945149030201 -0.2964643835015664 0 0.19914469415150229 -0.31066395468213642 0 0.21514945149030201 -0.2964643835015664 0 0.2091787897542019 -0.30932020992657783 0 0.21514945149030201 -0.2964643835015664 0 0.2091787897542019 -0.30932020992657783 0 0.21466219067313519 -0.31065104450125752 0 0.21466219067313519 -0.31065104450125752 0 0.22391380331621499 -0.3062773775034805 0 0.22411420371643681 -0.31604142571578703 0 0.22391380331621499 -0.3062773775034805 0 0.23108091142121809 -0.30624755747651172 0 0.22411420371643681 -0.31604142571578703 0 0.23108091142121809 -0.30624755747651172 0 0.24058436220802781 -0.31247235406834789 0 0.22411420371643681 -0.31604142571578703 0 0.22391380331621499 -0.3062773775034805 0 0.22970646839499889 -0.29867826858978019 0 0.22285081101260659 -0.29651244858206333 0 0.21466219067313519 -0.31065104450125752 0 0.22285081101260659 -0.29651244858206333 0 0.21466219067313519 -0.31065104450125752 0 0.22391380331621499 -0.3062773775034805 0 0.22285081101260659 -0.29651244858206333 0 0.22970646839499889 -0.29867826858978019 0 0.23108091142121809 -0.30624755747651172 0 0.23850850378907271 -0.29614029017916138 0 0.22391380331621499 -0.3062773775034805 0 0.22970646839499889 -0.29867826858978019 0 0.23108091142121809 -0.30624755747651172 0 0.21749009895281121 -0.29092403501889458 0 0.21514945149030201 -0.2964643835015664 0 0.23103943135207849 -0.2823738526628693 0 0.21514945149030201 -0.2964643835015664 0 0.22285081101260659 -0.29651244858206333 0 0.23103943135207849 -0.2823738526628693 0 0.21514945149030201 -0.2964643835015664 0 0.23103943135207849 -0.2823738526628693 0 0.22854113077405999 -0.27926530618029438 0 0.21749009895281121 -0.29092403501889458 0 0.23103943135207849 -0.2823738526628693 0 0.22854113077405999 -0.27926530618029438 0 0.21749009895281121 -0.29092403501889458 0 0.22854113077405999 -0.27926530618029438 0 0.22154054840930421 -0.2808273890172483 0 0.21749009895281121 -0.29092403501889458 0 0.22285081101260659 -0.29651244858206333 0 0.2319413171078811 -0.29220262043963258 0 0.23103943135207849 -0.2823738526628693 0 0.22285081101260659 -0.29651244858206333 0 0.23103943135207849 -0.2823738526628693 0 0.22970646839499889 -0.29867826858978019 0 0.22285081101260659 -0.29651244858206333 0 0.2319413171078811 -0.29220262043963258 0 0.22970646839499889 -0.29867826858978019 0 0.2319413171078811 -0.29220262043963258 0 0.23850850378907271 -0.29614029017916138 0 0.2319413171078811 -0.29220262043963258 0 0.23103943135207849 -0.2823738526628693 0 0.23709988581494351 -0.28797163833551559 0 0.25415473663785809 -0.29543513586935521 0 0.23850850378907271 -0.29614029017916138 0 0.24498458793603259 -0.28371723128110993 0 0.23103943135207849 -0.2823738526628693 0 0.23709988581494351 -0.28797163833551559 0 0.24498458793603259 -0.28371723128110993 0 0.23709988581494351 -0.28797163833551559 0 0.23850850378907271 -0.29614029017916138 0 0.24498458793603259 -0.28371723128110993 0 0.2319413171078811 -0.29220262043963258 0 0.23709988581494351 -0.28797163833551559 0 0.23850850378907271 -0.29614029017916138 0 0.25415473663785809 -0.29543513586935521 0 0.23850850378907271 -0.29614029017916138 0 0.24058436220802781 -0.31247235406834789 0 0.23108091142121809 -0.30624755747651172 0 0.23850850378907271 -0.29614029017916138 0 0.24058436220802781 -0.31247235406834789 0 0.25415473663785809 -0.29543513586935521 0 0.24058436220802781 -0.31247235406834789 0 0.24058436220802781 -0.31247235406834789 0 0.24176024303678989 -0.33109258603206121 0 0.22334873229497421 -0.33411119602839212 0 0.25659979580982079 -0.32190235622953117 0 0.24058436220802781 -0.31247235406834789 0 0.24176024303678989 -0.33109258603206121 0 0.25619685271406578 -0.3408769877228105 0 0.24176024303678989 -0.33109258603206121 0 0.23473139233437459 -0.34679181028118311 0 0.24176024303678989 -0.33109258603206121 0 0.22334873229497421 -0.33411119602839212 0 0.23473139233437459 -0.34679181028118311 0 0.22334873229497421 -0.33411119602839212 0 0.22423712672159629 -0.32277000231932063 0 0.2126595357182586 -0.32488987685686782 0 0.24058436220802781 -0.31247235406834789 0 0.22334873229497421 -0.33411119602839212 0 0.22423712672159629 -0.32277000231932063 0 0.22411420371643681 -0.31604142571578703 0 0.2126595357182586 -0.32488987685686782 0 0.24058436220802781 -0.31247235406834789 0 0.22411420371643681 -0.31604142571578703 0 0.24058436220802781 -0.31247235406834789 0 0.22423712672159629 -0.32277000231932063 0 0.22411420371643681 -0.31604142571578703 0 0.24058436220802781 -0.31247235406834789 0 0.22334873229497421 -0.33411119602839212 0 0.22423712672159629 -0.32277000231932063 0 0.25524912299832098 -0.38200881152066862 0 0.25155389652099108 -0.36072190067612359 0 0.2356768290235676 -0.37848250686049301 0 0.25155389652099108 -0.36072190067612359 0 0.2298189783205947 -0.36284833841249448 0 0.2356768290235676 -0.37848250686049301 0 0.25155389652099108 -0.36072190067612359 0 0.25619685271406578 -0.3408769877228105 0 0.23473139233437459 -0.34679181028118311 0 0.25155389652099108 -0.36072190067612359 0 0.23473139233437459 -0.34679181028118311 0 0.2298189783205947 -0.36284833841249448 0 0.23473139233437459 -0.34679181028118311 0 0.2298189783205947 -0.36284833841249448 0 0.2061131023819214 -0.35575003798843707 0 0.22334873229497421 -0.33411119602839212 0 0.23473139233437459 -0.34679181028118311 0 0.2061131023819214 -0.35575003798843707 0 0.2298189783205947 -0.36284833841249448 0 0.2356768290235676 -0.37848250686049301 0 0.2138165757187768 -0.37758385683302792 0 0.2298189783205947 -0.36284833841249448 0 0.2061131023819214 -0.35575003798843707 0 0.2138165757187768 -0.37758385683302792 0 0.22334873229497421 -0.33411119602839212 0 0.2061131023819214 -0.35575003798843707 0 0.2061131023819214 -0.35575003798843707 0 0.1831686715526723 -0.34116347114897161 0 0.1771168311312927 -0.36036983274996298 0 0.2061131023819214 -0.35575003798843707 0 0.2138165757187768 -0.37758385683302792 0 0.1888774724688686 -0.37738887994848203 0 0.2061131023819214 -0.35575003798843707 0 0.1888774724688686 -0.37738887994848203 0 0.2061131023819214 -0.35575003798843707 0 0.1771168311312927 -0.36036983274996298 0 0.1888774724688686 -0.37738887994848203 0 0.22411420371643681 -0.31604142571578703 0 0.20764404522484539 -0.31961049736322428 0 0.22411420371643681 -0.31604142571578703 0 0.20764404522484539 -0.31961049736322428 0 0.2126595357182586 -0.32488987685686782 0 0.21466219067313519 -0.31065104450125752 0 0.22411420371643681 -0.31604142571578703 0 0.20764404522484539 -0.31961049736322428 0 0.20764404522484539 -0.31961049736322428 0 0.2126595357182586 -0.32488987685686782 0 0.20334079706074901 -0.33338335019675303 0 0.20764404522484539 -0.31961049736322428 0 0.2126595357182586 -0.32488987685686782 0 0.19914469415150229 -0.31066395468213642 0 0.20764404522484539 -0.31961049736322428 0 0.2091787897542019 -0.30932020992657783 0 0.21466219067313519 -0.31065104450125752 0 0.20764404522484539 -0.31961049736322428 0 0.19914469415150229 -0.31066395468213642 0 0.2091787897542019 -0.30932020992657783 0 0.20764404522484539 -0.31961049736322428 0 0.22334873229497421 -0.33411119602839212 0 0.2126595357182586 -0.32488987685686782 0 0.20334079706074901 -0.33338335019675303 0 0.22334873229497421 -0.33411119602839212 0 0.2061131023819214 -0.35575003798843707 0 0.20334079706074901 -0.33338335019675303 0 0.2061131023819214 -0.35575003798843707 0 0.20334079706074901 -0.33338335019675303 0 0.1831686715526723 -0.34116347114897161 0 0.20334079706074901 -0.33338335019675303 0 0.18607912320080611 -0.32428360064966361 0 0.1831686715526723 -0.34116347114897161 0 0.20764404522484539 -0.31961049736322428 0 0.18607912320080611 -0.32428360064966361 0 0.19914469415150229 -0.31066395468213642 0 0.20764404522484539 -0.31961049736322428 0 0.1919497825009614 -0.31466759483487888 0 0.20764404522484539 -0.31961049736322428 0 0.20334079706074901 -0.33338335019675303 0 0.18607912320080611 -0.32428360064966361 0 0.20764404522484539 -0.31961049736322428 0 0.1919497825009614 -0.31466759483487888 0 0.18607912320080611 -0.32428360064966361 0 0.1919497825009614 -0.31466759483487888 0 0.1801170532682031 -0.3128203636428516 0 0.18607912320080611 -0.32428360064966361 0 0.18607912320080611 -0.32428360064966361 0 0.16451420117676649 -0.32895670393610188 0 0.1801170532682031 -0.3128203636428516 0 0.18607912320080611 -0.32428360064966361 0 0.16451420117676649 -0.32895670393610188 0 0.18607912320080611 -0.32428360064966361 0 0.1831686715526723 -0.34116347114897161 0 0.16451420117676649 -0.32895670393610188 0 0.1831686715526723 -0.34116347114897161 0 0.16451420117676649 -0.32895670393610188 0 0.16184797436449841 -0.34423730137291142 0 0.16451420117676649 -0.32895670393610188 0 0.16184797436449841 -0.34423730137291142 0 0.14294927915272609 -0.33362980722253649 0 0.16451420117676649 -0.32895670393610188 0 0.152401309276752 -0.3144775605259037 0 0.16615831343611159 -0.307463208074649 0 0.1801170532682031 -0.3128203636428516 0 0.16451420117676649 -0.32895670393610188 0 0.16615831343611159 -0.307463208074649 0 0.1771168311312927 -0.36036983274996298 0 0.1888774724688686 -0.37738887994848203 0 0.1640772425612719 -0.37939422673886503 0 0.1831686715526723 -0.34116347114897161 0 0.1771168311312927 -0.36036983274996298 0 0.16184797436449841 -0.34423730137291142 0 0.1771168311312927 -0.36036983274996298 0 0.16184797436449841 -0.34423730137291142 0 0.154279193916216 -0.36238353794877731 0 0.1771168311312927 -0.36036983274996298 0 0.154279193916216 -0.36238353794877731 0 0.1640772425612719 -0.37939422673886503 0 0.154279193916216 -0.36238353794877731 0 0.1640772425612719 -0.37939422673886503 0 0.14087975284144971 -0.38038393375049262 0 0.154279193916216 -0.36238353794877731 0 0.13394102094828611 -0.36156127580364378 0 0.14087975284144971 -0.38038393375049262 0 0.16184797436449841 -0.34423730137291142 0 0.154279193916216 -0.36238353794877731 0 0.14665156019414499 -0.3473476743092937 0 0.154279193916216 -0.36238353794877731 0 0.14665156019414499 -0.3473476743092937 0 0.13394102094828611 -0.36156127580364378 0 0.1324258462260213 -0.34663040054900263 0 0.13394102094828611 -0.36156127580364378 0 0.116833289331298 -0.3523904539100236 0 0.14665156019414499 -0.3473476743092937 0 0.1324258462260213 -0.34663040054900263 0 0.13394102094828611 -0.36156127580364378 0 0.13394102094828611 -0.36156127580364378 0 0.14087975284144971 -0.38038393375049262 0 0.116293860194103 -0.37057206799656062 0 0.152401309276752 -0.3144775605259037 0 0.14294927915272609 -0.33362980722253649 0 0.13663022648738629 -0.31021615396186097 0 0.16451420117676649 -0.32895670393610188 0 0.152401309276752 -0.3144775605259037 0 0.14294927915272609 -0.33362980722253649 0 0.16451420117676649 -0.32895670393610188 0 0.14294927915272609 -0.33362980722253649 0 0.16184797436449841 -0.34423730137291142 0 0.14665156019414499 -0.3473476743092937 0 0.14294927915272609 -0.33362980722253649 0 0.14665156019414499 -0.3473476743092937 0 0.14294927915272609 -0.33362980722253649 0 0.14665156019414499 -0.3473476743092937 0 0.1324258462260213 -0.34663040054900263 0 0.14294927915272609 -0.33362980722253649 0 0.14294927915272609 -0.33362980722253649 0 0.1217540815036514 -0.33822279149951517 0 0.1324258462260213 -0.34663040054900263 0 0.14294927915272609 -0.33362980722253649 0 0.1217540815036514 -0.33822279149951517 0 0.14294927915272609 -0.33362980722253649 0 0.13038225604698911 -0.32537737111550252 0 0.1217540815036514 -0.33822279149951517 0 0.13038225604698911 -0.32537737111550252 0 0.13663022648738629 -0.31021615396186097 0 0.1201954370441925 -0.31944073177809718 0 0.14294927915272609 -0.33362980722253649 0 0.13663022648738629 -0.31021615396186097 0 0.14294927915272609 -0.33362980722253649 0 0.13038225604698911 -0.32537737111550252 0 0.13663022648738629 -0.31021615396186097 0 0.13663022648738629 -0.31021615396186097 0 0.13031117382204649 -0.28680250070118551 0 0.1155722963427603 -0.30146894682592001 0 0.13663022648738629 -0.31021615396186097 0 0.13031117382204649 -0.28680250070118551 0 0.152401309276752 -0.3144775605259037 0 0.13663022648738629 -0.31021615396186097 0 0.1517545261307697 -0.29212192943436982 0 0.1517545261307697 -0.29212192943436982 0 0.13031117382204649 -0.28680250070118551 0 0.14094561283013909 -0.26704512544234982 0 0.13663022648738629 -0.31021615396186097 0 0.1517545261307697 -0.29212192943436982 0 0.13031117382204649 -0.28680250070118551 0 0.13031117382204649 -0.28680250070118551 0 0.14094561283013909 -0.26704512544234982 0 0.1239921211567066 -0.26338884744051011 0 0.13031117382204649 -0.28680250070118551 0 0.1239921211567066 -0.26338884744051011 0 0.13946421199004549 -0.25270584464367291 0 0.1239921211567066 -0.26338884744051011 0 0.1309402803326303 -0.24385119355868701 0 0.13946421199004549 -0.25270584464367291 0 0.14094561283013909 -0.26704512544234982 0 0.1239921211567066 -0.26338884744051011 0 0.1501685993613987 -0.25482262446082821 0 0.14094561283013909 -0.26704512544234982 0 0.15827842493392841 -0.26764751511906232 0 0.13946421199004549 -0.25270584464367291 0 0.1501685993613987 -0.25482262446082821 0 0.14094561283013909 -0.26704512544234982 0 0.1517545261307697 -0.29212192943436982 0 0.14094561283013909 -0.26704512544234982 0 0.15827842493392841 -0.26764751511906232 0 0.15827842493392841 -0.26764751511906232 0 0.17473363169756781 -0.28496850920044919 0 0.16275941465889179 -0.28463776539957908 0 0.15827842493392841 -0.26764751511906232 0 0.1769674903642352 -0.27104104979122762 0 0.17473363169756781 -0.28496850920044919 0 0.15827842493392841 -0.26764751511906232 0 0.17473363169756781 -0.28496850920044919 0 0.1769674903642352 -0.27104104979122762 0 0.16209893023166849 -0.24518894207303349 0 0.1501685993613987 -0.25482262446082821 0 0.15827842493392841 -0.26764751511906232 0 0.16209893023166849 -0.24518894207303349 0 0.15827842493392841 -0.26764751511906232 0 0.1769674903642352 -0.27104104979122762 0 0.16209893023166849 -0.24518894207303349 0 0.1783087802446735 -0.25763530240020838 0 0.1769674903642352 -0.27104104979122762 0 0.16209893023166849 -0.24518894207303349 0 0.18769558083658491 -0.2732768823877913 0 0.17948765058678839 -0.2552318667542402 0 0.1783087802446735 -0.25763530240020838 0 0.18769558083658491 -0.2732768823877913 0 0.191837778470624 -0.26049988493280679 0 0.17948765058678839 -0.2552318667542402 0 0.17948765058678839 -0.2552318667542402 0 0.1783087802446735 -0.25763530240020838 0 0.16209893023166849 -0.24518894207303349 0 0.18769558083658491 -0.2732768823877913 0 0.17948765058678839 -0.2552318667542402 0 0.17948765058678839 -0.2552318667542402 0 0.1783087802446735 -0.25763530240020838 0 0.18769558083658491 -0.2732768823877913 0 0.1783087802446735 -0.25763530240020838 0 0.1769674903642352 -0.27104104979122762 0 0.18879411984885691 -0.28106366686402368 0 0.18769558083658491 -0.2732768823877913 0 0.1769674903642352 -0.27104104979122762 0 0.19118883846120721 -0.30228950328183618 0 0.19183605049680191 -0.29689315750942169 0 0.17473363169756781 -0.28496850920044919 0 0.19118883846120721 -0.30228950328183618 0 0.17473363169756781 -0.28496850920044919 0 0.19118883846120721 -0.30228950328183618 0 0.17473363169756781 -0.28496850920044919 0 0.1760395804063187 -0.30048619290687778 0 0.19183605049680191 -0.29689315750942169 0 0.1769674903642352 -0.27104104979122762 0 0.18879411984885691 -0.28106366686402368 0 0.19183605049680191 -0.29689315750942169 0 0.1769674903642352 -0.27104104979122762 0 0.19183605049680191 -0.29689315750942169 0 0.1769674903642352 -0.27104104979122762 0 0.17473363169756781 -0.28496850920044919 0 0.17473363169756781 -0.28496850920044919 0 0.1760395804063187 -0.30048619290687778 0 0.16627107587330139 -0.2938131078444351 0 0.19118883846120721 -0.30228950328183618 0 0.1801170532682031 -0.3128203636428516 0 0.1760395804063187 -0.30048619290687778 0 0.1801170532682031 -0.3128203636428516 0 0.1760395804063187 -0.30048619290687778 0 0.16615831343611159 -0.307463208074649 0 0.152401309276752 -0.3144775605259037 0 0.1517545261307697 -0.29212192943436982 0 0.16615831343611159 -0.307463208074649 0 0.1760395804063187 -0.30048619290687778 0 0.16615831343611159 -0.307463208074649 0 0.16627107587330139 -0.2938131078444351 0 0.1517545261307697 -0.29212192943436982 0 0.16615831343611159 -0.307463208074649 0 0.16627107587330139 -0.2938131078444351 0 0.1517545261307697 -0.29212192943436982 0 0.15827842493392841 -0.26764751511906232 0 0.16275941465889179 -0.28463776539957908 0 0.1517545261307697 -0.29212192943436982 0 0.16275941465889179 -0.28463776539957908 0 0.16627107587330139 -0.2938131078444351 0 0.17473363169756781 -0.28496850920044919 0 0.16275941465889179 -0.28463776539957908 0 0.16627107587330139 -0.2938131078444351 0 0.20181960615080799 -0.48705991435581392 0 0.19144409950543431 -0.499999999999995 0 0.18406873776599231 -0.48345670979778549 0 0.20181960615080799 -0.48705991435581392 0 0.19144409950543431 -0.499999999999995 0 0.20181960615080799 -0.48705991435581392 0 0.21219511279618841 -0.47411982871163821 0 0.184641422640861 -0.46535288579466011 0 0.20181960615080799 -0.48705991435581392 0 0.184641422640861 -0.46535288579466011 0 0.18406873776599231 -0.48345670979778549 0 0.21219511279618841 -0.47411982871163821 0 0.184641422640861 -0.46535288579466011 0 0.20181960615080799 -0.48705991435581392 0 0.21219511279618841 -0.47411982871163821 0 0.20181960615080799 -0.48705991435581392 0 0.21219511279618841 -0.47411982871163821 0 0.22303382597282431 -0.48713188990109479 0 0.20181960615080799 -0.48705991435581392 0 0.216966598576984 -0.5 0 0.22303382597282431 -0.48713188990109479 0 0.20181960615080799 -0.48705991435581392 0 0.19144409950543431 -0.499999999999995 0 0.216966598576984 -0.5 0 0.216966598576984 -0.5 0 0.22303382597282431 -0.48713188990109479 0 0.24248909764853349 -0.5 0 0.21219511279618841 -0.47411982871163821 0 0.23930810712800279 -0.48274655247442683 0 0.23037826882399789 -0.45144222805815332 0 0.26642110145981779 -0.49137327623721372 0 0.24248909764853349 -0.5 0 0.23930810712800279 -0.48274655247442683 0 0.22303382597282431 -0.48713188990109479 0 0.24248909764853349 -0.5 0 0.23930810712800279 -0.48274655247442683 0 0.21219511279618841 -0.47411982871163821 0 0.22303382597282431 -0.48713188990109479 0 0.23930810712800279 -0.48274655247442683 0 0.21219511279618841 -0.47411982871163821 0 0.23930810712800279 -0.48274655247442683 0 0.25313573724869581 -0.46656418664734522 0 0.23930810712800279 -0.48274655247442683 0 0.23037826882399789 -0.45144222805815332 0 0.21219511279618841 -0.47411982871163821 0 0.23037826882399789 -0.45144222805815332 0 0.25313573724869581 -0.46656418664734522 0 0.2473881722944562 -0.44662591209246483 0 0.23037826882399789 -0.45144222805815332 0 0.23037826882399789 -0.45144222805815332 0 0.2485614248518116 -0.42876462740467192 0 0.2473881722944562 -0.44662591209246483 0 0.23037826882399789 -0.45144222805815332 0 0.2485614248518116 -0.42876462740467192 0 0.23037826882399789 -0.45144222805815332 0 0.21983370555871271 -0.43662034518844972 0 0.23257540947615521 -0.43155341204369352 0 0.23037826882399789 -0.45144222805815332 0 0.20556431403694631 -0.44892870793867828 0 0.21983370555871271 -0.43662034518844972 0 0.21219511279618841 -0.47411982871163821 0 0.23037826882399789 -0.45144222805815332 0 0.20556431403694631 -0.44892870793867828 0 0.21219511279618841 -0.47411982871163821 0 0.20556431403694631 -0.44892870793867828 0 0.184641422640861 -0.46535288579466011 0 0.20556431403694631 -0.44892870793867828 0 0.1895780636484225 -0.43774042149007852 0 0.184641422640861 -0.46535288579466011 0 0.20556431403694631 -0.44892870793867828 0 0.1895780636484225 -0.43774042149007852 0 0.20663249754508581 -0.42326262018932059 0 0.1895780636484225 -0.43774042149007852 0 0.18769957493144279 -0.4152406140375956 0 0.20663249754508581 -0.42326262018932059 0 0.18769957493144279 -0.4152406140375956 0 0.20663249754508581 -0.42326262018932059 0 0.2008718857135621 -0.39843038522126661 0 0.21729559024178879 -0.40906399191783982 0 0.20663249754508581 -0.42326262018932059 0 0.2008718857135621 -0.39843038522126661 0 0.21729559024178879 -0.40906399191783982 0 0.20663249754508581 -0.42326262018932059 0 0.22492623586903471 -0.42173260254786871 0 0.20556431403694631 -0.44892870793867828 0 0.20663249754508581 -0.42326262018932059 0 0.21983370555871271 -0.43662034518844972 0 0.20663249754508581 -0.42326262018932059 0 0.21983370555871271 -0.43662034518844972 0 0.22492623586903471 -0.42173260254786871 0 0.21983370555871271 -0.43662034518844972 0 0.23257540947615521 -0.43155341204369352 0 0.22492623586903471 -0.42173260254786871 0 0.23257540947615521 -0.43155341204369352 0 0.23876682362543211 -0.41787738486354259 0 0.22492623586903471 -0.42173260254786871 0 0.23257540947615521 -0.43155341204369352 0 0.2485614248518116 -0.42876462740467192 0 0.23876682362543211 -0.41787738486354259 0 0.23037826882399789 -0.45144222805815332 0 0.23257540947615521 -0.43155341204369352 0 0.2485614248518116 -0.42876462740467192 0 0.25090657366063313 -0.41146640545743562 0 0.2485614248518116 -0.42876462740467192 0 0.23876682362543211 -0.41787738486354259 0 0.25090657366063313 -0.41146640545743562 0 0.23876682362543211 -0.41787738486354259 0 0.24461806235260219 -0.40547911482343718 0 0.23876682362543211 -0.41787738486354259 0 0.23153818544526331 -0.40698087131222188 0 0.24461806235260219 -0.40547911482343718 0 0.23876682362543211 -0.41787738486354259 0 0.23153818544526331 -0.40698087131222188 0 0.22492623586903471 -0.42173260254786871 0 0.21729559024178879 -0.40906399191783982 0 0.23153818544526331 -0.40698087131222188 0 0.22492623586903471 -0.42173260254786871 0 0.23153818544526331 -0.40698087131222188 0 0.2230340965389056 -0.39362620472659388 0 0.2405883040438167 -0.39410592899404939 0 0.21729559024178879 -0.40906399191783982 0 0.23153818544526331 -0.40698087131222188 0 0.2230340965389056 -0.39362620472659388 0 0.23153818544526331 -0.40698087131222188 0 0.2405883040438167 -0.39410592899404939 0 0.24461806235260219 -0.40547911482343718 0 0.25543138794190728 -0.39779400128855491 0 0.2405883040438167 -0.39410592899404939 0 0.24461806235260219 -0.40547911482343718 0 0.25524912299832098 -0.38200881152066862 0 0.2405883040438167 -0.39410592899404939 0 0.2356768290235676 -0.37848250686049301 0 0.2230340965389056 -0.39362620472659388 0 0.2356768290235676 -0.37848250686049301 0 0.2138165757187768 -0.37758385683302792 0 0.2230340965389056 -0.39362620472659388 0 0.2405883040438167 -0.39410592899404939 0 0.2356768290235676 -0.37848250686049301 0 0.2230340965389056 -0.39362620472659388 0 0.2138165757187768 -0.37758385683302792 0 0.2008718857135621 -0.39843038522126661 0 0.21729559024178879 -0.40906399191783982 0 0.2230340965389056 -0.39362620472659388 0 0.2008718857135621 -0.39843038522126661 0 0.2138165757187768 -0.37758385683302792 0 0.2008718857135621 -0.39843038522126661 0 0.1888774724688686 -0.37738887994848203 0 0.1888774724688686 -0.37738887994848203 0 0.17164184255581591 -0.39902772190852698 0 0.1888774724688686 -0.37738887994848203 0 0.17164184255581591 -0.39902772190852698 0 0.1640772425612719 -0.37939422673886503 0 0.2008718857135621 -0.39843038522126661 0 0.1888774724688686 -0.37738887994848203 0 0.17164184255581591 -0.39902772190852698 0 0.18769957493144279 -0.4152406140375956 0 0.2008718857135621 -0.39843038522126661 0 0.17164184255581591 -0.39902772190852698 0 0.17164184255581591 -0.39902772190852698 0 0.1640772425612719 -0.37939422673886503 0 0.15132588389675469 -0.39707678406324098 0 0.17164184255581591 -0.39902772190852698 0 0.15132588389675469 -0.39707678406324098 0 0.1465892781052148 -0.42130336518199762 0 0.1640772425612719 -0.37939422673886503 0 0.14087975284144971 -0.38038393375049262 0 0.15132588389675469 -0.39707678406324098 0 0.14087975284144971 -0.38038393375049262 0 0.13344130342002139 -0.40527467273632278 0 0.1156021847858742 -0.3925016396513511 0 0.14087975284144971 -0.38038393375049262 0 0.13344130342002139 -0.40527467273632278 0 0.15132588389675469 -0.39707678406324098 0 0.13344130342002139 -0.40527467273632278 0 0.15132588389675469 -0.39707678406324098 0 0.1465892781052148 -0.42130336518199762 0 0.13344130342002139 -0.40527467273632278 0 0.1465892781052148 -0.42130336518199762 0 0.11603847298119831 -0.41808081377146977 0 0.1465892781052148 -0.42130336518199762 0 0.12953404233020729 -0.44781899996070029 0 0.11603847298119831 -0.41808081377146977 0 0.1465892781052148 -0.42130336518199762 0 0.17039820512569681 -0.42643136397512832 0 0.15708773248553409 -0.45658594287768017 0 0.17164184255581591 -0.39902772190852698 0 0.1465892781052148 -0.42130336518199762 0 0.17039820512569681 -0.42643136397512832 0 0.18769957493144279 -0.4152406140375956 0 0.17164184255581591 -0.39902772190852698 0 0.17039820512569681 -0.42643136397512832 0 0.1895780636484225 -0.43774042149007852 0 0.18769957493144279 -0.4152406140375956 0 0.17039820512569681 -0.42643136397512832 0 0.1895780636484225 -0.43774042149007852 0 0.184641422640861 -0.46535288579466011 0 0.15708773248553409 -0.45658594287768017 0 0.1895780636484225 -0.43774042149007852 0 0.17039820512569681 -0.42643136397512832 0 0.15708773248553409 -0.45658594287768017 0 0.184641422640861 -0.46535288579466011 0 0.15708773248553409 -0.45658594287768017 0 0.184641422640861 -0.46535288579466011 0 0.15708773248553409 -0.45658594287768017 0 0.1678782598635995 -0.47474332825273469 0 0.15708773248553409 -0.45658594287768017 0 0.12953404233020729 -0.44781899996070029 0 0.1465892781052148 -0.42130336518199762 0 0.15708773248553409 -0.45658594287768017 0 0.12953404233020729 -0.44781899996070029 0 0.15708773248553409 -0.45658594287768017 0 0.12953404233020729 -0.44781899996070029 0 0.12957614505952389 -0.47392429380400258 0 0.15708773248553409 -0.45658594287768017 0 0.1506537390145368 -0.48056752090678601 0 0.12957614505952389 -0.47392429380400258 0 0.12957614505952389 -0.47392429380400258 0 0.13640292728047559 -0.5 0 0.1168626314244148 -0.4854273210179727 0 0.1506537390145368 -0.48056752090678601 0 0.12957614505952389 -0.47392429380400258 0 0.13640292728047559 -0.5 0 0.1506537390145368 -0.48056752090678601 0 0.13640292728047559 -0.5 0 0.16392351339295511 -0.5 0 0.1506537390145368 -0.48056752090678601 0 0.16392351339295511 -0.5 0 0.1678782598635995 -0.47474332825273469 0 0.15708773248553409 -0.45658594287768017 0 0.1506537390145368 -0.48056752090678601 0 0.1678782598635995 -0.47474332825273469 0 0.184641422640861 -0.46535288579466011 0 0.1678782598635995 -0.47474332825273469 0 0.18406873776599231 -0.48345670979778549 0 0.16392351339295511 -0.5 0 0.1678782598635995 -0.47474332825273469 0 0.18406873776599231 -0.48345670979778549 0 0.19144409950543431 -0.499999999999995 0 0.16392351339295511 -0.5 0 0.18406873776599231 -0.48345670979778549 0 0.077730230232775296 -0.48591804301689873 0 0.054262454846035958 -0.48607476727079019 0 0.077730230232775296 -0.48591804301689873 0 0.06679890226934132 -0.49299820257192217 0 0.054262454846035958 -0.48607476727079019 0 0.06679890226934132 -0.49299820257192217 0 0.081361755055516793 -0.5 0 0.053841168943037247 -0.5 0 0.077730230232775296 -0.48591804301689873 0 0.06679890226934132 -0.49299820257192217 0 0.081361755055516793 -0.5 0 0.077730230232775296 -0.48591804301689873 0 0.065460199976549532 -0.47159230169903832 0 0.054262454846035958 -0.48607476727079019 0 0.077730230232775296 -0.48591804301689873 0 0.065460199976549532 -0.47159230169903832 0 0.079476177120406388 -0.46945375000130268 0 0.077730230232775296 -0.48591804301689873 0 0.079476177120406388 -0.46945375000130268 0 0.090924973564823708 -0.4750134612333895 0 0.077730230232775296 -0.48591804301689873 0 0.090924973564823708 -0.4750134612333895 0 0.1011980056195145 -0.48576131876300732 0 0.079476177120406388 -0.46945375000130268 0 0.090924973564823708 -0.4750134612333895 0 0.089607194810286006 -0.46195861940646538 0 0.077730230232775296 -0.48591804301689873 0 0.081361755055516793 -0.5 0 0.1011980056195145 -0.48576131876300732 0 0.077730230232775296 -0.48591804301689873 0 0.1011980056195145 -0.48576131876300732 0 0.1011980056195145 -0.48576131876300732 0 0.10888234116799619 -0.5 0 0.1168626314244148 -0.4854273210179727 0 0.081361755055516793 -0.5 0 0.1011980056195145 -0.48576131876300732 0 0.10888234116799619 -0.5 0 0.13640292728047559 -0.5 0 0.10888234116799619 -0.5 0 0.1168626314244148 -0.4854273210179727 0 0.12957614505952389 -0.47392429380400258 0 0.1168626314244148 -0.4854273210179727 0 0.1082537379945637 -0.46745099252285338 0 0.1011980056195145 -0.48576131876300732 0 0.1168626314244148 -0.4854273210179727 0 0.1082537379945637 -0.46745099252285338 0 0.090924973564823708 -0.4750134612333895 0 0.1011980056195145 -0.48576131876300732 0 0.1082537379945637 -0.46745099252285338 0 0.1082537379945637 -0.46745099252285338 0 0.1019803521748805 -0.43905205704372041 0 0.089607194810286006 -0.46195861940646538 0 0.090924973564823708 -0.4750134612333895 0 0.1082537379945637 -0.46745099252285338 0 0.089607194810286006 -0.46195861940646538 0 0.12953404233020729 -0.44781899996070029 0 0.12957614505952389 -0.47392429380400258 0 0.1082537379945637 -0.46745099252285338 0 0.12953404233020729 -0.44781899996070029 0 0.1082537379945637 -0.46745099252285338 0 0.1019803521748805 -0.43905205704372041 0 0.12953404233020729 -0.44781899996070029 0 0.1019803521748805 -0.43905205704372041 0 0.1019803521748805 -0.43905205704372041 0 0.089607194810286006 -0.46195861940646538 0 0.073658287017597426 -0.45278632465072183 0 0.1019803521748805 -0.43905205704372041 0 0.073658287017597426 -0.45278632465072183 0 0.074426662019553447 -0.43028511412674031 0 0.079476177120406388 -0.46945375000130268 0 0.089607194810286006 -0.46195861940646538 0 0.073658287017597426 -0.45278632465072183 0 0.065460199976549532 -0.47159230169903832 0 0.079476177120406388 -0.46945375000130268 0 0.073658287017597426 -0.45278632465072183 0 0.065460199976549532 -0.47159230169903832 0 0.073658287017597426 -0.45278632465072183 0 0.055730919268256053 -0.45942826587853031 0 0.073658287017597426 -0.45278632465072183 0 0.074426662019553447 -0.43028511412674031 0 0.051301945566238003 -0.44047321854414961 0 0.074426662019553447 -0.43028511412674031 0 0.071834787705228442 -0.40647116887009288 0 0.04687297186422397 -0.42151817120976798 0 0.074426662019553447 -0.43028511412674031 0 0.071834787705228442 -0.40647116887009288 0 0.092237857511430404 -0.42039640875780587 0 0.071834787705228442 -0.40647116887009288 0 0.092237857511430404 -0.42039640875780587 0 0.092884292540759542 -0.40021855306839021 0 0.1019803521748805 -0.43905205704372041 0 0.074426662019553447 -0.43028511412674031 0 0.092237857511430404 -0.42039640875780587 0 0.1019803521748805 -0.43905205704372041 0 0.074426662019553447 -0.43028511412674031 0 0.1019803521748805 -0.43905205704372041 0 0.092237857511430404 -0.42039640875780587 0 0.11603847298119831 -0.41808081377146977 0 0.12953404233020729 -0.44781899996070029 0 0.1019803521748805 -0.43905205704372041 0 0.11603847298119831 -0.41808081377146977 0 0.092237857511430404 -0.42039640875780587 0 0.11603847298119831 -0.41808081377146977 0 0.092884292540759542 -0.40021855306839021 0 0.11603847298119831 -0.41808081377146977 0 0.1156021847858742 -0.3925016396513511 0 0.092884292540759542 -0.40021855306839021 0 0.13344130342002139 -0.40527467273632278 0 0.11603847298119831 -0.41808081377146977 0 0.1156021847858742 -0.3925016396513511 0 0.14087975284144971 -0.38038393375049262 0 0.1156021847858742 -0.3925016396513511 0 0.116293860194103 -0.37057206799656062 0 0.1156021847858742 -0.3925016396513511 0 0.091506320751013351 -0.37903575959634223 0 0.092884292540759542 -0.40021855306839021 0 0.1156021847858742 -0.3925016396513511 0 0.091506320751013351 -0.37903575959634223 0 0.116293860194103 -0.37057206799656062 0 0.091506320751013351 -0.37903575959634223 0 0.092884292540759542 -0.40021855306839021 0 0.075672894698076976 -0.38737414239400209 0 0.091506320751013351 -0.37903575959634223 0 0.075672894698076976 -0.38737414239400209 0 0.072452369123948687 -0.37216504957948721 0 0.071834787705228442 -0.40647116887009288 0 0.092884292540759542 -0.40021855306839021 0 0.075672894698076976 -0.38737414239400209 0 0.071834787705228442 -0.40647116887009288 0 0.075672894698076976 -0.38737414239400209 0 0.061949374342708668 -0.38903671003361417 0 0.071834787705228442 -0.40647116887009288 0 0.061949374342708668 -0.38903671003361417 0 0.05543670223380881 -0.40052074534083559 0 0.06330204124786673 -0.37779203811076478 0 0.075672894698076976 -0.38737414239400209 0 0.061949374342708668 -0.38903671003361417 0 0.06330204124786673 -0.37779203811076478 0 0.075672894698076976 -0.38737414239400209 0 0.072452369123948687 -0.37216504957948721 0 0.047914476115609179 -0.38969442402151722 0 0.052778408112249597 -0.381120014316848 0 0.046656875330936737 -0.38315504908848441 0 0.047914476115609179 -0.38969442402151722 0 0.052778408112249597 -0.381120014316848 0 0.061949374342708668 -0.38903671003361417 0 0.052778408112249597 -0.381120014316848 0 0.046656875330936737 -0.38315504908848441 0 0.043404564225572109 -0.37806888550284279 0 0.052778408112249597 -0.381120014316848 0 0.049186121516500307 -0.37337154576072901 0 0.055888626396024078 -0.37218087916053189 0 0.052778408112249597 -0.381120014316848 0 0.043404564225572109 -0.37806888550284279 0 0.049186121516500307 -0.37337154576072901 0 0.06330204124786673 -0.37779203811076478 0 0.052778408112249597 -0.381120014316848 0 0.061949374342708668 -0.38903671003361417 0 0.06330204124786673 -0.37779203811076478 0 0.052778408112249597 -0.381120014316848 0 0.055888626396024078 -0.37218087916053189 0 0.047914476115609179 -0.38969442402151722 0 0.061949374342708668 -0.38903671003361417 0 0.05543670223380881 -0.40052074534083559 0 0.047914476115609179 -0.38969442402151722 0 0.05543670223380881 -0.40052074534083559 0 0.042363348422234402 -0.40221796047152941 0 0.042363348422234402 -0.40221796047152941 0 0.037853724980247583 -0.38291774973329012 0 0.042363348422234402 -0.40221796047152941 0 0.037853724980247583 -0.38291774973329012 0 0.027010208973789009 -0.40290335769087782 0 0.047914476115609179 -0.38969442402151722 0 0.042363348422234402 -0.40221796047152941 0 0.037853724980247583 -0.38291774973329012 0 0.047914476115609179 -0.38969442402151722 0 0.040382425827561672 -0.38070883563108532 0 0.047914476115609179 -0.38969442402151722 0 0.037853724980247583 -0.38291774973329012 0 0.040382425827561672 -0.38070883563108532 0 0.047914476115609179 -0.38969442402151722 0 0.046656875330936737 -0.38315504908848441 0 0.040382425827561672 -0.38070883563108532 0 0.046656875330936737 -0.38315504908848441 0 0.043404564225572109 -0.37806888550284279 0 0.040382425827561672 -0.38070883563108532 0 0.043404564225572109 -0.37806888550284279 0 0.040382425827561672 -0.38070883563108532 0 0.037853724980247583 -0.38291774973329012 0 0.040382425827561672 -0.38070883563108532 0 0.043404564225572109 -0.37806888550284279 0 0.040382425827561672 -0.38070883563108532 0 0.036160839179558923 -0.37567256548911321 0 0.043404564225572109 -0.37806888550284279 0 0.036160839179558923 -0.37567256548911321 0 0.043701106101143208 -0.37343156606316918 0 0.040382425827561672 -0.38070883563108532 0 0.036160839179558923 -0.37567256548911321 0 0.037853724980247583 -0.38291774973329012 0 0.036160839179558923 -0.37567256548911321 0 0.037853724980247583 -0.38291774973329012 0 0.040382425827561672 -0.38070883563108532 0 0.036160839179558923 -0.37567256548911321 0 0.037853724980247583 -0.38291774973329012 0 0.036160839179558923 -0.37567256548911321 0 0.01633445153685879 -0.37782129052113872 0 0.037853724980247583 -0.38291774973329012 0 0.01633445153685879 -0.37782129052113872 0 0.01541170437308609 -0.40252168819585599 0 0.01633445153685879 -0.37782129052113872 0 0.01541170437308609 -0.40252168819585599 0 0.01633445153685879 -0.37782129052113872 0 0.0069815009679953409 -0.38998122272398739 0 0.01541170437308609 -0.40252168819585599 0 -0.0050833538833782548 -0.37219950955806552 0 0.01633445153685879 -0.37782129052113872 0 0.0069815009679953409 -0.38998122272398739 0 -0.001438868330072951 -0.40119260200624718 0 0.0070855891720005481 -0.40059982206624639 0 0.007871102384618564 -0.40910868407915851 0 -0.001438868330072951 -0.40119260200624718 0 0.0069815009679953409 -0.38998122272398739 0 0.0070855891720005481 -0.40059982206624639 0 -0.0051603854195386581 -0.38696791099738009 0 -0.001438868330072951 -0.40119260200624718 0 0.0069815009679953409 -0.38998122272398739 0 0.0069815009679953409 -0.38998122272398739 0 0.0070855891720005481 -0.40059982206624639 0 0.01541170437308609 -0.40252168819585599 0 0.0070855891720005481 -0.40059982206624639 0 0.01541170437308609 -0.40252168819585599 0 0.007871102384618564 -0.40910868407915851 0 0.01541170437308609 -0.40252168819585599 0 0.007871102384618564 -0.40910868407915851 0 0.01541170437308609 -0.40252168819585599 0 0.01524296021017982 -0.40703868710167751 0 0.01541170437308609 -0.40252168819585599 0 0.01524296021017982 -0.40703868710167751 0 0.007871102384618564 -0.40910868407915851 0 0.037853724980247583 -0.38291774973329012 0 0.01541170437308609 -0.40252168819585599 0 0.037853724980247583 -0.38291774973329012 0 0.01541170437308609 -0.40252168819585599 0 0.027010208973789009 -0.40290335769087782 0 0.01541170437308609 -0.40252168819585599 0 0.027010208973789009 -0.40290335769087782 0 0.01524296021017982 -0.40703868710167751 0 0.027372037124423002 -0.41531342764445772 0 0.007871102384618564 -0.40910868407915851 0 0.027372037124423002 -0.41531342764445772 0 0.01524296021017982 -0.40703868710167751 0 0.007871102384618564 -0.40910868407915851 0 0.027372037124423002 -0.41531342764445772 0 0.007871102384618564 -0.40910868407915851 0 0.0128535960425477 -0.43085189316145361 0 0.027010208973789009 -0.40290335769087782 0 0.027372037124423002 -0.41531342764445772 0 0.01524296021017982 -0.40703868710167751 0 -0.01040637125229734 -0.42507473609834062 0 0.007871102384618564 -0.40910868407915851 0 0.0128535960425477 -0.43085189316145361 0 -0.01040637125229734 -0.42507473609834062 0 0.0128535960425477 -0.43085189316145361 0 0.001606361702675336 -0.44718841881094551 0 0.027372037124423002 -0.41531342764445772 0 0.0128535960425477 -0.43085189316145361 0 0.031837436817260728 -0.4350262779716555 0 0.027372037124423002 -0.41531342764445772 0 0.031837436817260728 -0.4350262779716555 0 0.04687297186422397 -0.42151817120976798 0 0.031837436817260728 -0.4350262779716555 0 0.04687297186422397 -0.42151817120976798 0 0.051301945566238003 -0.44047321854414961 0 0.042363348422234402 -0.40221796047152941 0 0.027372037124423002 -0.41531342764445772 0 0.04687297186422397 -0.42151817120976798 0 0.027372037124423002 -0.41531342764445772 0 0.04687297186422397 -0.42151817120976798 0 0.042363348422234402 -0.40221796047152941 0 0.04687297186422397 -0.42151817120976798 0 0.042363348422234402 -0.40221796047152941 0 0.027010208973789009 -0.40290335769087782 0 0.027372037124423002 -0.41531342764445772 0 0.071834787705228442 -0.40647116887009288 0 0.05543670223380881 -0.40052074534083559 0 0.04687297186422397 -0.42151817120976798 0 0.05543670223380881 -0.40052074534083559 0 0.042363348422234402 -0.40221796047152941 0 0.04687297186422397 -0.42151817120976798 0 0.074426662019553447 -0.43028511412674031 0 0.04687297186422397 -0.42151817120976798 0 0.074426662019553447 -0.43028511412674031 0 0.04687297186422397 -0.42151817120976798 0 0.051301945566238003 -0.44047321854414961 0 0.04687297186422397 -0.42151817120976798 0 0.051301945566238003 -0.44047321854414961 0 0.073658287017597426 -0.45278632465072183 0 0.051301945566238003 -0.44047321854414961 0 0.055730919268256053 -0.45942826587853031 0 0.051301945566238003 -0.44047321854414961 0 0.055730919268256053 -0.45942826587853031 0 0.051301945566238003 -0.44047321854414961 0 0.055730919268256053 -0.45942826587853031 0 0.038502990227666262 -0.45045956911389667 0 0.055730919268256053 -0.45942826587853031 0 0.036370849026123718 -0.4667748780482941 0 0.050860067655238921 -0.47242785424542721 0 0.065460199976549532 -0.47159230169903832 0 0.055730919268256053 -0.45942826587853031 0 0.050860067655238921 -0.47242785424542721 0 0.055730919268256053 -0.45942826587853031 0 0.036370849026123718 -0.4667748780482941 0 0.038502990227666262 -0.45045956911389667 0 0.031837436817260728 -0.4350262779716555 0 0.051301945566238003 -0.44047321854414961 0 0.038502990227666262 -0.45045956911389667 0 0.031837436817260728 -0.4350262779716555 0 0.038502990227666262 -0.45045956911389667 0 0.018841009478604849 -0.4533998143641676 0 0.0128535960425477 -0.43085189316145361 0 0.031837436817260728 -0.4350262779716555 0 0.018841009478604849 -0.4533998143641676 0 0.0128535960425477 -0.43085189316145361 0 0.001606361702675336 -0.44718841881094551 0 0.018841009478604849 -0.4533998143641676 0 0.001606361702675336 -0.44718841881094551 0 0.0043379866620995716 -0.46754164649138469 0 0.018841009478604849 -0.4533998143641676 0 0.0043379866620995716 -0.46754164649138469 0 0.018841009478604849 -0.4533998143641676 0 0.019382705786544729 -0.47284261864685012 0 0.036370849026123718 -0.4667748780482941 0 0.038502990227666262 -0.45045956911389667 0 0.018841009478604849 -0.4533998143641676 0 0.036370849026123718 -0.4667748780482941 0 0.018841009478604849 -0.4533998143641676 0 0.019382705786544729 -0.47284261864685012 0 0.036370849026123718 -0.4667748780482941 0 0.019382705786544729 -0.47284261864685012 0 0.030794679459296551 -0.4862314915246817 0 0.019382705786544729 -0.47284261864685012 0 0.0073269040725571976 -0.48638821577857322 0 0.030794679459296551 -0.4862314915246817 0 -0.01080838346194537 -0.48197031945071178 0 0.0043379866620995716 -0.46754164649138469 0 0.0073269040725571976 -0.48638821577857322 0 0.0043379866620995716 -0.46754164649138469 0 0.019382705786544729 -0.47284261864685012 0 0.0073269040725571976 -0.48638821577857322 0 -0.0012000032819215469 -0.5 0 0.0073269040725571976 -0.48638821577857322 0 0.026320582830557829 -0.5 0 0.0073269040725571976 -0.48638821577857322 0 0.030794679459296551 -0.4862314915246817 0 0.0073269040725571976 -0.48638821577857322 0 0.030794679459296551 -0.4862314915246817 0 0.026320582830557829 -0.5 0 0.026320582830557829 -0.5 0 0.041304721519731899 -0.49307656469886801 0 0.053841168943037247 -0.5 0 0.030794679459296551 -0.4862314915246817 0 0.026320582830557829 -0.5 0 0.041304721519731899 -0.49307656469886801 0 0.030794679459296551 -0.4862314915246817 0 0.041304721519731899 -0.49307656469886801 0 0.054262454846035958 -0.48607476727079019 0 0.030794679459296551 -0.4862314915246817 0 0.054262454846035958 -0.48607476727079019 0 0.036370849026123718 -0.4667748780482941 0 0.030794679459296551 -0.4862314915246817 0 0.042475915159229341 -0.47826905833048328 0 0.030794679459296551 -0.4862314915246817 0 0.042475915159229341 -0.47826905833048328 0 0.054262454846035958 -0.48607476727079019 0 0.036370849026123718 -0.4667748780482941 0 0.042475915159229341 -0.47826905833048328 0 0.050860067655238921 -0.47242785424542721 0 0.042475915159229341 -0.47826905833048328 0 0.050860067655238921 -0.47242785424542721 0 0.054262454846035958 -0.48607476727079019 0 0.065460199976549532 -0.47159230169903832 0 0.050860067655238921 -0.47242785424542721 0 0.054262454846035958 -0.48607476727079019 0 0.06679890226934132 -0.49299820257192217 0 0.053841168943037247 -0.5 0 0.054262454846035958 -0.48607476727079019 0 0.041304721519731899 -0.49307656469886801 0 0.053841168943037247 -0.5 0 0.054262454846035958 -0.48607476727079019 0 0.079333235348149761 -0.29018559706723551 0 0.089165369117503127 -0.27985562035473649 0 0.095390128893213022 -0.29820919937870072 0 0.079333235348149761 -0.29018559706723551 0 0.068989256748119315 -0.27389505486204357 0 0.089165369117503127 -0.27985562035473649 0 0.071155245933672534 -0.30534862001636992 0 0.095390128893213022 -0.29820919937870072 0 0.095390128893213022 -0.29820919937870072 0 0.10212374983143251 -0.31409196919091198 0 0.074522056402782158 -0.3132900049224745 0 0.079333235348149761 -0.29018559706723551 0 0.071155245933672534 -0.30534862001636992 0 0.095390128893213022 -0.29820919937870072 0 0.071155245933672534 -0.30534862001636992 0 0.095390128893213022 -0.29820919937870072 0 0.074522056402782158 -0.3132900049224745 0 0.071155245933672534 -0.30534862001636992 0 0.074522056402782158 -0.3132900049224745 0 0.046920362974131782 -0.31248804065403801 0 0.071155245933672534 -0.30534862001636992 0 0.064138839055048358 -0.29216451009532801 0 0.056569106368804398 -0.30053829332784299 0 0.079333235348149761 -0.29018559706723551 0 0.064138839055048358 -0.29216451009532801 0 0.068989256748119315 -0.27389505486204357 0 0.079333235348149761 -0.29018559706723551 0 0.071155245933672534 -0.30534862001636992 0 0.064138839055048358 -0.29216451009532801 0 0.068989256748119315 -0.27389505486204357 0 0.073187988238440096 -0.25082170968256229 0 0.05640129943037097 -0.25651824524065098 0 0.068989256748119315 -0.27389505486204357 0 0.073187988238440096 -0.25082170968256229 0 0.093331162619742836 -0.25693512452093897 0 0.068989256748119315 -0.27389505486204357 0 0.093331162619742836 -0.25693512452093897 0 0.068989256748119315 -0.27389505486204357 0 0.093331162619742836 -0.25693512452093897 0 0.089165369117503127 -0.27985562035473649 0 0.093331162619742836 -0.25693512452093897 0 0.089165369117503127 -0.27985562035473649 0 0.1087830619782907 -0.28005312594476378 0 0.093331162619742836 -0.25693512452093897 0 0.1087830619782907 -0.28005312594476378 0 0.1239921211567066 -0.26338884744051011 0 0.093331162619742836 -0.25693512452093897 0 0.1239921211567066 -0.26338884744051011 0 0.11767306849136661 -0.23997519417983459 0 0.1239921211567066 -0.26338884744051011 0 0.11767306849136661 -0.23997519417983459 0 0.13031117382204649 -0.28680250070118551 0 0.1087830619782907 -0.28005312594476378 0 0.1239921211567066 -0.26338884744051011 0 0.13031117382204649 -0.28680250070118551 0 0.1087830619782907 -0.28005312594476378 0 0.1155722963427603 -0.30146894682592001 0 0.1087830619782907 -0.28005312594476378 0 0.095390128893213022 -0.29820919937870072 0 0.1155722963427603 -0.30146894682592001 0 0.089165369117503127 -0.27985562035473649 0 0.1087830619782907 -0.28005312594476378 0 0.095390128893213022 -0.29820919937870072 0 0.095390128893213022 -0.29820919937870072 0 0.1155722963427603 -0.30146894682592001 0 0.10212374983143251 -0.31409196919091198 0 0.13663022648738629 -0.31021615396186097 0 0.1155722963427603 -0.30146894682592001 0 0.1201954370441925 -0.31944073177809718 0 0.1155722963427603 -0.30146894682592001 0 0.1201954370441925 -0.31944073177809718 0 0.10212374983143251 -0.31409196919091198 0 0.13038225604698911 -0.32537737111550252 0 0.1201954370441925 -0.31944073177809718 0 0.1217540815036514 -0.33822279149951517 0 0.1201954370441925 -0.31944073177809718 0 0.10810306955483789 -0.3287385394668938 0 0.10212374983143251 -0.31409196919091198 0 0.1217540815036514 -0.33822279149951517 0 0.10810306955483789 -0.3287385394668938 0 0.1005588838545758 -0.34281577577649019 0 0.1217540815036514 -0.33822279149951517 0 0.1005588838545758 -0.34281577577649019 0 0.1201954370441925 -0.31944073177809718 0 0.1217540815036514 -0.33822279149951517 0 0.10810306955483789 -0.3287385394668938 0 0.1005588838545758 -0.34281577577649019 0 0.095883195540337404 -0.32912142908945452 0 0.088111724902879593 -0.33758698201785697 0 0.10810306955483789 -0.3287385394668938 0 0.1005588838545758 -0.34281577577649019 0 0.095883195540337404 -0.32912142908945452 0 0.095883195540337404 -0.32912142908945452 0 0.10212374983143251 -0.31409196919091198 0 0.086093203499846782 -0.3218316772883415 0 0.10810306955483789 -0.3287385394668938 0 0.095883195540337404 -0.32912142908945452 0 0.10212374983143251 -0.31409196919091198 0 0.13394102094828611 -0.36156127580364378 0 0.116293860194103 -0.37057206799656062 0 0.116833289331298 -0.3523904539100236 0 0.1217540815036514 -0.33822279149951517 0 0.1005588838545758 -0.34281577577649019 0 0.116833289331298 -0.3523904539100236 0 0.1324258462260213 -0.34663040054900263 0 0.1217540815036514 -0.33822279149951517 0 0.116833289331298 -0.3523904539100236 0 0.1005588838545758 -0.34281577577649019 0 0.116833289331298 -0.3523904539100236 0 0.094478328651657312 -0.35776003760498498 0 0.116293860194103 -0.37057206799656062 0 0.116833289331298 -0.3523904539100236 0 0.094478328651657312 -0.35776003760498498 0 0.116293860194103 -0.37057206799656062 0 0.094478328651657312 -0.35776003760498498 0 0.091506320751013351 -0.37903575959634223 0 0.116293860194103 -0.37057206799656062 0 0.094478328651657312 -0.35776003760498498 0 0.091506320751013351 -0.37903575959634223 0 0.081475655480547679 -0.36383285325017928 0 0.072452369123948687 -0.37216504957948721 0 0.091506320751013351 -0.37903575959634223 0 0.094478328651657312 -0.35776003760498498 0 0.081475655480547679 -0.36383285325017928 0 0.094478328651657312 -0.35776003760498498 0 0.07266279710921153 -0.34494800721340929 0 0.077534447373331691 -0.35560555534566518 0 0.094478328651657312 -0.35776003760498498 0 0.07266279710921153 -0.34494800721340929 0 0.094478328651657312 -0.35776003760498498 0 0.079363686205500272 -0.34740876005346522 0 0.07266279710921153 -0.34494800721340929 0 0.1005588838545758 -0.34281577577649019 0 0.094478328651657312 -0.35776003760498498 0 0.079363686205500272 -0.34740876005346522 0 0.1005588838545758 -0.34281577577649019 0 0.079363686205500272 -0.34740876005346522 0 0.094478328651657312 -0.35776003760498498 0 0.081475655480547679 -0.36383285325017928 0 0.077534447373331691 -0.35560555534566518 0 0.07266279710921153 -0.34494800721340929 0 0.06818765908383348 -0.35302599505246379 0 0.077534447373331691 -0.35560555534566518 0 0.07266279710921153 -0.34494800721340929 0 0.06818765908383348 -0.35302599505246379 0 0.059242194606759432 -0.34793021576769162 0 0.06818765908383348 -0.35302599505246379 0 0.07034083604331158 -0.36022196559187503 0 0.06149370194088144 -0.35649423427144189 0 0.06818765908383348 -0.35302599505246379 0 0.06149370194088144 -0.35649423427144189 0 0.059242194606759432 -0.34793021576769162 0 0.06818765908383348 -0.35302599505246379 0 0.077534447373331691 -0.35560555534566518 0 0.07034083604331158 -0.36022196559187503 0 0.081475655480547679 -0.36383285325017928 0 0.077534447373331691 -0.35560555534566518 0 0.07034083604331158 -0.36022196559187503 0 0.081475655480547679 -0.36383285325017928 0 0.07034083604331158 -0.36022196559187503 0 0.072452369123948687 -0.37216504957948721 0 0.07034083604331158 -0.36022196559187503 0 0.06107057481419241 -0.36487543318010568 0 0.06149370194088144 -0.35649423427144189 0 0.07034083604331158 -0.36022196559187503 0 0.072452369123948687 -0.37216504957948721 0 0.06107057481419241 -0.36487543318010568 0 0.06330204124786673 -0.37779203811076478 0 0.072452369123948687 -0.37216504957948721 0 0.06107057481419241 -0.36487543318010568 0 0.10212374983143251 -0.31409196919091198 0 0.074522056402782158 -0.3132900049224745 0 0.10212374983143251 -0.31409196919091198 0 0.086093203499846782 -0.3218316772883415 0 0.074522056402782158 -0.3132900049224745 0 0.086093203499846782 -0.3218316772883415 0 0.081298228458262442 -0.33042655202703941 0 0.076638787266419303 -0.32222843121182709 0 0.086093203499846782 -0.3218316772883415 0 0.076638787266419303 -0.32222843121182709 0 0.074522056402782158 -0.3132900049224745 0 0.095883195540337404 -0.32912142908945452 0 0.086093203499846782 -0.3218316772883415 0 0.081298228458262442 -0.33042655202703941 0 0.095883195540337404 -0.32912142908945452 0 0.088111724902879593 -0.33758698201785697 0 0.081298228458262442 -0.33042655202703941 0 0.1005588838545758 -0.34281577577649019 0 0.079363686205500272 -0.34740876005346522 0 0.088111724902879593 -0.33758698201785697 0 0.079363686205500272 -0.34740876005346522 0 0.088111724902879593 -0.33758698201785697 0 0.078929432010796677 -0.33823729023145632 0 0.088111724902879593 -0.33758698201785697 0 0.078929432010796677 -0.33823729023145632 0 0.081298228458262442 -0.33042655202703941 0 0.07266279710921153 -0.34494800721340929 0 0.070245969377019823 -0.3345851809687056 0 0.050847265566765859 -0.33213597682183371 0 0.081298228458262442 -0.33042655202703941 0 0.070245969377019823 -0.3345851809687056 0 0.067492123740062651 -0.32717807854978909 0 0.078929432010796677 -0.33823729023145632 0 0.081298228458262442 -0.33042655202703941 0 0.070245969377019823 -0.3345851809687056 0 0.070245969377019823 -0.3345851809687056 0 0.067492123740062651 -0.32717807854978909 0 0.050847265566765859 -0.33213597682183371 0 0.07266279710921153 -0.34494800721340929 0 0.078929432010796677 -0.33823729023145632 0 0.070245969377019823 -0.3345851809687056 0 0.079363686205500272 -0.34740876005346522 0 0.07266279710921153 -0.34494800721340929 0 0.078929432010796677 -0.33823729023145632 0 0.067492123740062651 -0.32717807854978909 0 0.069052136665424368 -0.32081883882804318 0 0.057555579252433327 -0.32057884062808228 0 0.069052136665424368 -0.32081883882804318 0 0.074522056402782158 -0.3132900049224745 0 0.057555579252433327 -0.32057884062808228 0 0.067492123740062651 -0.32717807854978909 0 0.069052136665424368 -0.32081883882804318 0 0.076638787266419303 -0.32222843121182709 0 0.081298228458262442 -0.33042655202703941 0 0.067492123740062651 -0.32717807854978909 0 0.076638787266419303 -0.32222843121182709 0 0.069052136665424368 -0.32081883882804318 0 0.076638787266419303 -0.32222843121182709 0 0.074522056402782158 -0.3132900049224745 0 0.074522056402782158 -0.3132900049224745 0 0.046920362974131782 -0.31248804065403801 0 0.057555579252433327 -0.32057884062808228 0 0.050847265566765859 -0.33213597682183371 0 0.046920362974131782 -0.31248804065403801 0 0.067492123740062651 -0.32717807854978909 0 0.057555579252433327 -0.32057884062808228 0 0.050847265566765859 -0.33213597682183371 0 0.074522056402782158 -0.3132900049224745 0 0.057555579252433327 -0.32057884062808228 0 0.046920362974131782 -0.31248804065403801 0 0.07266279710921153 -0.34494800721340929 0 0.050847265566765859 -0.33213597682183371 0 0.059242194606759432 -0.34793021576769162 0 0.050847265566765859 -0.33213597682183371 0 0.059242194606759432 -0.34793021576769162 0 0.045126792835204807 -0.34562997935249451 0 0.07266279710921153 -0.34494800721340929 0 0.050847265566765859 -0.33213597682183371 0 0.050847265566765859 -0.33213597682183371 0 0.035529557472333183 -0.33284205093582292 0 0.045126792835204807 -0.34562997935249451 0 0.035529557472333183 -0.33284205093582292 0 0.045126792835204807 -0.34562997935249451 0 0.029600944704978718 -0.34759763918788039 0 0.023041050230396189 -0.31952271288664802 0 0.029031734024320261 -0.31932394643025808 0 0.046920362974131782 -0.31248804065403801 0 0.050847265566765859 -0.33213597682183371 0 0.035529557472333183 -0.33284205093582292 0 0.029031734024320261 -0.31932394643025808 0 0.023041050230396189 -0.31952271288664802 0 0.046920362974131782 -0.31248804065403801 0 0.050847265566765859 -0.33213597682183371 0 0.029031734024320261 -0.31932394643025808 0 0.050847265566765859 -0.33213597682183371 0 0.029031734024320261 -0.31932394643025808 0 0.046920362974131782 -0.31248804065403801 0 0.049186121516500307 -0.37337154576072901 0 0.055888626396024078 -0.37218087916053189 0 0.053373759369835648 -0.36523616333632958 0 0.049186121516500307 -0.37337154576072901 0 0.053373759369835648 -0.36523616333632958 0 0.046052899482939239 -0.36661326749999268 0 0.06330204124786673 -0.37779203811076478 0 0.055888626396024078 -0.37218087916053189 0 0.06107057481419241 -0.36487543318010568 0 0.055888626396024078 -0.37218087916053189 0 0.06107057481419241 -0.36487543318010568 0 0.053373759369835648 -0.36523616333632958 0 0.06107057481419241 -0.36487543318010568 0 0.053373759369835648 -0.36523616333632958 0 0.053396610101006693 -0.35741216336274301 0 0.06107057481419241 -0.36487543318010568 0 0.053396610101006693 -0.35741216336274301 0 0.06149370194088144 -0.35649423427144189 0 0.053396610101006693 -0.35741216336274301 0 0.042166794203713019 -0.35620471555849509 0 0.046052899482939239 -0.36661326749999268 0 0.053373759369835648 -0.36523616333632958 0 0.053396610101006693 -0.35741216336274301 0 0.046052899482939239 -0.36661326749999268 0 0.053396610101006693 -0.35741216336274301 0 0.045126792835204807 -0.34562997935249451 0 0.042166794203713019 -0.35620471555849509 0 0.053396610101006693 -0.35741216336274301 0 0.06149370194088144 -0.35649423427144189 0 0.059242194606759432 -0.34793021576769162 0 0.053396610101006693 -0.35741216336274301 0 0.059242194606759432 -0.34793021576769162 0 0.045126792835204807 -0.34562997935249451 0 0.045126792835204807 -0.34562997935249451 0 0.042166794203713019 -0.35620471555849509 0 0.029600944704978718 -0.34759763918788039 0 0.036160839179558923 -0.37567256548911321 0 0.042166794203713019 -0.35620471555849509 0 0.046052899482939239 -0.36661326749999268 0 0.036160839179558923 -0.37567256548911321 0 0.042166794203713019 -0.35620471555849509 0 0.029600944704978718 -0.34759763918788039 0 0.036160839179558923 -0.37567256548911321 0 0.029600944704978718 -0.34759763918788039 0 0.036160839179558923 -0.37567256548911321 0 0.046052899482939239 -0.36661326749999268 0 0.043701106101143208 -0.37343156606316918 0 0.043404564225572109 -0.37806888550284279 0 0.049186121516500307 -0.37337154576072901 0 0.043701106101143208 -0.37343156606316918 0 0.049186121516500307 -0.37337154576072901 0 0.046052899482939239 -0.36661326749999268 0 0.043701106101143208 -0.37343156606316918 0 0.036160839179558923 -0.37567256548911321 0 0.01725719870062976 -0.35312089284642129 0 0.01633445153685879 -0.37782129052113872 0 0.01725719870062976 -0.35312089284642129 0 0.036160839179558923 -0.37567256548911321 0 0.01633445153685879 -0.37782129052113872 0 0.01725719870062976 -0.35312089284642129 0 0.036160839179558923 -0.37567256548911321 0 0.01725719870062976 -0.35312089284642129 0 0.029600944704978718 -0.34759763918788039 0 0.01725719870062976 -0.35312089284642129 0 0.0022713826792591049 -0.35819230569133492 0 0.0058316474928007643 -0.33949043415839791 0 -0.0063395060578380971 -0.34292967992449769 0 0.0022713826792591049 -0.35819230569133492 0 0.0058316474928007643 -0.33949043415839791 0 0.01725719870062976 -0.35312089284642129 0 0.0058316474928007643 -0.33949043415839791 0 0.01633445153685879 -0.37782129052113872 0 0.01725719870062976 -0.35312089284642129 0 0.0022713826792591049 -0.35819230569133492 0 -0.0050833538833782548 -0.37219950955806552 0 0.01633445153685879 -0.37782129052113872 0 0.0022713826792591049 -0.35819230569133492 0 0.023041050230396189 -0.31952271288664802 0 0.021222895191642659 -0.31174140345933132 0 0.046920362974131782 -0.31248804065403801 0 0.016960391964537861 -0.32131403068200648 0 0.023041050230396189 -0.31952271288664802 0 0.018137391087724029 -0.32955961534260442 0 0.016960391964537861 -0.32131403068200648 0 0.023041050230396189 -0.31952271288664802 0 0.016960391964537861 -0.32131403068200648 0 0.01493224331677509 -0.31155862923781052 0 0.021222895191642659 -0.31174140345933132 0 0.016960391964537861 -0.32131403068200648 0 0.023041050230396189 -0.31952271288664802 0 0.021222895191642659 -0.31174140345933132 0 0.023041050230396189 -0.31952271288664802 0 0.021222895191642659 -0.31174140345933132 0 0.035529557472333183 -0.33284205093582292 0 0.023041050230396189 -0.31952271288664802 0 0.029031734024320261 -0.31932394643025808 0 0.029600944704978718 -0.34759763918788039 0 0.023041050230396189 -0.31952271288664802 0 0.01725719870062976 -0.35312089284642129 0 0.029600944704978718 -0.34759763918788039 0 0.018137391087724029 -0.32955961534260442 0 0.01725719870062976 -0.35312089284642129 0 0.018137391087724029 -0.32955961534260442 0 0.01725719870062976 -0.35312089284642129 0 0.018137391087724029 -0.32955961534260442 0 0.012151420967018409 -0.33769724203945378 0 0.035529557472333183 -0.33284205093582292 0 0.029600944704978718 -0.34759763918788039 0 0.023041050230396189 -0.31952271288664802 0 0.029600944704978718 -0.34759763918788039 0 0.023041050230396189 -0.31952271288664802 0 0.018137391087724029 -0.32955961534260442 0 0.018137391087724029 -0.32955961534260442 0 0.012151420967018409 -0.33769724203945378 0 0.0073794465869194831 -0.3286180258103914 0 0.012151420967018409 -0.33769724203945378 0 0.0058316474928007643 -0.33949043415839791 0 0.0073794465869194831 -0.3286180258103914 0 0.01725719870062976 -0.35312089284642129 0 0.012151420967018409 -0.33769724203945378 0 0.0058316474928007643 -0.33949043415839791 0 -0.004218531549578703 -0.32490170144523861 0 0.0058316474928007643 -0.33949043415839791 0 -0.004218531549578703 -0.32490170144523861 0 0.0058316474928007643 -0.33949043415839791 0 0.0073794465869194831 -0.3286180258103914 0 -0.004218531549578703 -0.32490170144523861 0 0.0073794465869194831 -0.3286180258103914 0 0.01493224331677509 -0.31155862923781052 0 -0.004218531549578703 -0.32490170144523861 0 0.0073794465869194831 -0.3286180258103914 0 -0.004218531549578703 -0.32490170144523861 0 0.01493224331677509 -0.31155862923781052 0 0.016960391964537861 -0.32131403068200648 0 0.0073794465869194831 -0.3286180258103914 0 0.01493224331677509 -0.31155862923781052 0 -0.00070853124548116153 -0.31110418819556168 0 -0.004218531549578703 -0.32490170144523861 0 0.01493224331677509 -0.31155862923781052 0 0.016960391964537861 -0.32131403068200648 0 0.018137391087724029 -0.32955961534260442 0 0.0073794465869194831 -0.3286180258103914 0 -0.00070853124548116153 -0.31110418819556168 0 0.01493224331677509 -0.31155862923781052 0 -0.00070853124548116153 -0.31110418819556168 0 0.0075191925667170492 -0.29731185884956762 0 0.01493224331677509 -0.31155862923781052 0 0.0075191925667170492 -0.29731185884956762 0 0.01493224331677509 -0.31155862923781052 0 0.02030544500487072 -0.30781491554425061 0 -0.002289695127394202 -0.27949504580854201 0 0.0075191925667170492 -0.29731185884956762 0 0.014468280548655579 -0.28283311704865582 0 0.0075191925667170492 -0.29731185884956762 0 0.014468280548655579 -0.28283311704865582 0 0.02030544500487072 -0.30781491554425061 0 0.014468280548655579 -0.28283311704865582 0 0.028364294593627781 -0.2874338030346541 0 0.02030544500487072 -0.30781491554425061 0 0.028364294593627781 -0.2874338030346541 0 0.02030544500487072 -0.30781491554425061 0 0.044647350876495781 -0.29085498520314818 0 0.014468280548655579 -0.28283311704865582 0 0.02030544500487072 -0.30781491554425061 0 0.014468280548655579 -0.28283311704865582 0 0.028364294593627781 -0.2874338030346541 0 0.024101297975537849 -0.27409653664288308 0 0.02030544500487072 -0.30781491554425061 0 0.021222895191642659 -0.31174140345933132 0 0.046920362974131782 -0.31248804065403801 0 0.02030544500487072 -0.30781491554425061 0 0.021222895191642659 -0.31174140345933132 0 0.01493224331677509 -0.31155862923781052 0 0.02030544500487072 -0.30781491554425061 0 0.021222895191642659 -0.31174140345933132 0 0.01493224331677509 -0.31155862923781052 0 0.02030544500487072 -0.30781491554425061 0 0.01493224331677509 -0.31155862923781052 0 0.021222895191642659 -0.31174140345933132 0 0.02030544500487072 -0.30781491554425061 0 0.044647350876495781 -0.29085498520314818 0 0.021222895191642659 -0.31174140345933132 0 0.046920362974131782 -0.31248804065403801 0 0.02030544500487072 -0.30781491554425061 0 0.044647350876495781 -0.29085498520314818 0 0.046920362974131782 -0.31248804065403801 0 0.028364294593627781 -0.2874338030346541 0 0.044647350876495781 -0.29085498520314818 0 0.035826392276407958 -0.28009292774949213 0 0.068989256748119315 -0.27389505486204357 0 0.044647350876495781 -0.29085498520314818 0 0.064138839055048358 -0.29216451009532801 0 0.068989256748119315 -0.27389505486204357 0 0.044647350876495781 -0.29085498520314818 0 0.064138839055048358 -0.29216451009532801 0 0.044647350876495781 -0.29085498520314818 0 0.056569106368804398 -0.30053829332784299 0 0.044647350876495781 -0.29085498520314818 0 0.046920362974131782 -0.31248804065403801 0 0.056569106368804398 -0.30053829332784299 0 0.071155245933672534 -0.30534862001636992 0 0.046920362974131782 -0.31248804065403801 0 0.071155245933672534 -0.30534862001636992 0 0.046920362974131782 -0.31248804065403801 0 0.056569106368804398 -0.30053829332784299 0 0.068989256748119315 -0.27389505486204357 0 0.044647350876495781 -0.29085498520314818 0 0.04619262565997044 -0.26798638611728298 0 0.068989256748119315 -0.27389505486204357 0 0.05640129943037097 -0.25651824524065098 0 0.04619262565997044 -0.26798638611728298 0 0.04619262565997044 -0.26798638611728298 0 0.035826392276407958 -0.28009292774949213 0 0.024101297975537849 -0.27409653664288308 0 0.044647350876495781 -0.29085498520314818 0 0.04619262565997044 -0.26798638611728298 0 0.035826392276407958 -0.28009292774949213 0 0.04619262565997044 -0.26798638611728298 0 0.024101297975537849 -0.27409653664288308 0 0.035372617876501283 -0.24778024522219211 0 0.05640129943037097 -0.25651824524065098 0 0.04619262565997044 -0.26798638611728298 0 0.035372617876501283 -0.24778024522219211 0 0.0086311160924421124 -0.25785131855306048 0 0.01743691197648365 -0.2460258833281421 0 0.035372617876501283 -0.24778024522219211 0 0.024101297975537849 -0.27409653664288308 0 0.035372617876501283 -0.24778024522219211 0 0.0086311160924421124 -0.25785131855306048 0 0.035372617876501283 -0.24778024522219211 0 0.024101297975537849 -0.27409653664288308 0 0.0086311160924421124 -0.25785131855306048 0 0.035372617876501283 -0.24778024522219211 0 0.014468280548655579 -0.28283311704865582 0 0.024101297975537849 -0.27409653664288308 0 0.0086311160924421124 -0.25785131855306048 0 0.028364294593627781 -0.2874338030346541 0 0.035826392276407958 -0.28009292774949213 0 0.024101297975537849 -0.27409653664288308 0 0.014468280548655579 -0.28283311704865582 0 0.0079134815020535584 -0.26182395992502239 0 0.0086311160924421124 -0.25785131855306048 0 0.014468280548655579 -0.28283311704865582 0 0.0086311160924421124 -0.25785131855306048 0 -0.002289695127394202 -0.27949504580854201 0 0.014468280548655579 -0.28283311704865582 0 0.0079134815020535584 -0.26182395992502239 0 0.0086311160924421124 -0.25785131855306048 0 0.0068757901925850344 -0.25851238897460788 0 0.0079134815020535584 -0.26182395992502239 0 0.0086311160924421124 -0.25785131855306048 0 0.0068757901925850344 -0.25851238897460788 0 0.0079134815020535584 -0.26182395992502239 0 0.0068757901925850344 -0.25851238897460788 0 0.0086311160924421124 -0.25785131855306048 0 0.004980885318464523 -0.2422291221352724 0 0.0068757901925850344 -0.25851238897460788 0 0.002026553982466667 -0.2430370837286685 0 0.0086311160924421124 -0.25785131855306048 0 0.0068757901925850344 -0.25851238897460788 0 0.002026553982466667 -0.2430370837286685 0 0.002026553982466667 -0.2430370837286685 0 0.004980885318464523 -0.2422291221352724 0 0.001330654544487601 -0.226606925717484 0 0.004980885318464523 -0.2422291221352724 0 0.02076302861852642 -0.2362428474020406 0 0.01743691197648365 -0.2460258833281421 0 0.004980885318464523 -0.2422291221352724 0 0.001330654544487601 -0.226606925717484 0 0.02076302861852642 -0.2362428474020406 0 0.0086311160924421124 -0.25785131855306048 0 0.002026553982466667 -0.2430370837286685 0 0.004980885318464523 -0.2422291221352724 0 0.0086311160924421124 -0.25785131855306048 0 0.004980885318464523 -0.2422291221352724 0 0.01743691197648365 -0.2460258833281421 0 0.004980885318464523 -0.2422291221352724 0 0.001330654544487601 -0.226606925717484 0 0.001330654544487601 -0.226606925717484 0 0.02524021939576214 -0.22111011306623379 0 -0.002822682227650451 -0.22756177848272879 0 0.002026553982466667 -0.2430370837286685 0 0.001330654544487601 -0.226606925717484 0 0.001330654544487601 -0.226606925717484 0 0.02524021939576214 -0.22111011306623379 0 0.02076302861852642 -0.2362428474020406 0 0.02524021939576214 -0.22111011306623379 0 0.02076302861852642 -0.2362428474020406 0 0.042261201061768228 -0.23169677281858739 0 0.02076302861852642 -0.2362428474020406 0 0.01743691197648365 -0.2460258833281421 0 0.035372617876501283 -0.24778024522219211 0 -0.0045890132953122897 -0.2012720306251759 0 0.01036842782178438 -0.19116681808159569 0 0.0029389475103934371 -0.18109004508303289 0 -0.0045890132953122897 -0.2012720306251759 0 0.01036842782178438 -0.19116681808159569 0 0.014154783545635241 -0.20526643934488389 0 0.001330654544487601 -0.226606925717484 0 0.02524021939576214 -0.22111011306623379 0 0.014154783545635241 -0.20526643934488389 0 -0.0045890132953122897 -0.2012720306251759 0 0.001330654544487601 -0.226606925717484 0 0.014154783545635241 -0.20526643934488389 0 0.02524021939576214 -0.22111011306623379 0 0.014154783545635241 -0.20526643934488389 0 0.027245912039293291 -0.20223462939816661 0 0.01036842782178438 -0.19116681808159569 0 0.014154783545635241 -0.20526643934488389 0 0.024202523219577839 -0.1890954731930298 0 0.014154783545635241 -0.20526643934488389 0 0.027245912039293291 -0.20223462939816661 0 0.024202523219577839 -0.1890954731930298 0 0.027245912039293291 -0.20223462939816661 0 0.024202523219577839 -0.1890954731930298 0 0.034596402522729323 -0.18865471368278161 0 0.034596402522729323 -0.18865471368278161 0 0.042330216241665303 -0.1967844484496202 0 0.04394643892079593 -0.1801587649304553 0 0.027245912039293291 -0.20223462939816661 0 0.034596402522729323 -0.18865471368278161 0 0.042330216241665303 -0.1967844484496202 0 0.02524021939576214 -0.22111011306623379 0 0.027245912039293291 -0.20223462939816661 0 0.049149784247036601 -0.21561330041498339 0 0.027245912039293291 -0.20223462939816661 0 0.042330216241665303 -0.1967844484496202 0 0.049149784247036601 -0.21561330041498339 0 0.02524021939576214 -0.22111011306623379 0 0.049149784247036601 -0.21561330041498339 0 0.049149784247036601 -0.21561330041498339 0 0.058491536340525493 -0.19380216625924751 0 0.049149784247036601 -0.21561330041498339 0 0.060647024139996487 -0.21297008318826879 0 0.058491536340525493 -0.19380216625924751 0 0.049149784247036601 -0.21561330041498339 0 0.060647024139996487 -0.21297008318826879 0 0.049149784247036601 -0.21561330041498339 0 0.060647024139996487 -0.21297008318826879 0 0.057339765371434037 -0.22509651712962639 0 0.042330216241665303 -0.1967844484496202 0 0.058491536340525493 -0.19380216625924751 0 0.04394643892079593 -0.1801587649304553 0 0.042330216241665303 -0.1967844484496202 0 0.049149784247036601 -0.21561330041498339 0 0.058491536340525493 -0.19380216625924751 0 0.035372617876501283 -0.24778024522219211 0 0.042261201061768228 -0.23169677281858739 0 0.035372617876501283 -0.24778024522219211 0 0.042261201061768228 -0.23169677281858739 0 0.060863613423489893 -0.23818012300379091 0 0.02076302861852642 -0.2362428474020406 0 0.035372617876501283 -0.24778024522219211 0 0.042261201061768228 -0.23169677281858739 0 0.049149784247036601 -0.21561330041498339 0 0.042261201061768228 -0.23169677281858739 0 0.02524021939576214 -0.22111011306623379 0 0.049149784247036601 -0.21561330041498339 0 0.042261201061768228 -0.23169677281858739 0 0.042261201061768228 -0.23169677281858739 0 0.057339765371434037 -0.22509651712962639 0 0.060863613423489893 -0.23818012300379091 0 0.049149784247036601 -0.21561330041498339 0 0.042261201061768228 -0.23169677281858739 0 0.057339765371434037 -0.22509651712962639 0 0.035372617876501283 -0.24778024522219211 0 0.060863613423489893 -0.23818012300379091 0 0.05640129943037097 -0.25651824524065098 0 0.035372617876501283 -0.24778024522219211 0 0.060863613423489893 -0.23818012300379091 0 0.073187988238440096 -0.25082170968256229 0 0.05640129943037097 -0.25651824524065098 0 0.060863613423489893 -0.23818012300379091 0 0.073187988238440096 -0.25082170968256229 0 0.060863613423489893 -0.23818012300379091 0 0.086354608970477476 -0.22858000078538721 0 0.073187988238440096 -0.25082170968256229 0 0.093331162619742836 -0.25693512452093897 0 0.086354608970477476 -0.22858000078538721 0 0.057339765371434037 -0.22509651712962639 0 0.060863613423489893 -0.23818012300379091 0 0.070753921453982849 -0.21954719745920381 0 0.060863613423489893 -0.23818012300379091 0 0.086354608970477476 -0.22858000078538721 0 0.070753921453982849 -0.21954719745920381 0 0.060863613423489893 -0.23818012300379091 0 0.086354608970477476 -0.22858000078538721 0 0.060647024139996487 -0.21297008318826879 0 0.057339765371434037 -0.22509651712962639 0 0.070753921453982849 -0.21954719745920381 0 0.070753921453982849 -0.21954719745920381 0 0.069297147236432308 -0.2025777787903732 0 0.086372727705935542 -0.20279420775077939 0 0.060647024139996487 -0.21297008318826879 0 0.070753921453982849 -0.21954719745920381 0 0.069297147236432308 -0.2025777787903732 0 0.060647024139996487 -0.21297008318826879 0 0.058491536340525493 -0.19380216625924751 0 0.069297147236432308 -0.2025777787903732 0 0.069297147236432308 -0.2025777787903732 0 0.086372727705935542 -0.20279420775077939 0 0.072940402705846383 -0.18610670851996219 0 0.058491536340525493 -0.19380216625924751 0 0.069297147236432308 -0.2025777787903732 0 0.072940402705846383 -0.18610670851996219 0 0.086372727705935542 -0.20279420775077939 0 0.088719103639671767 -0.17791564675553029 0 0.072940402705846383 -0.18610670851996219 0 0.086372727705935542 -0.20279420775077939 0 0.10342206820615731 -0.18717171287228779 0 0.088719103639671767 -0.17791564675553029 0 0.086354608970477476 -0.22858000078538721 0 0.070753921453982849 -0.21954719745920381 0 0.086372727705935542 -0.20279420775077939 0 0.086354608970477476 -0.22858000078538721 0 0.086372727705935542 -0.20279420775077939 0 0.11054756834876189 -0.21357345352606119 0 0.11054756834876189 -0.21357345352606119 0 0.10342206820615731 -0.18717171287228779 0 0.086372727705935542 -0.20279420775077939 0 0.11054756834876189 -0.21357345352606119 0 0.10342206820615731 -0.18717171287228779 0 0.1177120361901524 -0.19106883601827759 0 0.11054756834876189 -0.21357345352606119 0 0.10342206820615731 -0.18717171287228779 0 0.1177120361901524 -0.19106883601827759 0 0.11054756834876189 -0.21357345352606119 0 0.1245632933318272 -0.2078907408761185 0 0.11054756834876189 -0.21357345352606119 0 0.1245632933318272 -0.2078907408761185 0 0.1238770052642828 -0.22151351484459869 0 0.086354608970477476 -0.22858000078538721 0 0.11054756834876189 -0.21357345352606119 0 0.11767306849136661 -0.23997519417983459 0 0.093331162619742836 -0.25693512452093897 0 0.086354608970477476 -0.22858000078538721 0 0.11767306849136661 -0.23997519417983459 0 0.11054756834876189 -0.21357345352606119 0 0.11767306849136661 -0.23997519417983459 0 0.1238770052642828 -0.22151351484459869 0 0.11767306849136661 -0.23997519417983459 0 0.13246219425714489 -0.22967104855885259 0 0.11054756834876189 -0.21357345352606119 0 0.1238770052642828 -0.22151351484459869 0 0.11767306849136661 -0.23997519417983459 0 0.1239921211567066 -0.26338884744051011 0 0.11767306849136661 -0.23997519417983459 0 0.1309402803326303 -0.24385119355868701 0 0.093331162619742836 -0.25693512452093897 0 0.11767306849136661 -0.23997519417983459 0 0.1031662369913626 -0.1427221046531359 0 0.096296568063552579 -0.16076997221851441 0 0.089171067920946284 -0.1343682315647414 0 0.1031662369913626 -0.1427221046531359 0 0.113696806790127 -0.1610317070856768 0 0.096296568063552579 -0.16076997221851441 0 0.1031662369913626 -0.1427221046531359 0 0.113696806790127 -0.1610317070856768 0 0.1031662369913626 -0.1427221046531359 0 0.095323417074787947 -0.12908571864871099 0 0.1031662369913626 -0.1427221046531359 0 0.089171067920946284 -0.1343682315647414 0 0.1031662369913626 -0.1427221046531359 0 0.095323417074787947 -0.12908571864871099 0 0.089171067920946284 -0.1343682315647414 0 0.1031662369913626 -0.1427221046531359 0 0.095323417074787947 -0.12908571864871099 0 0.1019426125771687 -0.1286662933549807 0 0.1019426125771687 -0.1286662933549807 0 0.1122908228784896 -0.12620491484857441 0 0.1234003454856759 -0.13941448647139151 0 0.1234003454856759 -0.13941448647139151 0 0.11698119558597379 -0.1178123318214921 0 0.1031662369913626 -0.1427221046531359 0 0.1019426125771687 -0.1286662933549807 0 0.1234003454856759 -0.13941448647139151 0 0.1019426125771687 -0.1286662933549807 0 0.1234003454856759 -0.13941448647139151 0 0.1234003454856759 -0.13941448647139151 0 0.11698119558597379 -0.1178123318214921 0 0.12781234694513771 -0.1416244610254779 0 0.1122908228784896 -0.12620491484857441 0 0.1234003454856759 -0.13941448647139151 0 0.11698119558597379 -0.1178123318214921 0 0.11698119558597379 -0.1178123318214921 0 0.12781234694513771 -0.1416244610254779 0 0.1031662369913626 -0.1427221046531359 0 0.113696806790127 -0.1610317070856768 0 0.1287771308784037 -0.15750880602893641 0 0.1031662369913626 -0.1427221046531359 0 0.1234003454856759 -0.13941448647139151 0 0.1287771308784037 -0.15750880602893641 0 0.1031662369913626 -0.1427221046531359 0 0.1287771308784037 -0.15750880602893641 0 0.113696806790127 -0.1610317070856768 0 0.1106951140346687 -0.17494117108284971 0 0.1242273765888936 -0.17934130951821639 0 0.113696806790127 -0.1610317070856768 0 0.13141843487734531 -0.16639749975848539 0 0.1287771308784037 -0.15750880602893641 0 0.113696806790127 -0.1610317070856768 0 0.1242273765888936 -0.17934130951821639 0 0.113696806790127 -0.1610317070856768 0 0.1242273765888936 -0.17934130951821639 0 0.13141843487734531 -0.16639749975848539 0 0.1177120361901524 -0.19106883601827759 0 0.1106951140346687 -0.17494117108284971 0 0.1242273765888936 -0.17934130951821639 0 0.1177120361901524 -0.19106883601827759 0 0.1106951140346687 -0.17494117108284971 0 0.10342206820615731 -0.18717171287228779 0 0.1177120361901524 -0.19106883601827759 0 0.1242273765888936 -0.17934130951821639 0 0.10342206820615731 -0.18717171287228779 0 0.096296568063552579 -0.16076997221851441 0 0.10342206820615731 -0.18717171287228779 0 0.096296568063552579 -0.16076997221851441 0 0.088719103639671767 -0.17791564675553029 0 0.1106951140346687 -0.17494117108284971 0 0.10342206820615731 -0.18717171287228779 0 0.096296568063552579 -0.16076997221851441 0 0.113696806790127 -0.1610317070856768 0 0.1106951140346687 -0.17494117108284971 0 0.096296568063552579 -0.16076997221851441 0 0.096296568063552579 -0.16076997221851441 0 0.088719103639671767 -0.17791564675553029 0 0.077742005063973219 -0.16908091893882099 0 0.096296568063552579 -0.16076997221851441 0 0.077742005063973219 -0.16908091893882099 0 0.071438097456838295 -0.15020275425227031 0 0.088719103639671767 -0.17791564675553029 0 0.072940402705846383 -0.18610670851996219 0 0.077742005063973219 -0.16908091893882099 0 0.058491536340525493 -0.19380216625924751 0 0.072940402705846383 -0.18610670851996219 0 0.060032692542333198 -0.17172779940761559 0 0.072940402705846383 -0.18610670851996219 0 0.077742005063973219 -0.16908091893882099 0 0.060032692542333198 -0.17172779940761559 0 0.077742005063973219 -0.16908091893882099 0 0.071438097456838295 -0.15020275425227031 0 0.060032692542333198 -0.17172779940761559 0 0.096296568063552579 -0.16076997221851441 0 0.089171067920946284 -0.1343682315647414 0 0.096296568063552579 -0.16076997221851441 0 0.071438097456838295 -0.15020275425227031 0 0.089171067920946284 -0.1343682315647414 0 0.086975650520041956 -0.1262336670169236 0 0.089171067920946284 -0.1343682315647414 0 0.073509648881928388 -0.12501975521709929 0 0.095323417074787947 -0.12908571864871099 0 0.1019426125771687 -0.1286662933549807 0 0.080484879668661607 -0.1179181002385699 0 0.089171067920946284 -0.1343682315647414 0 0.073509648881928388 -0.12501975521709929 0 0.086975650520041956 -0.1262336670169236 0 0.089171067920946284 -0.1343682315647414 0 0.095323417074787947 -0.12908571864871099 0 0.086975650520041956 -0.1262336670169236 0 0.089171067920946284 -0.1343682315647414 0 0.071438097456838295 -0.15020275425227031 0 0.089171067920946284 -0.1343682315647414 0 0.073509648881928388 -0.12501975521709929 0 0.071438097456838295 -0.15020275425227031 0 0.073509648881928388 -0.12501975521709929 0 0.054725241953945812 -0.13579404935705 0 0.054725241953945812 -0.13579404935705 0 0.057848229842911478 -0.11567127886945559 0 0.073509648881928388 -0.12501975521709929 0 0.054725241953945812 -0.13579404935705 0 0.057848229842911478 -0.11567127886945559 0 0.054725241953945812 -0.13579404935705 0 0.037380564469715057 -0.1261256253880533 0 0.057848229842911478 -0.11567127886945559 0 0.054725241953945812 -0.13579404935705 0 0.051602254064980278 -0.15591681984464451 0 0.038300822747345413 -0.1439764784060551 0 0.054725241953945812 -0.13579404935705 0 0.051602254064980278 -0.15591681984464451 0 0.071438097456838295 -0.15020275425227031 0 0.054725241953945812 -0.13579404935705 0 0.051602254064980278 -0.15591681984464451 0 0.038300822747345413 -0.1439764784060551 0 0.034025321265661122 -0.15662612046784299 0 0.022492865215250169 -0.1489649248547337 0 0.051602254064980278 -0.15591681984464451 0 0.038300822747345413 -0.1439764784060551 0 0.034025321265661122 -0.15662612046784299 0 0.038300822747345413 -0.1439764784060551 0 0.037380564469715057 -0.1261256253880533 0 0.01869130634485441 -0.1328359077828993 0 0.054725241953945812 -0.13579404935705 0 0.038300822747345413 -0.1439764784060551 0 0.037380564469715057 -0.1261256253880533 0 0.058491536340525493 -0.19380216625924751 0 0.060032692542333198 -0.17172779940761559 0 0.04394643892079593 -0.1801587649304553 0 0.060032692542333198 -0.17172779940761559 0 0.044314781407866398 -0.16648216036110691 0 0.04394643892079593 -0.1801587649304553 0 0.051602254064980278 -0.15591681984464451 0 0.060032692542333198 -0.17172779940761559 0 0.044314781407866398 -0.16648216036110691 0 0.071438097456838295 -0.15020275425227031 0 0.051602254064980278 -0.15591681984464451 0 0.060032692542333198 -0.17172779940761559 0 0.051602254064980278 -0.15591681984464451 0 0.034025321265661122 -0.15662612046784299 0 0.044314781407866398 -0.16648216036110691 0 0.034025321265661122 -0.15662612046784299 0 0.033364397855251533 -0.16907948542455431 0 0.044314781407866398 -0.16648216036110691 0 0.033364397855251533 -0.16907948542455431 0 0.044314781407866398 -0.16648216036110691 0 0.04394643892079593 -0.1801587649304553 0 0.033364397855251533 -0.16907948542455431 0 0.04394643892079593 -0.1801587649304553 0 0.02865066846451058 -0.17849971188887739 0 0.034596402522729323 -0.18865471368278161 0 0.04394643892079593 -0.1801587649304553 0 0.02865066846451058 -0.17849971188887739 0 0.024202523219577839 -0.1890954731930298 0 0.02865066846451058 -0.17849971188887739 0 0.01513489812862768 -0.1791101021618558 0 0.01036842782178438 -0.19116681808159569 0 0.024202523219577839 -0.1890954731930298 0 0.01513489812862768 -0.1791101021618558 0 0.024202523219577839 -0.1890954731930298 0 0.034596402522729323 -0.18865471368278161 0 0.02865066846451058 -0.17849971188887739 0 0.02865066846451058 -0.17849971188887739 0 0.019283047280122131 -0.16562878599188799 0 0.01513489812862768 -0.1791101021618558 0 0.034025321265661122 -0.15662612046784299 0 0.019283047280122131 -0.16562878599188799 0 0.022492865215250169 -0.1489649248547337 0 0.033364397855251533 -0.16907948542455431 0 0.02865066846451058 -0.17849971188887739 0 0.019283047280122131 -0.16562878599188799 0 0.034025321265661122 -0.15662612046784299 0 0.033364397855251533 -0.16907948542455431 0 0.019283047280122131 -0.16562878599188799 0 -0.009120358884200274 -0.15610952754552929 0 0.0077849110001112637 -0.1624931587298514 0 0.002663853123961456 -0.1529426494532633 0 0.019283047280122131 -0.16562878599188799 0 0.0077849110001112637 -0.1624931587298514 0 0.011540577362762349 -0.15229543351655439 0 0.0077849110001112637 -0.1624931587298514 0 0.00074115522763627817 -0.16843668964381511 0 0.0091765918293781595 -0.1713517563220886 0 -0.005223704370383303 -0.16456766706358791 0 0.0077849110001112637 -0.1624931587298514 0 0.00074115522763627817 -0.16843668964381511 0 0.019283047280122131 -0.16562878599188799 0 0.0077849110001112637 -0.1624931587298514 0 0.0091765918293781595 -0.1713517563220886 0 0.019283047280122131 -0.16562878599188799 0 0.0091765918293781595 -0.1713517563220886 0 0.01513489812862768 -0.1791101021618558 0 0.0091765918293781595 -0.1713517563220886 0 0.01513489812862768 -0.1791101021618558 0 0.0029389475103934371 -0.18109004508303289 0 0.00074115522763627817 -0.16843668964381511 0 0.0091765918293781595 -0.1713517563220886 0 0.0029389475103934371 -0.18109004508303289 0 0.01036842782178438 -0.19116681808159569 0 0.01513489812862768 -0.1791101021618558 0 0.0029389475103934371 -0.18109004508303289 0 0.019283047280122131 -0.16562878599188799 0 0.022492865215250169 -0.1489649248547337 0 0.011540577362762349 -0.15229543351655439 0 0.01869130634485441 -0.1328359077828993 0 0.022492865215250169 -0.1489649248547337 0 0.01360690957807382 -0.14227471594927971 0 0.038300822747345413 -0.1439764784060551 0 0.01869130634485441 -0.1328359077828993 0 0.022492865215250169 -0.1489649248547337 0 0.022492865215250169 -0.1489649248547337 0 0.01360690957807382 -0.14227471594927971 0 0.011540577362762349 -0.15229543351655439 0 0.01360690957807382 -0.14227471594927971 0 0.011540577362762349 -0.15229543351655439 0 0.003124973466612863 -0.141162190487363 0 0.0077849110001112637 -0.1624931587298514 0 0.011540577362762349 -0.15229543351655439 0 0.002663853123961456 -0.1529426494532633 0 0.011540577362762349 -0.15229543351655439 0 0.002663853123961456 -0.1529426494532633 0 0.003124973466612863 -0.141162190487363 0 0.01869130634485441 -0.1328359077828993 0 0.0087385974087558806 -0.131899221629761 0 0.013525158986644401 -0.11460098733589411 0 -0.0022308274732921948 -0.12926666779896781 0 0.0087385974087558806 -0.131899221629761 0 0.013525158986644401 -0.11460098733589411 0 -0.0022308274732921948 -0.12926666779896781 0 0.003124973466612863 -0.141162190487363 0 0.0087385974087558806 -0.131899221629761 0 0.01360690957807382 -0.14227471594927971 0 0.003124973466612863 -0.141162190487363 0 0.0087385974087558806 -0.131899221629761 0 0.01869130634485441 -0.1328359077828993 0 0.01360690957807382 -0.14227471594927971 0 0.0087385974087558806 -0.131899221629761 0 -0.0022308274732921948 -0.12926666779896781 0 0.013525158986644401 -0.11460098733589411 0 -0.0085479565991443043 -0.1135269043086076 0 -0.0022308274732921948 -0.12926666779896781 0 0.013525158986644401 -0.11460098733589411 0 0.013525158986644401 -0.11460098733589411 0 0.028747006246311262 -0.1160196738565842 0 0.030142591005924872 -0.099133472894232133 0 0.01869130634485441 -0.1328359077828993 0 0.013525158986644401 -0.11460098733589411 0 0.028747006246311262 -0.1160196738565842 0 0.037380564469715057 -0.1261256253880533 0 0.01869130634485441 -0.1328359077828993 0 0.028747006246311262 -0.1160196738565842 0 0.01869130634485441 -0.1328359077828993 0 0.013525158986644401 -0.11460098733589411 0 0.013525158986644401 -0.11460098733589411 0 0.030142591005924872 -0.099133472894232133 0 0.013525158986644401 -0.11460098733589411 0 0.024088194767013269 -0.095519536002706351 0 0.030142591005924872 -0.099133472894232133 0 0.024088194767013269 -0.095519536002706351 0 0.030142591005924872 -0.099133472894232133 0 -0.0085479565991443043 -0.1135269043086076 0 0.013525158986644401 -0.11460098733589411 0 0.0083525901003755742 -0.09634340085841693 0 0.013525158986644401 -0.11460098733589411 0 0.024088194767013269 -0.095519536002706351 0 0.0083525901003755742 -0.09634340085841693 0 0.013525158986644401 -0.11460098733589411 0 0.0083525901003755742 -0.09634340085841693 0 0.0083525901003755742 -0.09634340085841693 0 0.0031800212141037572 -0.078085814380940699 0 0.01632511522798364 -0.086954192307440059 0 0.0031800212141037572 -0.078085814380940699 0 0.022313598463937791 -0.076385262805471782 0 0.01632511522798364 -0.086954192307440059 0 0.0083525901003755742 -0.09634340085841693 0 0.0031800212141037572 -0.078085814380940699 0 -0.0037790930622907649 -0.053522268974112629 0 0.0031800212141037572 -0.078085814380940699 0 0.02255490580476369 -0.058219821895190732 0 0.0031800212141037572 -0.078085814380940699 0 0.02255490580476369 -0.058219821895190732 0 0.0031800212141037572 -0.078085814380940699 0 0.022313598463937791 -0.076385262805471782 0 0.02255490580476369 -0.058219821895190732 0 0.022313598463937791 -0.076385262805471782 0 0.041960820921788489 -0.068647028609848379 0 0.02255490580476369 -0.058219821895190732 0 0.024088194767013269 -0.095519536002706351 0 0.0083525901003755742 -0.09634340085841693 0 0.01632511522798364 -0.086954192307440059 0 0.022313598463937791 -0.076385262805471782 0 0.01632511522798364 -0.086954192307440059 0 0.031758082293954111 -0.086545175257248405 0 0.024088194767013269 -0.095519536002706351 0 0.030142591005924872 -0.099133472894232133 0 0.031758082293954111 -0.086545175257248405 0 0.024088194767013269 -0.095519536002706351 0 0.01632511522798364 -0.086954192307440059 0 0.031758082293954111 -0.086545175257248405 0 0.030142591005924872 -0.099133472894232133 0 0.045589466439551883 -0.084755513136616306 0 0.030142591005924872 -0.099133472894232133 0 0.031758082293954111 -0.086545175257248405 0 0.045589466439551883 -0.084755513136616306 0 0.031758082293954111 -0.086545175257248405 0 0.045589466439551883 -0.084755513136616306 0 0.041960820921788489 -0.068647028609848379 0 0.022313598463937791 -0.076385262805471782 0 0.031758082293954111 -0.086545175257248405 0 0.041960820921788489 -0.068647028609848379 0 0.045589466439551883 -0.084755513136616306 0 0.041960820921788489 -0.068647028609848379 0 0.061036341873178718 -0.070377553379000299 0 0.041960820921788489 -0.068647028609848379 0 0.061036341873178718 -0.070377553379000299 0 0.058077983566860468 -0.057043260910861322 0 0.045589466439551883 -0.084755513136616306 0 0.061036341873178718 -0.070377553379000299 0 0.05483629779298789 -0.092685008364802812 0 0.05927756526910663 -0.1064614484910765 0 0.063322394075225927 -0.080398855672593944 0 0.05927756526910663 -0.1064614484910765 0 0.063322394075225927 -0.080398855672593944 0 0.045589466439551883 -0.084755513136616306 0 0.05483629779298789 -0.092685008364802812 0 0.063322394075225927 -0.080398855672593944 0 0.045589466439551883 -0.084755513136616306 0 0.061036341873178718 -0.070377553379000299 0 0.063322394075225927 -0.080398855672593944 0 0.045589466439551883 -0.084755513136616306 0 0.05483629779298789 -0.092685008364802812 0 0.051155765388067723 -0.099124216158924569 0 0.05483629779298789 -0.092685008364802812 0 0.051155765388067723 -0.099124216158924569 0 0.05927756526910663 -0.1064614484910765 0 0.051155765388067723 -0.099124216158924569 0 0.056764429557759427 -0.1085232319496989 0 0.043995410424418541 -0.1074023758818433 0 0.051155765388067723 -0.099124216158924569 0 0.056764429557759427 -0.1085232319496989 0 0.05927756526910663 -0.1064614484910765 0 0.056764429557759427 -0.1085232319496989 0 0.05927756526910663 -0.1064614484910765 0 0.05927756526910663 -0.1064614484910765 0 0.057848229842911478 -0.11567127886945559 0 0.05927756526910663 -0.1064614484910765 0 0.057848229842911478 -0.11567127886945559 0 0.068621587080282209 -0.11375666094318861 0 0.056764429557759427 -0.1085232319496989 0 0.05927756526910663 -0.1064614484910765 0 0.057848229842911478 -0.11567127886945559 0 0.057848229842911478 -0.11567127886945559 0 0.043995410424418541 -0.1074023758818433 0 0.056764429557759427 -0.1085232319496989 0 0.057848229842911478 -0.11567127886945559 0 0.043995410424418541 -0.1074023758818433 0 0.037380564469715057 -0.1261256253880533 0 0.057848229842911478 -0.11567127886945559 0 0.043995410424418541 -0.1074023758818433 0 0.037380564469715057 -0.1261256253880533 0 0.028747006246311262 -0.1160196738565842 0 0.043995410424418541 -0.1074023758818433 0 0.030142591005924872 -0.099133472894232133 0 0.045589466439551883 -0.084755513136616306 0 0.051155765388067723 -0.099124216158924569 0 0.028747006246311262 -0.1160196738565842 0 0.030142591005924872 -0.099133472894232133 0 0.043995410424418541 -0.1074023758818433 0 0.030142591005924872 -0.099133472894232133 0 0.051155765388067723 -0.099124216158924569 0 0.043995410424418541 -0.1074023758818433 0 0.030142591005924872 -0.099133472894232133 0 0.043995410424418541 -0.1074023758818433 0 0.023416187961812149 0.0049090854646312932 0 0.021831519039859179 -0.01322823500894358 0 0.039265032356291078 -0.0079797892390842985 0 0.023416187961812149 0.0049090854646312932 0 0.021831519039859179 -0.01322823500894358 0 0.003746073912241465 -0.01532352594084075 0 0.021831519039859179 -0.01322823500894358 0 0.003746073912241465 -0.01532352594084075 0 0.0089674979323732702 -0.035150491006571347 0 0.021831519039859179 -0.01322823500894358 0 0.030452581159574381 -0.031692932428722002 0 0.0089674979323732702 -0.035150491006571347 0 0.021831519039859179 -0.01322823500894358 0 0.030452581159574381 -0.031692932428722002 0 0.039265032356291078 -0.0079797892390842985 0 0.030452581159574381 -0.031692932428722002 0 0.0089674979323732702 -0.035150491006571347 0 0.02255490580476369 -0.058219821895190732 0 -0.0037790930622907649 -0.053522268974112629 0 0.0089674979323732702 -0.035150491006571347 0 0.02255490580476369 -0.058219821895190732 0 0.041960820921788489 -0.068647028609848379 0 0.02255490580476369 -0.058219821895190732 0 0.047379462319543597 -0.047144415829038083 0 0.047379462319543597 -0.047144415829038083 0 0.058077983566860468 -0.057043260910861322 0 0.063530075412985929 -0.04304771311503558 0 0.041960820921788489 -0.068647028609848379 0 0.047379462319543597 -0.047144415829038083 0 0.058077983566860468 -0.057043260910861322 0 0.047379462319543597 -0.047144415829038083 0 0.055935386941554519 -0.023624245353986349 0 0.063530075412985929 -0.04304771311503558 0 0.030452581159574381 -0.031692932428722002 0 0.047379462319543597 -0.047144415829038083 0 0.055935386941554519 -0.023624245353986349 0 0.030452581159574381 -0.031692932428722002 0 0.02255490580476369 -0.058219821895190732 0 0.047379462319543597 -0.047144415829038083 0 0.030452581159574381 -0.031692932428722002 0 0.055935386941554519 -0.023624245353986349 0 0.039265032356291078 -0.0079797892390842985 0 0.056666250796032949 0.00047863979663177481 0 0.055935386941554519 -0.023624245353986349 0 0.07303362517206699 -0.0067381119874079659 0 0.056666250796032949 0.00047863979663177481 0 0.055935386941554519 -0.023624245353986349 0 0.039265032356291078 -0.0079797892390842985 0 0.092460286044345558 0.0061498007409879346 0 0.087877262388076111 -0.0061300667710458617 0 0.097881772945719092 -0.01459818465219498 0 0.087877262388076111 -0.0061300667710458617 0 0.07303362517206699 -0.0067381119874079659 0 0.089406955359666307 -0.024726590330559559 0 0.087877262388076111 -0.0061300667710458617 0 0.089406955359666307 -0.024726590330559559 0 0.097881772945719092 -0.01459818465219498 0 0.081365669178546221 0.0037532753784225259 0 0.087877262388076111 -0.0061300667710458617 0 0.07303362517206699 -0.0067381119874079659 0 0.07303362517206699 -0.0067381119874079659 0 0.07475842123943624 -0.031368852804396129 0 0.055935386941554519 -0.023624245353986349 0 0.07303362517206699 -0.0067381119874079659 0 0.07475842123943624 -0.031368852804396129 0 0.07303362517206699 -0.0067381119874079659 0 0.089406955359666307 -0.024726590330559559 0 0.07475842123943624 -0.031368852804396129 0 0.089406955359666307 -0.024726590330559559 0 0.085360927858097985 -0.039645602798193152 0 0.1033032598470926 -0.035346170045377837 0 0.085360927858097985 -0.039645602798193152 0 0.07475842123943624 -0.031368852804396129 0 0.080555988875364803 -0.05220865570864433 0 0.085360927858097985 -0.039645602798193152 0 0.08737870438686951 -0.048132929353856352 0 0.09479282027059438 -0.046570266064761459 0 0.085360927858097985 -0.039645602798193152 0 0.080555988875364803 -0.05220865570864433 0 0.08737870438686951 -0.048132929353856352 0 0.089406955359666307 -0.024726590330559559 0 0.085360927858097985 -0.039645602798193152 0 0.07475842123943624 -0.031368852804396129 0 0.055935386941554519 -0.023624245353986349 0 0.07475842123943624 -0.031368852804396129 0 0.063530075412985929 -0.04304771311503558 0 0.07475842123943624 -0.031368852804396129 0 0.076483217306805559 -0.055999593621384222 0 0.080555988875364803 -0.05220865570864433 0 0.07475842123943624 -0.031368852804396129 0 0.063530075412985929 -0.04304771311503558 0 0.076483217306805559 -0.055999593621384222 0 0.07475842123943624 -0.031368852804396129 0 0.076483217306805559 -0.055999593621384222 0 0.058077983566860468 -0.057043260910861322 0 0.063530075412985929 -0.04304771311503558 0 0.076483217306805559 -0.055999593621384222 0 0.061036341873178718 -0.070377553379000299 0 0.058077983566860468 -0.057043260910861322 0 0.076483217306805559 -0.055999593621384222 0 0.083389583774883175 -0.05933615940811808 0 0.080555988875364803 -0.05220865570864433 0 0.088805080543420914 -0.054107192843826472 0 0.076483217306805559 -0.055999593621384222 0 0.083389583774883175 -0.05933615940811808 0 0.080555988875364803 -0.05220865570864433 0 0.076483217306805559 -0.055999593621384222 0 0.080555988875364803 -0.05220865570864433 0 0.080555988875364803 -0.05220865570864433 0 0.088805080543420914 -0.054107192843826472 0 0.08737870438686951 -0.048132929353856352 0 0.088805080543420914 -0.054107192843826472 0 0.097219465623596818 -0.057394845285455652 0 0.09479282027059438 -0.046570266064761459 0 0.088805080543420914 -0.054107192843826472 0 0.08737870438686951 -0.048132929353856352 0 0.09479282027059438 -0.046570266064761459 0 0.088805080543420914 -0.054107192843826472 0 0.097219465623596818 -0.057394845285455652 0 0.08921301290606326 -0.063826651688228916 0 0.083389583774883175 -0.05933615940811808 0 0.088805080543420914 -0.054107192843826472 0 0.08921301290606326 -0.063826651688228916 0 0.097219465623596818 -0.057394845285455652 0 0.1049438737306676 -0.047624846420915343 0 0.09479282027059438 -0.046570266064761459 0 0.1049438737306676 -0.047624846420915343 0 0.10825081032519621 -0.057007717995782983 0 0.11263794504889919 -0.050350290736043683 0 0.097219465623596818 -0.057394845285455652 0 0.1049438737306676 -0.047624846420915343 0 0.10825081032519621 -0.057007717995782983 0 0.10825081032519621 -0.057007717995782983 0 0.1281672430992753 -0.056724984037222807 0 0.10825081032519621 -0.057007717995782983 0 0.11553988798513259 -0.060303683991628262 0 0.1281672430992753 -0.056724984037222807 0 0.10825081032519621 -0.057007717995782983 0 0.11263794504889919 -0.050350290736043683 0 0.1281672430992753 -0.056724984037222807 0 0.11553988798513259 -0.060303683991628262 0 0.1241627767177121 -0.069001674028911192 0 0.1281672430992753 -0.056724984037222807 0 0.11263794504889919 -0.050350290736043683 0 0.1180604249890001 -0.046398502562756593 0 0.1281672430992753 -0.056724984037222807 0 0.11880617523581991 -0.031968400396588492 0 0.1281672430992753 -0.056724984037222807 0 0.1049438737306676 -0.047624846420915343 0 0.11263794504889919 -0.050350290736043683 0 0.1121097866557368 -0.039288950915729003 0 0.1121097866557368 -0.039288950915729003 0 0.1180604249890001 -0.046398502562756593 0 0.11880617523581991 -0.031968400396588492 0 0.11263794504889919 -0.050350290736043683 0 0.1121097866557368 -0.039288950915729003 0 0.1180604249890001 -0.046398502562756593 0 0.1180604249890001 -0.046398502562756593 0 0.11880617523581991 -0.031968400396588492 0 0.1281672430992753 -0.056724984037222807 0 0.1121097866557368 -0.039288950915729003 0 0.11880617523581991 -0.031968400396588492 0 0.11071138488694771 -0.031927376415565423 0 0.085360927858097985 -0.039645602798193152 0 0.1033032598470926 -0.035346170045377837 0 0.09479282027059438 -0.046570266064761459 0 0.1121097866557368 -0.039288950915729003 0 0.11071138488694771 -0.031927376415565423 0 0.1033032598470926 -0.035346170045377837 0 0.1049438737306676 -0.047624846420915343 0 0.1121097866557368 -0.039288950915729003 0 0.1033032598470926 -0.035346170045377837 0 0.1049438737306676 -0.047624846420915343 0 0.1033032598470926 -0.035346170045377837 0 0.09479282027059438 -0.046570266064761459 0 0.1033032598470926 -0.035346170045377837 0 0.097881772945719092 -0.01459818465219498 0 0.089406955359666307 -0.024726590330559559 0 0.1033032598470926 -0.035346170045377837 0 0.097881772945719092 -0.01459818465219498 0 0.1033032598470926 -0.035346170045377837 0 0.1087007864595759 -0.022853471406631701 0 0.097881772945719092 -0.01459818465219498 0 0.11071138488694771 -0.031927376415565423 0 0.1033032598470926 -0.035346170045377837 0 0.1087007864595759 -0.022853471406631701 0 0.1136902610765962 -0.0084836116209242567 0 0.12872292898320101 -0.01272900780209028 0 0.12701599204340849 -0.02617431049847176 0 0.1136902610765962 -0.0084836116209242567 0 0.12701599204340849 -0.02617431049847176 0 0.11880617523581991 -0.031968400396588492 0 0.1087007864595759 -0.022853471406631701 0 0.12701599204340849 -0.02617431049847176 0 0.1087007864595759 -0.022853471406631701 0 0.1136902610765962 -0.0084836116209242567 0 0.12701599204340849 -0.02617431049847176 0 0.11880617523581991 -0.031968400396588492 0 0.11071138488694771 -0.031927376415565423 0 0.1087007864595759 -0.022853471406631701 0 0.1136902610765962 -0.0084836116209242567 0 0.12555281510781041 -0.002563318677247013 0 0.12872292898320101 -0.01272900780209028 0 0.1176134464119114 0.0034247542383424368 0 0.1136902610765962 -0.0084836116209242567 0 0.12555281510781041 -0.002563318677247013 0 0.092460286044345558 0.0061498007409879346 0 0.097881772945719092 -0.01459818465219498 0 0.10036453010978399 0.0092070872566232496 0 0.1136902610765962 -0.0084836116209242567 0 0.1007054653692496 -0.0025069258753060101 0 0.092460286044345558 0.0061498007409879346 0 0.097881772945719092 -0.01459818465219498 0 0.1007054653692496 -0.0025069258753060101 0 0.1087007864595759 -0.022853471406631701 0 0.1136902610765962 -0.0084836116209242567 0 0.097881772945719092 -0.01459818465219498 0 0.1136902610765962 -0.0084836116209242567 0 0.097881772945719092 -0.01459818465219498 0 0.1007054653692496 -0.0025069258753060101 0 0.080244869989736151 -0.1097174180237272 0 0.078890131872912189 -0.090371244837428144 0 0.08596658353852292 -0.098393177613770658 0 0.078890131872912189 -0.090371244837428144 0 0.095462002806488186 -0.092500378302461439 0 0.08596658353852292 -0.098393177613770658 0 0.080244869989736151 -0.1097174180237272 0 0.078890131872912189 -0.090371244837428144 0 0.08596658353852292 -0.098393177613770658 0 0.090054112919510876 -0.1040930837020262 0 0.080244869989736151 -0.1097174180237272 0 0.08596658353852292 -0.098393177613770658 0 0.090054112919510876 -0.1040930837020262 0 0.095462002806488186 -0.092500378302461439 0 0.090054112919510876 -0.1040930837020262 0 0.08962346390173502 -0.1134523930957487 0 0.094626638944312752 -0.1076069581511017 0 0.090054112919510876 -0.1040930837020262 0 0.08962346390173502 -0.1134523930957487 0 0.080244869989736151 -0.1097174180237272 0 0.1019426125771687 -0.1286662933549807 0 0.080484879668661607 -0.1179181002385699 0 0.1019426125771687 -0.1286662933549807 0 0.08962346390173502 -0.1134523930957487 0 0.080484879668661607 -0.1179181002385699 0 0.095323417074787947 -0.12908571864871099 0 0.086975650520041956 -0.1262336670169236 0 0.080484879668661607 -0.1179181002385699 0 0.086975650520041956 -0.1262336670169236 0 0.073509648881928388 -0.12501975521709929 0 0.080484879668661607 -0.1179181002385699 0 0.080484879668661607 -0.1179181002385699 0 0.080244869989736151 -0.1097174180237272 0 0.075548063247247749 -0.114084056948572 0 0.08962346390173502 -0.1134523930957487 0 0.080484879668661607 -0.1179181002385699 0 0.080244869989736151 -0.1097174180237272 0 0.080244869989736151 -0.1097174180237272 0 0.075548063247247749 -0.114084056948572 0 0.072387386092936157 -0.105861885679395 0 0.073509648881928388 -0.12501975521709929 0 0.057848229842911478 -0.11567127886945559 0 0.068621587080282209 -0.11375666094318861 0 0.073509648881928388 -0.12501975521709929 0 0.057848229842911478 -0.11567127886945559 0 0.075548063247247749 -0.114084056948572 0 0.068621587080282209 -0.11375666094318861 0 0.072387386092936157 -0.105861885679395 0 0.073509648881928388 -0.12501975521709929 0 0.080484879668661607 -0.1179181002385699 0 0.075548063247247749 -0.114084056948572 0 0.073509648881928388 -0.12501975521709929 0 0.075548063247247749 -0.114084056948572 0 0.068621587080282209 -0.11375666094318861 0 0.05927756526910663 -0.1064614484910765 0 0.068621587080282209 -0.11375666094318861 0 0.072387386092936157 -0.105861885679395 0 0.05927756526910663 -0.1064614484910765 0 0.072387386092936157 -0.105861885679395 0 0.078890131872912189 -0.090371244837428144 0 0.05927756526910663 -0.1064614484910765 0 0.078890131872912189 -0.090371244837428144 0 0.080244869989736151 -0.1097174180237272 0 0.072387386092936157 -0.105861885679395 0 0.078890131872912189 -0.090371244837428144 0 0.063322394075225927 -0.080398855672593944 0 0.077686674589859089 -0.073185419229406148 0 0.078890131872912189 -0.090371244837428144 0 0.05927756526910663 -0.1064614484910765 0 0.063322394075225927 -0.080398855672593944 0 0.078890131872912189 -0.090371244837428144 0 0.076483217306805559 -0.055999593621384222 0 0.077686674589859089 -0.073185419229406148 0 0.061036341873178718 -0.070377553379000299 0 0.076483217306805559 -0.055999593621384222 0 0.077686674589859089 -0.073185419229406148 0 0.061036341873178718 -0.070377553379000299 0 0.063322394075225927 -0.080398855672593944 0 0.077686674589859089 -0.073185419229406148 0 0.061036341873178718 -0.070377553379000299 0 0.076483217306805559 -0.055999593621384222 0 0.076483217306805559 -0.055999593621384222 0 0.083389583774883175 -0.05933615940811808 0 0.077686674589859089 -0.073185419229406148 0 0.077686674589859089 -0.073185419229406148 0 0.08921301290606326 -0.063826651688228916 0 0.097215009929022322 -0.075337464414528071 0 0.083389583774883175 -0.05933615940811808 0 0.077686674589859089 -0.073185419229406148 0 0.08921301290606326 -0.063826651688228916 0 0.078890131872912189 -0.090371244837428144 0 0.097215009929022322 -0.075337464414528071 0 0.078890131872912189 -0.090371244837428144 0 0.095462002806488186 -0.092500378302461439 0 0.097215009929022322 -0.075337464414528071 0 0.077686674589859089 -0.073185419229406148 0 0.078890131872912189 -0.090371244837428144 0 0.077686674589859089 -0.073185419229406148 0 0.078890131872912189 -0.090371244837428144 0 0.097215009929022322 -0.075337464414528071 0 0.095462002806488186 -0.092500378302461439 0 0.1048011084162517 -0.084177198653818855 0 0.097215009929022322 -0.075337464414528071 0 0.1048011084162517 -0.084177198653818855 0 0.097215009929022322 -0.075337464414528071 0 0.1112915616458766 -0.078896640811844887 0 0.095462002806488186 -0.092500378302461439 0 0.1048011084162517 -0.084177198653818855 0 0.1055939230167387 -0.091015856068657267 0 0.095462002806488186 -0.092500378302461439 0 0.1055939230167387 -0.091015856068657267 0 0.10365132815844171 -0.097119560888504208 0 0.1048011084162517 -0.084177198653818855 0 0.1055939230167387 -0.091015856068657267 0 0.11398214043131751 -0.086717616040316414 0 0.097219465623596818 -0.057394845285455652 0 0.10825081032519621 -0.057007717995782983 0 0.097215009929022322 -0.075337464414528071 0 0.11553988798513259 -0.060303683991628262 0 0.097215009929022322 -0.075337464414528071 0 0.11495722831062161 -0.071565267025928941 0 0.097219465623596818 -0.057394845285455652 0 0.08921301290606326 -0.063826651688228916 0 0.097215009929022322 -0.075337464414528071 0 0.11553988798513259 -0.060303683991628262 0 0.097215009929022322 -0.075337464414528071 0 0.10825081032519621 -0.057007717995782983 0 0.11553988798513259 -0.060303683991628262 0 0.097215009929022322 -0.075337464414528071 0 0.097215009929022322 -0.075337464414528071 0 0.11495722831062161 -0.071565267025928941 0 0.1112915616458766 -0.078896640811844887 0 0.11495722831062161 -0.071565267025928941 0 0.1112915616458766 -0.078896640811844887 0 0.12070258386021861 -0.079155416270414225 0 0.11495722831062161 -0.071565267025928941 0 0.1241627767177121 -0.069001674028911192 0 0.12070258386021861 -0.079155416270414225 0 0.11553988798513259 -0.060303683991628262 0 0.11495722831062161 -0.071565267025928941 0 0.1241627767177121 -0.069001674028911192 0 0.1055939230167387 -0.091015856068657267 0 0.11398214043131751 -0.086717616040316414 0 0.1100730352711945 -0.094564526458185416 0 0.11398214043131751 -0.086717616040316414 0 0.1165141193347274 -0.092329387356570605 0 0.1100730352711945 -0.094564526458185416 0 0.11398214043131751 -0.086717616040316414 0 0.1112915616458766 -0.078896640811844887 0 0.12070258386021861 -0.079155416270414225 0 0.1048011084162517 -0.084177198653818855 0 0.11398214043131751 -0.086717616040316414 0 0.1112915616458766 -0.078896640811844887 0 0.11398214043131751 -0.086717616040316414 0 0.12070258386021861 -0.079155416270414225 0 0.1229905472747234 -0.08911320528821802 0 0.11398214043131751 -0.086717616040316414 0 0.1165141193347274 -0.092329387356570605 0 0.1229905472747234 -0.08911320528821802 0 0.1165141193347274 -0.092329387356570605 0 0.1229905472747234 -0.08911320528821802 0 0.1190107543616742 -0.098922201639562571 0 0.1100730352711945 -0.094564526458185416 0 0.1089846085955951 -0.10023195127915011 0 0.11698119558597379 -0.1178123318214921 0 0.1190107543616742 -0.098922201639562571 0 0.1100730352711945 -0.094564526458185416 0 0.11698119558597379 -0.1178123318214921 0 0.1229905472747234 -0.08911320528821802 0 0.1190107543616742 -0.098922201639562571 0 0.1293956952596613 -0.100723637037024 0 0.1100730352711945 -0.094564526458185416 0 0.11698119558597379 -0.1178123318214921 0 0.1089846085955951 -0.10023195127915011 0 0.11698119558597379 -0.1178123318214921 0 0.1089846085955951 -0.10023195127915011 0 0.1061392561379063 -0.1096224706315838 0 0.11698119558597379 -0.1178123318214921 0 0.1190107543616742 -0.098922201639562571 0 0.11698119558597379 -0.1178123318214921 0 0.1293956952596613 -0.100723637037024 0 0.1165141193347274 -0.092329387356570605 0 0.1190107543616742 -0.098922201639562571 0 0.1100730352711945 -0.094564526458185416 0 0.1100730352711945 -0.094564526458185416 0 0.10365132815844171 -0.097119560888504208 0 0.1089846085955951 -0.10023195127915011 0 0.1055939230167387 -0.091015856068657267 0 0.1100730352711945 -0.094564526458185416 0 0.10365132815844171 -0.097119560888504208 0 0.10365132815844171 -0.097119560888504208 0 0.1044929668154362 -0.10256180528564229 0 0.099196674369801757 -0.1032732383433312 0 0.10365132815844171 -0.097119560888504208 0 0.1089846085955951 -0.10023195127915011 0 0.1044929668154362 -0.10256180528564229 0 0.1089846085955951 -0.10023195127915011 0 0.1044929668154362 -0.10256180528564229 0 0.1061392561379063 -0.1096224706315838 0 0.1044929668154362 -0.10256180528564229 0 0.099196674369801757 -0.1032732383433312 0 0.1061392561379063 -0.1096224706315838 0 0.094626638944312752 -0.1076069581511017 0 0.099196674369801757 -0.1032732383433312 0 0.097840646298626932 -0.1127566912175685 0 0.090054112919510876 -0.1040930837020262 0 0.094626638944312752 -0.1076069581511017 0 0.099196674369801757 -0.1032732383433312 0 0.099196674369801757 -0.1032732383433312 0 0.097840646298626932 -0.1127566912175685 0 0.1061392561379063 -0.1096224706315838 0 0.090054112919510876 -0.1040930837020262 0 0.095462002806488186 -0.092500378302461439 0 0.099196674369801757 -0.1032732383433312 0 0.095462002806488186 -0.092500378302461439 0 0.10365132815844171 -0.097119560888504208 0 0.099196674369801757 -0.1032732383433312 0 0.1019426125771687 -0.1286662933549807 0 0.097840646298626932 -0.1127566912175685 0 0.10683913786513979 -0.11892654774643339 0 0.1019426125771687 -0.1286662933549807 0 0.08962346390173502 -0.1134523930957487 0 0.097840646298626932 -0.1127566912175685 0 0.08962346390173502 -0.1134523930957487 0 0.094626638944312752 -0.1076069581511017 0 0.097840646298626932 -0.1127566912175685 0 0.097840646298626932 -0.1127566912175685 0 0.1061392561379063 -0.1096224706315838 0 0.10683913786513979 -0.11892654774643339 0 0.1019426125771687 -0.1286662933549807 0 0.1122908228784896 -0.12620491484857441 0 0.10683913786513979 -0.11892654774643339 0 0.1122908228784896 -0.12620491484857441 0 0.10683913786513979 -0.11892654774643339 0 0.11698119558597379 -0.1178123318214921 0 0.1061392561379063 -0.1096224706315838 0 0.10683913786513979 -0.11892654774643339 0 0.11698119558597379 -0.1178123318214921 0 0.11698119558597379 -0.1178123318214921 0 0.13532161198023529 -0.1181229213390191 0 0.1293956952596613 -0.100723637037024 0 0.11698119558597379 -0.1178123318214921 0 0.13532161198023529 -0.1181229213390191 0 0.13144096164319941 -0.12822461266311999 0 0.13532161198023529 -0.1181229213390191 0 0.144372798035135 -0.1232911766624581 0 0.13974220914875909 -0.1289266775748788 0 0.13532161198023529 -0.1181229213390191 0 0.144372798035135 -0.1232911766624581 0 0.1454952544628452 -0.10255120481730901 0 0.1454952544628452 -0.10255120481730901 0 0.15415926014463119 -0.12546431520735171 0 0.144372798035135 -0.1232911766624581 0 0.1454952544628452 -0.10255120481730901 0 0.15415926014463119 -0.12546431520735171 0 0.1454952544628452 -0.10255120481730901 0 0.168608152281333 -0.099456500563885136 0 0.15415926014463119 -0.12546431520735171 0 0.1454952544628452 -0.10255120481730901 0 0.1293956952596613 -0.100723637037024 0 0.13683124878106029 -0.079638094427265896 0 0.13532161198023529 -0.1181229213390191 0 0.1454952544628452 -0.10255120481730901 0 0.1293956952596613 -0.100723637037024 0 0.12070258386021861 -0.079155416270414225 0 0.1229905472747234 -0.08911320528821802 0 0.13683124878106029 -0.079638094427265896 0 0.1229905472747234 -0.08911320528821802 0 0.1293956952596613 -0.100723637037024 0 0.13683124878106029 -0.079638094427265896 0 0.1241627767177121 -0.069001674028911192 0 0.12070258386021861 -0.079155416270414225 0 0.13683124878106029 -0.079638094427265896 0 0.13683124878106029 -0.079638094427265896 0 0.14660148089406461 -0.069330277514656549 0 0.1281672430992753 -0.056724984037222807 0 0.1241627767177121 -0.069001674028911192 0 0.13683124878106029 -0.079638094427265896 0 0.1281672430992753 -0.056724984037222807 0 0.13683124878106029 -0.079638094427265896 0 0.1281672430992753 -0.056724984037222807 0 0.14660148089406461 -0.069330277514656549 0 0.15507767137184089 -0.085766518590194268 0 0.1627404109086196 -0.068109453633820524 0 0.14660148089406461 -0.069330277514656549 0 0.1627404109086196 -0.068109453633820524 0 0.15019083030952679 -0.056412336884779271 0 0.1454952544628452 -0.10255120481730901 0 0.13683124878106029 -0.079638094427265896 0 0.1454952544628452 -0.10255120481730901 0 0.13683124878106029 -0.079638094427265896 0 0.15507767137184089 -0.085766518590194268 0 0.13683124878106029 -0.079638094427265896 0 0.14660148089406461 -0.069330277514656549 0 0.15507767137184089 -0.085766518590194268 0 0.15507767137184089 -0.085766518590194268 0 0.1676122749591879 -0.080714979289929836 0 0.1627404109086196 -0.068109453633820524 0 0.15507767137184089 -0.085766518590194268 0 0.1676122749591879 -0.080714979289929836 0 0.168608152281333 -0.099456500563885136 0 0.1676122749591879 -0.080714979289929836 0 0.1627404109086196 -0.068109453633820524 0 0.16991857034145169 -0.063675209712704919 0 0.1627404109086196 -0.068109453633820524 0 0.16991857034145169 -0.063675209712704919 0 0.17232740027782981 -0.056003758530371532 0 0.1676122749591879 -0.080714979289929836 0 0.16991857034145169 -0.063675209712704919 0 0.18101882421080839 -0.079012400787208142 0 0.18101882421080839 -0.079012400787208142 0 0.17232740027782981 -0.056003758530371532 0 0.19796973637047771 -0.055734066865267183 0 0.16991857034145169 -0.063675209712704919 0 0.18101882421080839 -0.079012400787208142 0 0.17232740027782981 -0.056003758530371532 0 0.1676122749591879 -0.080714979289929836 0 0.18653958285758129 -0.093723588078606535 0 0.168608152281333 -0.099456500563885136 0 0.1676122749591879 -0.080714979289929836 0 0.18653958285758129 -0.093723588078606535 0 0.18101882421080839 -0.079012400787208142 0 0.18653958285758129 -0.093723588078606535 0 0.18348457649818811 -0.109136723505981 0 0.168608152281333 -0.099456500563885136 0 0.18348457649818811 -0.109136723505981 0 0.1776694467638433 -0.12280100559985881 0 0.19109425962300669 -0.12504432824142059 0 0.18348457649818811 -0.109136723505981 0 0.1776694467638433 -0.12280100559985881 0 0.168608152281333 -0.099456500563885136 0 0.168608152281333 -0.099456500563885136 0 0.15415926014463119 -0.12546431520735171 0 0.16662946774727069 -0.12565876388551009 0 0.168608152281333 -0.099456500563885136 0 0.15415926014463119 -0.12546431520735171 0 0.1776694467638433 -0.12280100559985881 0 0.168608152281333 -0.099456500563885136 0 0.16662946774727069 -0.12565876388551009 0 0.1454952544628452 -0.10255120481730901 0 0.15507767137184089 -0.085766518590194268 0 0.168608152281333 -0.099456500563885136 0 0.15228464608736131 0.0011191696354792479 0 0.15298180771633729 -0.01222060996385504 0 0.14334174217049819 -0.0035028606501129249 0 0.15228464608736131 0.0011191696354792479 0 0.15298180771633729 -0.01222060996385504 0 0.1591480597675845 -0.0053385285650451473 0 0.15298180771633729 -0.01222060996385504 0 0.14334174217049819 -0.0035028606501129249 0 0.14017767699092321 -0.013510403007356449 0 0.15298180771633729 -0.01222060996385504 0 0.14017767699092321 -0.013510403007356449 0 0.14718845398859531 -0.019471455949319139 0 0.14334174217049819 -0.0035028606501129249 0 0.1346171051573514 -0.0059698845886800361 0 0.14017767699092321 -0.013510403007356449 0 0.13529036253432411 0.0024561671934064948 0 0.14334174217049819 -0.0035028606501129249 0 0.1346171051573514 -0.0059698845886800361 0 0.13529036253432411 0.0024561671934064948 0 0.1346171051573514 -0.0059698845886800361 0 0.12555281510781041 -0.002563318677247013 0 0.1346171051573514 -0.0059698845886800361 0 0.12555281510781041 -0.002563318677247013 0 0.12872292898320101 -0.01272900780209028 0 0.12872292898320101 -0.01272900780209028 0 0.14017767699092321 -0.013510403007356449 0 0.13389575045650651 -0.020343760204761939 0 0.1346171051573514 -0.0059698845886800361 0 0.12872292898320101 -0.01272900780209028 0 0.14017767699092321 -0.013510403007356449 0 0.14017767699092321 -0.013510403007356449 0 0.13389575045650651 -0.020343760204761939 0 0.14168394273123511 -0.02642508516119426 0 0.12872292898320101 -0.01272900780209028 0 0.13389575045650651 -0.020343760204761939 0 0.12701599204340849 -0.02617431049847176 0 0.13389575045650651 -0.020343760204761939 0 0.12701599204340849 -0.02617431049847176 0 0.13394778725799911 -0.030678517344241211 0 0.13389575045650651 -0.020343760204761939 0 0.13394778725799911 -0.030678517344241211 0 0.14168394273123511 -0.02642508516119426 0 0.14168394273123511 -0.02642508516119426 0 0.14718845398859531 -0.019471455949319139 0 0.15391038851588579 -0.025729725664870799 0 0.14017767699092321 -0.013510403007356449 0 0.14168394273123511 -0.02642508516119426 0 0.14718845398859531 -0.019471455949319139 0 0.15298180771633729 -0.01222060996385504 0 0.14718845398859531 -0.019471455949319139 0 0.15391038851588579 -0.025729725664870799 0 0.14168394273123511 -0.02642508516119426 0 0.15391038851588579 -0.025729725664870799 0 0.15187901746561899 -0.035801347570794437 0 0.15187901746561899 -0.035801347570794437 0 0.15255855475296351 -0.04587809685026456 0 0.16128052530625811 -0.039854832078642349 0 0.15255855475296351 -0.04587809685026456 0 0.1405689793187849 -0.039345297216282632 0 0.14227536741347491 -0.049078598506402928 0 0.15187901746561899 -0.035801347570794437 0 0.15255855475296351 -0.04587809685026456 0 0.1405689793187849 -0.039345297216282632 0 0.14168394273123511 -0.02642508516119426 0 0.15187901746561899 -0.035801347570794437 0 0.1405689793187849 -0.039345297216282632 0 0.13394778725799911 -0.030678517344241211 0 0.12967435326352031 -0.038292900735018377 0 0.1405689793187849 -0.039345297216282632 0 0.11880617523581991 -0.031968400396588492 0 0.12967435326352031 -0.038292900735018377 0 0.1281672430992753 -0.056724984037222807 0 0.13394778725799911 -0.030678517344241211 0 0.14168394273123511 -0.02642508516119426 0 0.1405689793187849 -0.039345297216282632 0 0.11880617523581991 -0.031968400396588492 0 0.12701599204340849 -0.02617431049847176 0 0.12967435326352031 -0.038292900735018377 0 0.12701599204340849 -0.02617431049847176 0 0.13394778725799911 -0.030678517344241211 0 0.12967435326352031 -0.038292900735018377 0 0.1405689793187849 -0.039345297216282632 0 0.13540513645757871 -0.045918456629659092 0 0.14227536741347491 -0.049078598506402928 0 0.12967435326352031 -0.038292900735018377 0 0.1405689793187849 -0.039345297216282632 0 0.13540513645757871 -0.045918456629659092 0 0.12967435326352031 -0.038292900735018377 0 0.13540513645757871 -0.045918456629659092 0 0.1281672430992753 -0.056724984037222807 0 0.13540513645757871 -0.045918456629659092 0 0.1281672430992753 -0.056724984037222807 0 0.14227536741347491 -0.049078598506402928 0 0.1281672430992753 -0.056724984037222807 0 0.14227536741347491 -0.049078598506402928 0 0.15019083030952679 -0.056412336884779271 0 0.1281672430992753 -0.056724984037222807 0 0.15019083030952679 -0.056412336884779271 0 0.14660148089406461 -0.069330277514656549 0 0.1281672430992753 -0.056724984037222807 0 0.15019083030952679 -0.056412336884779271 0 0.15255855475296351 -0.04587809685026456 0 0.14227536741347491 -0.049078598506402928 0 0.15019083030952679 -0.056412336884779271 0 0.15255855475296351 -0.04587809685026456 0 0.15019083030952679 -0.056412336884779271 0 0.1656407082783338 -0.045835949294977862 0 0.15019083030952679 -0.056412336884779271 0 0.17232740027782981 -0.056003758530371532 0 0.15019083030952679 -0.056412336884779271 0 0.17232740027782981 -0.056003758530371532 0 0.1656407082783338 -0.045835949294977862 0 0.1627404109086196 -0.068109453633820524 0 0.15019083030952679 -0.056412336884779271 0 0.17232740027782981 -0.056003758530371532 0 0.1627404109086196 -0.068109453633820524 0 0.17232740027782981 -0.056003758530371532 0 0.16991857034145169 -0.063675209712704919 0 0.17232740027782981 -0.056003758530371532 0 0.17232740027782981 -0.056003758530371532 0 0.18917624809713279 -0.034597954623650513 0 0.19796973637047771 -0.055734066865267183 0 0.17232740027782981 -0.056003758530371532 0 0.19796973637047771 -0.055734066865267183 0 0.17232740027782981 -0.056003758530371532 0 0.17859683413829611 -0.036410812680003422 0 0.18917624809713279 -0.034597954623650513 0 0.17232740027782981 -0.056003758530371532 0 0.17859683413829611 -0.036410812680003422 0 0.17232740027782981 -0.056003758530371532 0 0.18917624809713279 -0.034597954623650513 0 0.17232740027782981 -0.056003758530371532 0 0.17859683413829611 -0.036410812680003422 0 0.1656407082783338 -0.045835949294977862 0 0.17859683413829611 -0.036410812680003422 0 0.16918628305655989 -0.036741076216865683 0 0.17336554108143881 -0.029423797880987441 0 0.16918628305655989 -0.036741076216865683 0 0.16128052530625811 -0.039854832078642349 0 0.1631769520235942 -0.030074690176272831 0 0.16918628305655989 -0.036741076216865683 0 0.1631769520235942 -0.030074690176272831 0 0.17336554108143881 -0.029423797880987441 0 0.17859683413829611 -0.036410812680003422 0 0.16918628305655989 -0.036741076216865683 0 0.1656407082783338 -0.045835949294977862 0 0.16918628305655989 -0.036741076216865683 0 0.1656407082783338 -0.045835949294977862 0 0.16128052530625811 -0.039854832078642349 0 0.15255855475296351 -0.04587809685026456 0 0.1656407082783338 -0.045835949294977862 0 0.16128052530625811 -0.039854832078642349 0 0.15187901746561899 -0.035801347570794437 0 0.16128052530625811 -0.039854832078642349 0 0.1631769520235942 -0.030074690176272831 0 0.15391038851588579 -0.025729725664870799 0 0.1631769520235942 -0.030074690176272831 0 0.16339976879262641 -0.016702734951397541 0 0.15391038851588579 -0.025729725664870799 0 0.15187901746561899 -0.035801347570794437 0 0.1631769520235942 -0.030074690176272831 0 0.15298180771633729 -0.01222060996385504 0 0.15391038851588579 -0.025729725664870799 0 0.16339976879262641 -0.016702734951397541 0 0.1631769520235942 -0.030074690176272831 0 0.16339976879262641 -0.016702734951397541 0 0.17141012425559299 -0.02239629759437654 0 0.16339976879262641 -0.016702734951397541 0 0.17141012425559299 -0.02239629759437654 0 0.17519148427296269 -0.014429423424557129 0 0.1631769520235942 -0.030074690176272831 0 0.17141012425559299 -0.02239629759437654 0 0.17336554108143881 -0.029423797880987441 0 0.17859683413829611 -0.036410812680003422 0 0.18478571929552201 -0.016967266589856159 0 0.17859683413829611 -0.036410812680003422 0 0.17336554108143881 -0.029423797880987441 0 0.18478571929552201 -0.016967266589856159 0 0.17859683413829611 -0.036410812680003422 0 0.18478571929552201 -0.016967266589856159 0 0.18917624809713279 -0.034597954623650513 0 0.17141012425559299 -0.02239629759437654 0 0.17336554108143881 -0.029423797880987441 0 0.18478571929552201 -0.016967266589856159 0 0.17141012425559299 -0.02239629759437654 0 0.18478571929552201 -0.016967266589856159 0 0.17519148427296269 -0.014429423424557129 0 0.18478571929552201 -0.016967266589856159 0 0.17519148427296269 -0.014429423424557129 0 0.17726644501879851 -0.0065323980714279391 0 0.18478571929552201 -0.016967266589856159 0 0.18315762052805379 -0.0041165686884425349 0 0.18944155683350289 -0.00055502235429191749 0 0.17519148427296269 -0.014429423424557129 0 0.17726644501879851 -0.0065323980714279391 0 0.16826045986974161 -0.0071095794764306419 0 0.18478571929552201 -0.016967266589856159 0 0.18315762052805379 -0.0041165686884425349 0 0.17726644501879851 -0.0065323980714279391 0 0.18548873345474071 0.0031530025798066851 0 0.18315762052805379 -0.0041165686884425349 0 0.18944155683350289 -0.00055502235429191749 0 0.17951826627113571 4.5490741635218962e-05 0 0.18315762052805379 -0.0041165686884425349 0 0.17726644501879851 -0.0065323980714279391 0 0.17951826627113571 4.5490741635218962e-05 0 0.18548873345474071 0.0031530025798066851 0 0.18315762052805379 -0.0041165686884425349 0 0.17293882762978949 0.0011622028259897731 0 0.17726644501879851 -0.0065323980714279391 0 0.16826045986974161 -0.0071095794764306419 0 0.17293882762978949 0.0011622028259897731 0 0.17951826627113571 4.5490741635218962e-05 0 0.17726644501879851 -0.0065323980714279391 0 0.17293882762978949 0.0011622028259897731 0 0.16280457073190571 0.00282618932945411 0 0.16826045986974161 -0.0071095794764306419 0 0.16339976879262641 -0.016702734951397541 0 0.17519148427296269 -0.014429423424557129 0 0.16826045986974161 -0.0071095794764306419 0 0.16339976879262641 -0.016702734951397541 0 0.16826045986974161 -0.0071095794764306419 0 0.1591480597675845 -0.0053385285650451473 0 0.15298180771633729 -0.01222060996385504 0 0.16339976879262641 -0.016702734951397541 0 0.1591480597675845 -0.0053385285650451473 0 0.16280457073190571 0.00282618932945411 0 0.16826045986974161 -0.0071095794764306419 0 0.1591480597675845 -0.0053385285650451473 0 0.16280457073190571 0.00282618932945411 0 0.15228464608736131 0.0011191696354792479 0 0.1591480597675845 -0.0053385285650451473 0 0.20203683603682501 0.0046696201351641431 0 0.2099219800704456 -0.0082995411657628797 0 0.20594454721319441 -0.013341550477150001 0 0.20203683603682501 0.0046696201351641431 0 0.20594454721319441 -0.013341550477150001 0 0.21634647327477949 -0.0090204466664684096 0 0.2099219800704456 -0.0082995411657628797 0 0.21139882810148999 -0.016307459228883169 0 0.2099219800704456 -0.0082995411657628797 0 0.20594454721319441 -0.013341550477150001 0 0.21139882810148999 -0.016307459228883169 0 0.2099219800704456 -0.0082995411657628797 0 0.20594454721319441 -0.013341550477150001 0 0.20203683603682501 0.0046696201351641431 0 0.21634647327477949 -0.0090204466664684096 0 0.2099219800704456 -0.0082995411657628797 0 0.19097460445274769 0.0024762795002911601 0 0.18478571929552201 -0.016967266589856159 0 0.18944155683350289 -0.00055502235429191749 0 0.19097460445274769 0.0024762795002911601 0 0.18478571929552201 -0.016967266589856159 0 0.20203683603682501 0.0046696201351641431 0 0.20594454721319441 -0.013341550477150001 0 0.1958488563728297 -0.007823880587712306 0 0.19097460445274769 0.0024762795002911601 0 0.18478571929552201 -0.016967266589856159 0 0.1958488563728297 -0.007823880587712306 0 0.19097460445274769 0.0024762795002911601 0 0.20203683603682501 0.0046696201351641431 0 0.1958488563728297 -0.007823880587712306 0 0.18478571929552201 -0.016967266589856159 0 0.1958488563728297 -0.007823880587712306 0 0.19393884274466969 -0.01818266306959224 0 0.20594454721319441 -0.013341550477150001 0 0.1958488563728297 -0.007823880587712306 0 0.19393884274466969 -0.01818266306959224 0 0.20594454721319441 -0.013341550477150001 0 0.19393884274466969 -0.01818266306959224 0 0.18917624809713279 -0.034597954623650513 0 0.18478571929552201 -0.016967266589856159 0 0.19393884274466969 -0.01818266306959224 0 0.18917624809713279 -0.034597954623650513 0 0.20594454721319441 -0.013341550477150001 0 0.2112000964539594 -0.037565089465716878 0 0.18917624809713279 -0.034597954623650513 0 0.20594454721319441 -0.013341550477150001 0 0.18917624809713279 -0.034597954623650513 0 0.21634647327477949 -0.0090204466664684096 0 0.21338231184753989 -0.034568298606150828 0 0.21634647327477949 -0.0090204466664684096 0 0.21139882810148999 -0.016307459228883169 0 0.21338231184753989 -0.034568298606150828 0 0.20594454721319441 -0.013341550477150001 0 0.21139882810148999 -0.016307459228883169 0 0.21338231184753989 -0.034568298606150828 0 0.20594454721319441 -0.013341550477150001 0 0.2112000964539594 -0.037565089465716878 0 0.21338231184753989 -0.034568298606150828 0 0.20594454721319441 -0.013341550477150001 0 0.2112000964539594 -0.037565089465716878 0 0.2112000964539594 -0.037565089465716878 0 0.21239540009208249 -0.043074405990937759 0 0.19796973637047771 -0.055734066865267183 0 0.2112000964539594 -0.037565089465716878 0 0.19796973637047771 -0.055734066865267183 0 0.21338231184753989 -0.034568298606150828 0 0.21239540009208249 -0.043074405990937759 0 0.21338231184753989 -0.034568298606150828 0 0.21564368447482221 -0.039140978246451803 0 0.21239540009208249 -0.043074405990937759 0 0.2112000964539594 -0.037565089465716878 0 0.21338231184753989 -0.034568298606150828 0 0.21239540009208249 -0.043074405990937759 0 0.2112000964539594 -0.037565089465716878 0 0.21338231184753989 -0.034568298606150828 0 0.21338231184753989 -0.034568298606150828 0 0.21564368447482221 -0.039140978246451803 0 0.22059706285837749 -0.035199639302039148 0 0.21564368447482221 -0.039140978246451803 0 0.21239540009208249 -0.043074405990937759 0 0.22009609233512981 -0.04722381623702393 0 0.2112000964539594 -0.037565089465716878 0 0.21239540009208249 -0.043074405990937759 0 0.2112000964539594 -0.037565089465716878 0 0.18917624809713279 -0.034597954623650513 0 0.19796973637047771 -0.055734066865267183 0 0.19796973637047771 -0.055734066865267183 0 0.21112599214580091 -0.05401532370364872 0 0.21154996622646041 -0.05554128173206118 0 0.21239540009208249 -0.043074405990937759 0 0.21154996622646041 -0.05554128173206118 0 0.21744813378952041 -0.066363140642938162 0 0.21239540009208249 -0.043074405990937759 0 0.22009609233512981 -0.04722381623702393 0 0.21744813378952041 -0.066363140642938162 0 0.19796973637047771 -0.055734066865267183 0 0.21154996622646041 -0.05554128173206118 0 0.19796973637047771 -0.055734066865267183 0 0.21154996622646041 -0.05554128173206118 0 0.20647048486115599 -0.066239774702948243 0 0.21239540009208249 -0.043074405990937759 0 0.21744813378952041 -0.066363140642938162 0 0.21239540009208249 -0.043074405990937759 0 0.19796973637047771 -0.055734066865267183 0 0.21112599214580091 -0.05401532370364872 0 0.21239540009208249 -0.043074405990937759 0 0.21112599214580091 -0.05401532370364872 0 0.21154996622646041 -0.05554128173206118 0 0.21239540009208249 -0.043074405990937759 0 0.21112599214580091 -0.05401532370364872 0 0.22009609233512981 -0.04722381623702393 0 0.22617896314681341 -0.054116107413986841 0 0.21744813378952041 -0.066363140642938162 0 0.22617896314681341 -0.054116107413986841 0 0.21744813378952041 -0.066363140642938162 0 0.23095146844923459 -0.064346629720249363 0 0.22009609233512981 -0.04722381623702393 0 0.22617896314681341 -0.054116107413986841 0 0.2281804342926298 -0.040848218313491967 0 0.22617896314681341 -0.054116107413986841 0 0.23850187459793731 -0.054788801005429072 0 0.2281804342926298 -0.040848218313491967 0 0.22617896314681341 -0.054116107413986841 0 0.23850187459793731 -0.054788801005429072 0 0.23095146844923459 -0.064346629720249363 0 0.25627944227590072 -0.05811554416993709 0 0.23850187459793731 -0.054788801005429072 0 0.24593811039432639 -0.042603703046392258 0 0.25627944227590072 -0.05811554416993709 0 0.23850187459793731 -0.054788801005429072 0 0.24349658013637851 -0.070306366754646743 0 0.24593811039432639 -0.042603703046392258 0 0.23868070045098039 -0.032539205375237558 0 0.2281804342926298 -0.040848218313491967 0 0.23850187459793731 -0.054788801005429072 0 0.24593811039432639 -0.042603703046392258 0 0.2281804342926298 -0.040848218313491967 0 0.25318771213297458 -0.031813158424755503 0 0.24593811039432639 -0.042603703046392258 0 0.23868070045098039 -0.032539205375237558 0 0.23868070045098039 -0.032539205375237558 0 0.2281804342926298 -0.040848218313491967 0 0.22549306379256021 -0.02719604405658671 0 0.22009609233512981 -0.04722381623702393 0 0.2281804342926298 -0.040848218313491967 0 0.22072993821490991 -0.039800046814337249 0 0.21564368447482221 -0.039140978246451803 0 0.22009609233512981 -0.04722381623702393 0 0.22072993821490991 -0.039800046814337249 0 0.21564368447482221 -0.039140978246451803 0 0.22072993821490991 -0.039800046814337249 0 0.22059706285837749 -0.035199639302039148 0 0.21338231184753989 -0.034568298606150828 0 0.22059706285837749 -0.035199639302039148 0 0.22549306379256021 -0.02719604405658671 0 0.2281804342926298 -0.040848218313491967 0 0.22059706285837749 -0.035199639302039148 0 0.22549306379256021 -0.02719604405658671 0 0.2281804342926298 -0.040848218313491967 0 0.22072993821490991 -0.039800046814337249 0 0.22059706285837749 -0.035199639302039148 0 0.21338231184753989 -0.034568298606150828 0 0.22549306379256021 -0.02719604405658671 0 0.22879168111475601 -0.013406933368109339 0 0.21634647327477949 -0.0090204466664684096 0 0.21338231184753989 -0.034568298606150828 0 0.22879168111475601 -0.013406933368109339 0 0.21338231184753989 -0.034568298606150828 0 0.22879168111475601 -0.013406933368109339 0 0.22549306379256021 -0.02719604405658671 0 0.24055664214415451 -0.021540917839981941 0 0.22879168111475601 -0.013406933368109339 0 0.25782763903335237 -0.017745730829302669 0 0.24055664214415451 -0.021540917839981941 0 0.24598182148935349 -0.0091049551621083507 0 0.23868070045098039 -0.032539205375237558 0 0.22549306379256021 -0.02719604405658671 0 0.24055664214415451 -0.021540917839981941 0 0.25318771213297458 -0.031813158424755503 0 0.23868070045098039 -0.032539205375237558 0 0.24055664214415451 -0.021540917839981941 0 0.24420105038197121 0.0077544318699326632 0 0.22879168111475601 -0.013406933368109339 0 0.24420105038197121 0.0077544318699326632 0 0.24598182148935349 -0.0091049551621083507 0 0.22879168111475601 -0.013406933368109339 0 0.24055664214415451 -0.021540917839981941 0 0.24598182148935349 -0.0091049551621083507 0 0.22879168111475601 -0.013406933368109339 0 0.24420105038197121 0.0077544318699326632 0 0.25853209477253369 -0.00058562564308046712 0 0.24598182148935349 -0.0091049551621083507 0 0.24420105038197121 0.0077544318699326632 0 0.22745096322130259 0.0026370498535452239 0 0.22879168111475601 -0.013406933368109339 0 0.22745096322130259 0.0026370498535452239 0 0.21634647327477949 -0.0090204466664684096 0 0.22879168111475601 -0.013406933368109339 0 0.21049581371102671 -0.1007318798516708 0 0.200623647057244 -0.11374833646244351 0 0.22755360118439441 -0.1129406099469394 0 0.200623647057244 -0.11374833646244351 0 0.22755360118439441 -0.1129406099469394 0 0.2070258768963614 -0.12957277823105279 0 0.200623647057244 -0.11374833646244351 0 0.2070258768963614 -0.12957277823105279 0 0.19109425962300669 -0.12504432824142059 0 0.18348457649818811 -0.109136723505981 0 0.200623647057244 -0.11374833646244351 0 0.19109425962300669 -0.12504432824142059 0 0.18653958285758129 -0.093723588078606535 0 0.21049581371102671 -0.1007318798516708 0 0.20200371070878281 -0.087487092032289715 0 0.18653958285758129 -0.093723588078606535 0 0.18348457649818811 -0.109136723505981 0 0.200623647057244 -0.11374833646244351 0 0.18653958285758129 -0.093723588078606535 0 0.21049581371102671 -0.1007318798516708 0 0.200623647057244 -0.11374833646244351 0 0.18653958285758129 -0.093723588078606535 0 0.20200371070878281 -0.087487092032289715 0 0.19709393044886811 -0.076532112419749276 0 0.18653958285758129 -0.093723588078606535 0 0.18101882421080839 -0.079012400787208142 0 0.19709393044886811 -0.076532112419749276 0 0.20200371070878281 -0.087487092032289715 0 0.19709393044886811 -0.076532112419749276 0 0.20856124368440271 -0.076995752052175917 0 0.19796973637047771 -0.055734066865267183 0 0.19709393044886811 -0.076532112419749276 0 0.20647048486115599 -0.066239774702948243 0 0.18101882421080839 -0.079012400787208142 0 0.19796973637047771 -0.055734066865267183 0 0.19709393044886811 -0.076532112419749276 0 0.18101882421080839 -0.079012400787208142 0 0.19796973637047771 -0.055734066865267183 0 0.20856124368440271 -0.076995752052175917 0 0.21744813378952041 -0.066363140642938162 0 0.22250086748695741 -0.089651875294938829 0 0.20647048486115599 -0.066239774702948243 0 0.20856124368440271 -0.076995752052175917 0 0.21744813378952041 -0.066363140642938162 0 0.19709393044886811 -0.076532112419749276 0 0.20647048486115599 -0.066239774702948243 0 0.20856124368440271 -0.076995752052175917 0 0.21154996622646041 -0.05554128173206118 0 0.20647048486115599 -0.066239774702948243 0 0.21744813378952041 -0.066363140642938162 0 0.20200371070878281 -0.087487092032289715 0 0.20856124368440271 -0.076995752052175917 0 0.22250086748695741 -0.089651875294938829 0 0.21049581371102671 -0.1007318798516708 0 0.20200371070878281 -0.087487092032289715 0 0.22250086748695741 -0.089651875294938829 0 0.22250086748695741 -0.089651875294938829 0 0.23146533181675649 -0.075927691992267704 0 0.24292960922169141 -0.088970447548565451 0 0.21744813378952041 -0.066363140642938162 0 0.22250086748695741 -0.089651875294938829 0 0.23146533181675649 -0.075927691992267704 0 0.21744813378952041 -0.066363140642938162 0 0.22250086748695741 -0.089651875294938829 0 0.21744813378952041 -0.066363140642938162 0 0.23146533181675649 -0.075927691992267704 0 0.23095146844923459 -0.064346629720249363 0 0.23850187459793731 -0.054788801005429072 0 0.23095146844923459 -0.064346629720249363 0 0.24349658013637851 -0.070306366754646743 0 0.23146533181675649 -0.075927691992267704 0 0.23095146844923459 -0.064346629720249363 0 0.24349658013637851 -0.070306366754646743 0 0.23146533181675649 -0.075927691992267704 0 0.24349658013637851 -0.070306366754646743 0 0.24292960922169141 -0.088970447548565451 0 0.26298180215003758 -0.085007192396248196 0 0.24349658013637851 -0.070306366754646743 0 0.24292960922169141 -0.088970447548565451 0 0.25057957794838692 -0.1102923714957873 0 0.24292960922169141 -0.088970447548565451 0 0.22755360118439441 -0.1129406099469394 0 0.21049581371102671 -0.1007318798516708 0 0.22250086748695741 -0.089651875294938829 0 0.22755360118439441 -0.1129406099469394 0 0.22250086748695741 -0.089651875294938829 0 0.22755360118439441 -0.1129406099469394 0 0.22250086748695741 -0.089651875294938829 0 0.24292960922169141 -0.088970447548565451 0 0.22755360118439441 -0.1129406099469394 0 0.25057957794838692 -0.1102923714957873 0 0.23817735374673621 -0.1355775505953265 0 0.25057957794838692 -0.1102923714957873 0 0.22755360118439441 -0.1129406099469394 0 0.23817735374673621 -0.1355775505953265 0 0.25057957794838692 -0.1102923714957873 0 0.25910853682594009 -0.12927302210649011 0 0.23817735374673621 -0.1355775505953265 0 0.25910853682594009 -0.12927302210649011 0 0.25068712750391681 -0.15004932800047041 0 0.23817735374673621 -0.1355775505953265 0 0.25068712750391681 -0.15004932800047041 0 0.2257751295450848 -0.16086272969486529 0 0.25068712750391681 -0.15004932800047041 0 0.23817735374673621 -0.1355775505953265 0 0.2257751295450848 -0.16086272969486529 0 0.23817735374673621 -0.1355775505953265 0 0.2257751295450848 -0.16086272969486529 0 0.23817735374673621 -0.1355775505953265 0 0.22331929686441421 -0.14583635104605941 0 0.2257751295450848 -0.16086272969486529 0 0.22331929686441421 -0.14583635104605941 0 0.22244161595917661 -0.1334052069411403 0 0.21310801387980149 -0.14456356923217431 0 0.22331929686441421 -0.14583635104605941 0 0.21709437119127201 -0.15477269876679051 0 0.2257751295450848 -0.16086272969486529 0 0.23817735374673621 -0.1355775505953265 0 0.22331929686441421 -0.14583635104605941 0 0.22244161595917661 -0.1334052069411403 0 0.22755360118439441 -0.1129406099469394 0 0.23817735374673621 -0.1355775505953265 0 0.22244161595917661 -0.1334052069411403 0 0.22755360118439441 -0.1129406099469394 0 0.22244161595917661 -0.1334052069411403 0 0.2070258768963614 -0.12957277823105279 0 0.2070258768963614 -0.12957277823105279 0 0.21310801387980149 -0.14456356923217431 0 0.20240472321350891 -0.14556715510242291 0 0.22244161595917661 -0.1334052069411403 0 0.2070258768963614 -0.12957277823105279 0 0.21310801387980149 -0.14456356923217431 0 0.22331929686441421 -0.14583635104605941 0 0.21310801387980149 -0.14456356923217431 0 0.21709437119127201 -0.15477269876679051 0 0.21310801387980149 -0.14456356923217431 0 0.21709437119127201 -0.15477269876679051 0 0.20688168423542211 -0.15668911470637761 0 0.21310801387980149 -0.14456356923217431 0 0.20240472321350891 -0.14556715510242291 0 0.20688168423542211 -0.15668911470637761 0 0.20240472321350891 -0.14556715510242291 0 0.1932075578928894 -0.15579661770779871 0 0.19327208431378659 -0.13945038454054159 0 0.1932075578928894 -0.15579661770779871 0 0.19327208431378659 -0.13945038454054159 0 0.1838173837385659 -0.14463539006998311 0 0.20240472321350891 -0.14556715510242291 0 0.1932075578928894 -0.15579661770779871 0 0.20688168423542211 -0.15668911470637761 0 0.2070258768963614 -0.12957277823105279 0 0.20240472321350891 -0.14556715510242291 0 0.19327208431378659 -0.13945038454054159 0 0.2070258768963614 -0.12957277823105279 0 0.19327208431378659 -0.13945038454054159 0 0.19109425962300669 -0.12504432824142059 0 0.19327208431378659 -0.13945038454054159 0 0.19109425962300669 -0.12504432824142059 0 0.1837839085384225 -0.13450667521693399 0 0.202246447475013 -0.1720542509283228 0 0.19505689621940819 -0.19358568206048671 0 0.1883248140622297 -0.17727910758785609 0 0.19505689621940819 -0.19358568206048671 0 0.18224447596321339 -0.18516447960639729 0 0.202246447475013 -0.1720542509283228 0 0.1883248140622297 -0.17727910758785609 0 0.19505689621940819 -0.19358568206048671 0 0.202246447475013 -0.1720542509283228 0 0.1883248140622297 -0.17727910758785609 0 0.18836599553386391 -0.16679130057470051 0 0.1932075578928894 -0.15579661770779871 0 0.202246447475013 -0.1720542509283228 0 0.18836599553386391 -0.16679130057470051 0 0.1932075578928894 -0.15579661770779871 0 0.202246447475013 -0.1720542509283228 0 0.20688168423542211 -0.15668911470637761 0 0.202246447475013 -0.1720542509283228 0 0.20688168423542211 -0.15668911470637761 0 0.21439073343785489 -0.16580428630381311 0 0.21439073343785489 -0.16580428630381311 0 0.2257751295450848 -0.16086272969486529 0 0.21265694594334819 -0.18760757936355801 0 0.21709437119127201 -0.15477269876679051 0 0.20688168423542211 -0.15668911470637761 0 0.21439073343785489 -0.16580428630381311 0 0.202246447475013 -0.1720542509283228 0 0.21439073343785489 -0.16580428630381311 0 0.21265694594334819 -0.18760757936355801 0 0.202246447475013 -0.1720542509283228 0 0.21265694594334819 -0.18760757936355801 0 0.19505689621940819 -0.19358568206048671 0 0.22981057981324829 -0.17925553161510721 0 0.23352203432399321 -0.1920521097713383 0 0.21265694594334819 -0.18760757936355801 0 0.2257751295450848 -0.16086272969486529 0 0.21265694594334819 -0.18760757936355801 0 0.22981057981324829 -0.17925553161510721 0 0.2257751295450848 -0.16086272969486529 0 0.21265694594334819 -0.18760757936355801 0 0.22981057981324829 -0.17925553161510721 0 0.2257751295450848 -0.16086272969486529 0 0.24392770488688501 -0.1698728098398691 0 0.21439073343785489 -0.16580428630381311 0 0.2257751295450848 -0.16086272969486529 0 0.21709437119127201 -0.15477269876679051 0 0.21439073343785489 -0.16580428630381311 0 0.2257751295450848 -0.16086272969486529 0 0.25068712750391681 -0.15004932800047041 0 0.2257751295450848 -0.16086272969486529 0 0.24392770488688501 -0.1698728098398691 0 0.22981057981324829 -0.17925553161510721 0 0.24392770488688501 -0.1698728098398691 0 0.24692725717625419 -0.1901265764764565 0 0.25591198848231672 -0.1768756352017222 0 0.24392770488688501 -0.1698728098398691 0 0.24692725717625419 -0.1901265764764565 0 0.22981057981324829 -0.17925553161510721 0 0.24692725717625419 -0.1901265764764565 0 0.23352203432399321 -0.1920521097713383 0 0.24692725717625419 -0.1901265764764565 0 0.2375152979366042 -0.20240040202740689 0 0.24872753118151561 -0.2092032725146819 0 0.24692725717625419 -0.1901265764764565 0 0.2375152979366042 -0.20240040202740689 0 0.23352203432399321 -0.1920521097713383 0 0.2375152979366042 -0.20240040202740689 0 0.24872753118151561 -0.2092032725146819 0 0.2313663467644369 -0.2139261942604648 0 0.24872753118151561 -0.2092032725146819 0 0.2313663467644369 -0.2139261942604648 0 0.23880106979870719 -0.22834063231700491 0 0.2375152979366042 -0.20240040202740689 0 0.2313663467644369 -0.2139261942604648 0 0.22453597544953149 -0.20205682887208179 0 0.2313663467644369 -0.2139261942604648 0 0.21834437034564441 -0.22302962163958859 0 0.21866303784458849 -0.21194760950134539 0 0.2313663467644369 -0.2139261942604648 0 0.22453597544953149 -0.20205682887208179 0 0.21866303784458849 -0.21194760950134539 0 0.22453597544953149 -0.20205682887208179 0 0.23352203432399321 -0.1920521097713383 0 0.21265694594334819 -0.18760757936355801 0 0.2375152979366042 -0.20240040202740689 0 0.22453597544953149 -0.20205682887208179 0 0.23352203432399321 -0.1920521097713383 0 0.25158726543732868 -0.24689565107307859 0 0.23880106979870719 -0.22834063231700491 0 0.2270383327424644 -0.24373571075628059 0 0.25158726543732868 -0.24689565107307859 0 0.24615734716411439 -0.25627103021590908 0 0.2270383327424644 -0.24373571075628059 0 0.25158726543732868 -0.24689565107307859 0 0.2270383327424644 -0.24373571075628059 0 0.25158726543732868 -0.24689565107307859 0 0.25925776925176969 -0.2336516429944229 0 0.23880106979870719 -0.22834063231700491 0 0.25564077173493671 -0.22071758991404561 0 0.24872753118151561 -0.2092032725146819 0 0.23880106979870719 -0.22834063231700491 0 0.25925776925176969 -0.2336516429944229 0 0.23880106979870719 -0.22834063231700491 0 0.23880106979870719 -0.22834063231700491 0 0.2270383327424644 -0.24373571075628059 0 0.21834437034564441 -0.22302962163958859 0 0.2313663467644369 -0.2139261942604648 0 0.23880106979870719 -0.22834063231700491 0 0.21834437034564441 -0.22302962163958859 0 0.23880106979870719 -0.22834063231700491 0 0.21834437034564441 -0.22302962163958859 0 0.21878799409030761 -0.25468654524785872 0 0.210513856545644 -0.25085675410529967 0 0.2270383327424644 -0.24373571075628059 0 0.2270383327424644 -0.24373571075628059 0 0.2024894000476001 -0.24057577043948311 0 0.2270383327424644 -0.24373571075628059 0 0.21834437034564441 -0.22302962163958859 0 0.2024894000476001 -0.24057577043948311 0 0.210513856545644 -0.25085675410529967 0 0.2270383327424644 -0.24373571075628059 0 0.2024894000476001 -0.24057577043948311 0 0.210513856545644 -0.25085675410529967 0 0.19943104744425461 -0.25601554228820061 0 0.2024894000476001 -0.24057577043948311 0 0.21834437034564441 -0.22302962163958859 0 0.197887670892582 -0.21771861096217091 0 0.21834437034564441 -0.22302962163958859 0 0.2024894000476001 -0.24057577043948311 0 0.197887670892582 -0.21771861096217091 0 0.2024894000476001 -0.24057577043948311 0 0.18868766073968549 -0.23647523885820571 0 0.197887670892582 -0.21771861096217091 0 0.18868766073968549 -0.23647523885820571 0 0.197887670892582 -0.21771861096217091 0 0.18285009404193819 -0.2301428900257603 0 0.18868766073968549 -0.23647523885820571 0 0.197887670892582 -0.21771861096217091 0 0.197887670892582 -0.21771861096217091 0 0.18775012131235161 -0.2154681772422081 0 0.18285009404193819 -0.2301428900257603 0 0.19160611785932369 -0.25011544887893922 0 0.2024894000476001 -0.24057577043948311 0 0.18868766073968549 -0.23647523885820571 0 0.19160611785932369 -0.25011544887893922 0 0.19943104744425461 -0.25601554228820061 0 0.2024894000476001 -0.24057577043948311 0 0.22453597544953149 -0.20205682887208179 0 0.21265694594334819 -0.18760757936355801 0 0.21259243604138969 -0.20453422561807369 0 0.21265694594334819 -0.18760757936355801 0 0.19953876234160811 -0.21435242903224899 0 0.21265694594334819 -0.18760757936355801 0 0.21259243604138969 -0.20453422561807369 0 0.19953876234160811 -0.21435242903224899 0 0.22453597544953149 -0.20205682887208179 0 0.21259243604138969 -0.20453422561807369 0 0.21866303784458849 -0.21194760950134539 0 0.21834437034564441 -0.22302962163958859 0 0.20760578234081439 -0.21358891752133671 0 0.197887670892582 -0.21771861096217091 0 0.21259243604138969 -0.20453422561807369 0 0.21866303784458849 -0.21194760950134539 0 0.20760578234081439 -0.21358891752133671 0 0.21834437034564441 -0.22302962163958859 0 0.21866303784458849 -0.21194760950134539 0 0.20760578234081439 -0.21358891752133671 0 0.20760578234081439 -0.21358891752133671 0 0.19953876234160811 -0.21435242903224899 0 0.21259243604138969 -0.20453422561807369 0 0.20760578234081439 -0.21358891752133671 0 0.19953876234160811 -0.21435242903224899 0 0.19953876234160811 -0.21435242903224899 0 0.18775012131235161 -0.2154681772422081 0 0.19505689621940819 -0.19358568206048671 0 0.18775012131235161 -0.2154681772422081 0 0.19505689621940819 -0.19358568206048671 0 0.18775012131235161 -0.2154681772422081 0 0.19505689621940819 -0.19358568206048671 0 0.18152577823641269 -0.20341956798430649 0 0.20760578234081439 -0.21358891752133671 0 0.19953876234160811 -0.21435242903224899 0 0.197887670892582 -0.21771861096217091 0 0.19953876234160811 -0.21435242903224899 0 0.197887670892582 -0.21771861096217091 0 0.19953876234160811 -0.21435242903224899 0 0.197887670892582 -0.21771861096217091 0 0.18775012131235161 -0.2154681772422081 0 0.197887670892582 -0.21771861096217091 0 0.18775012131235161 -0.2154681772422081 0 0.19953876234160811 -0.21435242903224899 0 0.18775012131235161 -0.2154681772422081 0 0.21265694594334819 -0.18760757936355801 0 0.19953876234160811 -0.21435242903224899 0 0.19505689621940819 -0.19358568206048671 0 0.19505689621940819 -0.19358568206048671 0 0.17697798411429669 -0.19361514034236521 0 0.18152577823641269 -0.20341956798430649 0 0.19505689621940819 -0.19358568206048671 0 0.17697798411429669 -0.19361514034236521 0 0.18224447596321339 -0.18516447960639729 0 0.17697798411429669 -0.19361514034236521 0 0.16967772079336141 -0.19308147409909679 0 0.17371198809374289 -0.18003161938752529 0 0.17697798411429669 -0.19361514034236521 0 0.1729585409548739 -0.20081576460657849 0 0.18152577823641269 -0.20341956798430649 0 0.17697798411429669 -0.19361514034236521 0 0.1729585409548739 -0.20081576460657849 0 0.16967772079336141 -0.19308147409909679 0 0.18775012131235161 -0.2154681772422081 0 0.1624883294981232 -0.2178591058426447 0 0.18775012131235161 -0.2154681772422081 0 0.17277154469166781 -0.21119791026290011 0 0.1624883294981232 -0.2178591058426447 0 0.18775012131235161 -0.2154681772422081 0 0.18152577823641269 -0.20341956798430649 0 0.17277154469166781 -0.21119791026290011 0 0.18775012131235161 -0.2154681772422081 0 0.17277154469166781 -0.21119791026290011 0 0.1729585409548739 -0.20081576460657849 0 0.18152577823641269 -0.20341956798430649 0 0.17277154469166781 -0.21119791026290011 0 0.17277154469166781 -0.21119791026290011 0 0.15767574441953189 -0.2072787073331514 0 0.17277154469166781 -0.21119791026290011 0 0.16520185966106271 -0.20733267742292949 0 0.15767574441953189 -0.2072787073331514 0 0.1729585409548739 -0.20081576460657849 0 0.17277154469166781 -0.21119791026290011 0 0.16520185966106271 -0.20733267742292949 0 0.17277154469166781 -0.21119791026290011 0 0.1624883294981232 -0.2178591058426447 0 0.15767574441953189 -0.2072787073331514 0 0.1624883294981232 -0.2178591058426447 0 0.15767574441953189 -0.2072787073331514 0 0.1624883294981232 -0.2178591058426447 0 0.15720356385080331 -0.212432796670732 0 0.15767574441953189 -0.2072787073331514 0 0.16520185966106271 -0.20733267742292949 0 0.16967772079336141 -0.19308147409909679 0 0.1595382311428305 -0.18361216873608541 0 0.16520185966106271 -0.20733267742292949 0 0.15767574441953189 -0.2072787073331514 0 0.1595382311428305 -0.18361216873608541 0 0.16520185966106271 -0.20733267742292949 0 0.1595382311428305 -0.18361216873608541 0 0.1729585409548739 -0.20081576460657849 0 0.16520185966106271 -0.20733267742292949 0 0.16967772079336141 -0.19308147409909679 0 0.17948765058678839 -0.2552318667542402 0 0.1709879900424553 -0.23654548629844269 0 0.17948765058678839 -0.2552318667542402 0 0.18868766073968549 -0.23647523885820571 0 0.177950066771525 -0.24481760280931239 0 0.17948765058678839 -0.2552318667542402 0 0.177950066771525 -0.24481760280931239 0 0.1709879900424553 -0.23654548629844269 0 0.17948765058678839 -0.2552318667542402 0 0.18868766073968549 -0.23647523885820571 0 0.19160611785932369 -0.25011544887893922 0 0.17948765058678839 -0.2552318667542402 0 0.18868766073968549 -0.23647523885820571 0 0.177950066771525 -0.24481760280931239 0 0.18285009404193819 -0.2301428900257603 0 0.18868766073968549 -0.23647523885820571 0 0.177950066771525 -0.24481760280931239 0 0.18285009404193819 -0.2301428900257603 0 0.177950066771525 -0.24481760280931239 0 0.18285009404193819 -0.2301428900257603 0 0.1709879900424553 -0.23654548629844269 0 0.1624883294981232 -0.2178591058426447 0 0.18285009404193819 -0.2301428900257603 0 0.1709879900424553 -0.23654548629844269 0 0.18775012131235161 -0.2154681772422081 0 0.1624883294981232 -0.2178591058426447 0 0.18285009404193819 -0.2301428900257603 0 0.18775012131235161 -0.2154681772422081 0 0.18285009404193819 -0.2301428900257603 0 0.1624883294981232 -0.2178591058426447 0 0.16209893023166849 -0.24518894207303349 0 0.1709879900424553 -0.23654548629844269 0 0.1624883294981232 -0.2178591058426447 0 0.1709879900424553 -0.23654548629844269 0 0.1624883294981232 -0.2178591058426447 0 0.16209893023166849 -0.24518894207303349 0 0.14729538362682529 -0.21931386955614571 0 0.17948765058678839 -0.2552318667542402 0 0.16209893023166849 -0.24518894207303349 0 0.1709879900424553 -0.23654548629844269 0 0.1501685993613987 -0.25482262446082821 0 0.16209893023166849 -0.24518894207303349 0 0.14413720217734441 -0.240736750921899 0 0.16209893023166849 -0.24518894207303349 0 0.14413720217734441 -0.240736750921899 0 0.14729538362682529 -0.21931386955614571 0 0.13946421199004549 -0.25270584464367291 0 0.1501685993613987 -0.25482262446082821 0 0.14413720217734441 -0.240736750921899 0 0.16209893023166849 -0.24518894207303349 0 0.14729538362682529 -0.21931386955614571 0 0.14413720217734441 -0.240736750921899 0 0.14729538362682529 -0.21931386955614571 0 0.13246219425714489 -0.22967104855885259 0 0.1238770052642828 -0.22151351484459869 0 0.14729538362682529 -0.21931386955614571 0 0.1238770052642828 -0.22151351484459869 0 0.14729538362682529 -0.21931386955614571 0 0.13246219425714489 -0.22967104855885259 0 0.14729538362682529 -0.21931386955614571 0 0.13246219425714489 -0.22967104855885259 0 0.14413720217734441 -0.240736750921899 0 0.13246219425714489 -0.22967104855885259 0 0.1309402803326303 -0.24385119355868701 0 0.11767306849136661 -0.23997519417983459 0 0.13246219425714489 -0.22967104855885259 0 0.11767306849136661 -0.23997519417983459 0 0.13246219425714489 -0.22967104855885259 0 0.1309402803326303 -0.24385119355868701 0 0.13946421199004549 -0.25270584464367291 0 0.14413720217734441 -0.240736750921899 0 0.1309402803326303 -0.24385119355868701 0 0.15767574441953189 -0.2072787073331514 0 0.1466535325074827 -0.18304653427415829 0 0.14605368555590539 -0.19492144739085651 0 0.1424264518888409 -0.2034424184138578 0 0.13723852232346681 -0.18598364917882271 0 0.15767574441953189 -0.2072787073331514 0 0.1466535325074827 -0.18304653427415829 0 0.1595382311428305 -0.18361216873608541 0 0.15767574441953189 -0.2072787073331514 0 0.14605368555590539 -0.19492144739085651 0 0.1466535325074827 -0.18304653427415829 0 0.14605368555590539 -0.19492144739085651 0 0.13723852232346681 -0.18598364917882271 0 0.1466535325074827 -0.18304653427415829 0 0.15767574441953189 -0.2072787073331514 0 0.14605368555590539 -0.19492144739085651 0 0.1424264518888409 -0.2034424184138578 0 0.15767574441953189 -0.2072787073331514 0 0.14985248294338921 -0.21123224785165909 0 0.14305860976959051 -0.2055697985991593 0 0.15720356385080331 -0.212432796670732 0 0.15767574441953189 -0.2072787073331514 0 0.14985248294338921 -0.21123224785165909 0 0.14729538362682529 -0.21931386955614571 0 0.14305860976959051 -0.2055697985991593 0 0.13572887334399669 -0.1993390719365285 0 0.15767574441953189 -0.2072787073331514 0 0.1424264518888409 -0.2034424184138578 0 0.14729538362682529 -0.21931386955614571 0 0.13572887334399669 -0.1993390719365285 0 0.1624883294981232 -0.2178591058426447 0 0.14729538362682529 -0.21931386955614571 0 0.15720356385080331 -0.212432796670732 0 0.14729538362682529 -0.21931386955614571 0 0.15720356385080331 -0.212432796670732 0 0.14729538362682529 -0.21931386955614571 0 0.14985248294338921 -0.21123224785165909 0 0.1624883294981232 -0.2178591058426447 0 0.15720356385080331 -0.212432796670732 0 0.14729538362682529 -0.21931386955614571 0 0.14729538362682529 -0.21931386955614571 0 0.14985248294338921 -0.21123224785165909 0 0.14305860976959051 -0.2055697985991593 0 0.15767574441953189 -0.2072787073331514 0 0.14305860976959051 -0.2055697985991593 0 0.1424264518888409 -0.2034424184138578 0 0.14305860976959051 -0.2055697985991593 0 0.1424264518888409 -0.2034424184138578 0 0.1238770052642828 -0.22151351484459869 0 0.14729538362682529 -0.21931386955614571 0 0.13284988550980209 -0.2120200405030212 0 0.14729538362682529 -0.21931386955614571 0 0.13284988550980209 -0.2120200405030212 0 0.13572887334399669 -0.1993390719365285 0 0.1245632933318272 -0.2078907408761185 0 0.1238770052642828 -0.22151351484459869 0 0.13284988550980209 -0.2120200405030212 0 0.1245632933318272 -0.2078907408761185 0 0.13284988550980209 -0.2120200405030212 0 0.13572887334399669 -0.1993390719365285 0 0.1424264518888409 -0.2034424184138578 0 0.13572887334399669 -0.1993390719365285 0 0.13723852232346681 -0.18598364917882271 0 0.1177120361901524 -0.19106883601827759 0 0.1245632933318272 -0.2078907408761185 0 0.13572887334399669 -0.1993390719365285 0 0.1242273765888936 -0.17934130951821639 0 0.13572887334399669 -0.1993390719365285 0 0.1242273765888936 -0.17934130951821639 0 0.13572887334399669 -0.1993390719365285 0 0.13723852232346681 -0.18598364917882271 0 0.1177120361901524 -0.19106883601827759 0 0.1242273765888936 -0.17934130951821639 0 0.13572887334399669 -0.1993390719365285 0 0.1424264518888409 -0.2034424184138578 0 0.13723852232346681 -0.18598364917882271 0 0.14305860976959051 -0.2055697985991593 0 0.1424264518888409 -0.2034424184138578 0 0.13572887334399669 -0.1993390719365285 0 0.13723852232346681 -0.18598364917882271 0 0.1466535325074827 -0.18304653427415829 0 0.13141843487734531 -0.16639749975848539 0 0.1242273765888936 -0.17934130951821639 0 0.13723852232346681 -0.18598364917882271 0 0.13141843487734531 -0.16639749975848539 0 0.13723852232346681 -0.18598364917882271 0 0.13141843487734531 -0.16639749975848539 0 0.1242273765888936 -0.17934130951821639 0 0.13141843487734531 -0.16639749975848539 0 0.1466535325074827 -0.18304653427415829 0 0.14942857266887941 -0.17064613516835311 0 0.1595382311428305 -0.18361216873608541 0 0.1466535325074827 -0.18304653427415829 0 0.14942857266887941 -0.17064613516835311 0 0.13563132059543381 -0.15881436121516501 0 0.1466535325074827 -0.18304653427415829 0 0.13563132059543381 -0.15881436121516501 0 0.15387460262459829 -0.15989166004924141 0 0.14942857266887941 -0.17064613516835311 0 0.1595382311428305 -0.18361216873608541 0 0.15387460262459829 -0.15989166004924141 0 0.14942857266887941 -0.17064613516835311 0 0.14604434185868739 -0.15819100086732549 0 0.15387460262459829 -0.15989166004924141 0 0.14604434185868739 -0.15819100086732549 0 0.1495069615456735 -0.15249130834373381 0 0.14942857266887941 -0.17064613516835311 0 0.14604434185868739 -0.15819100086732549 0 0.13563132059543381 -0.15881436121516501 0 0.1466535325074827 -0.18304653427415829 0 0.13563132059543381 -0.15881436121516501 0 0.13141843487734531 -0.16639749975848539 0 0.13563132059543381 -0.15881436121516501 0 0.13141843487734531 -0.16639749975848539 0 0.13141843487734531 -0.16639749975848539 0 0.1287771308784037 -0.15750880602893641 0 0.13141843487734531 -0.16639749975848539 0 0.1287771308784037 -0.15750880602893641 0 0.12781234694513771 -0.1416244610254779 0 0.13563132059543381 -0.15881436121516501 0 0.12781234694513771 -0.1416244610254779 0 0.1414001255486492 -0.1484305886381333 0 0.13563132059543381 -0.15881436121516501 0 0.13141843487734531 -0.16639749975848539 0 0.12781234694513771 -0.1416244610254779 0 0.1234003454856759 -0.13941448647139151 0 0.1287771308784037 -0.15750880602893641 0 0.12781234694513771 -0.1416244610254779 0 0.1234003454856759 -0.13941448647139151 0 0.1287771308784037 -0.15750880602893641 0 0.13563132059543381 -0.15881436121516501 0 0.12781234694513771 -0.1416244610254779 0 0.12781234694513771 -0.1416244610254779 0 0.14045945246551511 -0.14070612416196529 0 0.1414001255486492 -0.1484305886381333 0 0.12781234694513771 -0.1416244610254779 0 0.1414001255486492 -0.1484305886381333 0 0.13563132059543381 -0.15881436121516501 0 0.1414001255486492 -0.1484305886381333 0 0.11698119558597379 -0.1178123318214921 0 0.12781234694513771 -0.1416244610254779 0 0.13144096164319941 -0.12822461266311999 0 0.12781234694513771 -0.1416244610254779 0 0.13144096164319941 -0.12822461266311999 0 0.13711236549310829 -0.13537184716612649 0 0.1234003454856759 -0.13941448647139151 0 0.12781234694513771 -0.1416244610254779 0 0.12781234694513771 -0.1416244610254779 0 0.14045945246551511 -0.14070612416196529 0 0.13711236549310829 -0.13537184716612649 0 0.14045945246551511 -0.14070612416196529 0 0.13711236549310829 -0.13537184716612649 0 0.1427892250781366 -0.13570665507132371 0 0.13711236549310829 -0.13537184716612649 0 0.13974220914875909 -0.1289266775748788 0 0.1427892250781366 -0.13570665507132371 0 0.13144096164319941 -0.12822461266311999 0 0.13711236549310829 -0.13537184716612649 0 0.13974220914875909 -0.1289266775748788 0 0.13532161198023529 -0.1181229213390191 0 0.13144096164319941 -0.12822461266311999 0 0.13974220914875909 -0.1289266775748788 0 0.144372798035135 -0.1232911766624581 0 0.13974220914875909 -0.1289266775748788 0 0.14741629266274001 -0.1328428525472255 0 0.13974220914875909 -0.1289266775748788 0 0.14741629266274001 -0.1328428525472255 0 0.1427892250781366 -0.13570665507132371 0 0.14741629266274001 -0.1328428525472255 0 0.14821097410636511 -0.13617115136239771 0 0.1427892250781366 -0.13570665507132371 0 0.14741629266274001 -0.1328428525472255 0 0.14821097410636511 -0.13617115136239771 0 0.14045945246551511 -0.14070612416196529 0 0.14821097410636511 -0.13617115136239771 0 0.1427892250781366 -0.13570665507132371 0 0.14821097410636511 -0.13617115136239771 0 0.15415926014463119 -0.12546431520735171 0 0.1596441112936359 -0.13996973042358879 0 0.144372798035135 -0.1232911766624581 0 0.14741629266274001 -0.1328428525472255 0 0.15415926014463119 -0.12546431520735171 0 0.14741629266274001 -0.1328428525472255 0 0.14821097410636511 -0.13617115136239771 0 0.15415926014463119 -0.12546431520735171 0 0.14821097410636511 -0.13617115136239771 0 0.15415926014463119 -0.12546431520735171 0 0.15387460262459829 -0.15989166004924141 0 0.14821097410636511 -0.13617115136239771 0 0.15387460262459829 -0.15989166004924141 0 0.14821097410636511 -0.13617115136239771 0 0.15981631875328389 -0.14934375897024699 0 0.15387460262459829 -0.15989166004924141 0 0.14821097410636511 -0.13617115136239771 0 0.1495069615456735 -0.15249130834373381 0 0.14821097410636511 -0.13617115136239771 0 0.1414001255486492 -0.1484305886381333 0 0.1495069615456735 -0.15249130834373381 0 0.14604434185868739 -0.15819100086732549 0 0.1414001255486492 -0.1484305886381333 0 0.1495069615456735 -0.15249130834373381 0 0.1414001255486492 -0.1484305886381333 0 0.1495069615456735 -0.15249130834373381 0 0.14604434185868739 -0.15819100086732549 0 0.13563132059543381 -0.15881436121516501 0 0.1414001255486492 -0.1484305886381333 0 0.14045945246551511 -0.14070612416196529 0 0.14821097410636511 -0.13617115136239771 0 0.1414001255486492 -0.1484305886381333 0 0.14821097410636511 -0.13617115136239771 0 0.1414001255486492 -0.1484305886381333 0 0.14821097410636511 -0.13617115136239771 0 0.15981631875328389 -0.14934375897024699 0 0.1596441112936359 -0.13996973042358879 0 0.15387460262459829 -0.15989166004924141 0 0.15981631875328389 -0.14934375897024699 0 0.16382968106588169 -0.15868191832588319 0 0.15981631875328389 -0.14934375897024699 0 0.16535169748989709 -0.1458464103637184 0 0.1596441112936359 -0.13996973042358879 0 0.16535169748989709 -0.1458464103637184 0 0.1596441112936359 -0.13996973042358879 0 0.17306636825290991 -0.14060226763286601 0 0.16535169748989709 -0.1458464103637184 0 0.16868590590435281 -0.1533846943632183 0 0.17306636825290991 -0.14060226763286601 0 0.15981631875328389 -0.14934375897024699 0 0.16868590590435281 -0.1533846943632183 0 0.16382968106588169 -0.15868191832588319 0 0.15981631875328389 -0.14934375897024699 0 0.16535169748989709 -0.1458464103637184 0 0.16868590590435281 -0.1533846943632183 0 0.15415926014463119 -0.12546431520735171 0 0.1596441112936359 -0.13996973042358879 0 0.16662946774727069 -0.12565876388551009 0 0.15415926014463119 -0.12546431520735171 0 0.1596441112936359 -0.13996973042358879 0 0.1596441112936359 -0.13996973042358879 0 0.16662946774727069 -0.12565876388551009 0 0.17306636825290991 -0.14060226763286601 0 0.1776694467638433 -0.12280100559985881 0 0.16662946774727069 -0.12565876388551009 0 0.17306636825290991 -0.14060226763286601 0 0.1776694467638433 -0.12280100559985881 0 0.17306636825290991 -0.14060226763286601 0 0.1837839085384225 -0.13450667521693399 0 0.17306636825290991 -0.14060226763286601 0 0.1837839085384225 -0.13450667521693399 0 0.1838173837385659 -0.14463539006998311 0 0.19327208431378659 -0.13945038454054159 0 0.1837839085384225 -0.13450667521693399 0 0.1838173837385659 -0.14463539006998311 0 0.1776694467638433 -0.12280100559985881 0 0.19109425962300669 -0.12504432824142059 0 0.1837839085384225 -0.13450667521693399 0 0.16868590590435281 -0.1533846943632183 0 0.17306636825290991 -0.14060226763286601 0 0.18011859741388539 -0.15536156090827691 0 0.17306636825290991 -0.14060226763286601 0 0.1838173837385659 -0.14463539006998311 0 0.18011859741388539 -0.15536156090827691 0 0.1932075578928894 -0.15579661770779871 0 0.1838173837385659 -0.14463539006998311 0 0.18011859741388539 -0.15536156090827691 0 0.1932075578928894 -0.15579661770779871 0 0.18836599553386391 -0.16679130057470051 0 0.18011859741388539 -0.15536156090827691 0 0.18836599553386391 -0.16679130057470051 0 0.18011859741388539 -0.15536156090827691 0 0.17777068379353159 -0.1683790459244332 0 0.18011859741388539 -0.15536156090827691 0 0.17777068379353159 -0.1683790459244332 0 0.17147063125406251 -0.1612917141824485 0 0.16868590590435281 -0.1533846943632183 0 0.18011859741388539 -0.15536156090827691 0 0.17147063125406251 -0.1612917141824485 0 0.1883248140622297 -0.17727910758785609 0 0.18836599553386391 -0.16679130057470051 0 0.17777068379353159 -0.1683790459244332 0 0.1883248140622297 -0.17727910758785609 0 0.17777068379353159 -0.1683790459244332 0 0.17371198809374289 -0.18003161938752529 0 0.1883248140622297 -0.17727910758785609 0 0.18224447596321339 -0.18516447960639729 0 0.17371198809374289 -0.18003161938752529 0 0.17697798411429669 -0.19361514034236521 0 0.18224447596321339 -0.18516447960639729 0 0.17371198809374289 -0.18003161938752529 0 0.17777068379353159 -0.1683790459244332 0 0.17371198809374289 -0.18003161938752529 0 0.16530094679311089 -0.16949776406426051 0 0.17371198809374289 -0.18003161938752529 0 0.1595382311428305 -0.18361216873608541 0 0.16530094679311089 -0.16949776406426051 0 0.16967772079336141 -0.19308147409909679 0 0.17371198809374289 -0.18003161938752529 0 0.1595382311428305 -0.18361216873608541 0 0.15387460262459829 -0.15989166004924141 0 0.1595382311428305 -0.18361216873608541 0 0.16530094679311089 -0.16949776406426051 0 0.15387460262459829 -0.15989166004924141 0 0.1595382311428305 -0.18361216873608541 0 0.15387460262459829 -0.15989166004924141 0 0.16382968106588169 -0.15868191832588319 0 0.16530094679311089 -0.16949776406426051 0 0.16868590590435281 -0.1533846943632183 0 0.16382968106588169 -0.15868191832588319 0 0.17147063125406251 -0.1612917141824485 0 0.16382968106588169 -0.15868191832588319 0 0.17147063125406251 -0.1612917141824485 0 0.16530094679311089 -0.16949776406426051 0 0.17777068379353159 -0.1683790459244332 0 0.17147063125406251 -0.1612917141824485 0 0.16530094679311089 -0.16949776406426051 0 
</DataArray>
</Points>
<Cells>
<DataArray type="UInt32" Name="connectivity" format="ascii">
0 1 2 3 4 5 6 7 8 9 10 11 12 13 14 15 16 17 18 19 20 21 22 23 24 25 26 27 28 29 30 31 32 33 34 35 36 37 38 39 40 41 42 43 44 45 46 47 48 49 50 51 52 53 54 55 56 57 58 59 60 61 62 63 64 65 66 67 68 69 70 71 72 73 74 75 76 77 78 79 80 81 82 83 84 85 86 87 88 89 90 91 92 93 94 95 96 97 98 99 100 101 102 103 104 105 106 107 108 109 110 111 112 113 114 115 116 117 118 119 120 121 122 123 124 125 126 127 128 129 130 131 132 133 134 135 136 137 138 139 140 141 142 143 144 145 146 147 148 149 150 151 152 153 154 155 156 157 158 159 160 161 162 163 164 165 166 167 168 169 170 171 172 173 174 175 176 177 178 179 180 181 182 183 184 185 186 187 188 189 190 191 192 193 194 195 196 197 198 199 200 201 202 203 204 205 206 207 208 209 210 211 212 213 214 215 216 217 218 219 220 221 222 223 224 225 226 227 228 229 230 231 232 233 234 235 236 237 238 239 240 241 242 243 244 245 246 247 248 249 250 251 252 253 254 255 256 257 258 259 260 261 262 263 264 265 266 267 268 269 270 271 272 273 274 275 276 277 278 279 280 281 282 283 284 285 286 287 288 289 290 291 292 293 294 295 296 297 298 299 300 301 302 303 304 305 306 307 308 309 310 311 312 313 314 315 316 317 318 319 320 321 322 323 324 325 326 327 328 329 330 331 332 333 334 335 336 337 338 339 340 341 342 343 344 345 346 347 348 349 350 351 352 353 354 355 356 357 358 359 360 361 362 363 364 365 366 367 368 369 370 371 372 373 374 375 376 377 378 379 380 381 382 383 384 385 386 387 388 389 390 391 392 393 394 395 396 397 398 399 400 401 402 403 404 405 406 407 408 409 410 411 412 413 414 415 416 417 418 419 420 421 422 423 424 425 426 427 428 429 430 431 432 433 434 435 436 437 438 439 440 441 442 443 444 445 446 447 448 449 450 451 452 453 454 455 456 457 458 459 460 461 462 463 464 465 466 467 468 469 470 471 472 473 474 475 476 477 478 479 480 481 482 483 484 485 486 487 488 489 490 491 492 493 494 495 496 497 498 499 500 501 502 503 504 505 506 507 508 509 510 511 512 513 514 515 516 517 518 519 520 521 522 523 524 525 526 527 528 529 530 531 532 533 534 535 536 537 538 539 540 541 542 543 544 545 546 547 548 549 550 551 552 553 554 555 556 557 558 559 560 561 562 563 564 565 566 567 568 569 570 571 572 573 574 575 576 577 578 579 580 581 582 583 584 585 586 587 588 589 590 591 592 593 594 595 596 597 598 599 600 601 602 603 604 605 606 607 608 609 610 611 612 613 614 615 616 617 618 619 620 621 622 623 624 625 626 627 628 629 630 631 632 633 634 635 636 637 638 639 640 641 642 643 644 645 646 647 648 649 650 651 652 653 654 655 656 657 658 659 660 661 662 663 664 665 666 667 668 669 670 671 672 673 674 675 676 677 678 679 680 681 682 683 684 685 686 687 688 689 690 691 692 693 694 695 696 697 698 699 700 701 702 703 704 705 706 707 708 709 710 711 712 713 714 715 716 717 718 719 720 721 722 723 724 725 726 727 728 729 730 731 732 733 734 735 736 737 738 739 740 741 742 743 744 745 746 747 748 749 750 751 752 753 754 755 756 757 758 759 760 761 762 763 764 765 766 767 768 769 770 771 772 773 774 775 776 777 778 779 780 781 782 783 784 785 786 787 788 789 790 791 792 793 794 795 796 797 798 799 800 801 802 803 804 805 806 807 808 809 810 811 812 813 814 815 816 817 818 819 820 821 822 823 824 825 826 827 828 829 830 831 832 833 834 835 836 837 838 839 840 841 842 843 844 845 846 847 848 849 850 851 852 853 854 855 856 857 858 859 860 861 862 863 864 865 866 867 868 869 870 871 872 873 874 875 876 877 878 879 880 881 882 883 884 885 886 887 888 889 890 891 892 893 894 895 896 897 898 899 900 901 902 903 904 905 906 907 908 909 910 911 912 913 914 915 916 917 918 919 920 921 922 923 924 925 926 927 928 929 930 931 932 933 934 935 936 937 938 939 940 941 942 943 944 945 946 947 948 949 950 951 952 953 954 955 956 957 958 959 960 961 962 963 964 965 966 967 968 969 970 971 972 973 974 975 976 977 978 979 980 981 982 983 984 985 986 987 988 989 990 991 992 993 994 995 996 997 998 999 1000 1001 1002 1003 1004 1005 1006 1007 1008 1009 1010 1011 1012 1013 1014 1015 1016 1017 1018 1019 1020 1021 1022 1023 1024 1025 1026 1027 1028 1029 1030 1031 1032 1033 1034 1035 1036 1037 1038 1039 1040 1041 1042 1043 1044 1045 1046 1047 1048 1049 1050 1051 1052 1053 1054 1055 1056 1057 1058 1059 1060 1061 1062 1063 1064 1065 1066 1067 1068 1069 1070 1071 1072 1073 1074 1075 1076 1077 1078 1079 1080 1081 1082 1083 1084 1085 1086 1087 1088 1089 1090 1091 1092 1093 1094 1095 1096 1097 1098 1099 1100 1101 1102 1103 1104 1105 1106 1107 1108 1109 1110 1111 1112 1113 1114 1115 1116 1117 1118 1119 1120 1121 1122 1123 1124 1125 1126 1127 1128 1129 1130 1131 1132 1133 1134 1135 1136 1137 1138 1139 1140 1141 1142 1143 1144 1145 1146 1147 1148 1149 1150 1151 1152 1153 1154 1155 1156 1157 1158 1159 1160 1161 1162 1163 1164 1165 1166 1167 1168 1169 1170 1171 1172 1173 1174 1175 1176 1177 1178 1179 1180 1181 1182 1183 1184 1185 1186 1187 1188 1189 1190 1191 1192 1193 1194 1195 1196 1197 1198 1199 1200 1201 1202 1203 1204 1205 1206 1207 1208 1209 1210 1211 1212 1213 1214 1215 1216 1217 1218 1219 1220 1221 1222 1223 1224 1225 1226 1227 1228 1229 1230 1231 1232 1233 1234 1235 1236 1237 1238 1239 1240 1241 1242 1243 1244 1245 1246 1247 1248 1249 1250 1251 1252 1253 1254 1255 1256 1257 1258 1259 1260 1261 1262 1263 1264 1265 1266 1267 1268 1269 1270 1271 1272 1273 1274 1275 1276 1277 1278 1279 1280 1281 1282 1283 1284 1285 1286 1287 1288 1289 1290 1291 1292 1293 1294 1295 1296 1297 1298 1299 1300 1301 1302 1303 1304 1305 1306 1307 1308 1309 1310 1311 1312 1313 1314 1315 1316 1317 1318 1319 1320 1321 1322 1323 1324 1325 1326 1327 1328 1329 1330 1331 1332 1333 1334 1335 1336 1337 1338 1339 1340 1341 1342 1343 1344 1345 1346 1347 1348 1349 1350 1351 1352 1353 1354 1355 1356 1357 1358 1359 1360 1361 1362 1363 1364 1365 1366 1367 1368 1369 1370 1371 1372 1373 1374 1375 1376 1377 1378 1379 1380 1381 1382 1383 1384 1385 1386 1387 1388 1389 1390 1391 1392 1393 1394 1395 1396 1397 1398 1399 1400 1401 1402 1403 1404 1405 1406 1407 1408 1409 1410 1411 1412 1413 1414 1415 1416 1417 1418 1419 1420 1421 1422 1423 1424 1425 1426 1427 1428 1429 1430 1431 1432 1433 1434 1435 1436 1437 1438 1439 1440 1441 1442 1443 1444 1445 1446 1447 1448 1449 1450 1451 1452 1453 1454 1455 1456 1457 1458 1459 1460 1461 1462 1463 1464 1465 1466 1467 1468 1469 1470 1471 1472 1473 1474 1475 1476 1477 1478 1479 1480 1481 1482 1483 1484 1485 1486 1487 1488 1489 1490 1491 1492 1493 1494 1495 1496 1497 1498 1499 1500 1501 1502 1503 1504 1505 1506 1507 1508 1509 1510 1511 1512 1513 1514 1515 1516 1517 1518 1519 1520 1521 1522 1523 1524 1525 1526 1527 1528 1529 1530 1531 1532 1533 1534 1535 1536 1537 1538 1539 1540 1541 1542 1543 1544 1545 1546 1547 1548 1549 1550 1551 1552 1553 1554 1555 1556 1557 1558 1559 1560 1561 1562 1563 1564 1565 1566 1567 1568 1569 1570 1571 1572 1573 1574 1575 1576 1577 1578 1579 1580 1581 1582 1583 1584 1585 1586 1587 1588 1589 1590 1591 1592 1593 1594 1595 1596 1597 1598 1599 1600 1601 1602 1603 1604 1605 1606 1607 1608 1609 1610 1611 1612 1613 1614 1615 1616 1617 1618 1619 1620 1621 1622 1623 1624 1625 1626 1627 1628 1629 1630 1631 1632 1633 1634 1635 1636 1637 1638 1639 1640 1641 1642 1643 1644 1645 1646 1647 1648 1649 1650 1651 1652 1653 1654 1655 1656 1657 1658 1659 1660 1661 1662 1663 1664 1665 1666 1667 1668 1669 1670 1671 1672 1673 1674 1675 1676 1677 1678 1679 1680 1681 1682 1683 1684 1685 1686 1687 1688 1689 1690 1691 1692 1693 1694 1695 1696 1697 1698 1699 1700 1701 1702 1703 1704 1705 1706 1707 1708 1709 1710 1711 1712 1713 1714 1715 1716 1717 1718 1719 1720 1721 1722 1723 1724 1725 1726 1727 1728 1729 1730 1731 1732 1733 1734 1735 1736 1737 1738 1739 1740 1741 1742 1743 1744 1745 1746 1747 1748 1749 1750 1751 1752 1753 1754 1755 1756 1757 1758 1759 1760 1761 1762 1763 1764 1765 1766 1767 1768 1769 1770 1771 1772 1773 1774 1775 1776 1777 1778 1779 1780 1781 1782 1783 1784 1785 1786 1787 1788 1789 1790 1791 1792 1793 1794 1795 1796 1797 1798 1799 1800 1801 1802 1803 1804 1805 1806 1807 1808 1809 1810 1811 1812 1813 1814 1815 1816 1817 1818 1819 1820 1821 1822 1823 1824 1825 1826 1827 1828 1829 1830 1831 1832 1833 1834 1835 1836 1837 1838 1839 1840 1841 1842 1843 1844 1845 1846 1847 1848 1849 1850 1851 1852 1853 1854 1855 1856 1857 1858 1859 1860 1861 1862 1863 1864 1865 1866 1867 1868 1869 1870 1871 1872 1873 1874 1875 1876 1877 1878 1879 1880 1881 1882 1883 1884 1885 1886 1887 1888 1889 1890 1891 1892 1893 1894 1895 1896 1897 1898 1899 1900 1901 1902 1903 1904 1905 1906 1907 1908 1909 1910 1911 1912 1913 1914 1915 1916 1917 1918 1919 1920 1921 1922 1923 1924 1925 1926 1927 1928 1929 1930 1931 1932 1933 1934 1935 1936 1937 1938 1939 1940 1941 1942 1943 1944 1945 1946 1947 1948 1949 1950 1951 1952 1953 1954 1955 1956 1957 1958 1959 1960 1961 1962 1963 1964 1965 1966 1967 1968 1969 1970 1971 1972 1973 1974 1975 1976 1977 1978 1979 1980 1981 1982 1983 1984 1985 1986 1987 1988 1989 1990 1991 1992 1993 1994 1995 1996 1997 1998 1999 2000 2001 2002 2003 2004 2005 2006 2007 2008 2009 2010 2011 2012 2013 2014 2015 2016 2017 2018 2019 2020 2021 2022 2023 2024 2025 2026 2027 2028 2029 2030 2031 2032 2033 2034 2035 2036 2037 2038 2039 2040 2041 2042 2043 2044 2045 2046 2047 2048 2049 2050 2051 2052 2053 2054 2055 2056 2057 2058 2059 2060 2061 2062 2063 2064 2065 2066 2067 2068 2069 2070 2071 2072 2073 2074 2075 2076 2077 2078 2079 2080 2081 2082 2083 2084 2085 2086 2087 2088 2089 2090 2091 2092 2093 2094 2095 2096 2097 2098 2099 2100 2101 2102 2103 2104 2105 2106 2107 2108 2109 2110 2111 2112 2113 2114 2115 2116 2117 2118 2119 2120 2121 2122 2123 2124 2125 2126 2127 2128 2129 2130 2131 2132 2133 2134 2135 2136 2137 2138 2139 2140 2141 2142 2143 2144 2145 2146 2147 2148 2149 2150 2151 2152 2153 2154 2155 2156 2157 2158 2159 2160 2161 2162 2163 2164 2165 2166 2167 2168 2169 2170 2171 2172 2173 2174 2175 2176 2177 2178 2179 2180 2181 2182 2183 2184 2185 2186 2187 2188 2189 2190 2191 2192 2193 2194 2195 2196 2197 2198 2199 2200 2201 2202 2203 2204 2205 2206 2207 2208 2209 2210 2211 2212 2213 2214 2215 2216 2217 2218 2219 2220 2221 2222 2223 2224 2225 2226 2227 2228 2229 2230 2231 2232 2233 2234 2235 2236 2237 2238 2239 2240 2241 2242 2243 2244 2245 2246 2247 2248 2249 2250 2251 2252 2253 2254 2255 2256 2257 2258 2259 2260 2261 2262 2263 2264 2265 2266 2267 2268 2269 2270 2271 2272 2273 2274 2275 2276 2277 2278 2279 2280 2281 2282 2283 2284 2285 2286 2287 2288 2289 2290 2291 2292 2293 2294 2295 2296 2297 2298 2299 2300 2301 2302 2303 2304 2305 2306 2307 2308 2309 2310 2311 2312 2313 2314 2315 2316 2317 2318 2319 2320 2321 2322 2323 2324 2325 2326 2327 2328 2329 2330 2331 2332 2333 2334 2335 2336 2337 2338 2339 2340 2341 2342 2343 2344 2345 2346 2347 2348 2349 2350 2351 2352 2353 2354 2355 2356 2357 2358 2359 2360 2361 2362 2363 2364 2365 2366 2367 2368 2369 2370 2371 2372 2373 2374 2375 2376 2377 2378 2379 2380 2381 2382 2383 2384 2385 2386 2387 2388 2389 2390 2391 2392 2393 2394 2395 2396 2397 2398 2399 2400 2401 2402 2403 2404 2405 2406 2407 2408 2409 2410 2411 2412 2413 2414 2415 2416 2417 2418 2419 2420 2421 2422 2423 2424 2425 2426 2427 2428 2429 2430 2431 2432 2433 2434 2435 2436 2437 2438 2439 2440 2441 2442 2443 2444 2445 2446 2447 2448 2449 2450 2451 2452 2453 2454 2455 2456 2457 2458 2459 2460 2461 2462 2463 2464 2465 2466 2467 2468 2469 2470 2471 2472 2473 2474 2475 2476 2477 2478 2479 2480 2481 2482 2483 2484 2485 2486 2487 2488 2489 2490 2491 2492 2493 2494 2495 2496 2497 2498 2499 2500 2501 2502 2503 2504 2505 2506 2507 2508 2509 2510 2511 2512 2513 2514 2515 2516 2517 2518 2519 2520 2521 2522 2523 2524 2525 2526 2527 2528 2529 2530 2531 2532 2533 2534 2535 2536 2537 2538 2539 2540 2541 2542 2543 2544 2545 2546 2547 2548 2549 2550 2551 2552 2553 2554 2555 2556 2557 2558 2559 2560 2561 2562 2563 2564 2565 2566 2567 2568 2569 2570 2571 2572 2573 2574 2575 2576 2577 2578 2579 2580 2581 2582 2583 2584 2585 2586 2587 2588 2589 2590 2591 2592 2593 2594 2595 2596 2597 2598 2599 2600 2601 2602 2603 2604 2605 2606 2607 2608 2609 2610 2611 2612 2613 2614 2615 2616 2617 2618 2619 2620 2621 2622 2623 2624 2625 2626 2627 2628 2629 2630 2631 2632 2633 2634 2635 2636 2637 2638 2639 2640 2641 2642 2643 2644 2645 2646 2647 2648 2649 2650 2651 2652 2653 2654 2655 2656 2657 2658 2659 2660 2661 2662 2663 2664 2665 2666 2667 2668 2669 2670 2671 2672 2673 2674 2675 2676 2677 2678 2679 2680 2681 2682 2683 2684 2685 2686 2687 2688 2689 2690 2691 2692 2693 2694 2695 2696 2697 2698 2699 2700 2701 2702 2703 2704 2705 2706 2707 2708 2709 2710 2711 2712 2713 2714 2715 2716 2717 2718 2719 2720 2721 2722 2723 2724 2725 2726 2727 2728 2729 2730 2731 2732 2733 2734 2735 2736 2737 2738 2739 2740 2741 2742 2743 2744 2745 2746 2747 2748 2749 2750 2751 2752 2753 2754 2755 2756 2757 2758 2759 2760 2761 2762 2763 2764 2765 2766 2767 2768 2769 2770 2771 2772 2773 2774 2775 2776 2777 2778 2779 2780 2781 2782 2783 2784 2785 2786 2787 2788 2789 2790 2791 2792 2793 2794 2795 2796 2797 2798 2799 2800 2801 2802 2803 2804 2805 2806 2807 2808 2809 2810 2811 2812 2813 2814 2815 2816 2817 2818 2819 2820 2821 2822 2823 2824 2825 2826 2827 2828 2829 2830 2831 2832 2833 2834 2835 2836 2837 2838 2839 2840 2841 2842 2843 2844 2845 2846 2847 2848 2849 2850 2851 2852 2853 2854 2855 2856 2857 2858 2859 2860 2861 2862 2863 2864 2865 2866 2867 2868 2869 2870 2871 2872 2873 2874 2875 2876 2877 2878 2879 2880 2881 2882 2883 2884 2885 2886 2887 2888 2889 2890 2891 2892 2893 2894 2895 2896 2897 2898 2899 2900 2901 2902 2903 2904 2905 2906 2907 2908 2909 2910 2911 2912 2913 2914 2915 2916 2917 2918 2919 2920 2921 2922 2923 2924 2925 2926 2927 2928 2929 2930 2931 2932 2933 2934 2935 2936 2937 2938 2939 2940 2941 2942 2943 2944 2945 2946 2947 2948 2949 2950 2951 2952 2953 2954 2955 2956 2957 2958 2959 2960 2961 2962 2963 2964 2965 2966 2967 2968 2969 2970 2971 2972 2973 2974 2975 2976 2977 2978 2979 2980 2981 2982 2983 2984 2985 2986 2987 2988 2989 2990 2991 2992 2993 2994 2995 2996 2997 2998 2999 3000 3001 3002 3003 3004 3005 3006 3007 3008 3009 3010 3011 3012 3013 3014 3015 3016 3017 3018 3019 3020 3021 3022 3023 3024 3025 3026 3027 3028 3029 3030 3031 3032 3033 3034 3035 3036 3037 3038 3039 3040 3041 3042 3043 3044 3045 3046 3047 3048 3049 3050 3051 3052 3053 3054 3055 3056 3057 3058 3059 3060 3061 3062 3063 3064 3065 3066 3067 3068 3069 3070 3071 3072 3073 3074 3075 3076 3077 3078 3079 3080 3081 3082 3083 3084 3085 3086 3087 3088 3089 3090 3091 3092 3093 3094 3095 3096 3097 3098 3099 3100 3101 3102 3103 3104 3105 3106 3107 3108 3109 3110 3111 3112 3113 3114 3115 3116 3117 3118 3119 3120 3121 3122 3123 3124 3125 3126 3127 3128 3129 3130 3131 3132 3133 3134 3135 3136 3137 3138 3139 3140 3141 3142 3143 3144 3145 3146 3147 3148 3149 3150 3151 3152 3153 3154 3155 3156 3157 3158 3159 3160 3161 3162 3163 3164 3165 3166 3167 3168 3169 3170 3171 3172 3173 3174 3175 3176 3177 3178 3179 3180 3181 3182 3183 3184 3185 3186 3187 3188 3189 3190 3191 3192 3193 3194 3195 3196 3197 3198 3199 3200 3201 3202 3203 3204 3205 3206 3207 3208 3209 3210 3211 3212 3213 3214 3215 3216 3217 3218 3219 3220 3221 3222 3223 3224 3225 3226 3227 3228 3229 3230 3231 3232 3233 3234 3235 3236 3237 3238 3239 3240 3241 3242 3243 3244 3245 3246 3247 3248 3249 3250 3251 3252 3253 3254 3255 3256 3257 3258 3259 3260 3261 3262 3263 3264 3265 3266 3267 3268 3269 3270 3271 3272 3273 3274 3275 3276 3277 3278 3279 3280 3281 3282 3283 3284 3285 3286 3287 3288 3289 3290 3291 3292 3293 3294 3295 3296 3297 3298 3299 3300 3301 3302 3303 3304 3305 3306 3307 3308 3309 3310 3311 3312 3313 3314 3315 3316 3317 3318 3319 3320 3321 3322 3323 3324 3325 3326 3327 3328 3329 3330 3331 3332 3333 3334 3335 3336 3337 3338 3339 3340 3341 3342 3343 3344 3345 3346 3347 3348 3349 3350 3351 3352 3353 3354 3355 3356 3357 3358 3359 3360 3361 3362 3363 3364 3365 3366 3367 3368 3369 3370 3371 3372 3373 3374 3375 3376 3377 3378 3379 3380 3381 3382 3383 3384 3385 3386 3387 3388 3389 3390 3391 3392 3393 3394 3395 3396 3397 3398 3399 3400 3401 3402 3403 3404 3405 3406 3407 3408 3409 3410 3411 3412 3413 3414 3415 3416 3417 3418 3419 3420 3421 3422 3423 3424 3425 3426 3427 3428 3429 3430 3431 3432 3433 3434 3435 3436 3437 3438 3439 3440 3441 3442 3443 3444 3445 3446 3447 3448 3449 3450 3451 3452 3453 3454 3455 3456 3457 3458 3459 3460 3461 3462 3463 3464 3465 3466 3467 3468 3469 3470 3471 3472 3473 3474 3475 3476 3477 3478 3479 3480 3481 3482 3483 3484 3485 3486 3487 3488 3489 3490 3491 3492 3493 3494 3495 3496 3497 3498 3499 3500 3501 3502 3503 3504 3505 3506 3507 3508 3509 3510 3511 3512 3513 3514 3515 3516 3517 3518 3519 3520 3521 3522 3523 3524 3525 3526 3527 3528 3529 3530 3531 3532 3533 3534 3535 3536 3537 3538 3539 3540 3541 3542 3543 3544 3545 3546 3547 3548 3549 3550 3551 3552 3553 3554 3555 3556 3557 3558 3559 3560 3561 3562 3563 3564 3565 3566 3567 3568 3569 3570 3571 3572 3573 3574 3575 3576 3577 3578 3579 3580 3581 3582 3583 3584 3585 3586 3587 3588 3589 3590 3591 3592 3593 3594 3595 3596 3597 3598 3599 3600 3601 3602 3603 3604 3605 3606 3607 3608 3609 3610 3611 3612 3613 3614 3615 3616 3617 3618 3619 3620 3621 3622 3623 3624 3625 3626 3627 3628 3629 3630 3631 3632 3633 3634 3635 3636 3637 3638 3639 3640 3641 3642 3643 3644 3645 3646 3647 3648 3649 3650 3651 3652 3653 3654 3655 3656 3657 3658 3659 3660 3661 3662 3663 3664 3665 3666 3667 3668 3669 3670 3671 3672 3673 3674 3675 3676 3677 3678 3679 3680 3681 3682 3683 3684 3685 3686 3687 3688 3689 3690 3691 3692 3693 3694 3695 3696 3697 3698 3699 3700 3701 3702 3703 3704 3705 3706 3707 3708 3709 3710 3711 3712 3713 3714 3715 3716 3717 3718 3719 3720 3721 3722 3723 3724 3725 3726 3727 3728 3729 3730 3731 3732 3733 3734 3735 3736 3737 3738 3739 3740 3741 3742 3743 3744 3745 3746 3747 3748 3749 3750 3751 3752 3753 3754 3755 3756 3757 3758 3759 3760 3761 3762 3763 3764 3765 3766 3767 3768 3769 3770 3771 3772 3773 3774 3775 3776 3777 3778 3779 3780 3781 3782 3783 3784 3785 3786 3787 3788 3789 3790 3791 3792 3793 3794 3795 3796 3797 3798 3799 3800 3801 3802 3803 3804 3805 3806 3807 3808 3809 3810 3811 3812 3813 3814 3815 3816 3817 3818 3819 3820 3821 3822 3823 3824 3825 3826 3827 3828 3829 3830 3831 3832 3833 3834 3835 3836 3837 3838 3839 3840 3841 3842 3843 3844 3845 3846 3847 3848 3849 3850 3851 3852 3853 3854 3855 3856 3857 3858 3859 3860 3861 3862 3863 3864 3865 3866 3867 3868 3869 3870 3871 3872 3873 3874 3875 3876 3877 3878 3879 3880 3881 3882 3883 3884 3885 3886 3887 3888 3889 3890 3891 3892 3893 3894 3895 3896 3897 3898 3899 3900 3901 3902 3903 3904 3905 3906 3907 3908 3909 3910 3911 3912 3913 3914 3915 3916 3917 3918 3919 3920 3921 3922 3923 3924 3925 3926 3927 3928 3929 3930 3931 3932 3933 3934 3935 3936 3937 3938 3939 3940 3941 3942 3943 3944 3945 3946 3947 3948 3949 3950 3951 3952 3953 3954 3955 3956 3957 3958 3959 3960 3961 3962 3963 3964 3965 3966 3967 3968 3969 3970 3971 3972 3973 3974 3975 3976 3977 3978 3979 3980 3981 3982 3983 3984 3985 3986 3987 3988 3989 3990 3991 3992 3993 3994 3995 3996 3997 3998 3999 4000 4001 4002 4003 4004 4005 4006 4007 4008 4009 4010 4011 4012 4013 4014 4015 4016 4017 4018 4019 4020 4021 4022 4023 4024 4025 4026 4027 4028 4029 4030 4031 4032 4033 4034 4035 4036 4037 4038 4039 4040 4041 4042 4043 4044 4045 4046 4047 4048 4049 4050 4051 4052 4053 4054 4055 4056 4057 4058 4059 4060 4061 4062 4063 4064 4065 4066 4067 4068 4069 4070 4071 4072 4073 4074 4075 4076 4077 4078 4079 4080 4081 4082 4083 4084 4085 4086 4087 4088 4089 4090 4091 4092 4093 4094 4095 4096 4097 4098 4099 4100 4101 4102 4103 4104 4105 4106 4107 4108 4109 4110 4111 4112 4113 4114 4115 4116 4117 4118 4119 4120 4121 4122 4123 4124 4125 4126 4127 4128 4129 4130 4131 4132 4133 4134 4135 4136 4137 4138 4139 4140 4141 4142 4143 4144 4145 4146 4147 4148 4149 4150 4151 4152 4153 4154 4155 4156 4157 4158 4159 4160 4161 4162 4163 4164 4165 4166 4167 4168 4169 4170 4171 4172 4173 4174 4175 4176 4177 4178 4179 4180 4181 4182 4183 4184 4185 4186 4187 4188 4189 4190 4191 4192 4193 4194 4195 4196 4197 4198 4199 4200 4201 4202 4203 4204 4205 4206 4207 4208 4209 4210 4211 4212 4213 4214 4215 4216 4217 4218 4219 4220 4221 4222 4223 4224 4225 4226 4227 4228 4229 4230 4231 4232 4233 4234 4235 4236 4237 4238 4239 4240 4241 4242 4243 4244 4245 4246 4247 4248 4249 4250 4251 4252 4253 4254 4255 4256 4257 4258 4259 4260 4261 4262 4263 4264 4265 4266 4267 4268 4269 4270 4271 4272 4273 4274 4275 4276 4277 4278 4279 4280 4281 4282 4283 4284 4285 4286 4287 4288 4289 4290 4291 4292 4293 4294 4295 4296 4297 4298 4299 4300 4301 4302 4303 4304 4305 4306 4307 4308 4309 4310 4311 4312 4313 4314 4315 4316 4317 4318 4319 4320 4321 4322 4323 4324 4325 4326 4327 4328 4329 4330 4331 4332 4333 4334 4335 4336 4337 4338 4339 4340 4341 4342 4343 4344 4345 4346 4347 4348 4349 4350 4351 4352 4353 4354 4355 4356 4357 4358 4359 4360 4361 4362 4363 4364 4365 4366 4367 4368 4369 4370 4371 4372 4373 4374 4375 4376 4377 4378 4379 4380 4381 4382 4383 4384 4385 4386 4387 4388 4389 4390 4391 4392 4393 4394 4395 4396 4397 4398 4399 4400 4401 4402 4403 4404 4405 4406 4407 4408 4409 4410 4411 4412 4413 4414 4415 4416 4417 4418 4419 4420 4421 4422 4423 4424 4425 4426 4427 4428 4429 4430 4431 4432 4433 4434 4435 4436 4437 4438 4439 4440 4441 4442 4443 4444 4445 4446 4447 4448 4449 4450 4451 4452 4453 4454 4455 4456 4457 4458 4459 4460 4461 4462 4463 4464 4465 4466 4467 4468 4469 4470 4471 4472 4473 4474 4475 4476 4477 4478 4479 4480 4481 4482 4483 4484 4485 4486 4487 4488 4489 4490 4491 4492 4493 4494 4495 4496 4497 4498 4499 4500 4501 4502 4503 4504 4505 4506 4507 4508 4509 4510 4511 4512 4513 4514 4515 4516 4517 4518 4519 4520 4521 4522 4523 4524 4525 4526 4527 4528 4529 4530 4531 4532 4533 4534 4535 4536 4537 4538 4539 4540 4541 4542 4543 4544 4545 4546 4547 4548 4549 4550 4551 4552 4553 4554 4555 4556 4557 4558 4559 4560 4561 4562 4563 4564 4565 4566 4567 4568 4569 4570 4571 4572 4573 4574 4575 4576 4577 4578 4579 4580 4581 4582 4583 4584 4585 4586 4587 4588 4589 4590 4591 4592 4593 4594 4595 4596 4597 4598 4599 4600 4601 4602 4603 4604 4605 4606 4607 4608 4609 4610 4611 4612 4613 4614 4615 4616 4617 4618 4619 4620 4621 4622 4623 4624 4625 4626 4627 4628 4629 4630 4631 4632 4633 4634 4635 4636 4637 4638 4639 4640 4641 4642 4643 4644 4645 4646 4647 4648 4649 4650 4651 4652 4653 4654 4655 4656 4657 4658 4659 4660 4661 4662 4663 4664 4665 4666 4667 4668 4669 4670 4671 4672 4673 4674 4675 4676 4677 4678 4679 4680 4681 4682 4683 4684 4685 4686 4687 4688 4689 4690 4691 4692 4693 4694 4695 4696 4697 4698 4699 4700 4701 4702 4703 4704 4705 4706 4707 4708 4709 4710 4711 4712 4713 4714 4715 4716 4717 4718 4719 4720 4721 4722 4723 4724 4725 4726 4727 4728 4729 4730 4731 4732 4733 4734 4735 4736 4737 4738 4739 4740 4741 4742 4743 4744 4745 4746 4747 4748 4749 4750 4751 4752 4753 4754 4755 4756 4757 4758 4759 4760 4761 4762 4763 4764 4765 4766 4767 4768 4769 4770 4771 4772 4773 4774 4775 4776 4777 4778 4779 4780 4781 4782 4783 4784 4785 4786 4787 4788 4789 4790 4791 4792 4793 4794 4795 4796 4797 4798 4799 4800 4801 4802 4803 4804 4805 4806 4807 4808 4809 4810 4811 4812 4813 4814 4815 4816 4817 4818 4819 4820 4821 4822 4823 4824 4825 4826 4827 4828 4829 4830 4831 4832 4833 4834 4835 4836 4837 4838 4839 4840 4841 4842 4843 4844 4845 4846 4847 4848 4849 4850 4851 4852 4853 4854 4855 4856 4857 4858 4859 4860 4861 4862 4863 4864 4865 4866 4867 4868 4869 4870 4871 4872 4873 4874 4875 4876 4877 4878 4879 4880 4881 4882 4883 4884 4885 4886 4887 4888 4889 4890 4891 4892 4893 4894 4895 4896 4897 4898 4899 4900 4901 4902 4903 4904 4905 4906 4907 4908 4909 4910 4911 4912 4913 4914 4915 4916 4917 4918 4919 4920 4921 4922 4923 4924 4925 4926 4927 4928 4929 4930 4931 4932 4933 4934 4935 4936 4937 4938 4939 4940 4941 4942 4943 4944 4945 4946 4947 4948 4949 4950 4951 4952 4953 4954 4955 4956 4957 4958 4959 4960 4961 4962 4963 4964 4965 4966 4967 4968 4969 4970 4971 4972 4973 4974 4975 4976 4977 4978 4979 4980 4981 4982 4983 4984 4985 4986 4987 4988 4989 4990 4991 4992 4993 4994 4995 4996 4997 4998 4999 5000 5001 5002 5003 5004 5005 5006 5007 5008 5009 5010 5011 5012 5013 5014 5015 5016 5017 5018 5019 5020 5021 5022 5023 5024 5025 5026 5027 5028 5029 5030 5031 5032 5033 5034 5035 5036 5037 5038 5039 5040 5041 5042 5043 5044 5045 5046 5047 5048 5049 5050 5051 5052 5053 5054 5055 5056 5057 5058 5059 5060 5061 5062 5063 5064 5065 5066 5067 5068 5069 5070 5071 5072 5073 5074 5075 5076 5077 5078 5079 5080 5081 5082 5083 5084 5085 5086 5087 5088 5089 5090 5091 5092 5093 5094 5095 5096 5097 5098 5099 5100 5101 5102 5103 5104 5105 5106 5107 5108 5109 5110 5111 5112 5113 5114 5115 5116 5117 5118 5119 5120 5121 5122 5123 5124 5125 5126 5127 5128 5129 5130 5131 5132 5133 5134 5135 5136 5137 5138 5139 5140 5141 5142 5143 5144 5145 5146 5147 5148 5149 5150 5151 5152 5153 5154 5155 5156 5157 5158 5159 5160 5161 5162 5163 5164 5165 5166 5167 5168 5169 5170 5171 5172 5173 5174 5175 5176 5177 5178 5179 5180 5181 5182 5183 5184 5185 5186 5187 5188 5189 5190 5191 5192 5193 5194 5195 5196 5197 5198 5199 5200 5201 5202 5203 5204 5205 5206 5207 5208 5209 5210 5211 5212 5213 5214 5215 5216 5217 5218 5219 5220 5221 5222 5223 5224 5225 5226 5227 5228 5229 5230 5231 5232 5233 5234 5235 5236 5237 5238 5239 5240 5241 5242 5243 5244 5245 5246 5247 5248 5249 5250 5251 5252 5253 5254 5255 5256 5257 5258 5259 5260 5261 5262 5263 5264 5265 5266 5267 5268 5269 5270 5271 5272 5273 5274 5275 5276 5277 5278 5279 5280 5281 5282 5283 5284 5285 5286 5287 5288 5289 5290 5291 5292 5293 5294 5295 5296 5297 5298 5299 5300 5301 5302 5303 5304 5305 5306 5307 5308 5309 5310 5311 5312 5313 5314 5315 5316 5317 5318 5319 5320 5321 5322 5323 5324 5325 5326 5327 5328 5329 5330 5331 5332 5333 5334 5335 5336 5337 5338 5339 5340 5341 5342 5343 5344 5345 5346 5347 5348 5349 5350 5351 5352 5353 5354 5355 5356 5357 5358 5359 5360 5361 5362 5363 5364 5365 5366 5367 5368 5369 5370 5371 5372 5373 5374 5375 5376 5377 5378 5379 5380 5381 5382 5383 5384 5385 5386 5387 5388 5389 5390 5391 5392 5393 5394 5395 5396 5397 5398 5399 5400 5401 5402 5403 5404 5405 5406 5407 5408 5409 5410 5411 5412 5413 5414 5415 5416 5417 5418 5419 5420 5421 5422 5423 5424 5425 5426 5427 5428 5429 5430 5431 5432 5433 5434 5435 5436 5437 5438 5439 5440 5441 5442 5443 5444 5445 5446 5447 5448 5449 5450 5451 5452 5453 5454 5455 5456 5457 5458 5459 5460 5461 5462 5463 5464 5465 5466 5467 5468 5469 5470 5471 5472 5473 5474 5475 5476 5477 5478 5479 5480 5481 5482 5483 5484 5485 5486 5487 5488 5489 5490 5491 5492 5493 5494 5495 5496 5497 5498 5499 5500 5501 5502 5503 5504 5505 5506 5507 5508 5509 5510 5511 5512 5513 5514 5515 5516 5517 5518 5519 5520 5521 5522 5523 5524 5525 5526 5527 5528 5529 5530 5531 5532 5533 5534 5535 5536 5537 5538 5539 5540 5541 5542 5543 5544 5545 5546 5547 5548 5549 5550 5551 5552 5553 5554 5555 5556 5557 5558 5559 5560 5561 5562 5563 5564 5565 5566 5567 5568 5569 5570 5571 5572 5573 5574 5575 5576 5577 5578 5579 5580 5581 5582 5583 5584 5585 5586 5587 5588 5589 5590 5591 5592 5593 5594 5595 5596 5597 5598 5599 5600 5601 5602 5603 5604 5605 5606 5607 5608 5609 5610 5611 5612 5613 5614 5615 5616 5617 5618 5619 5620 5621 5622 5623 5624 5625 5626 5627 5628 5629 5630 5631 5632 5633 5634 5635 5636 5637 5638 5639 5640 5641 5642 5643 5644 5645 5646 5647 5648 5649 5650 5651 5652 5653 5654 5655 5656 5657 5658 5659 5660 5661 5662 5663 5664 5665 5666 5667 5668 5669 5670 5671 5672 5673 5674 5675 5676 5677 5678 5679 5680 5681 5682 5683 5684 5685 5686 5687 5688 5689 5690 5691 5692 5693 5694 5695 5696 5697 5698 5699 5700 5701 5702 5703 5704 5705 5706 5707 5708 5709 5710 5711 5712 5713 5714 5715 5716 5717 5718 5719 5720 5721 5722 5723 5724 5725 5726 5727 5728 5729 5730 5731 5732 5733 5734 5735 5736 5737 5738 5739 5740 5741 5742 5743 5744 5745 5746 5747 5748 5749 5750 5751 5752 5753 5754 5755 5756 5757 5758 5759 5760 5761 5762 5763 5764 5765 5766 5767 5768 5769 5770 5771 5772 5773 5774 5775 5776 5777 5778 5779 5780 5781 5782 5783 5784 5785 5786 5787 5788 5789 5790 5791 5792 5793 5794 5795 5796 5797 5798 5799 5800 5801 5802 5803 5804 5805 5806 5807 5808 5809 5810 5811 5812 5813 5814 5815 5816 5817 5818 5819 5820 5821 5822 5823 5824 5825 5826 5827 5828 5829 5830 5831 5832 5833 5834 5835 5836 5837 5838 5839 5840 5841 5842 5843 5844 5845 5846 5847 5848 5849 5850 5851 5852 5853 5854 5855 5856 5857 5858 5859 5860 5861 5862 5863 5864 5865 5866 5867 5868 5869 5870 5871 5872 5873 5874 5875 5876 5877 5878 5879 5880 5881 5882 5883 5884 5885 5886 5887 5888 5889 5890 5891 5892 5893 5894 5895 5896 5897 5898 5899 5900 5901 5902 5903 5904 5905 5906 5907 5908 5909 5910 5911 5912 5913 5914 5915 5916 5917 5918 5919 5920 5921 5922 5923 5924 5925 5926 5927 5928 5929 5930 5931 5932 5933 5934 5935 5936 5937 5938 5939 5940 5941 5942 5943 5944 5945 5946 5947 5948 5949 5950 5951 5952 5953 5954 5955 5956 5957 5958 5959 5960 5961 5962 5963 5964 5965 5966 5967 5968 5969 5970 5971 5972 5973 5974 5975 5976 5977 5978 5979 5980 5981 5982 5983 5984 5985 5986 5987 5988 5989 5990 5991 5992 5993 5994 5995 5996 5997 5998 5999 6000 6001 6002 6003 6004 6005 6006 6007 6008 6009 6010 6011 6012 6013 6014 6015 6016 6017 6018 6019 6020 6021 6022 6023 6024 6025 6026 6027 6028 6029 6030 6031 6032 6033 6034 6035 6036 6037 6038 6039 6040 6041 6042 6043 6044 6045 6046 6047 6048 6049 6050 6051 6052 6053 6054 6055 6056 6057 6058 6059 6060 6061 6062 6063 6064 6065 6066 6067 6068 6069 6070 6071 6072 6073 6074 6075 6076 6077 6078 6079 6080 6081 6082 6083 6084 6085 6086 6087 6088 6089 6090 6091 6092 6093 6094 6095 6096 6097 6098 6099 6100 6101 6102 6103 6104 6105 6106 6107 6108 6109 6110 6111 6112 6113 6114 6115 6116 6117 6118 6119 6120 6121 6122 6123 6124 6125 6126 6127 6128 6129 6130 6131 6132 6133 6134 6135 6136 6137 6138 6139 6140 6141 6142 6143 6144 6145 6146 6147 6148 6149 6150 6151 6152 6153 6154 6155 6156 6157 6158 6159 6160 6161 6162 6163 6164 6165 6166 6167 6168 6169 6170 6171 6172 6173 6174 6175 6176 6177 6178 6179 6180 6181 6182 6183 6184 6185 6186 6187 6188 6189 6190 6191 6192 6193 6194 6195 6196 6197 6198 6199 6200 6201 6202 6203 6204 6205 6206 6207 6208 6209 6210 6211 6212 6213 6214 6215 6216 6217 6218 6219 6220 6221 6222 6223 6224 6225 6226 6227 6228 6229 6230 6231 6232 6233 6234 6235 6236 6237 6238 6239 6240 6241 6242 6243 6244 6245 6246 6247 6248 6249 6250 6251 6252 6253 6254 6255 6256 6257 6258 6259 6260 6261 6262 6263 6264 6265 6266 6267 6268 6269 6270 6271 6272 6273 6274 6275 6276 6277 6278 6279 6280 6281 6282 6283 6284 6285 6286 6287 6288 6289 6290 6291 6292 6293 6294 6295 6296 6297 6298 6299 6300 6301 6302 6303 6304 6305 6306 6307 6308 6309 6310 6311 6312 6313 6314 6315 6316 6317 6318 6319 6320 6321 6322 6323 6324 6325 6326 6327 6328 6329 6330 6331 6332 6333 6334 6335 6336 6337 6338 6339 6340 6341 6342 6343 6344 6345 6346 6347 6348 6349 6350 6351 6352 6353 6354 6355 6356 6357 6358 6359 6360 6361 6362 6363 6364 6365 6366 6367 6368 6369 6370 6371 6372 6373 6374 6375 6376 6377 6378 6379 6380 6381 6382 6383 6384 6385 6386 6387 6388 6389 6390 6391 6392 6393 6394 6395 6396 6397 6398 6399 6400 6401 6402 6403 6404 6405 6406 6407 6408 6409 6410 6411 6412 6413 6414 6415 6416 6417 6418 6419 6420 6421 6422 6423 6424 6425 6426 6427 6428 6429 6430 6431 6432 6433 6434 6435 6436 6437 6438 6439 6440 6441 6442 6443 6444 6445 6446 6447 6448 6449 6450 6451 6452 6453 6454 6455 6456 6457 6458 6459 6460 6461 6462 6463 6464 6465 6466 6467 6468 6469 6470 6471 6472 6473 6474 6475 6476 6477 6478 6479 6480 6481 6482 6483 6484 6485 6486 6487 6488 6489 6490 6491 6492 6493 6494 6495 6496 6497 6498 6499 6500 6501 6502 6503 6504 6505 6506 6507 6508 6509 6510 6511 6512 6513 6514 6515 6516 6517 6518 6519 6520 6521 6522 6523 6524 6525 6526 6527 6528 6529 6530 6531 6532 6533 6534 6535 6536 6537 6538 6539 6540 6541 6542 6543 6544 6545 6546 6547 6548 6549 6550 6551 6552 6553 6554 6555 6556 6557 6558 6559 6560 6561 6562 6563 6564 6565 6566 6567 6568 6569 6570 6571 6572 6573 6574 6575 6576 6577 6578 6579 6580 6581 6582 6583 6584 6585 6586 6587 6588 6589 6590 6591 6592 6593 6594 6595 6596 6597 6598 6599 6600 6601 6602 6603 6604 6605 6606 6607 6608 6609 6610 6611 6612 6613 6614 6615 6616 6617 6618 6619 6620 6621 6622 6623 6624 6625 6626 6627 6628 6629 6630 6631 6632 6633 6634 6635 6636 6637 6638 6639 6640 6641 6642 6643 6644 6645 6646 6647 6648 6649 6650 6651 6652 6653 6654 6655 6656 6657 6658 6659 6660 6661 6662 6663 6664 6665 6666 6667 6668 6669 6670 6671 6672 6673 6674 6675 6676 6677 6678 6679 6680 6681 6682 6683 6684 6685 6686 6687 6688 6689 6690 6691 6692 6693 6694 6695 6696 6697 6698 6699 6700 6701 6702 6703 6704 6705 6706 6707 6708 6709 6710 6711 6712 6713 6714 6715 6716 6717 6718 6719 6720 6721 6722 6723 6724 6725 6726 6727 6728 6729 6730 6731 6732 6733 6734 6735 6736 6737 6738 6739 6740 6741 6742 6743 6744 6745 6746 6747 6748 6749 6750 6751 6752 6753 6754 6755 6756 6757 6758 6759 6760 6761 6762 6763 6764 6765 6766 6767 6768 6769 6770 6771 6772 6773 6774 6775 6776 6777 6778 6779 6780 6781 6782 6783 6784 6785 6786 6787 6788 6789 6790 6791 6792 6793 6794 6795 6796 6797 6798 6799 6800 6801 6802 6803 6804 6805 6806 6807 6808 6809 6810 6811 6812 6813 6814 6815 6816 6817 6818 6819 6820 6821 6822 6823 6824 6825 6826 6827 6828 6829 6830 6831 6832 6833 6834 6835 6836 6837 6838 6839 6840 6841 6842 6843 6844 6845 6846 6847 6848 6849 6850 6851 6852 6853 6854 6855 6856 6857 6858 6859 6860 6861 6862 6863 6864 6865 6866 6867 6868 6869 6870 6871 6872 6873 6874 6875 6876 6877 6878 6879 6880 6881 6882 6883 6884 6885 6886 6887 6888 6889 6890 6891 6892 6893 6894 6895 6896 6897 6898 6899 6900 6901 6902 6903 6904 6905 6906 6907 6908 6909 6910 6911 6912 6913 6914 6915 6916 6917 6918 6919 6920 6921 6922 6923 6924 6925 6926 6927 6928 6929 6930 6931 6932 6933 6934 6935 6936 6937 6938 6939 6940 6941 6942 6943 6944 6945 6946 6947 6948 6949 6950 6951 6952 6953 6954 6955 6956 6957 6958 6959 6960 6961 6962 6963 6964 6965 6966 6967 6968 6969 6970 6971 6972 6973 6974 6975 6976 6977 6978 6979 6980 6981 6982 6983 6984 6985 6986 6987 6988 6989 6990 6991 6992 6993 6994 6995 6996 6997 6998 6999 7000 7001 7002 7003 7004 7005 7006 7007 7008 7009 7010 7011 7012 7013 7014 7015 7016 7017 7018 7019 7020 7021 7022 7023 7024 7025 7026 7027 7028 7029 7030 7031 7032 7033 7034 7035 7036 7037 7038 7039 7040 7041 7042 7043 7044 7045 7046 7047 7048 7049 7050 7051 7052 7053 7054 7055 7056 7057 7058 7059 7060 7061 7062 7063 7064 7065 7066 7067 7068 7069 7070 7071 7072 7073 7074 7075 7076 7077 7078 7079 7080 7081 7082 7083 7084 7085 7086 7087 7088 7089 7090 7091 7092 7093 7094 7095 7096 7097 7098 7099 7100 7101 7102 7103 7104 7105 7106 7107 7108 7109 7110 7111 7112 7113 7114 7115 7116 7117 7118 7119 7120 7121 7122 7123 7124 7125 7126 7127 7128 7129 7130 7131 7132 7133 7134 7135 7136 7137 7138 7139 7140 7141 7142 7143 7144 7145 7146 7147 7148 7149 7150 7151 7152 7153 7154 7155 7156 7157 7158 7159 7160 7161 7162 7163 7164 7165 7166 7167 7168 7169 7170 7171 7172 7173 7174 7175 7176 7177 7178 7179 7180 7181 7182 7183 7184 7185 7186 7187 7188 7189 7190 7191 7192 7193 7194 7195 7196 7197 7198 7199 7200 7201 7202 7203 7204 7205 7206 7207 7208 7209 7210 7211 7212 7213 7214 7215 7216 7217 7218 7219 7220 7221 7222 7223 7224 7225 7226 7227 7228 7229 7230 7231 7232 7233 7234 7235 7236 7237 7238 7239 7240 7241 7242 7243 7244 7245 7246 7247 7248 7249 7250 7251 7252 7253 7254 7255 7256 7257 7258 7259 7260 7261 7262 7263 7264 7265 7266 7267 7268 7269 7270 7271 7272 7273 7274 7275 7276 7277 7278 7279 7280 7281 7282 7283 7284 7285 7286 7287 7288 7289 7290 7291 7292 7293 7294 7295 7296 7297 7298 7299 7300 7301 7302 7303 7304 7305 7306 7307 7308 7309 7310 7311 7312 7313 7314 7315 7316 7317 7318 7319 7320 7321 7322 7323 7324 7325 7326 7327 7328 7329 7330 7331 7332 7333 7334 7335 7336 7337 7338 7339 7340 7341 7342 7343 7344 7345 7346 7347 7348 7349 7350 7351 7352 7353 7354 7355 7356 7357 7358 7359 7360 7361 7362 7363 7364 7365 7366 7367 7368 7369 7370 7371 7372 7373 7374 7375 7376 7377 7378 7379 7380 7381 7382 7383 7384 7385 7386 7387 7388 7389 7390 7391 7392 7393 7394 7395 7396 7397 7398 7399 7400 7401 7402 7403 7404 7405 7406 7407 7408 7409 7410 7411 7412 7413 7414 7415 7416 7417 7418 7419 7420 7421 7422 7423 7424 7425 7426 7427 7428 7429 7430 7431 7432 7433 7434 7435 7436 7437 7438 7439 7440 7441 7442 7443 7444 7445 7446 7447 7448 7449 7450 7451 7452 7453 7454 7455 7456 7457 7458 7459 7460 7461 7462 7463 7464 7465 7466 7467 7468 7469 7470 7471 7472 7473 7474 7475 7476 7477 7478 7479 7480 7481 7482 7483 7484 7485 7486 7487 7488 7489 7490 7491 7492 7493 7494 7495 7496 7497 7498 7499 7500 7501 7502 7503 7504 7505 7506 7507 7508 7509 7510 7511 7512 7513 7514 7515 7516 7517 7518 7519 7520 7521 7522 7523 7524 7525 7526 7527 7528 7529 7530 7531 7532 7533 7534 7535 7536 7537 7538 7539 7540 7541 7542 7543 7544 7545 7546 7547 7548 7549 7550 7551 7552 7553 7554 7555 7556 7557 7558 7559 7560 7561 7562 7563 7564 7565 7566 7567 7568 7569 7570 7571 7572 7573 7574 7575 7576 7577 7578 7579 7580 7581 7582 7583 7584 7585 7586 7587 7588 7589 7590 7591 7592 7593 7594 7595 7596 7597 7598 7599 7600 7601 7602 7603 7604 7605 7606 7607 7608 7609 7610 7611 7612 7613 7614 7615 7616 7617 7618 7619 7620 7621 7622 7623 7624 7625 7626 7627 7628 7629 7630 7631 7632 7633 7634 7635 7636 7637 7638 7639 7640 7641 7642 7643 7644 7645 7646 7647 7648 7649 7650 7651 7652 7653 7654 7655 7656 7657 7658 7659 7660 7661 7662 7663 7664 7665 7666 7667 7668 7669 7670 7671 7672 7673 7674 7675 7676 7677 7678 7679 7680 7681 7682 7683 7684 7685 7686 7687 7688 7689 7690 7691 7692 7693 7694 7695 7696 7697 7698 7699 7700 7701 7702 7703 7704 7705 7706 7707 7708 7709 7710 7711 7712 7713 7714 7715 7716 7717 7718 7719 7720 7721 7722 7723 7724 7725 7726 7727 7728 7729 7730 7731 7732 7733 7734 7735 7736 7737 7738 7739 7740 7741 7742 7743 7744 7745 7746 7747 7748 7749 7750 7751 7752 7753 7754 7755 7756 7757 7758 7759 7760 7761 7762 7763 7764 7765 7766 7767 7768 7769 7770 7771 7772 7773 7774 7775 7776 7777 7778 7779 7780 7781 7782 7783 7784 7785 7786 7787 7788 7789 7790 7791 7792 7793 7794 7795 7796 7797 7798 7799 7800 7801 7802 7803 7804 7805 7806 7807 7808 7809 7810 7811 7812 7813 7814 7815 7816 7817 7818 7819 7820 7821 7822 7823 7824 7825 7826 7827 7828 7829 7830 7831 7832 7833 7834 7835 7836 7837 7838 7839 7840 7841 7842 7843 7844 7845 7846 7847 7848 7849 7850 7851 7852 7853 7854 7855 7856 7857 7858 7859 7860 7861 7862 7863 7864 7865 7866 7867 7868 7869 7870 7871 7872 7873 7874 7875 7876 7877 7878 7879 7880 7881 7882 7883 7884 7885 7886 7887 7888 7889 7890 7891 7892 7893 7894 7895 7896 7897 7898 7899 7900 7901 7902 7903 7904 7905 7906 7907 7908 7909 7910 7911 7912 7913 7914 7915 7916 7917 7918 7919 7920 7921 7922 7923 7924 7925 7926 7927 7928 7929 7930 7931 7932 7933 7934 7935 7936 7937 7938 7939 7940 7941 7942 7943 7944 7945 7946 7947 7948 7949 7950 7951 7952 7953 7954 7955 7956 7957 7958 7959 7960 7961 7962 7963 7964 7965 7966 7967 7968 7969 7970 7971 7972 7973 7974 7975 7976 7977 7978 7979 7980 7981 7982 7983 7984 7985 7986 7987 7988 7989 7990 7991 7992 7993 7994 7995 7996 7997 7998 7999 8000 8001 8002 8003 8004 8005 8006 8007 8008 8009 8010 8011 8012 8013 8014 8015 8016 8017 8018 8019 8020 8021 8022 8023 8024 8025 8026 8027 8028 8029 8030 8031 8032 8033 8034 8035 8036 8037 8038 8039 8040 8041 8042 8043 8044 8045 8046 8047 8048 8049 8050 8051 8052 8053 8054 8055 8056 8057 8058 8059 8060 8061 8062 8063 8064 8065 8066 8067 8068 8069 8070 8071 8072 8073 8074 8075 8076 8077 8078 8079 8080 8081 8082 8083 8084 8085 8086 8087 8088 8089 8090 8091 8092 8093 8094 8095 8096 8097 8098 8099 8100 8101 8102 8103 8104 8105 8106 8107 8108 8109 8110 8111 8112 8113 8114 8115 8116 8117 8118 8119 8120 8121 8122 8123 8124 8125 8126 8127 8128 8129 8130 8131 8132 8133 8134 8135 8136 8137 8138 8139 8140 8141 8142 8143 8144 8145 8146 8147 8148 8149 8150 8151 8152 8153 8154 8155 8156 8157 8158 8159 8160 8161 8162 8163 8164 8165 8166 8167 8168 8169 8170 8171 8172 8173 8174 8175 8176 8177 8178 8179 8180 8181 8182 8183 8184 8185 8186 8187 8188 8189 8190 8191 8192 8193 8194 8195 8196 8197 8198 8199 8200 8201 8202 8203 8204 8205 8206 8207 8208 8209 8210 8211 8212 8213 8214 8215 8216 8217 8218 8219 8220 8221 8222 8223 8224 8225 8226 8227 8228 8229 8230 8231 8232 8233 8234 8235 8236 8237 8238 8239 8240 8241 8242 8243 8244 8245 8246 8247 8248 8249 8250 8251 8252 8253 8254 8255 8256 8257 8258 8259 8260 8261 8262 8263 8264 8265 8266 8267 8268 8269 8270 8271 8272 8273 8274 8275 8276 8277 8278 8279 8280 8281 8282 8283 8284 8285 8286 8287 8288 8289 8290 8291 8292 8293 8294 8295 8296 8297 8298 8299 8300 8301 8302 8303 8304 8305 8306 8307 8308 8309 8310 8311 8312 8313 8314 8315 8316 8317 8318 8319 8320 8321 8322 8323 8324 8325 8326 8327 8328 8329 8330 8331 8332 8333 8334 8335 8336 8337 8338 8339 8340 8341 8342 8343 8344 8345 8346 8347 8348 8349 8350 8351 8352 8353 8354 8355 8356 8357 8358 8359 8360 8361 8362 8363 8364 8365 8366 8367 8368 8369 8370 8371 8372 8373 8374 8375 8376 8377 8378 8379 8380 8381 8382 8383 8384 8385 8386 8387 8388 8389 8390 8391 8392 8393 8394 8395 8396 8397 8398 8399 8400 8401 8402 8403 8404 8405 8406 8407 8408 8409 8410 8411 8412 8413 8414 8415 8416 8417 8418 8419 8420 8421 8422 8423 8424 8425 8426 8427 8428 8429 8430 8431 8432 8433 8434 8435 8436 8437 8438 8439 8440 8441 8442 8443 8444 8445 8446 8447 8448 8449 8450 8451 8452 8453 8454 8455 8456 8457 8458 8459 8460 8461 8462 8463 8464 8465 8466 8467 8468 8469 8470 8471 8472 8473 8474 8475 8476 8477 8478 8479 8480 8481 8482 8483 8484 8485 8486 8487 8488 8489 8490 8491 8492 8493 8494 8495 8496 8497 8498 8499 8500 8501 8502 8503 8504 8505 8506 8507 8508 8509 8510 8511 8512 8513 8514 8515 8516 8517 8518 8519 8520 8521 8522 8523 8524 8525 8526 8527 8528 8529 8530 8531 8532 8533 8534 8535 8536 8537 8538 8539 8540 8541 8542 8543 8544 8545 8546 8547 8548 8549 8550 8551 8552 8553 8554 8555 8556 8557 8558 8559 8560 8561 8562 8563 8564 8565 8566 8567 8568 8569 8570 8571 8572 8573 8574 8575 8576 8577 8578 8579 8580 8581 8582 8583 8584 8585 8586 8587 8588 8589 8590 8591 8592 8593 8594 8595 8596 8597 8598 8599 8600 8601 8602 8603 8604 8605 8606 8607 8608 8609 8610 8611 8612 8613 8614 8615 8616 8617 8618 8619 8620 8621 8622 8623 8624 8625 8626 8627 8628 8629 8630 8631 8632 8633 8634 8635 8636 8637 8638 8639 8640 8641 8642 8643 8644 8645 8646 8647 8648 8649 8650 8651 8652 8653 8654 8655 8656 8657 8658 8659 8660 8661 8662 8663 8664 8665 8666 8667 8668 8669 8670 8671 8672 8673 8674 8675 8676 8677 8678 8679 8680 8681 8682 8683 8684 8685 8686 8687 8688 8689 8690 8691 8692 8693 8694 8695 8696 8697 8698 8699 8700 8701 8702 8703 8704 8705 8706 8707 8708 8709 8710 8711 8712 8713 8714 8715 8716 8717 8718 8719 8720 8721 8722 8723 8724 8725 8726 8727 8728 8729 8730 8731 8732 8733 8734 8735 8736 8737 8738 8739 8740 8741 8742 8743 8744 8745 8746 8747 8748 8749 8750 8751 8752 8753 8754 8755 8756 8757 8758 8759 8760 8761 8762 8763 8764 8765 8766 8767 8768 8769 8770 8771 8772 8773 8774 8775 8776 8777 8778 8779 8780 8781 8782 8783 8784 8785 8786 8787 8788 8789 8790 8791 8792 8793 8794 8795 8796 8797 8798 8799 8800 8801 8802 8803 8804 8805 8806 8807 8808 8809 8810 8811 8812 8813 8814 8815 8816 8817 8818 8819 8820 8821 8822 8823 8824 8825 8826 8827 8828 8829 8830 8831 8832 8833 8834 8835 8836 8837 8838 8839 8840 8841 8842 8843 8844 8845 8846 8847 8848 8849 8850 8851 8852 8853 8854 8855 8856 8857 8858 8859 8860 8861 8862 8863 8864 8865 8866 8867 8868 8869 8870 8871 8872 8873 8874 8875 8876 8877 8878 8879 8880 8881 8882 8883 8884 8885 8886 8887 8888 8889 8890 8891 8892 8893 8894 8895 8896 8897 8898 8899 8900 8901 8902 8903 8904 8905 8906 8907 8908 8909 8910 8911 8912 8913 8914 8915 8916 8917 8918 8919 8920 8921 8922 8923 8924 8925 8926 8927 8928 8929 8930 8931 8932 8933 8934 8935 8936 8937 8938 8939 8940 8941 8942 8943 8944 8945 8946 8947 8948 8949 8950 8951 8952 8953 8954 8955 8956 8957 8958 8959 8960 8961 8962 8963 8964 8965 8966 8967 8968 8969 8970 8971 8972 8973 8974 8975 8976 8977 8978 8979 8980 8981 8982 8983 8984 8985 8986 8987 8988 8989 8990 8991 8992 8993 8994 8995 8996 8997 8998 8999 9000 9001 9002 9003 9004 9005 9006 9007 9008 9009 9010 9011 9012 9013 9014 9015 9016 9017 9018 9019 9020 9021 9022 9023 9024 9025 9026 9027 9028 9029 9030 9031 9032 9033 9034 9035 9036 9037 9038 9039 9040 9041 9042 9043 9044 9045 9046 9047 9048 9049 9050 9051 9052 9053 9054 9055 9056 9057 9058 9059 9060 9061 9062 9063 9064 9065 9066 9067 9068 9069 9070 9071 9072 9073 9074 9075 9076 9077 9078 9079 9080 9081 9082 9083 9084 9085 9086 9087 9088 9089 9090 9091 9092 9093 9094 9095 9096 9097 9098 9099 9100 9101 9102 9103 9104 9105 9106 9107 9108 9109 9110 9111 9112 9113 9114 9115 9116 9117 9118 9119 9120 9121 9122 9123 9124 9125 9126 9127 9128 9129 9130 9131 9132 9133 9134 9135 9136 9137 9138 9139 9140 9141 9142 9143 9144 9145 9146 9147 9148 9149 9150 9151 9152 9153 9154 9155 9156 9157 9158 9159 9160 9161 9162 9163 9164 9165 9166 9167 9168 9169 9170 9171 9172 9173 9174 9175 9176 9177 9178 9179 9180 9181 9182 9183 9184 9185 9186 9187 9188 9189 9190 9191 9192 9193 9194 9195 9196 9197 9198 9199 9200 9201 9202 9203 9204 9205 9206 9207 9208 9209 9210 9211 9212 9213 9214 9215 9216 9217 9218 9219 9220 9221 9222 9223 9224 9225 9226 9227 9228 9229 9230 9231 9232 9233 9234 9235 9236 9237 9238 9239 9240 9241 9242 9243 9244 9245 9246 9247 9248 9249 9250 9251 9252 9253 9254 9255 9256 9257 9258 9259 9260 9261 9262 9263 9264 9265 9266 9267 9268 9269 9270 9271 9272 9273 9274 9275 9276 9277 9278 9279 9280 9281 9282 9283 9284 9285 9286 9287 9288 9289 9290 9291 9292 9293 9294 9295 9296 9297 9298 9299 9300 9301 9302 9303 9304 9305 9306 9307 9308 9309 9310 9311 9312 9313 9314 9315 9316 9317 9318 9319 9320 9321 9322 9323 9324 9325 9326 9327 9328 9329 9330 9331 9332 9333 9334 9335 9336 9337 9338 9339 9340 9341 9342 9343 9344 9345 9346 9347 9348 9349 9350 9351 9352 9353 9354 9355 9356 9357 9358 9359 9360 9361 9362 9363 9364 9365 9366 9367 9368 9369 9370 9371 9372 9373 9374 9375 9376 9377 9378 9379 9380 9381 9382 9383 9384 9385 9386 9387 9388 9389 9390 9391 9392 9393 9394 9395 9396 9397 9398 9399 9400 9401 9402 9403 9404 9405 9406 9407 9408 9409 9410 9411 9412 9413 9414 9415 9416 9417 9418 9419 9420 9421 9422 9423 9424 9425 9426 9427 9428 9429 9430 9431 9432 9433 9434 9435 9436 9437 9438 9439 9440 9441 9442 9443 9444 9445 9446 9447 9448 9449 9450 9451 9452 9453 9454 9455 9456 9457 9458 9459 9460 9461 9462 9463 9464 9465 9466 9467 9468 9469 9470 9471 9472 9473 9474 9475 9476 9477 9478 9479 9480 9481 9482 9483 9484 9485 9486 9487 9488 9489 9490 9491 9492 9493 9494 9495 9496 9497 9498 9499 9500 9501 9502 9503 9504 9505 9506 9507 9508 9509 9510 9511 9512 9513 9514 9515 9516 9517 9518 9519 9520 9521 9522 9523 9524 9525 9526 9527 9528 9529 9530 9531 9532 9533 9534 9535 9536 9537 9538 9539 9540 9541 9542 9543 9544 9545 9546 9547 9548 9549 9550 9551 9552 9553 9554 9555 9556 9557 9558 9559 9560 9561 9562 9563 9564 9565 9566 9567 9568 9569 9570 9571 9572 9573 9574 9575 9576 9577 9578 9579 9580 9581 9582 9583 9584 9585 9586 9587 9588 9589 9590 9591 9592 9593 9594 9595 9596 9597 9598 9599 9600 9601 9602 9603 9604 9605 9606 9607 9608 9609 9610 9611 9612 9613 9614 9615 9616 9617 9618 9619 9620 9621 9622 9623 9624 9625 9626 9627 9628 9629 9630 9631 9632 9633 9634 9635 9636 9637 9638 9639 9640 9641 9642 9643 9644 9645 9646 9647 9648 9649 9650 9651 9652 9653 9654 9655 9656 9657 9658 9659 9660 9661 9662 9663 9664 9665 9666 9667 9668 9669 9670 9671 9672 9673 9674 9675 9676 9677 9678 9679 9680 9681 9682 9683 9684 9685 9686 9687 9688 9689 9690 9691 9692 9693 9694 9695 9696 9697 9698 9699 9700 9701 9702 9703 9704 9705 9706 9707 9708 9709 9710 9711 9712 9713 9714 9715 9716 9717 9718 9719 9720 9721 9722 9723 9724 9725 9726 9727 9728 9729 9730 9731 9732 9733 9734 9735 9736 9737 9738 9739 9740 9741 9742 9743 9744 9745 9746 9747 9748 9749 9750 9751 9752 9753 9754 9755 9756 9757 9758 9759 9760 9761 9762 9763 9764 9765 9766 9767 9768 9769 9770 9771 9772 9773 9774 9775 9776 9777 9778 9779 9780 9781 9782 9783 9784 9785 9786 9787 9788 9789 9790 9791 9792 9793 9794 9795 9796 9797 9798 9799 9800 9801 9802 9803 9804 9805 9806 9807 9808 9809 9810 9811 9812 9813 9814 9815 9816 9817 9818 9819 9820 9821 9822 9823 9824 9825 9826 9827 9828 9829 9830 9831 9832 9833 9834 9835 9836 9837 9838 9839 9840 9841 9842 9843 9844 9845 9846 9847 9848 9849 9850 9851 9852 9853 9854 9855 9856 9857 9858 9859 9860 9861 9862 9863 9864 9865 9866 9867 9868 9869 9870 9871 9872 9873 9874 9875 9876 9877 9878 9879 9880 9881 9882 9883 9884 9885 9886 9887 9888 9889 9890 9891 9892 9893 9894 9895 9896 9897 9898 9899 9900 9901 9902 9903 9904 9905 9906 9907 9908 9909 9910 9911 9912 9913 9914 9915 9916 9917 9918 9919 9920 9921 9922 9923 9924 9925 9926 9927 9928 9929 9930 9931 9932 9933 9934 9935 9936 9937 9938 9939 9940 9941 9942 9943 9944 9945 9946 9947 9948 9949 9950 9951 9952 9953 9954 9955 9956 9957 9958 9959 9960 9961 9962 9963 9964 9965 9966 9967 9968 9969 9970 9971 9972 9973 9974 9975 9976 9977 9978 9979 9980 9981 9982 9983 9984 9985 9986 9987 9988 9989 9990 9991 9992 9993 9994 9995 9996 9997 9998 9999 10000 10001 10002 10003 10004 10005 10006 10007 10008 10009 10010 10011 10012 10013 10014 10015 10016 10017 10018 10019 10020 10021 10022 10023 10024 10025 10026 10027 10028 10029 10030 10031 10032 10033 10034 10035 10036 10037 10038 10039 10040 10041 10042 10043 10044 10045 10046 10047 10048 10049 10050 10051 10052 10053 10054 10055 10056 10057 10058 10059 10060 10061 10062 10063 10064 10065 10066 10067 10068 10069 10070 10071 10072 10073 10074 10075 10076 10077 10078 10079 10080 10081 10082 10083 10084 10085 10086 10087 10088 10089 10090 10091 10092 10093 10094 10095 10096 10097 10098 10099 10100 10101 10102 10103 10104 10105 10106 10107 10108 10109 10110 10111 10112 10113 10114 10115 10116 10117 10118 10119 10120 10121 10122 10123 10124 10125 10126 10127 10128 10129 10130 10131 10132 10133 10134 10135 10136 10137 10138 10139 10140 10141 10142 10143 10144 10145 10146 10147 10148 10149 10150 10151 10152 10153 10154 10155 10156 10157 10158 10159 10160 10161 10162 10163 10164 10165 10166 10167 10168 10169 10170 10171 10172 10173 10174 10175 10176 10177 10178 10179 10180 10181 10182 10183 10184 10185 10186 10187 10188 10189 10190 10191 10192 10193 10194 10195 10196 10197 10198 10199 10200 10201 10202 10203 10204 10205 10206 10207 10208 10209 10210 10211 10212 10213 10214 10215 10216 10217 10218 10219 10220 10221 10222 10223 10224 10225 10226 10227 10228 10229 10230 10231 10232 10233 10234 10235 10236 10237 10238 10239 10240 10241 10242 10243 10244 10245 10246 10247 10248 10249 10250 10251 10252 10253 10254 10255 10256 10257 10258 10259 10260 10261 10262 10263 10264 10265 10266 10267 10268 10269 10270 10271 10272 10273 10274 10275 10276 10277 10278 10279 10280 10281 10282 10283 10284 10285 10286 10287 10288 10289 10290 10291 10292 10293 10294 10295 10296 10297 10298 10299 10300 10301 10302 10303 10304 10305 10306 10307 10308 10309 10310 10311 10312 10313 10314 10315 10316 10317 10318 10319 10320 10321 10322 10323 10324 10325 10326 10327 10328 10329 10330 10331 10332 10333 10334 10335 10336 10337 10338 10339 10340 10341 10342 10343 10344 10345 10346 10347 10348 10349 10350 10351 10352 10353 10354 10355 10356 10357 10358 10359 10360 10361 10362 10363 10364 10365 10366 10367 10368 10369 10370 10371 10372 10373 10374 10375 10376 10377 10378 10379 10380 10381 10382 10383 10384 10385 10386 10387 10388 10389 10390 10391 10392 10393 10394 10395 10396 10397 10398 10399 10400 10401 10402 10403 10404 10405 10406 10407 10408 10409 10410 10411 10412 10413 10414 10415 10416 10417 10418 10419 10420 10421 10422 10423 10424 10425 10426 10427 10428 10429 10430 10431 10432 10433 10434 10435 10436 10437 10438 10439 10440 10441 10442 10443 10444 10445 10446 10447 10448 10449 10450 10451 10452 10453 10454 10455 10456 10457 10458 10459 10460 10461 10462 10463 10464 10465 10466 10467 10468 10469 10470 10471 10472 10473 10474 10475 10476 10477 10478 10479 10480 10481 10482 10483 10484 10485 10486 10487 10488 10489 10490 10491 10492 10493 10494 10495 10496 10497 10498 10499 10500 10501 10502 10503 10504 10505 10506 10507 10508 10509 10510 10511 10512 10513 10514 10515 10516 10517 10518 10519 10520 10521 10522 10523 10524 10525 10526 10527 10528 10529 10530 10531 10532 10533 10534 10535 10536 10537 10538 10539 10540 10541 10542 10543 10544 10545 10546 10547 10548 10549 10550 10551 10552 10553 10554 10555 10556 10557 10558 10559 10560 10561 10562 10563 10564 10565 10566 10567 10568 10569 10570 10571 10572 10573 10574 10575 10576 10577 10578 10579 10580 10581 10582 10583 10584 10585 10586 10587 10588 10589 10590 10591 10592 10593 10594 10595 10596 10597 10598 10599 10600 10601 10602 10603 10604 10605 10606 10607 10608 10609 10610 10611 10612 10613 10614 10615 10616 10617 10618 10619 10620 10621 10622 10623 10624 10625 10626 10627 10628 10629 10630 10631 10632 10633 10634 10635 10636 10637 10638 10639 10640 10641 10642 10643 10644 10645 10646 10647 10648 10649 10650 10651 10652 10653 10654 10655 10656 10657 10658 10659 10660 10661 10662 10663 10664 10665 10666 10667 10668 10669 10670 10671 10672 10673 10674 10675 10676 10677 10678 10679 10680 10681 10682 10683 10684 10685 10686 10687 10688 10689 10690 10691 10692 10693 10694 10695 10696 10697 10698 10699 10700 10701 10702 10703 10704 10705 10706 10707 10708 10709 10710 10711 10712 10713 10714 10715 10716 10717 10718 10719 10720 10721 10722 10723 10724 10725 10726 10727 10728 10729 10730 10731 10732 10733 10734 10735 10736 10737 10738 10739 10740 10741 10742 10743 10744 10745 10746 10747 10748 10749 10750 10751 10752 10753 10754 10755 10756 10757 10758 10759 10760 10761 10762 10763 10764 10765 10766 10767 10768 10769 10770 10771 10772 10773 10774 10775 10776 10777 10778 10779 10780 10781 10782 10783 10784 10785 10786 10787 10788 10789 10790 10791 10792 10793 10794 10795 10796 10797 10798 10799 10800 10801 10802 10803 10804 10805 10806 10807 10808 10809 10810 10811 10812 10813 10814 10815 10816 10817 10818 10819 10820 10821 10822 10823 10824 10825 10826 10827 10828 10829 10830 10831 10832 10833 10834 10835 10836 10837 10838 10839 10840 10841 10842 10843 10844 10845 10846 10847 10848 10849 10850 10851 10852 10853 10854 10855 10856 10857 10858 10859 10860 10861 10862 10863 10864 10865 10866 10867 10868 10869 10870 10871 10872 10873 10874 10875 10876 10877 10878 10879 10880 10881 10882 10883 10884 10885 10886 10887 10888 10889 10890 10891 10892 10893 10894 10895 10896 10897 10898 10899 10900 10901 10902 10903 10904 10905 10906 10907 10908 10909 10910 10911 10912 10913 10914 10915 10916 10917 10918 10919 10920 10921 10922 10923 10924 10925 10926 10927 10928 10929 10930 10931 10932 10933 10934 10935 10936 10937 10938 10939 10940 10941 10942 10943 10944 10945 10946 10947 10948 10949 10950 10951 10952 10953 10954 10955 10956 10957 10958 10959 10960 10961 10962 10963 10964 10965 10966 10967 10968 10969 10970 10971 10972 10973 10974 10975 10976 10977 10978 10979 10980 10981 10982 10983 10984 10985 10986 10987 10988 10989 10990 10991 10992 10993 10994 10995 10996 10997 10998 10999 11000 11001 11002 11003 11004 11005 11006 11007 11008 11009 11010 11011 11012 11013 11014 11015 11016 11017 11018 11019 11020 11021 11022 11023 11024 11025 11026 11027 11028 11029 11030 11031 11032 11033 11034 11035 11036 11037 11038 11039 11040 11041 11042 11043 11044 11045 11046 11047 11048 11049 11050 11051 11052 11053 11054 11055 11056 11057 11058 11059 11060 11061 11062 11063 11064 11065 11066 11067 11068 11069 11070 11071 11072 11073 11074 11075 11076 11077 11078 11079 11080 11081 11082 11083 11084 11085 11086 11087 11088 11089 11090 11091 11092 11093 11094 11095 11096 11097 11098 11099 11100 11101 11102 11103 11104 11105 11106 11107 11108 11109 11110 11111 11112 11113 11114 11115 11116 11117 11118 11119 11120 11121 11122 11123 11124 11125 11126 11127 11128 11129 11130 11131 11132 11133 11134 11135 11136 11137 11138 11139 11140 11141 11142 11143 11144 11145 11146 11147 11148 11149 11150 11151 11152 11153 11154 11155 11156 11157 11158 11159 11160 11161 11162 11163 11164 11165 11166 11167 11168 11169 11170 11171 11172 11173 11174 11175 11176 11177 11178 11179 11180 11181 11182 11183 11184 11185 11186 11187 11188 11189 11190 11191 11192 11193 11194 11195 11196 11197 11198 11199 11200 11201 11202 11203 11204 11205 11206 11207 11208 11209 11210 11211 11212 11213 11214 11215 11216 11217 11218 11219 11220 11221 11222 11223 11224 11225 11226 11227 11228 11229 11230 11231 11232 11233 11234 11235 11236 11237 11238 11239 11240 11241 11242 11243 11244 11245 11246 11247 11248 11249 11250 11251 11252 11253 11254 11255 11256 11257 11258 11259 11260 11261 11262 11263 11264 11265 11266 11267 11268 11269 11270 11271 11272 11273 11274 11275 11276 11277 11278 11279 11280 11281 11282 11283 11284 11285 11286 11287 11288 11289 11290 11291 11292 11293 11294 11295 11296 11297 11298 11299 11300 11301 11302 11303 11304 11305 11306 11307 11308 11309 11310 11311 11312 11313 11314 11315 11316 11317 11318 11319 11320 11321 11322 11323 11324 11325 11326 11327 11328 11329 11330 11331 11332 11333 11334 11335 11336 11337 11338 11339 11340 11341 11342 11343 11344 11345 11346 11347 11348 11349 11350 11351 11352 11353 11354 11355 11356 11357 11358 11359 11360 11361 11362 11363 11364 11365 11366 11367 11368 11369 11370 11371 11372 11373 11374 11375 11376 11377 11378 11379 11380 11381 11382 11383 11384 11385 11386 11387 11388 11389 11390 11391 11392 11393 11394 11395 11396 11397 11398 11399 11400 11401 11402 11403 11404 11405 11406 11407 11408 11409 11410 11411 11412 11413 11414 11415 11416 11417 11418 11419 11420 11421 11422 11423 11424 11425 11426 11427 11428 11429 11430 11431 11432 11433 11434 11435 11436 11437 11438 11439 11440 11441 11442 11443 11444 11445 11446 11447 11448 11449 11450 11451 11452 11453 11454 11455 11456 11457 11458 11459 11460 11461 11462 11463 11464 11465 11466 11467 11468 11469 11470 11471 11472 11473 11474 11475 11476 11477 11478 11479 11480 11481 11482 11483 11484 11485 11486 11487 11488 11489 11490 11491 11492 11493 11494 11495 11496 11497 11498 11499 11500 11501 11502 11503 11504 11505 11506 11507 11508 11509 11510 11511 11512 11513 11514 11515 11516 11517 11518 11519 11520 11521 11522 11523 11524 11525 11526 11527 11528 11529 11530 11531 11532 11533 11534 11535 11536 11537 11538 11539 11540 11541 11542 11543 11544 11545 11546 11547 11548 11549 11550 11551 11552 11553 11554 11555 11556 11557 11558 11559 11560 11561 11562 11563 11564 11565 11566 11567 11568 11569 11570 11571 11572 11573 11574 11575 11576 11577 11578 11579 11580 11581 11582 11583 11584 11585 11586 11587 11588 11589 11590 11591 11592 11593 11594 11595 11596 11597 11598 11599 11600 11601 11602 11603 11604 11605 11606 11607 11608 11609 11610 11611 11612 11613 11614 11615 11616 11617 11618 11619 11620 11621 11622 11623 11624 11625 11626 11627 11628 11629 11630 11631 11632 11633 11634 11635 11636 11637 11638 11639 11640 11641 11642 11643 11644 11645 11646 11647 11648 11649 11650 11651 11652 11653 11654 11655 11656 11657 11658 11659 11660 11661 11662 11663 11664 11665 11666 11667 11668 11669 11670 11671 11672 11673 11674 11675 11676 11677 11678 11679 11680 11681 11682 11683 11684 11685 11686 11687 11688 11689 11690 11691 11692 11693 11694 11695 11696 11697 11698 11699 11700 11701 11702 11703 11704 11705 11706 11707 11708 11709 11710 11711 11712 11713 11714 11715 11716 11717 11718 11719 11720 11721 11722 11723 11724 11725 11726 11727 11728 11729 11730 11731 11732 11733 11734 11735 11736 11737 11738 11739 11740 11741 11742 11743 11744 11745 11746 11747 11748 11749 11750 11751 11752 11753 11754 11755 11756 11757 11758 11759 11760 11761 11762 11763 11764 11765 11766 11767 11768 11769 11770 11771 11772 11773 11774 11775 11776 11777 11778 11779 11780 11781 11782 11783 11784 11785 11786 11787 11788 11789 11790 11791 11792 11793 11794 11795 11796 11797 11798 11799 11800 11801 11802 11803 11804 11805 11806 11807 11808 11809 11810 11811 11812 11813 11814 11815 11816 11817 11818 11819 11820 11821 11822 11823 11824 11825 11826 11827 11828 11829 11830 11831 11832 11833 11834 11835 11836 11837 11838 11839 11840 11841 11842 11843 11844 11845 11846 11847 11848 11849 11850 11851 11852 11853 11854 11855 11856 11857 11858 11859 11860 11861 11862 11863 11864 11865 11866 11867 11868 11869 11870 11871 11872 11873 11874 11875 11876 11877 11878 11879 11880 11881 11882 11883 11884 11885 11886 11887 11888 11889 11890 11891 11892 11893 11894 11895 11896 11897 11898 11899 11900 11901 11902 11903 11904 11905 11906 11907 11908 11909 11910 11911 11912 11913 11914 11915 11916 11917 11918 11919 11920 11921 11922 11923 11924 11925 11926 11927 11928 11929 11930 11931 11932 11933 11934 11935 11936 11937 11938 11939 11940 11941 11942 11943 11944 11945 11946 11947 11948 11949 11950 11951 11952 11953 11954 11955 11956 11957 11958 11959 11960 11961 11962 11963 11964 11965 11966 11967 11968 11969 11970 11971 11972 11973 11974 11975 11976 11977 11978 11979 11980 11981 11982 11983 11984 11985 11986 11987 11988 11989 11990 11991 11992 11993 11994 11995 11996 11997 11998 11999 12000 12001 12002 12003 12004 12005 12006 12007 12008 12009 12010 12011 12012 12013 12014 12015 12016 12017 12018 12019 12020 12021 12022 12023 12024 12025 12026 12027 12028 12029 12030 12031 12032 12033 12034 12035 12036 12037 12038 12039 12040 12041 12042 12043 12044 12045 12046 12047 12048 12049 12050 12051 12052 12053 12054 12055 12056 12057 12058 12059 12060 12061 12062 12063 12064 12065 12066 12067 12068 12069 12070 12071 12072 12073 12074 12075 12076 12077 12078 12079 12080 12081 12082 12083 12084 12085 12086 12087 12088 12089 12090 12091 12092 12093 12094 12095 12096 12097 12098 12099 12100 12101 12102 12103 12104 12105 12106 12107 12108 12109 12110 12111 12112 12113 12114 12115 12116 12117 12118 12119 12120 12121 12122 12123 12124 12125 12126 12127 12128 12129 12130 12131 12132 12133 12134 12135 12136 12137 12138 12139 12140 12141 12142 12143 12144 12145 12146 12147 12148 12149 12150 12151 12152 12153 12154 12155 12156 12157 12158 12159 12160 12161 12162 12163 12164 12165 12166 12167 12168 12169 12170 12171 12172 12173 12174 12175 12176 12177 12178 12179 12180 12181 12182 12183 12184 12185 12186 12187 12188 12189 12190 12191 12192 12193 12194 12195 12196 12197 12198 12199 12200 12201 12202 12203 12204 12205 12206 12207 12208 12209 12210 12211 12212 12213 12214 12215 12216 12217 12218 12219 12220 12221 12222 12223 12224 12225 12226 12227 12228 12229 12230 12231 12232 12233 12234 12235 12236 12237 12238 12239 12240 12241 12242 12243 12244 12245 12246 12247 12248 12249 12250 12251 12252 12253 12254 12255 12256 12257 12258 12259 12260 12261 12262 12263 12264 12265 12266 12267 12268 12269 12270 12271 12272 12273 12274 12275 12276 12277 12278 12279 12280 12281 12282 12283 12284 12285 12286 12287 12288 12289 12290 12291 12292 12293 12294 12295 12296 12297 12298 12299 12300 12301 12302 12303 12304 12305 12306 12307 12308 12309 12310 12311 12312 12313 12314 12315 12316 12317 12318 12319 12320 12321 12322 12323 12324 12325 12326 12327 12328 12329 12330 12331 12332 12333 12334 12335 12336 12337 12338 12339 12340 12341 12342 12343 12344 12345 12346 12347 12348 12349 12350 12351 12352 12353 12354 12355 12356 12357 12358 12359 12360 12361 12362 12363 12364 12365 12366 12367 12368 12369 12370 12371 12372 12373 12374 12375 12376 12377 12378 12379 12380 12381 12382 12383 12384 12385 12386 12387 12388 12389 12390 12391 12392 12393 12394 12395 12396 12397 12398 12399 12400 12401 12402 12403 12404 12405 12406 12407 12408 12409 12410 12411 12412 12413 12414 12415 12416 12417 12418 12419 12420 12421 12422 12423 12424 12425 12426 12427 12428 12429 12430 12431 12432 12433 12434 12435 12436 12437 12438 12439 12440 12441 12442 12443 12444 12445 12446 12447 12448 12449 12450 12451 12452 12453 12454 12455 12456 12457 12458 12459 12460 12461 12462 12463 12464 12465 12466 12467 12468 12469 12470 12471 12472 12473 12474 12475 12476 12477 12478 12479 12480 12481 12482 12483 12484 12485 12486 12487 12488 12489 12490 12491 12492 12493 12494 12495 12496 12497 12498 12499 12500 12501 12502 12503 12504 12505 12506 12507 12508 12509 12510 12511 12512 12513 12514 12515 12516 12517 12518 12519 12520 12521 12522 12523 12524 12525 12526 12527 12528 12529 12530 12531 12532 12533 12534 12535 12536 12537 12538 12539 12540 12541 12542 12543 12544 12545 12546 12547 12548 12549 12550 12551 12552 12553 12554 12555 12556 12557 12558 12559 12560 12561 12562 12563 12564 12565 12566 12567 12568 12569 12570 12571 12572 12573 12574 12575 12576 12577 12578 12579 12580 12581 12582 12583 12584 12585 12586 12587 12588 12589 12590 12591 12592 12593 12594 12595 12596 12597 12598 12599 12600 12601 12602 12603 12604 12605 12606 12607 12608 12609 12610 12611 12612 12613 12614 12615 12616 12617 12618 12619 12620 12621 12622 12623 12624 12625 12626 12627 12628 12629 12630 12631 12632 12633 12634 12635 12636 12637 12638 12639 12640 12641 12642 12643 12644 12645 12646 12647 12648 12649 12650 12651 12652 12653 12654 12655 12656 12657 12658 12659 12660 12661 12662 12663 12664 12665 12666 12667 12668 12669 12670 12671 12672 12673 12674 12675 12676 12677 12678 12679 12680 12681 12682 12683 12684 12685 12686 12687 12688 12689 12690 12691 12692 12693 12694 12695 12696 12697 12698 12699 12700 12701 12702 12703 12704 12705 12706 12707 12708 12709 12710 12711 12712 12713 12714 12715 12716 12717 12718 12719 12720 12721 12722 12723 12724 12725 12726 12727 12728 12729 12730 12731 12732 12733 12734 12735 12736 12737 12738 12739 12740 12741 12742 12743 12744 12745 12746 12747 12748 12749 12750 12751 12752 12753 12754 12755 12756 12757 12758 12759 12760 12761 12762 12763 12764 12765 12766 12767 12768 12769 12770 12771 12772 12773 12774 12775 12776 12777 12778 12779 12780 12781 12782 12783 12784 12785 12786 12787 12788 12789 12790 12791 12792 12793 12794 12795 12796 12797 12798 12799 12800 12801 12802 12803 12804 12805 12806 12807 12808 12809 12810 12811 12812 12813 12814 12815 12816 12817 12818 12819 12820 12821 12822 12823 12824 12825 12826 12827 12828 12829 12830 12831 12832 12833 12834 12835 12836 12837 12838 12839 12840 12841 12842 12843 12844 12845 12846 12847 12848 12849 12850 12851 12852 12853 12854 12855 12856 12857 12858 12859 12860 12861 12862 12863 12864 12865 12866 12867 12868 12869 12870 12871 12872 12873 12874 12875 12876 12877 12878 12879 12880 12881 12882 12883 12884 12885 12886 12887 12888 12889 12890 12891 12892 12893 12894 12895 12896 12897 12898 12899 12900 12901 12902 12903 12904 12905 12906 12907 12908 12909 12910 12911 12912 12913 12914 12915 12916 12917 12918 12919 12920 12921 12922 12923 12924 12925 12926 12927 12928 12929 12930 12931 12932 12933 12934 12935 12936 12937 12938 12939 12940 12941 12942 12943 12944 12945 12946 12947 12948 12949 12950 12951 12952 12953 12954 12955 12956 12957 12958 12959 12960 12961 12962 12963 12964 12965 12966 12967 12968 12969 12970 12971 12972 12973 12974 12975 12976 12977 12978 12979 12980 12981 12982 12983 12984 12985 12986 12987 12988 12989 12990 12991 12992 12993 12994 12995 12996 12997 12998 12999 13000 13001 13002 13003 13004 13005 13006 13007 13008 13009 13010 13011 13012 13013 13014 13015 13016 13017 13018 13019 13020 13021 13022 13023 13024 13025 13026 13027 13028 13029 13030 13031 13032 13033 13034 13035 13036 13037 13038 13039 13040 13041 13042 13043 13044 13045 13046 13047 13048 13049 13050 13051 13052 13053 13054 13055 13056 13057 13058 13059 13060 13061 13062 13063 13064 13065 13066 13067 13068 13069 13070 13071 13072 13073 13074 13075 13076 13077 13078 13079 13080 13081 13082 13083 13084 13085 13086 13087 13088 13089 13090 13091 13092 13093 13094 13095 13096 13097 13098 13099 13100 13101 13102 13103 13104 13105 13106 13107 13108 13109 13110 13111 13112 13113 13114 13115 13116 13117 13118 13119 13120 13121 13122 13123 13124 13125 13126 13127 13128 13129 13130 13131 13132 13133 13134 13135 13136 13137 13138 13139 13140 13141 13142 13143 13144 13145 13146 13147 13148 13149 13150 13151 13152 13153 13154 13155 13156 13157 13158 13159 13160 13161 13162 13163 13164 13165 13166 13167 13168 13169 13170 13171 13172 13173 13174 13175 13176 13177 13178 13179 13180 13181 13182 13183 13184 13185 13186 13187 13188 13189 13190 13191 13192 13193 13194 13195 13196 13197 13198 13199 13200 13201 13202 13203 13204 13205 13206 13207 13208 13209 13210 13211 13212 13213 13214 13215 13216 13217 13218 13219 13220 13221 13222 13223 13224 13225 13226 13227 13228 13229 13230 13231 13232 13233 13234 13235 13236 13237 13238 13239 13240 13241 13242 13243 13244 13245 13246 13247 13248 13249 13250 13251 13252 13253 13254 13255 13256 13257 13258 13259 13260 13261 13262 13263 13264 13265 13266 13267 13268 13269 13270 13271 13272 13273 13274 13275 13276 13277 13278 13279 13280 13281 13282 13283 13284 13285 13286 13287 13288 13289 13290 13291 13292 13293 13294 13295 13296 13297 13298 13299 13300 13301 13302 13303 13304 13305 13306 13307 13308 13309 13310 13311 13312 13313 13314 13315 13316 13317 13318 13319 13320 13321 13322 13323 13324 13325 13326 13327 13328 13329 13330 13331 13332 13333 13334 13335 13336 13337 13338 13339 13340 13341 13342 13343 13344 13345 13346 13347 13348 13349 13350 13351 13352 13353 13354 13355 13356 13357 13358 13359 13360 13361 13362 13363 13364 13365 13366 13367 13368 13369 13370 13371 13372 13373 13374 13375 13376 13377 13378 13379 13380 13381 13382 13383 13384 13385 13386 13387 13388 13389 13390 13391 13392 13393 13394 13395 13396 13397 13398 13399 13400 13401 13402 13403 13404 13405 13406 13407 13408 13409 13410 13411 13412 13413 13414 13415 13416 13417 13418 13419 13420 13421 13422 13423 13424 13425 13426 13427 13428 13429 13430 13431 13432 13433 13434 13435 13436 13437 13438 13439 13440 13441 13442 13443 13444 13445 13446 13447 13448 13449 13450 13451 13452 13453 13454 13455 13456 13457 13458 13459 13460 13461 13462 13463 13464 13465 13466 13467 13468 13469 13470 13471 13472 13473 13474 13475 13476 13477 13478 13479 13480 13481 13482 13483 13484 13485 13486 13487 13488 13489 13490 13491 13492 13493 13494 13495 13496 13497 13498 13499 13500 13501 13502 13503 13504 13505 13506 13507 13508 13509 13510 13511 13512 13513 13514 13515 13516 13517 13518 13519 13520 13521 13522 13523 13524 13525 13526 13527 13528 13529 13530 13531 13532 13533 13534 13535 13536 13537 13538 13539 13540 13541 13542 13543 13544 13545 13546 13547 13548 13549 13550 13551 13552 13553 13554 13555 13556 13557 13558 13559 13560 13561 13562 13563 13564 13565 13566 13567 13568 13569 13570 13571 13572 13573 13574 13575 13576 13577 13578 13579 13580 13581 13582 13583 13584 13585 13586 13587 13588 13589 13590 13591 13592 13593 13594 13595 13596 13597 13598 13599 13600 13601 13602 13603 13604 13605 13606 13607 13608 13609 13610 13611 13612 13613 13614 13615 13616 13617 13618 13619 13620 13621 13622 13623 13624 13625 13626 13627 13628 13629 13630 13631 13632 13633 13634 13635 13636 13637 13638 13639 13640 13641 13642 13643 13644 13645 13646 13647 13648 13649 13650 13651 13652 13653 13654 13655 13656 13657 13658 13659 13660 13661 13662 13663 13664 13665 13666 13667 13668 13669 13670 13671 13672 13673 13674 13675 13676 13677 13678 13679 13680 13681 13682 13683 13684 13685 13686 13687 13688 13689 13690 13691 13692 13693 13694 13695 13696 13697 13698 13699 13700 13701 13702 13703 13704 13705 13706 13707 13708 13709 13710 13711 13712 13713 13714 13715 13716 13717 13718 13719 13720 13721 13722 13723 13724 13725 13726 13727 13728 13729 13730 13731 13732 13733 13734 13735 13736 13737 13738 13739 13740 13741 13742 13743 13744 13745 13746 13747 13748 13749 13750 13751 13752 13753 13754 13755 13756 13757 13758 13759 13760 13761 13762 13763 13764 13765 13766 13767 13768 13769 13770 13771 13772 13773 13774 13775 13776 13777 13778 13779 13780 13781 13782 13783 13784 13785 13786 13787 13788 13789 13790 13791 13792 13793 13794 13795 13796 13797 13798 13799 13800 13801 13802 13803 13804 13805 13806 13807 13808 13809 13810 13811 13812 13813 13814 13815 13816 13817 13818 13819 13820 13821 13822 13823 13824 13825 13826 13827 13828 13829 13830 13831 13832 13833 13834 13835 13836 13837 13838 13839 13840 13841 13842 13843 13844 13845 13846 13847 13848 13849 13850 13851 13852 13853 13854 13855 13856 13857 13858 13859 13860 13861 13862 13863 13864 13865 13866 13867 13868 13869 13870 13871 13872 13873 13874 13875 13876 13877 13878 13879 13880 13881 13882 13883 13884 13885 13886 13887 13888 13889 13890 13891 13892 13893 13894 13895 13896 13897 13898 13899 13900 13901 13902 13903 13904 13905 13906 13907 13908 13909 13910 13911 13912 13913 13914 13915 13916 13917 13918 13919 13920 13921 13922 13923 13924 13925 13926 13927 13928 13929 13930 13931 13932 13933 13934 13935 13936 13937 13938 13939 13940 13941 13942 13943 13944 13945 13946 13947 13948 13949 13950 13951 13952 13953 13954 13955 13956 13957 13958 13959 13960 13961 13962 13963 13964 13965 13966 13967 13968 13969 13970 13971 13972 13973 13974 13975 13976 13977 13978 13979 13980 13981 13982 13983 13984 13985 13986 13987 13988 13989 13990 13991 13992 13993 13994 13995 13996 13997 13998 13999 14000 14001 14002 14003 14004 14005 14006 14007 14008 14009 14010 14011 14012 14013 14014 14015 14016 14017 14018 14019 14020 14021 14022 14023 14024 14025 14026 14027 14028 14029 14030 14031 14032 14033 14034 14035 14036 14037 14038 14039 14040 14041 14042 14043 14044 14045 14046 14047 14048 14049 14050 14051 14052 14053 14054 14055 14056 14057 14058 14059 14060 14061 14062 14063 14064 14065 14066 14067 14068 14069 14070 14071 14072 14073 14074 14075 14076 14077 14078 14079 14080 14081 14082 14083 14084 14085 14086 14087 14088 14089 14090 14091 14092 14093 14094 14095 14096 14097 14098 14099 14100 14101 14102 14103 14104 14105 14106 14107 14108 14109 14110 14111 14112 14113 14114 14115 14116 14117 14118 14119 14120 14121 14122 14123 14124 14125 14126 14127 14128 14129 14130 14131 14132 14133 14134 14135 14136 14137 14138 14139 14140 14141 14142 14143 14144 14145 14146 14147 14148 14149 14150 14151 14152 14153 14154 14155 14156 14157 14158 14159 14160 14161 14162 14163 14164 14165 14166 14167 14168 14169 14170 14171 14172 14173 14174 14175 14176 14177 14178 14179 14180 14181 14182 14183 14184 14185 14186 14187 14188 14189 14190 14191 14192 14193 14194 14195 14196 14197 14198 14199 14200 14201 14202 14203 14204 14205 14206 14207 14208 14209 14210 14211 14212 14213 14214 14215 14216 14217 14218 14219 14220 14221 14222 14223 14224 14225 14226 14227 14228 14229 14230 14231 14232 14233 14234 14235 14236 14237 14238 14239 14240 14241 14242 14243 14244 14245 14246 14247 14248 14249 14250 14251 14252 14253 14254 14255 14256 14257 14258 14259 14260 14261 14262 14263 14264 14265 14266 14267 14268 14269 14270 14271 14272 14273 14274 14275 14276 14277 14278 14279 14280 14281 14282 14283 14284 14285 14286 14287 14288 14289 14290 14291 14292 14293 14294 14295 14296 14297 14298 14299 14300 14301 14302 14303 14304 14305 14306 14307 14308 14309 14310 14311 14312 14313 14314 14315 14316 14317 14318 14319 14320 14321 14322 14323 14324 14325 14326 14327 14328 14329 14330 14331 14332 14333 14334 14335 14336 14337 14338 14339 14340 14341 14342 14343 14344 14345 14346 14347 14348 14349 14350 14351 14352 14353 14354 14355 14356 14357 14358 14359 14360 14361 14362 14363 14364 14365 14366 14367 14368 14369 14370 14371 14372 14373 14374 14375 14376 14377 14378 14379 14380 14381 14382 14383 14384 14385 14386 14387 14388 14389 14390 14391 14392 14393 14394 14395 14396 14397 14398 14399 14400 14401 14402 14403 14404 14405 14406 14407 14408 14409 14410 14411 14412 14413 14414 14415 14416 14417 14418 14419 14420 14421 14422 14423 14424 14425 14426 14427 14428 14429 14430 14431 14432 14433 14434 14435 14436 14437 14438 14439 14440 14441 14442 14443 14444 14445 14446 14447 14448 14449 14450 14451 14452 14453 14454 14455 14456 14457 14458 14459 14460 14461 14462 14463 14464 14465 14466 14467 14468 14469 14470 14471 14472 14473 14474 14475 14476 14477 14478 14479 14480 14481 14482 14483 14484 14485 14486 14487 14488 14489 14490 14491 14492 14493 14494 14495 14496 14497 14498 14499 14500 14501 14502 14503 14504 14505 14506 14507 14508 14509 14510 14511 14512 14513 14514 14515 14516 14517 14518 14519 14520 14521 14522 14523 14524 14525 14526 14527 14528 14529 14530 14531 14532 14533 14534 14535 14536 14537 14538 14539 14540 14541 14542 14543 14544 14545 14546 14547 14548 14549 14550 14551 14552 14553 14554 14555 14556 14557 14558 14559 14560 14561 14562 14563 14564 14565 14566 14567 14568 14569 14570 14571 14572 14573 14574 14575 14576 14577 14578 14579 14580 14581 14582 14583 14584 14585 14586 14587 14588 14589 14590 14591 14592 14593 14594 14595 14596 14597 14598 14599 14600 14601 14602 14603 14604 14605 14606 14607 14608 14609 14610 14611 14612 14613 14614 14615 14616 14617 14618 14619 14620 14621 14622 14623 14624 14625 14626 14627 14628 14629 14630 14631 14632 14633 14634 14635 14636 14637 14638 14639 14640 14641 14642 14643 14644 14645 14646 14647 14648 14649 14650 14651 14652 14653 14654 14655 14656 14657 14658 14659 14660 14661 14662 14663 14664 14665 14666 14667 14668 14669 14670 14671 14672 14673 14674 14675 14676 14677 14678 14679 14680 14681 14682 14683 14684 14685 14686 14687 14688 14689 14690 14691 14692 14693 14694 14695 14696 14697 14698 14699 14700 14701 14702 14703 14704 14705 14706 14707 14708 14709 14710 14711 14712 14713 14714 14715 14716 14717 14718 14719 14720 14721 14722 14723 14724 14725 14726 14727 14728 14729 14730 14731 14732 14733 14734 14735 14736 14737 14738 14739 14740 14741 14742 14743 14744 14745 14746 14747 14748 14749 14750 14751 14752 14753 14754 14755 14756 14757 14758 14759 14760 14761 14762 14763 14764 14765 14766 14767 14768 14769 14770 14771 14772 14773 14774 14775 14776 14777 14778 14779 14780 14781 14782 14783 14784 14785 14786 14787 14788 14789 14790 14791 14792 14793 14794 14795 14796 14797 14798 14799 14800 14801 14802 14803 14804 14805 14806 14807 14808 14809 14810 14811 14812 14813 14814 14815 14816 14817 14818 14819 14820 14821 14822 14823 14824 14825 14826 14827 14828 14829 14830 14831 14832 14833 14834 14835 14836 14837 14838 14839 14840 14841 14842 14843 14844 14845 14846 14847 14848 14849 14850 14851 14852 14853 14854 14855 14856 14857 14858 14859 14860 14861 14862 14863 14864 14865 14866 14867 14868 14869 14870 14871 14872 14873 14874 14875 14876 14877 14878 14879 14880 14881 14882 14883 14884 14885 14886 14887 14888 14889 14890 14891 14892 14893 14894 14895 14896 14897 14898 14899 14900 14901 14902 14903 14904 14905 14906 14907 14908 14909 14910 14911 14912 14913 14914 14915 14916 14917 14918 14919 14920 14921 14922 14923 14924 14925 14926 14927 14928 14929 14930 14931 14932 14933 14934 14935 14936 14937 14938 14939 14940 14941 14942 14943 14944 14945 14946 14947 14948 14949 14950 14951 14952 14953 14954 14955 14956 14957 14958 14959 14960 14961 14962 14963 14964 14965 14966 14967 14968 14969 14970 14971 14972 14973 14974 14975 14976 14977 14978 14979 14980 14981 14982 14983 14984 14985 14986 14987 14988 14989 14990 14991 14992 14993 14994 14995 14996 14997 14998 14999 15000 15001 15002 15003 15004 15005 15006 15007 15008 15009 15010 15011 15012 15013 15014 15015 15016 15017 15018 15019 15020 15021 15022 15023 15024 15025 15026 15027 15028 15029 15030 15031 15032 15033 15034 15035 15036 15037 15038 15039 15040 15041 15042 15043 15044 15045 15046 15047 15048 15049 15050 15051 15052 15053 15054 15055 15056 15057 15058 15059 15060 15061 15062 15063 15064 15065 15066 15067 15068 15069 15070 15071 15072 15073 15074 15075 15076 15077 15078 15079 15080 15081 15082 15083 15084 15085 15086 15087 15088 15089 15090 15091 15092 15093 15094 15095 15096 15097 15098 15099 15100 15101 15102 15103 15104 15105 15106 15107 15108 15109 15110 15111 15112 15113 15114 15115 15116 15117 15118 15119 15120 15121 15122 15123 15124 15125 15126 15127 15128 15129 15130 15131 15132 15133 15134 15135 15136 15137 15138 15139 15140 15141 15142 15143 15144 15145 15146 15147 15148 15149 15150 15151 15152 15153 15154 15155 15156 15157 15158 15159 15160 15161 15162 15163 15164 15165 15166 15167 15168 15169 15170 15171 15172 15173 15174 15175 15176 15177 15178 15179 15180 15181 15182 15183 15184 15185 15186 15187 15188 15189 15190 15191 15192 15193 15194 15195 15196 15197 15198 15199 15200 15201 15202 15203 15204 15205 15206 15207 15208 15209 15210 15211 15212 15213 15214 15215 15216 15217 15218 15219 15220 15221 15222 15223 15224 15225 15226 15227 15228 15229 15230 15231 15232 15233 15234 15235 15236 15237 15238 15239 15240 15241 15242 15243 15244 15245 15246 15247 15248 15249 15250 15251 15252 15253 15254 15255 15256 15257 15258 15259 15260 15261 15262 15263 15264 15265 15266 15267 15268 15269 15270 15271 15272 15273 15274 15275 15276 15277 15278 15279 15280 15281 15282 15283 15284 15285 15286 15287 15288 15289 15290 15291 15292 15293 15294 15295 15296 15297 15298 15299 15300 15301 15302 15303 15304 15305 15306 15307 15308 15309 15310 15311 15312 15313 15314 15315 15316 15317 15318 15319 15320 15321 15322 15323 15324 15325 15326 15327 15328 15329 15330 15331 15332 15333 15334 15335 15336 15337 15338 15339 15340 15341 15342 15343 15344 15345 15346 15347 15348 15349 15350 15351 15352 15353 15354 15355 15356 15357 15358 15359 15360 15361 15362 15363 15364 15365 15366 15367 15368 15369 15370 15371 15372 15373 15374 15375 15376 15377 15378 15379 15380 15381 15382 15383 15384 15385 15386 15387 15388 15389 15390 15391 15392 15393 15394 15395 15396 15397 15398 15399 15400 15401 15402 15403 15404 15405 15406 15407 15408 15409 15410 15411 15412 15413 15414 15415 15416 15417 15418 15419 15420 15421 15422 15423 15424 15425 15426 15427 15428 15429 15430 15431 15432 15433 15434 15435 15436 15437 15438 15439 15440 15441 15442 15443 15444 15445 15446 15447 15448 15449 15450 15451 15452 15453 15454 15455 15456 15457 15458 15459 15460 15461 15462 15463 15464 15465 15466 15467 15468 15469 15470 15471 15472 15473 15474 15475 15476 15477 15478 15479 15480 15481 15482 15483 15484 15485 15486 15487 15488 15489 15490 15491 15492 15493 15494 15495 15496 15497 15498 15499 15500 15501 15502 15503 15504 15505 15506 15507 15508 15509 15510 15511 15512 15513 15514 15515 15516 15517 15518 15519 15520 15521 15522 15523 15524 15525 15526 15527 15528 15529 15530 15531 15532 15533 15534 15535 15536 15537 15538 15539 15540 15541 15542 15543 15544 15545 15546 15547 15548 15549 15550 15551 15552 15553 15554 15555 15556 15557 15558 15559 15560 15561 15562 15563 15564 15565 15566 15567 15568 15569 15570 15571 15572 15573 15574 15575 15576 15577 15578 15579 15580 15581 15582 15583 15584 15585 15586 15587 15588 15589 15590 15591 15592 15593 15594 15595 15596 15597 15598 15599 15600 15601 15602 15603 15604 15605 15606 15607 15608 15609 15610 15611 15612 15613 15614 15615 15616 15617 15618 15619 15620 15621 15622 15623 15624 15625 15626 15627 15628 15629 15630 15631 15632 15633 15634 15635 15636 15637 15638 15639 15640 15641 15642 15643 15644 15645 15646 15647 15648 15649 15650 15651 15652 15653 15654 15655 15656 15657 15658 15659 15660 15661 15662 15663 15664 15665 15666 15667 15668 15669 15670 15671 15672 15673 15674 15675 15676 15677 15678 15679 15680 15681 15682 15683 15684 15685 15686 15687 15688 15689 15690 15691 15692 15693 15694 15695 15696 15697 15698 15699 15700 15701 15702 15703 15704 15705 15706 15707 15708 15709 15710 15711 15712 15713 15714 15715 15716 15717 15718 15719 15720 15721 15722 15723 15724 15725 15726 15727 15728 15729 15730 15731 15732 15733 15734 15735 15736 15737 15738 15739 15740 15741 15742 15743 15744 15745 15746 15747 15748 15749 15750 15751 15752 15753 15754 15755 15756 15757 15758 15759 15760 15761 15762 15763 15764 15765 15766 15767 15768 15769 15770 15771 15772 15773 15774 15775 15776 15777 15778 15779 15780 15781 15782 15783 15784 15785 15786 15787 15788 15789 15790 15791 15792 15793 15794 15795 15796 15797 15798 15799 15800 15801 15802 15803 15804 15805 15806 15807 15808 15809 15810 15811 15812 15813 15814 15815 15816 15817 15818 15819 15820 15821 15822 15823 15824 15825 15826 15827 15828 15829 15830 15831 15832 15833 15834 15835 15836 15837 15838 15839 15840 15841 15842 15843 15844 15845 15846 15847 15848 15849 15850 15851 15852 15853 15854 15855 15856 15857 15858 15859 15860 15861 15862 15863 15864 15865 15866 15867 15868 15869 15870 15871 15872 15873 15874 15875 15876 15877 15878 15879 15880 15881 15882 15883 15884 15885 15886 15887 15888 15889 15890 15891 15892 15893 15894 15895 15896 15897 15898 15899 15900 15901 15902 15903 15904 15905 15906 15907 15908 15909 15910 15911 15912 15913 15914 15915 15916 15917 15918 15919 15920 15921 15922 15923 15924 15925 15926 15927 15928 15929 15930 15931 15932 15933 15934 15935 15936 15937 15938 15939 15940 15941 15942 15943 15944 15945 15946 15947 15948 15949 15950 15951 15952 15953 15954 15955 15956 15957 15958 15959 15960 15961 15962 15963 15964 15965 15966 15967 15968 15969 15970 15971 15972 15973 15974 15975 15976 15977 15978 15979 15980 15981 15982 15983 15984 15985 15986 15987 15988 15989 15990 15991 15992 15993 15994 15995 15996 15997 15998 15999 16000 16001 16002 16003 16004 16005 16006 16007 16008 16009 16010 16011 16012 16013 16014 16015 16016 16017 16018 16019 16020 16021 16022 16023 16024 16025 16026 16027 16028 16029 16030 16031 16032 16033 16034 16035 16036 16037 16038 16039 16040 16041 16042 16043 16044 16045 16046 16047 16048 16049 16050 16051 16052 16053 16054 16055 16056 16057 16058 16059 16060 16061 16062 16063 16064 16065 16066 16067 16068 16069 16070 16071 16072 16073 16074 16075 16076 16077 16078 16079 16080 16081 16082 16083 16084 16085 16086 16087 16088 16089 16090 16091 16092 16093 16094 16095 16096 16097 16098 16099 16100 16101 16102 16103 16104 16105 16106 16107 16108 16109 16110 16111 16112 16113 16114 16115 16116 16117 16118 16119 16120 16121 16122 16123 16124 16125 16126 16127 16128 16129 16130 16131 16132 16133 16134 16135 16136 16137 16138 16139 16140 16141 16142 16143 16144 16145 16146 16147 16148 16149 16150 16151 16152 16153 16154 16155 16156 16157 16158 16159 16160 16161 16162 16163 16164 16165 16166 16167 16168 16169 16170 16171 16172 16173 16174 16175 16176 16177 16178 16179 16180 16181 16182 16183 16184 16185 16186 16187 16188 16189 16190 16191 16192 16193 16194 16195 16196 16197 16198 16199 16200 16201 16202 16203 16204 16205 16206 16207 16208 16209 16210 16211 16212 16213 16214 16215 16216 16217 16218 16219 16220 16221 16222 16223 16224 16225 16226 16227 16228 16229 16230 16231 16232 16233 16234 16235 16236 16237 16238 16239 16240 16241 16242 16243 16244 16245 16246 16247 16248 16249 16250 16251 16252 16253 16254 16255 16256 16257 16258 16259 16260 16261 16262 16263 16264 16265 16266 16267 16268 16269 16270 16271 16272 16273 16274 16275 16276 16277 16278 16279 16280 16281 16282 16283 16284 16285 16286 16287 16288 16289 16290 16291 16292 16293 16294 16295 16296 16297 16298 16299 16300 16301 16302 16303 16304 16305 16306 16307 16308 16309 16310 16311 16312 16313 16314 16315 16316 16317 16318 16319 16320 16321 16322 16323 16324 16325 16326 16327 16328 16329 16330 16331 16332 16333 16334 16335 16336 16337 16338 16339 16340 16341 16342 16343 16344 16345 16346 16347 16348 16349 16350 16351 16352 16353 16354 16355 16356 16357 16358 16359 16360 16361 16362 16363 16364 16365 16366 16367 16368 16369 16370 16371 16372 16373 16374 16375 16376 16377 16378 16379 16380 16381 16382 16383 16384 16385 16386 16387 16388 16389 16390 16391 16392 16393 16394 16395 16396 16397 16398 16399 16400 16401 16402 16403 16404 16405 16406 16407 16408 16409 16410 16411 16412 16413 16414 16415 16416 16417 16418 16419 16420 16421 16422 16423 16424 16425 16426 16427 16428 16429 16430 16431 16432 16433 16434 16435 16436 16437 16438 16439 16440 16441 16442 16443 16444 16445 16446 16447 16448 16449 16450 16451 16452 16453 16454 16455 16456 16457 16458 16459 16460 16461 16462 16463 16464 16465 16466 16467 16468 16469 16470 16471 16472 16473 16474 16475 16476 16477 16478 16479 16480 16481 16482 16483 16484 16485 16486 16487 16488 16489 16490 16491 16492 16493 16494 16495 16496 16497 16498 16499 16500 16501 16502 16503 16504 16505 16506 16507 16508 16509 16510 16511 16512 16513 16514 16515 16516 16517 16518 16519 16520 16521 16522 16523 16524 16525 16526 16527 16528 16529 16530 16531 16532 16533 16534 16535 16536 16537 16538 16539 16540 16541 16542 16543 16544 16545 16546 16547 16548 16549 16550 16551 16552 16553 16554 16555 16556 16557 16558 16559 16560 16561 16562 16563 16564 16565 16566 16567 16568 16569 16570 16571 16572 16573 16574 16575 16576 16577 16578 16579 16580 16581 16582 16583 16584 16585 16586 16587 16588 16589 16590 16591 16592 16593 16594 16595 16596 16597 16598 16599 16600 16601 16602 16603 16604 16605 16606 16607 16608 16609 16610 16611 16612 16613 16614 16615 16616 16617 16618 16619 16620 16621 16622 16623 16624 16625 16626 16627 16628 16629 16630 16631 16632 16633 16634 16635 16636 16637 16638 16639 16640 16641 16642 16643 16644 16645 16646 16647 16648 16649 16650 16651 16652 16653 16654 16655 16656 16657 16658 16659 16660 16661 16662 16663 16664 16665 16666 16667 16668 16669 16670 16671 16672 16673 16674 16675 16676 16677 16678 16679 16680 16681 16682 16683 16684 16685 16686 16687 16688 16689 16690 16691 16692 16693 16694 16695 16696 16697 16698 16699 16700 16701 16702 16703 16704 16705 16706 16707 16708 16709 16710 16711 16712 16713 16714 16715 16716 16717 16718 16719 16720 16721 16722 16723 16724 16725 16726 16727 16728 16729 16730 16731 16732 16733 16734 16735 16736 16737 16738 16739 16740 16741 16742 16743 16744 16745 16746 16747 16748 16749 16750 16751 16752 16753 16754 16755 16756 16757 16758 16759 16760 16761 16762 16763 16764 16765 16766 16767 16768 16769 16770 16771 16772 16773 16774 16775 16776 16777 16778 16779 16780 16781 16782 16783 16784 16785 16786 16787 16788 16789 16790 16791 16792 16793 16794 16795 16796 16797 16798 16799 16800 16801 16802 16803 16804 16805 16806 16807 16808 16809 16810 16811 16812 16813 16814 16815 16816 16817 16818 16819 16820 16821 16822 16823 16824 16825 16826 16827 16828 16829 16830 16831 16832 16833 16834 16835 16836 16837 16838 16839 16840 16841 16842 16843 16844 16845 16846 16847 16848 16849 16850 16851 16852 16853 16854 16855 16856 16857 16858 16859 16860 16861 16862 16863 16864 16865 16866 16867 16868 16869 16870 16871 16872 16873 16874 16875 16876 16877 16878 16879 16880 16881 16882 16883 16884 16885 16886 16887 16888 16889 16890 16891 16892 16893 16894 16895 16896 16897 16898 16899 16900 16901 16902 16903 16904 16905 16906 16907 16908 16909 16910 16911 16912 16913 16914 16915 16916 16917 16918 16919 16920 16921 16922 16923 16924 16925 16926 16927 16928 16929 16930 16931 16932 16933 16934 16935 16936 16937 16938 16939 16940 16941 16942 16943 16944 16945 16946 16947 16948 16949 16950 16951 16952 16953 16954 16955 16956 16957 16958 16959 16960 16961 16962 16963 16964 16965 16966 16967 16968 16969 16970 16971 16972 16973 16974 16975 16976 16977 16978 16979 16980 16981 16982 16983 16984 16985 16986 16987 16988 16989 16990 16991 16992 16993 16994 16995 16996 16997 16998 16999 17000 17001 17002 17003 17004 17005 17006 17007 17008 17009 17010 17011 17012 17013 17014 17015 17016 17017 17018 17019 17020 17021 17022 17023 17024 17025 17026 17027 17028 17029 17030 17031 17032 17033 17034 17035 17036 17037 17038 17039 17040 17041 17042 17043 17044 17045 17046 17047 17048 17049 17050 17051 17052 17053 17054 17055 17056 17057 17058 17059 17060 17061 17062 17063 17064 17065 17066 17067 17068 17069 17070 17071 17072 17073 17074 17075 17076 17077 17078 17079 17080 17081 17082 17083 17084 17085 17086 17087 17088 17089 17090 17091 17092 17093 17094 17095 17096 17097 17098 17099 17100 17101 17102 17103 17104 17105 17106 17107 17108 17109 17110 17111 17112 17113 17114 17115 17116 17117 17118 17119 17120 17121 17122 17123 17124 17125 17126 17127 17128 17129 17130 17131 17132 17133 17134 17135 17136 17137 17138 17139 17140 17141 17142 17143 17144 17145 17146 17147 17148 17149 17150 17151 17152 17153 17154 17155 17156 17157 17158 17159 17160 17161 17162 17163 17164 17165 17166 17167 17168 17169 17170 17171 17172 17173 17174 17175 17176 17177 17178 17179 17180 17181 17182 17183 17184 17185 17186 17187 17188 17189 17190 17191 17192 17193 17194 17195 17196 17197 17198 17199 17200 17201 17202 17203 17204 17205 17206 17207 17208 17209 17210 17211 17212 17213 17214 17215 17216 17217 17218 17219 17220 17221 17222 17223 17224 17225 17226 17227 17228 17229 17230 17231 17232 17233 17234 17235 17236 17237 17238 17239 17240 17241 17242 17243 17244 17245 17246 17247 17248 17249 17250 17251 17252 17253 17254 17255 17256 17257 17258 17259 17260 17261 17262 17263 17264 17265 17266 17267 17268 17269 17270 17271 17272 17273 17274 17275 17276 17277 17278 17279 17280 17281 17282 17283 17284 17285 17286 17287 17288 17289 17290 17291 17292 17293 17294 17295 17296 17297 17298 17299 17300 17301 17302 17303 17304 17305 17306 17307 17308 17309 17310 17311 17312 17313 17314 17315 17316 17317 17318 17319 17320 17321 17322 17323 17324 17325 17326 17327 17328 17329 17330 17331 17332 17333 17334 17335 17336 17337 17338 17339 17340 17341 17342 17343 17344 17345 17346 17347 17348 17349 17350 17351 17352 17353 17354 17355 17356 17357 17358 17359 17360 17361 17362 17363 17364 17365 17366 17367 17368 17369 17370 17371 17372 17373 17374 17375 17376 17377 17378 17379 17380 17381 17382 17383 17384 17385 17386 17387 17388 17389 17390 17391 17392 17393 17394 17395 17396 17397 17398 17399 17400 17401 17402 17403 17404 17405 17406 17407 17408 17409 17410 17411 17412 17413 17414 17415 17416 17417 17418 17419 17420 17421 17422 17423 17424 17425 17426 17427 17428 17429 17430 17431 17432 17433 17434 17435 17436 17437 17438 17439 17440 17441 17442 17443 17444 17445 17446 17447 17448 17449 17450 17451 17452 17453 17454 17455 17456 17457 17458 17459 17460 17461 17462 17463 17464 17465 17466 17467 17468 17469 17470 17471 17472 17473 17474 17475 17476 17477 17478 17479 17480 17481 17482 17483 17484 17485 17486 17487 17488 17489 17490 17491 17492 17493 17494 17495 17496 17497 17498 17499 17500 17501 17502 17503 17504 17505 17506 17507 17508 17509 17510 17511 17512 17513 17514 17515 17516 17517 17518 17519 17520 17521 17522 17523 17524 17525 17526 17527 17528 17529 17530 17531 17532 17533 17534 17535 17536 17537 17538 17539 17540 17541 17542 17543 17544 17545 17546 17547 17548 17549 17550 17551 17552 17553 17554 17555 17556 17557 17558 17559 17560 17561 17562 17563 17564 17565 17566 17567 17568 17569 17570 17571 17572 17573 17574 17575 17576 17577 17578 17579 17580 17581 17582 17583 17584 17585 17586 17587 17588 17589 17590 17591 17592 17593 17594 17595 17596 17597 17598 17599 17600 17601 17602 17603 17604 17605 17606 17607 17608 17609 17610 17611 17612 17613 17614 17615 17616 17617 17618 17619 17620 17621 17622 17623 17624 17625 17626 17627 17628 17629 17630 17631 17632 17633 17634 17635 17636 17637 17638 17639 17640 17641 17642 17643 17644 17645 17646 17647 17648 17649 17650 17651 17652 17653 17654 17655 17656 17657 17658 17659 17660 17661 17662 17663 17664 17665 17666 17667 17668 17669 17670 17671 17672 17673 17674 17675 17676 17677 17678 17679 17680 17681 17682 17683 17684 17685 17686 17687 17688 17689 17690 17691 17692 17693 17694 17695 17696 17697 17698 17699 17700 17701 17702 17703 17704 17705 17706 17707 17708 17709 17710 17711 17712 17713 17714 17715 17716 17717 17718 17719 17720 17721 17722 17723 17724 17725 17726 17727 17728 17729 17730 17731 17732 17733 17734 17735 17736 17737 17738 17739 17740 17741 17742 17743 17744 17745 17746 17747 17748 17749 17750 17751 17752 17753 17754 17755 17756 17757 17758 17759 17760 17761 17762 17763 17764 17765 17766 17767 17768 17769 17770 17771 17772 17773 17774 17775 17776 17777 17778 17779 17780 17781 17782 17783 17784 17785 17786 17787 17788 17789 17790 17791 17792 17793 17794 17795 17796 17797 17798 17799 17800 17801 17802 17803 17804 17805 17806 17807 17808 17809 17810 17811 17812 17813 17814 17815 17816 17817 17818 17819 17820 17821 17822 17823 17824 17825 17826 17827 17828 17829 17830 17831 17832 17833 17834 17835 17836 17837 17838 17839 17840 17841 17842 17843 17844 17845 17846 17847 17848 17849 17850 17851 17852 17853 17854 17855 17856 17857 17858 17859 17860 17861 17862 17863 17864 17865 17866 17867 17868 17869 17870 17871 17872 17873 17874 17875 17876 17877 17878 17879 17880 17881 17882 17883 17884 17885 17886 17887 17888 17889 17890 17891 17892 17893 17894 17895 17896 17897 17898 17899 17900 17901 17902 17903 17904 17905 17906 17907 17908 17909 17910 17911 17912 17913 17914 17915 17916 17917 17918 17919 17920 17921 17922 17923 17924 17925 17926 17927 17928 17929 17930 17931 17932 17933 17934 17935 17936 17937 17938 17939 17940 17941 17942 17943 17944 17945 17946 17947 17948 17949 17950 17951 17952 17953 17954 17955 17956 17957 17958 17959 17960 17961 17962 17963 17964 17965 17966 17967 17968 17969 17970 17971 17972 17973 17974 17975 17976 17977 17978 17979 17980 17981 17982 17983 17984 17985 17986 17987 17988 17989 17990 17991 17992 17993 17994 17995 17996 17997 17998 17999 18000 18001 18002 18003 18004 18005 18006 18007 18008 18009 18010 18011 18012 18013 18014 18015 18016 18017 18018 18019 18020 18021 18022 18023 18024 18025 18026 18027 18028 18029 18030 18031 18032 18033 18034 18035 18036 18037 18038 18039 18040 18041 18042 18043 18044 18045 18046 18047 18048 18049 18050 18051 18052 18053 18054 18055 18056 18057 18058 18059 18060 18061 18062 18063 18064 18065 18066 18067 18068 18069 18070 18071 18072 18073 18074 18075 18076 18077 18078 18079 18080 18081 18082 18083 18084 18085 18086 18087 18088 18089 18090 18091 18092 18093 18094 18095 18096 18097 18098 18099 18100 18101 18102 18103 18104 18105 18106 18107 18108 18109 18110 18111 18112 18113 18114 18115 18116 18117 18118 18119 18120 18121 18122 18123 18124 18125 18126 18127 18128 18129 18130 18131 18132 18133 18134 18135 18136 18137 18138 18139 18140 18141 18142 18143 18144 18145 18146 18147 18148 18149 18150 18151 18152 18153 18154 18155 18156 18157 18158 18159 18160 18161 18162 18163 18164 18165 18166 18167 18168 18169 18170 18171 18172 18173 18174 18175 18176 18177 18178 18179 18180 18181 18182 18183 18184 18185 18186 18187 18188 18189 18190 18191 18192 18193 18194 18195 18196 18197 18198 18199 18200 18201 18202 18203 18204 18205 18206 18207 18208 18209 18210 18211 18212 18213 18214 18215 18216 18217 18218 18219 18220 18221 18222 18223 18224 18225 18226 18227 18228 18229 18230 18231 18232 18233 18234 18235 18236 18237 18238 18239 18240 18241 18242 18243 18244 18245 18246 18247 18248 18249 18250 18251 18252 18253 18254 18255 18256 18257 18258 18259 18260 18261 18262 18263 18264 18265 18266 18267 18268 18269 18270 18271 18272 18273 18274 18275 18276 18277 18278 18279 18280 18281 18282 18283 18284 18285 18286 18287 18288 18289 18290 18291 18292 18293 18294 18295 18296 18297 18298 18299 18300 18301 18302 18303 18304 18305 18306 18307 18308 18309 18310 18311 18312 18313 18314 18315 18316 18317 18318 18319 18320 18321 18322 18323 18324 18325 18326 18327 18328 18329 18330 18331 18332 18333 18334 18335 18336 18337 18338 18339 18340 18341 18342 18343 18344 18345 18346 18347 18348 18349 18350 18351 18352 18353 18354 18355 18356 18357 18358 18359 18360 18361 18362 18363 18364 18365 18366 18367 18368 18369 18370 18371 18372 18373 18374 18375 18376 18377 18378 18379 18380 18381 18382 18383 18384 18385 18386 18387 18388 18389 18390 18391 18392 18393 18394 18395 18396 18397 18398 18399 18400 18401 18402 18403 18404 18405 18406 18407 18408 18409 18410 18411 18412 18413 18414 18415 18416 18417 18418 18419 18420 18421 18422 18423 18424 18425 18426 18427 18428 18429 18430 18431 18432 18433 18434 18435 18436 18437 18438 18439 18440 18441 18442 18443 18444 18445 18446 18447 18448 18449 18450 18451 18452 18453 18454 18455 18456 18457 18458 18459 18460 18461 18462 18463 18464 18465 18466 18467 18468 18469 18470 18471 18472 18473 18474 18475 18476 18477 18478 18479 18480 18481 18482 18483 18484 18485 18486 18487 18488 18489 18490 18491 18492 18493 18494 18495 18496 18497 18498 18499 18500 18501 18502 18503 18504 18505 18506 18507 18508 18509 18510 18511 18512 18513 18514 18515 18516 18517 18518 18519 18520 18521 18522 18523 18524 18525 18526 18527 18528 18529 18530 18531 18532 18533 18534 18535 18536 18537 18538 18539 18540 18541 18542 18543 18544 18545 18546 18547 18548 18549 18550 18551 18552 18553 18554 18555 18556 18557 18558 18559 18560 18561 18562 18563 18564 18565 18566 18567 18568 18569 18570 18571 18572 18573 18574 18575 18576 18577 18578 18579 18580 18581 18582 18583 18584 18585 18586 18587 18588 18589 18590 18591 18592 18593 18594 18595 18596 18597 18598 18599 18600 18601 18602 18603 18604 18605 18606 18607 18608 18609 18610 18611 18612 18613 18614 18615 18616 18617 18618 18619 18620 18621 18622 18623 18624 18625 18626 18627 18628 18629 18630 18631 18632 18633 18634 18635 18636 18637 18638 18639 18640 18641 18642 18643 18644 18645 18646 18647 18648 18649 18650 18651 18652 18653 18654 18655 18656 18657 18658 18659 18660 18661 18662 18663 18664 18665 18666 18667 18668 18669 18670 18671 18672 18673 18674 18675 18676 18677 18678 18679 18680 18681 18682 18683 18684 18685 18686 18687 18688 18689 18690 18691 18692 18693 18694 18695 18696 18697 18698 18699 18700 18701 18702 18703 18704 18705 18706 18707 18708 18709 18710 18711 18712 18713 18714 18715 18716 18717 18718 18719 18720 18721 18722 18723 18724 18725 18726 18727 18728 18729 18730 18731 18732 18733 18734 18735 18736 18737 18738 18739 18740 18741 18742 18743 18744 18745 18746 18747 18748 18749 18750 18751 18752 18753 18754 18755 18756 18757 18758 18759 18760 18761 18762 18763 18764 18765 18766 18767 18768 18769 18770 18771 18772 18773 18774 18775 18776 18777 18778 18779 18780 18781 18782 18783 18784 18785 18786 18787 18788 18789 18790 18791 18792 18793 18794 18795 18796 18797 18798 18799 18800 18801 18802 18803 18804 18805 18806 18807 18808 18809 18810 18811 18812 18813 18814 18815 18816 18817 18818 18819 18820 18821 18822 18823 18824 18825 18826 18827 18828 18829 18830 18831 18832 18833 18834 18835 18836 18837 18838 18839 18840 18841 18842 18843 18844 18845 18846 18847 18848 18849 18850 18851 18852 18853 18854 18855 18856 18857 18858 18859 18860 18861 18862 18863 18864 18865 18866 18867 18868 18869 18870 18871 18872 18873 18874 18875 18876 18877 18878 18879 18880 18881 18882 18883 18884 18885 18886 18887 18888 18889 18890 18891 18892 18893 18894 18895 18896 18897 18898 18899 18900 18901 18902 18903 18904 18905 18906 18907 18908 18909 18910 18911 18912 18913 18914 18915 18916 18917 18918 18919 18920 18921 18922 18923 18924 18925 18926 18927 18928 18929 18930 18931 18932 18933 18934 18935 18936 18937 18938 18939 18940 18941 18942 18943 18944 18945 18946 18947 18948 18949 18950 18951 18952 18953 18954 18955 18956 18957 18958 18959 18960 18961 18962 18963 18964 18965 18966 18967 18968 18969 18970 18971 18972 18973 18974 18975 18976 18977 18978 18979 18980 18981 18982 18983 18984 18985 18986 18987 18988 18989 18990 18991 18992 18993 18994 18995 18996 18997 18998 18999 19000 19001 19002 19003 19004 19005 19006 19007 19008 19009 19010 19011 19012 19013 19014 19015 19016 19017 19018 19019 19020 19021 19022 19023 19024 19025 19026 19027 19028 19029 19030 19031 19032 19033 19034 19035 19036 19037 19038 19039 19040 19041 19042 19043 19044 19045 19046 19047 19048 19049 19050 19051 19052 19053 19054 19055 19056 19057 19058 19059 19060 19061 19062 19063 19064 19065 19066 19067 19068 19069 19070 19071 19072 19073 19074 19075 19076 19077 19078 19079 19080 19081 19082 19083 19084 19085 19086 19087 19088 19089 19090 19091 19092 19093 19094 19095 19096 19097 19098 19099 19100 19101 19102 19103 19104 19105 19106 19107 19108 19109 19110 19111 19112 19113 19114 19115 19116 19117 19118 19119 19120 19121 19122 19123 19124 19125 19126 19127 19128 19129 19130 19131 19132 19133 19134 19135 19136 19137 19138 19139 19140 19141 19142 19143 19144 19145 19146 19147 19148 19149 19150 19151 19152 19153 19154 19155 19156 19157 19158 19159 19160 19161 19162 19163 19164 19165 19166 19167 19168 19169 19170 19171 19172 19173 19174 19175 19176 19177 19178 19179 19180 19181 19182 19183 19184 19185 19186 19187 19188 19189 19190 19191 19192 19193 19194 19195 19196 19197 19198 19199 19200 19201 19202 19203 19204 19205 19206 19207 19208 19209 19210 19211 19212 19213 19214 19215 19216 19217 19218 19219 19220 19221 19222 19223 19224 19225 19226 19227 19228 19229 19230 19231 19232 19233 19234 19235 19236 19237 19238 19239 19240 19241 19242 19243 19244 19245 19246 19247 19248 19249 19250 19251 19252 19253 19254 19255 19256 19257 19258 19259 19260 19261 19262 19263 19264 19265 19266 19267 19268 19269 19270 19271 19272 19273 19274 19275 19276 19277 19278 19279 19280 19281 19282 19283 19284 19285 19286 19287 19288 19289 19290 19291 19292 19293 19294 19295 19296 19297 19298 19299 19300 19301 19302 19303 19304 19305 19306 19307 19308 19309 19310 19311 19312 19313 19314 19315 19316 19317 19318 19319 19320 19321 19322 19323 19324 19325 19326 19327 19328 19329 19330 19331 19332 19333 19334 19335 19336 19337 19338 19339 19340 19341 19342 19343 19344 19345 19346 19347 19348 19349 19350 19351 19352 19353 19354 19355 19356 19357 19358 19359 19360 19361 19362 19363 19364 19365 19366 19367 19368 19369 19370 19371 19372 19373 19374 19375 19376 19377 19378 19379 19380 19381 19382 19383 19384 19385 19386 19387 19388 19389 19390 19391 19392 19393 19394 19395 19396 19397 19398 19399 19400 19401 19402 19403 19404 19405 19406 19407 19408 19409 19410 19411 19412 19413 19414 19415 19416 19417 19418 19419 19420 19421 19422 19423 19424 19425 19426 19427 19428 19429 19430 19431 19432 19433 19434 19435 19436 19437 19438 19439 19440 19441 19442 19443 19444 19445 19446 19447 19448 19449 19450 19451 19452 19453 19454 19455 19456 19457 19458 19459 19460 19461 19462 19463 19464 19465 19466 19467 19468 19469 19470 19471 19472 19473 19474 19475 19476 19477 19478 19479 19480 19481 19482 19483 19484 19485 19486 19487 19488 19489 19490 19491 19492 19493 19494 19495 19496 19497 19498 19499 19500 19501 19502 19503 19504 19505 19506 19507 19508 19509 19510 19511 19512 19513 19514 19515 19516 19517 19518 19519 19520 19521 19522 19523 19524 19525 19526 19527 19528 19529 19530 19531 19532 19533 19534 19535 19536 19537 19538 19539 19540 19541 19542 19543 19544 19545 19546 19547 19548 19549 19550 19551 19552 19553 19554 19555 19556 19557 19558 19559 19560 19561 19562 19563 19564 19565 19566 19567 19568 19569 19570 19571 19572 19573 19574 19575 19576 19577 19578 19579 19580 19581 19582 19583 19584 19585 19586 19587 19588 19589 19590 19591 19592 19593 19594 19595 19596 19597 19598 19599 19600 19601 19602 19603 19604 19605 19606 19607 19608 19609 19610 19611 19612 19613 19614 19615 19616 19617 19618 19619 19620 19621 19622 19623 19624 19625 19626 19627 19628 19629 19630 19631 19632 19633 19634 19635 19636 19637 19638 19639 19640 19641 19642 19643 19644 19645 19646 19647 19648 19649 19650 19651 19652 19653 19654 19655 19656 19657 19658 19659 19660 19661 19662 19663 19664 19665 19666 19667 19668 19669 19670 19671 19672 19673 19674 19675 19676 19677 19678 19679 19680 19681 19682 19683 19684 19685 19686 19687 19688 19689 19690 19691 19692 19693 19694 19695 19696 19697 19698 19699 19700 19701 19702 19703 19704 19705 19706 19707 19708 19709 19710 19711 19712 19713 19714 19715 19716 19717 19718 19719 19720 19721 19722 19723 19724 19725 19726 19727 19728 19729 19730 19731 19732 19733 19734 19735 19736 19737 19738 19739 19740 19741 19742 19743 19744 19745 19746 19747 19748 19749 19750 19751 19752 19753 19754 19755 19756 19757 19758 19759 19760 19761 19762 19763 19764 19765 19766 19767 19768 19769 19770 19771 19772 19773 19774 19775 19776 19777 19778 19779 19780 19781 19782 19783 19784 19785 19786 19787 19788 19789 19790 19791 19792 19793 19794 19795 19796 19797 19798 19799 19800 19801 19802 19803 19804 19805 19806 19807 19808 19809 19810 19811 19812 19813 19814 19815 19816 19817 19818 19819 19820 19821 19822 19823 19824 19825 19826 19827 19828 19829 19830 19831 19832 19833 19834 19835 19836 19837 19838 19839 19840 19841 19842 19843 19844 19845 19846 19847 19848 19849 19850 19851 19852 19853 19854 19855 19856 19857 19858 19859 19860 19861 19862 19863 19864 19865 19866 19867 19868 19869 19870 19871 19872 19873 19874 19875 19876 19877 19878 19879 19880 19881 19882 19883 19884 19885 19886 19887 19888 19889 19890 19891 19892 19893 19894 19895 19896 19897 19898 19899 19900 19901 19902 19903 19904 19905 19906 19907 19908 19909 19910 19911 19912 19913 19914 19915 19916 19917 19918 19919 19920 19921 19922 19923 19924 19925 19926 19927 19928 19929 19930 19931 19932 19933 19934 19935 19936 19937 19938 19939 19940 19941 19942 19943 19944 19945 19946 19947 19948 19949 19950 19951 19952 19953 19954 19955 19956 19957 19958 19959 19960 19961 19962 19963 19964 19965 19966 19967 19968 19969 19970 19971 19972 19973 19974 19975 19976 19977 19978 19979 19980 19981 19982 19983 19984 19985 19986 19987 19988 19989 19990 19991 19992 19993 19994 19995 19996 19997 19998 19999 20000 20001 20002 20003 20004 20005 20006 20007 20008 20009 20010 20011 20012 20013 20014 20015 20016 20017 20018 20019 20020 20021 20022 20023 20024 20025 20026 20027 20028 20029 20030 20031 20032 20033 20034 20035 20036 20037 20038 20039 20040 20041 20042 20043 20044 20045 20046 20047 20048 20049 20050 20051 20052 20053 20054 20055 20056 20057 20058 20059 20060 20061 20062 20063 20064 20065 20066 20067 20068 20069 20070 20071 20072 20073 20074 20075 20076 20077 20078 20079 20080 20081 20082 20083 20084 20085 20086 20087 20088 20089 20090 20091 20092 20093 20094 20095 20096 20097 20098 20099 20100 20101 20102 20103 20104 20105 20106 20107 20108 20109 20110 20111 20112 20113 20114 20115 20116 20117 20118 20119 20120 20121 20122 20123 20124 20125 20126 20127 20128 20129 20130 20131 20132 20133 20134 20135 20136 20137 20138 20139 20140 20141 20142 20143 20144 20145 20146 20147 20148 20149 20150 20151 20152 20153 20154 20155 20156 20157 20158 20159 20160 20161 20162 20163 20164 20165 20166 20167 20168 20169 20170 20171 20172 20173 20174 20175 20176 20177 20178 20179 20180 20181 20182 20183 20184 20185 20186 20187 20188 20189 20190 20191 20192 20193 20194 20195 20196 20197 20198 20199 20200 20201 20202 20203 20204 20205 20206 20207 20208 20209 20210 20211 20212 20213 20214 20215 20216 20217 20218 20219 20220 20221 20222 20223 20224 20225 20226 20227 20228 20229 20230 20231 20232 20233 20234 20235 20236 20237 20238 20239 20240 20241 20242 20243 20244 20245 20246 20247 20248 20249 20250 20251 20252 20253 20254 20255 20256 20257 20258 20259 20260 20261 20262 20263 20264 20265 20266 20267 20268 20269 20270 20271 20272 20273 20274 20275 20276 20277 20278 20279 20280 20281 20282 20283 20284 20285 20286 20287 20288 20289 20290 20291 20292 20293 20294 20295 20296 20297 20298 20299 20300 20301 20302 20303 20304 20305 20306 20307 20308 20309 20310 20311 20312 20313 20314 20315 20316 20317 20318 20319 20320 20321 20322 20323 20324 20325 20326 20327 20328 20329 20330 20331 20332 20333 20334 20335 20336 20337 20338 20339 20340 20341 20342 20343 20344 20345 20346 20347 20348 20349 20350 20351 20352 20353 20354 20355 20356 20357 20358 20359 20360 20361 20362 20363 20364 20365 20366 20367 20368 20369 20370 20371 20372 20373 20374 20375 20376 20377 20378 20379 20380 20381 20382 20383 20384 20385 20386 20387 20388 20389 20390 20391 20392 20393 20394 20395 20396 20397 20398 20399 20400 20401 20402 20403 20404 20405 20406 20407 20408 20409 20410 20411 20412 20413 20414 20415 20416 20417 20418 20419 20420 20421 20422 20423 20424 20425 20426 20427 20428 20429 20430 20431 20432 20433 20434 20435 20436 20437 20438 20439 20440 20441 20442 20443 20444 20445 20446 20447 20448 20449 20450 20451 20452 20453 20454 20455 20456 20457 20458 20459 20460 20461 20462 20463 20464 20465 20466 20467 20468 20469 20470 20471 20472 20473 20474 20475 20476 20477 20478 20479 20480 20481 20482 20483 20484 20485 20486 20487 20488 20489 20490 20491 20492 20493 20494 20495 20496 20497 20498 20499 20500 20501 20502 20503 20504 20505 20506 20507 20508 20509 20510 20511 20512 20513 20514 20515 20516 20517 20518 20519 20520 20521 20522 20523 20524 20525 20526 20527 20528 20529 20530 20531 20532 20533 20534 20535 20536 20537 20538 20539 20540 20541 20542 20543 20544 20545 20546 20547 20548 20549 20550 20551 20552 20553 20554 20555 20556 20557 20558 20559 20560 20561 20562 20563 20564 20565 20566 20567 20568 20569 20570 20571 20572 20573 20574 20575 20576 20577 20578 20579 20580 20581 20582 20583 20584 20585 20586 20587 20588 20589 20590 20591 20592 20593 20594 20595 20596 20597 20598 20599 20600 20601 20602 20603 20604 20605 20606 20607 20608 20609 20610 20611 20612 20613 20614 20615 20616 20617 20618 20619 20620 20621 20622 20623 20624 20625 20626 20627 20628 20629 20630 20631 20632 20633 20634 20635 20636 20637 20638 20639 20640 20641 20642 20643 20644 20645 20646 20647 20648 20649 20650 20651 20652 20653 20654 20655 20656 20657 20658 20659 20660 20661 20662 20663 20664 20665 20666 20667 20668 20669 20670 20671 20672 20673 20674 20675 20676 20677 20678 20679 20680 20681 20682 20683 20684 20685 20686 20687 20688 20689 20690 20691 20692 20693 20694 20695 20696 20697 20698 20699 20700 20701 20702 20703 20704 20705 20706 20707 20708 20709 20710 20711 20712 20713 20714 20715 20716 20717 20718 20719 20720 20721 20722 20723 20724 20725 20726 20727 20728 20729 20730 20731 20732 20733 20734 20735 20736 20737 20738 20739 20740 20741 20742 20743 20744 20745 20746 20747 20748 20749 20750 20751 20752 20753 20754 20755 20756 20757 20758 20759 20760 20761 20762 20763 20764 20765 20766 20767 20768 20769 20770 20771 20772 20773 20774 20775 20776 20777 20778 20779 20780 20781 20782 20783 20784 20785 20786 20787 20788 20789 20790 20791 20792 20793 20794 20795 20796 20797 20798 20799 20800 20801 20802 20803 20804 20805 20806 20807 20808 20809 20810 20811 20812 20813 20814 20815 20816 20817 20818 20819 20820 20821 20822 20823 20824 20825 20826 20827 20828 20829 20830 20831 20832 20833 20834 20835 20836 20837 20838 20839 20840 20841 20842 20843 20844 20845 20846 20847 20848 20849 20850 20851 20852 20853 20854 20855 20856 20857 20858 20859 20860 20861 20862 20863 20864 20865 20866 20867 20868 20869 20870 20871 20872 20873 20874 20875 20876 20877 20878 20879 20880 20881 20882 20883 20884 20885 20886 20887 20888 20889 20890 20891 20892 20893 20894 20895 20896 20897 20898 20899 20900 20901 20902 20903 20904 20905 20906 20907 20908 20909 20910 20911 20912 20913 20914 20915 20916 20917 20918 20919 20920 20921 20922 20923 20924 20925 20926 20927 20928 20929 20930 20931 20932 20933 20934 20935 20936 20937 20938 20939 20940 20941 20942 20943 20944 20945 20946 20947 20948 20949 20950 20951 20952 20953 20954 20955 20956 20957 20958 20959 20960 20961 20962 20963 20964 20965 20966 20967 20968 20969 20970 20971 20972 20973 20974 20975 20976 20977 20978 20979 20980 20981 20982 20983 20984 20985 20986 20987 20988 20989 20990 20991 20992 20993 20994 20995 20996 20997 20998 20999 21000 21001 21002 21003 21004 21005 21006 21007 21008 21009 21010 21011 21012 21013 21014 21015 21016 21017 21018 21019 21020 21021 21022 21023 21024 21025 21026 21027 21028 21029 21030 21031 21032 21033 21034 21035 21036 21037 21038 21039 21040 21041 21042 21043 21044 21045 21046 21047 21048 21049 21050 21051 21052 21053 21054 21055 21056 21057 21058 21059 21060 21061 21062 21063 21064 21065 21066 21067 21068 21069 21070 21071 21072 21073 21074 21075 21076 21077 21078 21079 21080 21081 21082 21083 21084 21085 21086 21087 21088 21089 21090 21091 21092 21093 21094 21095 21096 21097 21098 21099 21100 21101 21102 21103 21104 21105 21106 21107 21108 21109 21110 21111 21112 21113 21114 21115 21116 21117 21118 21119 21120 21121 21122 21123 21124 21125 21126 21127 21128 21129 21130 21131 21132 21133 21134 21135 21136 21137 21138 21139 21140 21141 21142 21143 21144 21145 21146 21147 21148 21149 21150 21151 21152 21153 21154 21155 21156 21157 21158 21159 21160 21161 21162 21163 21164 21165 21166 21167 21168 21169 21170 21171 21172 21173 21174 21175 21176 21177 21178 21179 21180 21181 21182 21183 21184 21185 21186 21187 21188 21189 21190 21191 21192 21193 21194 21195 21196 21197 21198 21199 21200 21201 21202 21203 21204 21205 21206 21207 21208 21209 21210 21211 21212 21213 21214 21215 21216 21217 21218 21219 21220 21221 21222 21223 21224 21225 21226 21227 21228 21229 21230 21231 21232 21233 21234 21235 21236 21237 21238 21239 21240 21241 21242 21243 21244 21245 21246 21247 21248 21249 21250 21251 21252 21253 21254 21255 21256 21257 21258 21259 21260 21261 21262 21263 21264 21265 21266 21267 21268 21269 21270 21271 21272 21273 21274 21275 21276 21277 21278 21279 21280 21281 21282 21283 21284 21285 21286 21287 21288 21289 21290 21291 21292 21293 21294 21295 21296 21297 21298 21299 21300 21301 21302 21303 21304 21305 21306 21307 21308 21309 21310 21311 21312 21313 21314 21315 21316 21317 21318 21319 21320 21321 21322 21323 21324 21325 21326 21327 21328 21329 21330 21331 21332 21333 21334 21335 21336 21337 21338 21339 21340 21341 21342 21343 21344 21345 21346 21347 21348 21349 21350 21351 21352 21353 21354 21355 21356 21357 21358 21359 21360 21361 21362 21363 21364 21365 21366 21367 21368 21369 21370 21371 21372 21373 21374 21375 21376 21377 21378 21379 21380 21381 21382 21383 21384 21385 21386 21387 21388 21389 21390 21391 21392 21393 21394 21395 21396 21397 21398 21399 21400 21401 21402 21403 21404 21405 21406 21407 21408 21409 21410 21411 21412 21413 21414 21415 21416 21417 21418 21419 21420 21421 21422 21423 21424 21425 21426 21427 21428 21429 21430 21431 21432 21433 21434 21435 21436 21437 21438 21439 21440 21441 21442 21443 21444 21445 21446 21447 21448 21449 21450 21451 21452 21453 21454 21455 21456 21457 21458 21459 21460 21461 21462 21463 21464 21465 21466 21467 21468 21469 21470 21471 21472 21473 21474 21475 21476 21477 21478 21479 21480 21481 21482 21483 21484 21485 21486 21487 21488 21489 21490 21491 21492 21493 21494 21495 21496 21497 21498 21499 21500 21501 21502 21503 21504 21505 21506 21507 21508 21509 21510 21511 21512 21513 21514 21515 21516 21517 21518 21519 21520 21521 21522 21523 21524 21525 21526 21527 21528 21529 21530 21531 21532 21533 21534 21535 21536 21537 21538 21539 21540 21541 21542 21543 21544 21545 21546 21547 21548 21549 21550 21551 21552 21553 21554 21555 21556 21557 21558 21559 21560 21561 21562 21563 21564 21565 21566 21567 21568 21569 21570 21571 21572 21573 21574 21575 21576 21577 21578 21579 21580 21581 21582 21583 21584 21585 21586 21587 21588 21589 21590 21591 21592 21593 21594 21595 21596 21597 21598 21599 21600 21601 21602 21603 21604 21605 21606 21607 21608 21609 21610 21611 21612 21613 21614 21615 21616 21617 21618 21619 21620 21621 21622 21623 21624 21625 21626 21627 21628 21629 21630 21631 21632 21633 21634 21635 21636 21637 21638 21639 21640 21641 21642 21643 21644 21645 21646 21647 21648 21649 21650 21651 21652 21653 21654 21655 21656 21657 21658 21659 21660 21661 21662 21663 21664 21665 21666 21667 21668 21669 21670 21671 21672 21673 21674 21675 21676 21677 21678 21679 21680 21681 21682 21683 21684 21685 21686 21687 21688 21689 21690 21691 21692 21693 21694 21695 21696 21697 21698 21699 21700 21701 21702 21703 21704 21705 21706 21707 21708 21709 21710 21711 21712 21713 21714 21715 21716 21717 21718 21719 21720 21721 21722 21723 21724 21725 21726 21727 21728 21729 21730 21731 21732 21733 21734 21735 21736 21737 21738 21739 21740 21741 21742 21743 21744 21745 21746 21747 21748 21749 21750 21751 21752 21753 21754 21755 21756 21757 21758 21759 21760 21761 21762 21763 21764 21765 21766 21767 21768 21769 21770 21771 21772 21773 21774 21775 21776 21777 21778 21779 21780 21781 21782 21783 21784 21785 21786 21787 21788 21789 21790 21791 21792 21793 21794 21795 21796 21797 21798 21799 21800 21801 21802 21803 21804 21805 21806 21807 21808 21809 21810 21811 21812 21813 21814 21815 21816 21817 21818 21819 21820 21821 21822 21823 21824 21825 21826 21827 21828 21829 21830 21831 21832 21833 21834 21835 21836 21837 21838 21839 21840 21841 21842 21843 21844 21845 21846 21847 21848 21849 21850 21851 21852 21853 21854 21855 21856 21857 21858 21859 21860 21861 21862 21863 21864 21865 21866 21867 21868 21869 21870 21871 21872 21873 21874 21875 21876 21877 21878 21879 21880 21881 21882 21883 21884 21885 21886 21887 21888 21889 21890 21891 21892 21893 21894 21895 21896 21897 21898 21899 21900 21901 21902 21903 21904 21905 21906 21907 21908 21909 21910 21911 21912 21913 21914 21915 21916 21917 21918 21919 21920 21921 21922 21923 21924 21925 21926 21927 21928 21929 21930 21931 21932 21933 21934 21935 21936 21937 21938 21939 21940 21941 21942 21943 21944 21945 21946 21947 21948 21949 21950 21951 21952 21953 21954 21955 21956 21957 21958 21959 21960 21961 21962 21963 21964 21965 21966 21967 21968 21969 21970 21971 21972 21973 21974 21975 21976 21977 21978 21979 21980 21981 21982 21983 21984 21985 21986 21987 21988 21989 21990 21991 21992 21993 21994 21995 21996 21997 21998 21999 22000 22001 22002 22003 22004 22005 22006 22007 22008 22009 22010 22011 22012 22013 22014 22015 22016 22017 22018 22019 22020 22021 22022 22023 22024 22025 22026 22027 22028 22029 22030 22031 22032 22033 22034 22035 22036 22037 22038 22039 22040 22041 22042 22043 22044 22045 22046 22047 22048 22049 22050 22051 22052 22053 22054 22055 22056 22057 22058 22059 22060 22061 22062 22063 22064 22065 22066 22067 22068 22069 22070 22071 22072 22073 22074 22075 22076 22077 22078 22079 22080 22081 22082 22083 22084 22085 22086 22087 22088 22089 22090 22091 22092 22093 22094 22095 22096 22097 22098 22099 22100 22101 22102 22103 22104 22105 22106 22107 22108 22109 22110 22111 22112 22113 22114 22115 22116 22117 22118 22119 22120 22121 22122 22123 22124 22125 22126 22127 22128 22129 22130 22131 22132 22133 22134 22135 22136 22137 22138 22139 22140 22141 22142 22143 22144 22145 22146 22147 22148 22149 22150 22151 22152 22153 22154 22155 22156 22157 22158 22159 22160 22161 22162 22163 22164 22165 22166 22167 22168 22169 22170 22171 22172 22173 22174 22175 22176 22177 22178 22179 22180 22181 22182 22183 22184 22185 22186 22187 22188 22189 22190 22191 22192 22193 22194 22195 22196 22197 22198 22199 22200 22201 22202 22203 22204 22205 22206 22207 22208 22209 22210 22211 22212 22213 22214 22215 22216 22217 22218 22219 22220 22221 22222 22223 22224 22225 22226 22227 22228 22229 22230 22231 22232 22233 22234 22235 22236 22237 22238 22239 22240 22241 22242 22243 22244 22245 22246 22247 22248 22249 22250 22251 22252 22253 22254 22255 22256 22257 22258 22259 22260 22261 22262 22263 22264 22265 22266 22267 22268 22269 22270 22271 22272 22273 22274 22275 22276 22277 22278 22279 22280 22281 22282 22283 22284 22285 22286 22287 22288 22289 22290 22291 22292 22293 22294 22295 22296 22297 22298 22299 22300 22301 22302 22303 22304 22305 22306 22307 22308 22309 22310 22311 22312 22313 22314 22315 22316 22317 22318 22319 22320 22321 22322 22323 22324 22325 22326 22327 22328 22329 22330 22331 22332 22333 22334 22335 22336 22337 22338 22339 22340 22341 22342 22343 22344 22345 22346 22347 22348 22349 22350 22351 22352 22353 22354 22355 22356 22357 22358 22359 22360 22361 22362 22363 22364 22365 22366 22367 22368 22369 22370 22371 22372 22373 22374 22375 22376 22377 22378 22379 22380 22381 22382 22383 22384 22385 22386 22387 22388 22389 22390 22391 22392 22393 22394 22395 22396 22397 22398 22399 22400 22401 22402 22403 22404 22405 22406 22407 22408 22409 22410 22411 22412 22413 22414 22415 22416 22417 22418 22419 22420 22421 22422 22423 22424 22425 22426 22427 22428 22429 22430 22431 22432 22433 22434 22435 22436 22437 22438 22439 22440 22441 22442 22443 22444 22445 22446 22447 22448 22449 22450 22451 22452 22453 22454 22455 22456 22457 22458 22459 22460 22461 22462 22463 22464 22465 22466 22467 22468 22469 22470 22471 22472 22473 22474 22475 22476 22477 22478 22479 22480 22481 22482 22483 22484 22485 22486 22487 22488 22489 22490 22491 22492 22493 22494 22495 22496 22497 22498 22499 22500 22501 22502 22503 22504 22505 22506 22507 22508 22509 22510 22511 22512 22513 22514 22515 22516 22517 22518 22519 22520 22521 22522 22523 22524 22525 22526 22527 22528 22529 22530 22531 22532 22533 22534 22535 22536 22537 22538 22539 22540 22541 22542 22543 22544 22545 22546 22547 22548 22549 22550 22551 22552 22553 22554 22555 22556 22557 22558 22559 22560 22561 22562 22563 22564 22565 22566 22567 22568 22569 22570 22571 22572 22573 22574 22575 22576 22577 22578 22579 22580 22581 22582 22583 22584 22585 22586 22587 22588 22589 22590 22591 22592 22593 22594 22595 22596 22597 22598 22599 22600 22601 22602 22603 22604 22605 22606 22607 22608 22609 22610 22611 22612 22613 22614 22615 22616 22617 22618 22619 22620 22621 22622 22623 22624 22625 22626 22627 22628 22629 22630 22631 22632 22633 22634 22635 22636 22637 22638 22639 22640 22641 22642 22643 22644 22645 22646 22647 22648 22649 22650 22651 22652 22653 22654 22655 22656 22657 22658 22659 22660 22661 22662 22663 22664 22665 22666 22667 22668 22669 22670 22671 22672 22673 22674 22675 22676 22677 22678 22679 22680 22681 22682 22683 22684 22685 22686 22687 22688 22689 22690 22691 22692 22693 22694 22695 22696 22697 22698 22699 22700 22701 22702 22703 22704 22705 22706 22707 22708 22709 22710 22711 22712 22713 22714 22715 22716 22717 22718 22719 22720 22721 22722 22723 22724 22725 22726 22727 22728 22729 22730 22731 22732 22733 22734 22735 22736 22737 22738 22739 22740 22741 22742 22743 22744 22745 22746 22747 22748 22749 22750 22751 22752 22753 22754 22755 22756 22757 22758 22759 22760 22761 22762 22763 22764 22765 22766 22767 22768 22769 22770 22771 22772 22773 22774 22775 22776 22777 22778 22779 22780 22781 22782 22783 22784 22785 22786 22787 22788 22789 22790 22791 22792 22793 22794 22795 22796 22797 22798 22799 22800 22801 22802 22803 22804 22805 22806 22807 22808 22809 22810 22811 22812 22813 22814 22815 22816 22817 22818 22819 22820 22821 22822 22823 22824 22825 22826 22827 22828 22829 22830 22831 22832 22833 22834 22835 22836 22837 22838 22839 22840 22841 22842 22843 22844 22845 22846 22847 22848 22849 22850 22851 22852 22853 22854 22855 22856 22857 22858 22859 22860 22861 22862 22863 22864 22865 22866 22867 22868 22869 22870 22871 22872 22873 22874 22875 22876 22877 22878 22879 22880 22881 22882 22883 22884 22885 22886 22887 22888 22889 22890 22891 22892 22893 22894 22895 22896 22897 22898 22899 22900 22901 22902 22903 22904 22905 22906 22907 22908 22909 22910 22911 22912 22913 22914 22915 22916 22917 22918 22919 22920 22921 22922 22923 22924 22925 22926 22927 22928 22929 22930 22931 22932 22933 22934 22935 22936 22937 22938 22939 22940 22941 22942 22943 22944 22945 22946 22947 22948 22949 22950 22951 22952 22953 22954 22955 22956 22957 22958 22959 22960 22961 22962 22963 22964 22965 22966 22967 22968 22969 22970 22971 22972 22973 22974 22975 22976 22977 22978 22979 22980 22981 22982 22983 22984 22985 22986 22987 22988 22989 22990 22991 22992 22993 22994 22995 22996 22997 22998 22999 23000 23001 23002 23003 23004 23005 23006 23007 23008 23009 23010 23011 23012 23013 23014 23015 23016 23017 23018 23019 23020 23021 23022 23023 23024 23025 23026 23027 23028 23029 23030 23031 23032 23033 23034 23035 23036 23037 23038 23039 23040 23041 23042 23043 23044 23045 23046 23047 23048 23049 23050 23051 23052 23053 23054 23055 23056 23057 23058 23059 23060 23061 23062 23063 23064 23065 23066 23067 23068 23069 23070 23071 23072 23073 23074 23075 23076 23077 23078 23079 23080 23081 23082 23083 23084 23085 23086 23087 23088 23089 23090 23091 23092 23093 23094 23095 23096 23097 23098 23099 23100 23101 23102 23103 23104 23105 23106 23107 23108 23109 23110 23111 23112 23113 23114 23115 23116 23117 23118 23119 23120 23121 23122 23123 23124 23125 23126 23127 23128 23129 23130 23131 23132 23133 23134 23135 23136 23137 23138 23139 23140 23141 23142 23143 23144 23145 23146 23147 23148 23149 23150 23151 23152 23153 23154 23155 23156 23157 23158 23159 23160 23161 23162 23163 23164 23165 23166 23167 23168 23169 23170 23171 23172 23173 23174 23175 23176 23177 23178 23179 23180 23181 23182 23183 23184 23185 23186 23187 23188 23189 23190 23191 23192 23193 23194 23195 23196 23197 23198 23199 23200 23201 23202 23203 23204 23205 23206 23207 23208 23209 23210 23211 23212 23213 23214 23215 23216 23217 23218 23219 23220 23221 23222 23223 23224 23225 23226 23227 23228 23229 23230 23231 23232 23233 23234 23235 23236 23237 23238 23239 23240 23241 23242 23243 23244 23245 23246 23247 23248 23249 23250 23251 23252 23253 23254 23255 23256 23257 23258 23259 23260 23261 23262 23263 23264 23265 23266 23267 23268 23269 23270 23271 23272 23273 23274 23275 23276 23277 23278 23279 23280 23281 23282 23283 23284 23285 23286 23287 23288 23289 23290 23291 23292 23293 23294 23295 23296 23297 23298 23299 23300 23301 23302 23303 23304 23305 23306 23307 23308 23309 23310 23311 23312 23313 23314 23315 23316 23317 23318 23319 23320 23321 23322 23323 23324 23325 23326 23327 23328 23329 23330 23331 23332 23333 23334 23335 23336 23337 23338 23339 23340 23341 23342 23343 23344 23345 23346 23347 23348 23349 23350 23351 23352 23353 23354 23355 23356 23357 23358 23359 23360 23361 23362 23363 23364 23365 23366 23367 23368 23369 23370 23371 23372 23373 23374 23375 23376 23377 23378 23379 23380 23381 23382 23383 23384 23385 23386 23387 23388 23389 23390 23391 23392 23393 23394 23395 23396 23397 23398 23399 23400 23401 23402 23403 23404 23405 23406 23407 23408 23409 23410 23411 23412 23413 23414 23415 23416 23417 23418 23419 23420 23421 23422 23423 23424 23425 23426 23427 23428 23429 23430 23431 23432 23433 23434 23435 23436 23437 23438 23439 23440 23441 23442 23443 23444 23445 23446 23447 23448 23449 23450 23451 23452 23453 23454 23455 23456 23457 23458 23459 23460 23461 23462 23463 23464 23465 23466 23467 23468 23469 23470 23471 23472 23473 23474 23475 23476 23477 23478 23479 23480 23481 23482 23483 23484 23485 23486 23487 23488 23489 23490 23491 23492 23493 23494 23495 23496 23497 23498 23499 23500 23501 23502 23503 23504 23505 23506 23507 23508 23509 23510 23511 23512 23513 23514 23515 23516 23517 23518 23519 23520 23521 23522 23523 23524 23525 23526 23527 23528 23529 23530 23531 23532 23533 23534 23535 23536 23537 23538 23539 23540 23541 23542 23543 23544 23545 23546 23547 23548 23549 23550 23551 23552 23553 23554 23555 23556 23557 23558 23559 23560 23561 23562 23563 23564 23565 23566 23567 23568 23569 23570 23571 23572 23573 23574 23575 23576 23577 23578 23579 23580 23581 23582 23583 23584 23585 23586 23587 23588 23589 23590 23591 23592 23593 23594 23595 23596 23597 23598 23599 23600 23601 23602 23603 23604 23605 23606 23607 23608 23609 23610 23611 23612 23613 23614 23615 23616 23617 23618 23619 23620 23621 23622 23623 23624 23625 23626 23627 23628 23629 23630 23631 23632 23633 23634 23635 23636 23637 23638 23639 23640 23641 23642 23643 23644 23645 23646 23647 23648 23649 23650 23651 23652 23653 23654 23655 23656 23657 23658 23659 23660 23661 23662 23663 23664 23665 23666 23667 23668 23669 23670 23671 23672 23673 23674 23675 23676 23677 23678 23679 23680 23681 23682 23683 23684 23685 23686 23687 23688 23689 23690 23691 23692 23693 23694 23695 23696 23697 23698 23699 23700 23701 23702 23703 23704 23705 23706 23707 23708 23709 23710 23711 23712 23713 23714 23715 23716 23717 23718 23719 23720 23721 23722 23723 23724 23725 23726 23727 23728 23729 23730 23731 23732 23733 23734 23735 23736 23737 23738 23739 23740 23741 23742 23743 23744 23745 23746 23747 23748 23749 23750 23751 23752 23753 23754 23755 23756 23757 23758 23759 23760 23761 23762 23763 23764 23765 23766 23767 23768 23769 23770 23771 23772 23773 23774 23775 23776 23777 23778 23779 23780 23781 23782 23783 23784 23785 23786 23787 23788 23789 23790 23791 23792 23793 23794 23795 23796 23797 23798 23799 23800 23801 23802 23803 23804 23805 23806 23807 23808 23809 23810 23811 23812 23813 23814 23815 23816 23817 23818 23819 23820 23821 23822 23823 23824 23825 23826 23827 23828 23829 23830 23831 23832 23833 23834 23835 23836 23837 23838 23839 23840 23841 23842 23843 23844 23845 23846 23847 23848 23849 23850 23851 23852 23853 23854 23855 23856 23857 23858 23859 23860 23861 23862 23863 23864 23865 23866 23867 23868 23869 23870 23871 23872 23873 23874 23875 23876 23877 23878 23879 23880 23881 23882 23883 23884 23885 23886 23887 23888 23889 23890 23891 23892 23893 23894 23895 23896 23897 23898 23899 23900 23901 23902 23903 23904 23905 23906 23907 23908 23909 23910 23911 23912 23913 23914 23915 23916 23917 23918 23919 23920 23921 23922 23923 23924 23925 23926 23927 23928 23929 23930 23931 23932 23933 23934 23935 23936 23937 23938 23939 23940 23941 23942 23943 23944 23945 23946 23947 23948 23949 23950 23951 23952 23953 23954 23955 23956 23957 23958 23959 23960 23961 23962 23963 23964 23965 23966 23967 23968 23969 23970 23971 23972 23973 23974 23975 23976 23977 23978 23979 23980 23981 23982 23983 23984 23985 23986 23987 23988 23989 23990 23991 23992 23993 23994 23995 23996 23997 23998 23999 24000 24001 24002 24003 24004 24005 24006 24007 24008 24009 24010 24011 24012 24013 24014 24015 24016 24017 24018 24019 24020 24021 24022 24023 24024 24025 24026 24027 24028 24029 24030 24031 24032 24033 24034 24035 24036 24037 24038 24039 24040 24041 24042 24043 24044 24045 24046 24047 24048 24049 24050 24051 24052 24053 24054 24055 24056 24057 24058 24059 24060 24061 24062 24063 24064 24065 24066 24067 24068 24069 24070 24071 24072 24073 24074 24075 24076 24077 24078 24079 24080 24081 24082 24083 24084 24085 24086 24087 24088 24089 24090 24091 24092 24093 24094 24095 24096 24097 24098 24099 24100 24101 24102 24103 24104 24105 24106 24107 24108 24109 24110 24111 24112 24113 24114 24115 24116 24117 24118 24119 24120 24121 24122 24123 24124 24125 24126 24127 24128 24129 24130 24131 24132 24133 24134 24135 24136 24137 24138 24139 24140 24141 24142 24143 24144 24145 24146 24147 24148 24149 24150 24151 24152 24153 24154 24155 24156 24157 24158 24159 24160 24161 24162 24163 24164 24165 24166 24167 24168 24169 24170 24171 24172 24173 24174 24175 24176 24177 24178 24179 24180 24181 24182 24183 24184 24185 24186 24187 24188 24189 24190 24191 24192 24193 24194 24195 24196 24197 24198 24199 24200 24201 24202 24203 24204 24205 24206 24207 24208 24209 24210 24211 24212 24213 24214 24215 24216 24217 24218 24219 24220 24221 24222 24223 24224 24225 24226 24227 24228 24229 24230 24231 24232 24233 24234 24235 24236 24237 24238 24239 24240 24241 24242 24243 24244 24245 24246 24247 24248 24249 24250 24251 24252 24253 24254 24255 24256 24257 24258 24259 24260 24261 24262 24263 24264 24265 24266 24267 24268 24269 24270 24271 24272 24273 24274 24275 24276 24277 24278 24279 24280 24281 24282 24283 24284 24285 24286 24287 24288 24289 24290 24291 24292 24293 24294 24295 24296 24297 24298 24299 24300 24301 24302 24303 24304 24305 24306 24307 24308 24309 24310 24311 24312 24313 24314 24315 24316 24317 24318 24319 24320 24321 24322 24323 24324 24325 24326 24327 24328 24329 24330 24331 24332 24333 24334 24335 24336 24337 24338 24339 24340 24341 24342 24343 24344 24345 24346 24347 24348 24349 24350 24351 24352 24353 24354 24355 24356 24357 24358 24359 24360 24361 24362 24363 24364 24365 24366 24367 24368 24369 24370 24371 24372 24373 24374 24375 24376 24377 24378 24379 24380 24381 24382 24383 24384 24385 24386 24387 24388 24389 24390 24391 24392 24393 24394 24395 24396 24397 24398 24399 24400 24401 24402 24403 24404 24405 24406 24407 24408 24409 24410 24411 24412 24413 24414 24415 24416 24417 24418 24419 24420 24421 24422 24423 24424 24425 24426 24427 24428 24429 24430 24431 24432 24433 24434 24435 24436 24437 24438 24439 24440 24441 24442 24443 24444 24445 24446 24447 24448 24449 24450 24451 24452 24453 24454 24455 24456 24457 24458 24459 24460 24461 24462 24463 24464 24465 24466 24467 24468 24469 24470 24471 24472 24473 24474 24475 24476 24477 24478 24479 24480 24481 24482 24483 24484 24485 24486 24487 24488 24489 24490 24491 24492 24493 24494 24495 24496 24497 24498 24499 24500 24501 24502 24503 24504 24505 24506 24507 24508 24509 24510 24511 24512 24513 24514 24515 24516 24517 24518 24519 24520 24521 24522 24523 24524 24525 24526 24527 24528 24529 24530 24531 24532 24533 24534 24535 24536 24537 24538 24539 24540 24541 24542 24543 24544 24545 24546 24547 24548 24549 24550 24551 24552 24553 24554 24555 24556 24557 24558 24559 24560 24561 24562 24563 24564 24565 24566 24567 24568 24569 24570 24571 24572 24573 24574 24575 24576 24577 24578 24579 24580 24581 24582 24583 24584 24585 24586 24587 24588 24589 24590 24591 24592 24593 24594 24595 24596 24597 24598 24599 24600 24601 24602 24603 24604 24605 24606 24607 24608 24609 24610 24611 24612 24613 24614 24615 24616 24617 24618 24619 24620 24621 24622 24623 24624 24625 24626 24627 24628 24629 24630 24631 24632 24633 24634 24635 24636 24637 24638 24639 24640 24641 24642 24643 24644 24645 24646 24647 24648 24649 24650 24651 24652 24653 24654 24655 24656 24657 24658 24659 24660 24661 24662 24663 24664 24665 24666 24667 24668 24669 24670 24671 24672 24673 24674 24675 24676 24677 24678 24679 24680 24681 24682 24683 24684 24685 24686 24687 24688 24689 24690 24691 24692 24693 24694 24695 24696 24697 24698 24699 24700 24701 24702 24703 24704 24705 24706 24707 24708 24709 24710 24711 24712 24713 24714 24715 24716 24717 24718 24719 24720 24721 24722 24723 24724 24725 24726 24727 24728 24729 24730 24731 24732 24733 24734 24735 24736 24737 24738 24739 24740 24741 24742 24743 24744 24745 24746 24747 24748 24749 24750 24751 24752 24753 24754 24755 24756 24757 24758 24759 24760 24761 24762 24763 24764 24765 24766 24767 24768 24769 24770 24771 24772 24773 24774 24775 24776 24777 24778 24779 24780 24781 24782 24783 24784 24785 24786 24787 24788 24789 24790 24791 24792 24793 24794 24795 24796 24797 24798 24799 24800 24801 24802 24803 24804 24805 24806 24807 24808 24809 24810 24811 24812 24813 24814 24815 24816 24817 24818 24819 24820 24821 24822 24823 24824 24825 24826 24827 24828 24829 24830 24831 24832 24833 24834 24835 24836 24837 24838 24839 24840 24841 24842 24843 24844 24845 24846 24847 24848 24849 24850 24851 24852 24853 24854 24855 24856 24857 24858 24859 24860 24861 24862 24863 24864 24865 24866 24867 24868 24869 24870 24871 24872 24873 24874 24875 24876 24877 24878 24879 24880 24881 24882 24883 24884 24885 24886 24887 24888 24889 24890 24891 24892 24893 24894 24895 24896 24897 24898 24899 24900 24901 24902 24903 24904 24905 24906 24907 24908 24909 24910 24911 24912 24913 24914 24915 24916 24917 24918 24919 24920 24921 24922 24923 24924 24925 24926 24927 24928 24929 24930 24931 24932 24933 24934 24935 24936 24937 24938 24939 24940 24941 24942 24943 24944 24945 24946 24947 24948 24949 24950 24951 24952 24953 24954 24955 24956 24957 24958 24959 24960 24961 24962 24963 24964 24965 24966 24967 24968 24969 24970 24971 24972 24973 24974 24975 24976 24977 24978 24979 24980 24981 24982 24983 24984 24985 24986 24987 24988 24989 24990 24991 24992 24993 24994 24995 24996 24997 24998 24999 25000 25001 25002 25003 25004 25005 25006 25007 25008 25009 25010 25011 25012 25013 25014 25015 25016 25017 25018 25019 25020 25021 25022 25023 25024 25025 25026 25027 25028 25029 25030 25031 25032 25033 25034 25035 25036 25037 25038 25039 25040 25041 25042 25043 25044 25045 25046 25047 25048 25049 25050 25051 25052 25053 25054 25055 25056 25057 25058 25059 25060 25061 25062 25063 25064 25065 25066 25067 25068 25069 25070 25071 25072 25073 25074 25075 25076 25077 25078 25079 25080 25081 25082 25083 25084 25085 25086 25087 25088 25089 25090 25091 25092 25093 25094 25095 25096 25097 25098 25099 25100 25101 25102 25103 25104 25105 25106 25107 25108 25109 25110 25111 25112 25113 25114 25115 25116 25117 25118 25119 25120 25121 25122 25123 25124 25125 25126 25127 25128 25129 25130 25131 25132 25133 25134 25135 25136 25137 25138 25139 25140 25141 25142 25143 25144 25145 25146 25147 25148 25149 25150 25151 25152 25153 25154 25155 25156 25157 25158 25159 25160 25161 25162 25163 25164 25165 25166 25167 25168 25169 25170 25171 25172 25173 25174 25175 25176 25177 25178 25179 25180 25181 25182 25183 25184 25185 25186 25187 25188 25189 25190 25191 25192 25193 25194 25195 25196 25197 25198 25199 25200 25201 25202 25203 25204 25205 25206 25207 25208 25209 25210 25211 25212 25213 25214 25215 25216 25217 25218 25219 25220 25221 25222 25223 25224 25225 25226 25227 25228 25229 25230 25231 25232 25233 25234 25235 25236 25237 25238 25239 25240 25241 25242 25243 25244 25245 25246 25247 25248 25249 25250 25251 25252 25253 25254 25255 25256 25257 25258 25259 25260 25261 25262 25263 25264 25265 25266 25267 25268 25269 25270 25271 25272 25273 25274 25275 25276 25277 25278 25279 25280 25281 25282 25283 25284 25285 25286 25287 25288 25289 25290 25291 25292 25293 25294 25295 25296 25297 25298 25299 25300 25301 25302 25303 25304 25305 25306 25307 25308 25309 25310 25311 25312 25313 25314 25315 25316 25317 25318 25319 25320 25321 25322 25323 25324 25325 25326 25327 25328 25329 25330 25331 25332 25333 25334 25335 25336 25337 25338 25339 25340 25341 25342 25343 25344 25345 25346 25347 25348 25349 25350 25351 25352 25353 25354 25355 25356 25357 25358 25359 25360 25361 25362 25363 25364 25365 25366 25367 25368 25369 25370 25371 25372 25373 25374 25375 25376 25377 25378 25379 25380 25381 25382 25383 25384 25385 25386 25387 25388 25389 25390 25391 25392 25393 25394 25395 25396 25397 25398 25399 25400 25401 25402 25403 25404 25405 25406 25407 25408 25409 25410 25411 25412 25413 25414 25415 25416 25417 25418 25419 25420 25421 25422 25423 25424 25425 25426 25427 25428 25429 25430 25431 25432 25433 25434 25435 25436 25437 25438 25439 25440 25441 25442 25443 25444 25445 25446 25447 25448 25449 25450 25451 25452 25453 25454 25455 25456 25457 25458 25459 25460 25461 25462 25463 25464 25465 25466 25467 25468 25469 25470 25471 25472 25473 25474 25475 25476 25477 25478 25479 25480 25481 25482 25483 25484 25485 25486 25487 25488 25489 25490 25491 25492 25493 25494 25495 25496 25497 25498 25499 25500 25501 25502 25503 25504 25505 25506 25507 25508 25509 25510 25511 25512 25513 25514 25515 25516 25517 25518 25519 25520 25521 25522 25523 25524 25525 25526 25527 25528 25529 25530 25531 25532 25533 25534 25535 25536 25537 25538 25539 25540 25541 25542 25543 25544 25545 25546 25547 25548 25549 25550 25551 25552 25553 25554 25555 25556 25557 25558 25559 25560 25561 25562 25563 25564 25565 25566 25567 25568 25569 25570 25571 25572 25573 25574 25575 25576 25577 25578 25579 25580 25581 25582 25583 25584 25585 25586 25587 25588 25589 25590 25591 25592 25593 25594 25595 25596 25597 25598 25599 25600 25601 25602 25603 25604 25605 25606 25607 25608 25609 25610 25611 25612 25613 25614 25615 25616 25617 25618 25619 25620 25621 25622 25623 25624 25625 25626 25627 25628 25629 25630 25631 25632 25633 25634 25635 25636 25637 25638 25639 25640 25641 25642 25643 25644 25645 25646 25647 25648 25649 25650 25651 25652 25653 25654 25655 25656 25657 25658 25659 25660 25661 25662 25663 25664 25665 25666 25667 25668 25669 25670 25671 25672 25673 25674 25675 25676 25677 25678 25679 25680 25681 25682 25683 25684 25685 25686 25687 25688 25689 25690 25691 25692 25693 25694 25695 25696 25697 25698 25699 25700 25701 25702 25703 25704 25705 25706 25707 25708 25709 25710 25711 25712 25713 25714 25715 25716 25717 25718 25719 25720 25721 25722 25723 25724 25725 25726 25727 25728 25729 25730 25731 25732 25733 25734 25735 25736 25737 25738 25739 25740 25741 25742 25743 25744 25745 25746 25747 25748 25749 25750 25751 25752 25753 25754 25755 25756 25757 25758 25759 25760 25761 25762 25763 25764 25765 25766 25767 25768 25769 25770 25771 25772 25773 25774 25775 25776 25777 25778 25779 25780 25781 25782 25783 25784 25785 25786 25787 25788 25789 25790 25791 25792 25793 25794 25795 25796 25797 25798 25799 25800 25801 25802 25803 25804 25805 25806 25807 25808 25809 25810 25811 25812 25813 25814 25815 25816 25817 25818 25819 25820 25821 25822 25823 25824 25825 25826 25827 25828 25829 25830 25831 25832 25833 25834 25835 25836 25837 25838 25839 25840 25841 25842 25843 25844 25845 25846 25847 25848 25849 25850 25851 25852 25853 25854 25855 25856 25857 25858 25859 25860 25861 25862 25863 25864 25865 25866 25867 25868 25869 25870 25871 25872 25873 25874 25875 25876 25877 25878 25879 25880 25881 25882 25883 25884 25885 25886 25887 25888 25889 25890 25891 25892 25893 25894 25895 25896 25897 25898 25899 25900 25901 25902 25903 25904 25905 25906 25907 25908 25909 25910 25911 25912 25913 25914 25915 25916 25917 25918 25919 25920 25921 25922 25923 25924 25925 25926 25927 25928 25929 25930 25931 25932 25933 25934 25935 25936 25937 25938 25939 25940 25941 25942 25943 25944 25945 25946 25947 25948 25949 25950 25951 25952 25953 25954 25955 25956 25957 25958 25959 25960 25961 25962 25963 25964 25965 25966 25967 25968 25969 25970 25971 25972 25973 25974 25975 25976 25977 25978 25979 25980 25981 25982 25983 25984 25985 25986 25987 25988 25989 25990 25991 25992 25993 25994 25995 25996 25997 25998 25999 26000 26001 26002 26003 26004 26005 26006 26007 26008 26009 26010 26011 26012 26013 26014 26015 26016 26017 26018 26019 26020 26021 26022 26023 26024 26025 26026 26027 26028 26029 26030 26031 26032 26033 26034 26035 26036 26037 26038 26039 26040 26041 26042 26043 26044 26045 26046 26047 26048 26049 26050 26051 26052 26053 26054 26055 26056 26057 26058 26059 26060 26061 26062 26063 26064 26065 26066 26067 26068 26069 26070 26071 26072 26073 26074 26075 26076 26077 26078 26079 26080 26081 26082 26083 26084 26085 26086 26087 26088 26089 26090 26091 26092 26093 26094 26095 26096 26097 26098 26099 26100 26101 26102 26103 26104 26105 26106 26107 26108 26109 26110 26111 26112 26113 26114 26115 26116 26117 26118 26119 26120 26121 26122 26123 26124 26125 26126 26127 26128 26129 26130 26131 26132 26133 26134 26135 26136 26137 26138 26139 26140 26141 26142 26143 26144 26145 26146 26147 26148 26149 26150 26151 26152 26153 26154 26155 26156 26157 26158 26159 26160 26161 26162 26163 26164 26165 26166 26167 26168 26169 26170 26171 26172 26173 26174 26175 26176 26177 26178 26179 26180 26181 26182 26183 26184 26185 26186 26187 26188 26189 26190 26191 26192 26193 26194 26195 26196 26197 26198 26199 26200 26201 26202 26203 26204 26205 26206 26207 26208 26209 26210 26211 26212 26213 26214 26215 26216 26217 26218 26219 26220 26221 26222 26223 26224 26225 26226 26227 26228 26229 26230 26231 26232 26233 26234 26235 26236 26237 26238 26239 26240 26241 26242 26243 26244 26245 26246 26247 26248 26249 26250 26251 26252 26253 26254 26255 26256 26257 26258 26259 26260 26261 26262 26263 26264 26265 26266 26267 26268 26269 26270 26271 26272 26273 26274 26275 26276 26277 26278 26279 26280 26281 26282 26283 26284 26285 26286 26287 26288 26289 26290 26291 26292 26293 26294 26295 26296 26297 26298 26299 26300 26301 26302 26303 26304 26305 26306 26307 26308 26309 26310 26311 26312 26313 26314 26315 26316 26317 26318 26319 26320 26321 26322 26323 26324 26325 26326 26327 26328 26329 26330 26331 26332 26333 26334 26335 26336 26337 26338 26339 26340 26341 26342 26343 26344 26345 26346 26347 26348 26349 26350 26351 26352 26353 26354 26355 26356 26357 26358 26359 26360 26361 26362 26363 26364 26365 26366 26367 26368 26369 26370 26371 26372 26373 26374 26375 26376 26377 26378 26379 26380 26381 26382 26383 26384 26385 26386 26387 26388 26389 26390 26391 26392 26393 26394 26395 26396 26397 26398 26399 26400 26401 26402 26403 26404 26405 26406 26407 26408 26409 26410 26411 26412 26413 26414 26415 26416 26417 26418 26419 26420 26421 26422 26423 26424 26425 26426 26427 26428 26429 26430 26431 26432 26433 26434 26435 26436 26437 26438 26439 26440 26441 26442 26443 26444 26445 26446 26447 26448 26449 26450 26451 26452 26453 26454 26455 26456 26457 26458 26459 26460 26461 26462 26463 26464 26465 26466 26467 26468 26469 26470 26471 26472 26473 26474 26475 26476 26477 26478 26479 26480 26481 26482 26483 26484 26485 26486 26487 26488 26489 26490 26491 26492 26493 26494 26495 26496 26497 26498 26499 26500 26501 26502 26503 26504 26505 26506 26507 26508 26509 26510 26511 26512 26513 26514 26515 26516 26517 26518 26519 26520 26521 26522 26523 26524 26525 26526 26527 26528 26529 26530 26531 26532 26533 26534 26535 26536 26537 26538 26539 26540 26541 26542 26543 26544 26545 26546 26547 26548 26549 26550 26551 26552 26553 26554 26555 26556 26557 26558 26559 26560 26561 26562 26563 26564 26565 26566 26567 26568 26569 26570 26571 26572 26573 26574 26575 26576 26577 26578 26579 26580 26581 26582 26583 26584 26585 26586 26587 26588 26589 26590 26591 26592 26593 26594 26595 26596 26597 26598 26599 26600 26601 26602 26603 26604 26605 26606 26607 26608 26609 26610 26611 26612 26613 26614 26615 26616 26617 26618 26619 26620 26621 26622 26623 26624 26625 26626 26627 26628 26629 26630 26631 26632 26633 26634 26635 26636 26637 26638 26639 26640 26641 26642 26643 26644 26645 26646 26647 26648 26649 26650 26651 26652 26653 26654 26655 26656 26657 26658 26659 26660 26661 26662 26663 26664 26665 26666 26667 26668 26669 26670 26671 26672 26673 26674 26675 26676 26677 26678 26679 26680 26681 26682 26683 26684 26685 26686 26687 26688 26689 26690 26691 26692 26693 26694 26695 26696 26697 26698 26699 26700 26701 26702 26703 26704 26705 26706 26707 26708 26709 26710 26711 26712 26713 26714 26715 26716 26717 26718 26719 26720 26721 26722 26723 26724 26725 26726 26727 26728 26729 26730 26731 26732 26733 26734 26735 26736 26737 26738 26739 26740 26741 26742 26743 26744 26745 26746 26747 26748 26749 26750 26751 26752 26753 26754 26755 26756 26757 26758 26759 26760 26761 26762 26763 26764 26765 26766 26767 26768 26769 26770 26771 26772 26773 26774 26775 26776 26777 26778 26779 26780 26781 26782 26783 26784 26785 26786 26787 26788 26789 26790 26791 26792 26793 26794 26795 26796 26797 26798 26799 26800 26801 26802 26803 26804 26805 26806 26807 26808 26809 26810 26811 26812 26813 26814 26815 26816 26817 26818 26819 26820 26821 26822 26823 26824 26825 26826 26827 26828 26829 26830 26831 26832 26833 26834 26835 26836 26837 26838 26839 26840 26841 26842 26843 26844 26845 26846 26847 26848 26849 26850 26851 26852 26853 26854 26855 26856 26857 26858 26859 26860 26861 26862 26863 26864 26865 26866 26867 26868 26869 26870 26871 26872 26873 26874 26875 26876 26877 26878 26879 26880 26881 26882 26883 26884 26885 26886 26887 26888 26889 26890 26891 26892 26893 26894 26895 26896 26897 26898 26899 26900 26901 26902 26903 26904 26905 26906 26907 26908 26909 26910 26911 26912 26913 26914 26915 26916 26917 26918 26919 26920 26921 26922 26923 26924 26925 26926 26927 26928 26929 26930 26931 26932 26933 26934 26935 26936 26937 26938 26939 26940 26941 26942 26943 26944 26945 26946 26947 26948 26949 26950 26951 26952 26953 26954 26955 26956 26957 26958 26959 26960 26961 26962 26963 26964 26965 26966 26967 26968 26969 26970 26971 26972 26973 26974 26975 26976 26977 26978 26979 26980 26981 26982 26983 26984 26985 26986 26987 26988 26989 26990 26991 26992 26993 26994 26995 26996 26997 26998 26999 27000 27001 27002 27003 27004 27005 27006 27007 27008 27009 27010 27011 27012 27013 27014 27015 27016 27017 27018 27019 27020 27021 27022 27023 27024 27025 27026 27027 27028 27029 27030 27031 27032 27033 27034 27035 27036 27037 27038 27039 27040 27041 27042 27043 27044 27045 27046 27047 27048 27049 27050 27051 27052 27053 27054 27055 27056 27057 27058 27059 27060 27061 27062 27063 27064 27065 27066 27067 27068 27069 27070 27071 27072 27073 27074 27075 27076 27077 27078 27079 27080 27081 27082 27083 27084 27085 27086 27087 27088 27089 27090 27091 27092 27093 27094 27095 27096 27097 27098 27099 27100 27101 27102 27103 27104 27105 27106 27107 27108 27109 27110 27111 27112 27113 27114 27115 27116 27117 27118 27119 27120 27121 27122 27123 27124 27125 27126 27127 27128 27129 27130 27131 27132 27133 27134 27135 27136 27137 27138 27139 27140 27141 27142 27143 27144 27145 27146 27147 27148 27149 27150 27151 27152 27153 27154 27155 27156 27157 27158 27159 27160 27161 27162 27163 27164 27165 27166 27167 27168 27169 27170 27171 27172 27173 27174 27175 27176 27177 27178 27179 27180 27181 27182 27183 27184 27185 27186 27187 27188 27189 27190 27191 27192 27193 27194 27195 27196 27197 27198 27199 27200 27201 27202 27203 27204 27205 27206 27207 27208 27209 27210 27211 27212 27213 27214 27215 27216 27217 27218 27219 27220 27221 27222 27223 27224 27225 27226 27227 27228 27229 27230 27231 27232 27233 27234 27235 27236 27237 27238 27239 27240 27241 27242 27243 27244 27245 27246 27247 27248 27249 27250 27251 27252 27253 27254 27255 27256 27257 27258 27259 27260 27261 27262 27263 27264 27265 27266 27267 27268 27269 27270 27271 27272 27273 27274 27275 27276 27277 27278 27279 27280 27281 27282 27283 27284 27285 27286 27287 27288 27289 27290 27291 27292 27293 27294 27295 27296 27297 27298 27299 27300 27301 27302 27303 27304 27305 27306 27307 27308 27309 27310 27311 27312 27313 27314 27315 27316 27317 27318 27319 27320 27321 27322 27323 27324 27325 27326 27327 27328 27329 27330 27331 27332 27333 27334 27335 27336 27337 27338 27339 27340 27341 27342 27343 27344 27345 27346 27347 27348 27349 27350 27351 27352 27353 27354 27355 27356 27357 27358 27359 27360 27361 27362 27363 27364 27365 27366 27367 27368 27369 27370 27371 27372 27373 27374 27375 27376 27377 27378 27379 27380 27381 27382 27383 27384 27385 27386 27387 27388 27389 27390 27391 27392 27393 27394 27395 27396 27397 27398 27399 27400 27401 27402 27403 27404 27405 27406 27407 27408 27409 27410 27411 27412 27413 27414 27415 27416 27417 27418 27419 27420 27421 27422 27423 27424 27425 27426 27427 27428 27429 27430 27431 27432 27433 27434 27435 27436 27437 27438 27439 27440 27441 27442 27443 27444 27445 27446 27447 27448 27449 27450 27451 27452 27453 27454 27455 27456 27457 27458 27459 27460 27461 27462 27463 27464 27465 27466 27467 27468 27469 27470 27471 27472 27473 27474 27475 27476 27477 27478 27479 27480 27481 27482 27483 27484 27485 27486 27487 27488 27489 27490 27491 27492 27493 27494 27495 27496 27497 27498 27499 27500 27501 27502 27503 27504 27505 27506 27507 27508 27509 27510 27511 27512 27513 27514 27515 27516 27517 27518 27519 27520 27521 27522 27523 27524 27525 27526 27527 27528 27529 27530 27531 27532 27533 27534 27535 27536 27537 27538 27539 27540 27541 27542 27543 27544 27545 27546 27547 27548 27549 27550 27551 27552 27553 27554 27555 27556 27557 27558 27559 27560 27561 27562 27563 27564 27565 27566 27567 27568 27569 27570 27571 27572 27573 27574 27575 27576 27577 27578 27579 27580 27581 27582 27583 27584 27585 27586 27587 27588 27589 27590 27591 27592 27593 27594 27595 27596 27597 27598 27599 27600 27601 27602 27603 27604 27605 27606 27607 27608 27609 27610 27611 27612 27613 27614 27615 27616 27617 27618 27619 27620 27621 27622 27623 27624 27625 27626 27627 27628 27629 27630 27631 27632 27633 27634 27635 27636 27637 27638 27639 27640 27641 27642 27643 27644 27645 27646 27647 27648 27649 27650 27651 27652 27653 27654 27655 27656 27657 27658 27659 27660 27661 27662 27663 27664 27665 27666 27667 27668 27669 27670 27671 27672 27673 27674 27675 27676 27677 27678 27679 27680 27681 27682 27683 27684 27685 27686 27687 27688 27689 27690 27691 27692 27693 27694 27695 27696 27697 27698 27699 27700 27701 27702 27703 27704 27705 27706 27707 27708 27709 27710 27711 27712 27713 27714 27715 27716 27717 27718 27719 27720 27721 27722 27723 27724 27725 27726 27727 27728 27729 27730 27731 27732 27733 27734 27735 27736 27737 27738 27739 27740 27741 27742 27743 27744 27745 27746 27747 27748 27749 27750 27751 27752 27753 27754 27755 27756 27757 27758 27759 27760 27761 27762 27763 27764 27765 27766 27767 27768 27769 27770 27771 27772 27773 27774 27775 27776 27777 27778 27779 27780 27781 27782 27783 27784 27785 27786 27787 27788 27789 27790 27791 27792 27793 27794 27795 27796 27797 27798 27799 27800 27801 27802 27803 27804 27805 27806 27807 27808 27809 27810 27811 27812 27813 27814 27815 27816 27817 27818 27819 27820 27821 27822 27823 27824 27825 27826 27827 27828 27829 27830 27831 27832 27833 27834 27835 27836 27837 27838 27839 27840 27841 27842 27843 27844 27845 27846 27847 27848 27849 27850 27851 27852 27853 27854 27855 27856 27857 27858 27859 27860 27861 27862 27863 27864 27865 27866 27867 27868 27869 27870 27871 27872 27873 27874 27875 27876 27877 27878 27879 27880 27881 27882 27883 27884 27885 27886 27887 27888 27889 27890 27891 27892 27893 27894 27895 27896 27897 27898 27899 27900 27901 27902 27903 27904 27905 27906 27907 27908 27909 27910 27911 27912 27913 27914 27915 27916 27917 27918 27919 27920 27921 27922 27923 27924 27925 27926 27927 27928 27929 27930 27931 27932 27933 27934 27935 27936 27937 27938 27939 27940 27941 27942 27943 27944 27945 27946 27947 27948 27949 27950 27951 27952 27953 27954 27955 27956 27957 27958 27959 27960 27961 27962 27963 27964 27965 27966 27967 27968 27969 27970 27971 27972 27973 27974 27975 27976 27977 27978 27979 27980 27981 27982 27983 27984 27985 27986 27987 27988 27989 27990 27991 27992 27993 27994 27995 27996 27997 27998 27999 28000 28001 28002 28003 28004 28005 28006 28007 28008 28009 28010 28011 28012 28013 28014 28015 28016 28017 28018 28019 28020 28021 28022 28023 28024 28025 28026 28027 28028 28029 28030 28031 28032 28033 28034 28035 28036 28037 28038 28039 28040 28041 28042 28043 28044 28045 28046 28047 28048 28049 28050 28051 28052 28053 28054 28055 28056 28057 28058 28059 28060 28061 28062 28063 28064 28065 28066 28067 28068 28069 28070 28071 28072 28073 28074 28075 28076 28077 28078 28079 28080 28081 28082 28083 28084 28085 28086 28087 28088 28089 28090 28091 28092 28093 28094 28095 28096 28097 28098 28099 28100 28101 28102 28103 28104 28105 28106 28107 28108 28109 28110 28111 28112 28113 28114 28115 28116 28117 28118 28119 28120 28121 28122 28123 28124 28125 28126 28127 28128 28129 28130 28131 28132 28133 28134 28135 28136 28137 28138 28139 28140 28141 28142 28143 28144 28145 28146 28147 28148 28149 28150 28151 28152 28153 28154 28155 28156 28157 28158 28159 28160 28161 28162 28163 28164 28165 28166 28167 28168 28169 28170 28171 28172 28173 28174 28175 28176 28177 28178 28179 28180 28181 28182 28183 28184 28185 28186 28187 28188 28189 28190 28191 28192 28193 28194 28195 28196 28197 28198 28199 28200 28201 28202 28203 28204 28205 28206 28207 28208 28209 28210 28211 28212 28213 28214 28215 28216 28217 28218 28219 28220 28221 28222 28223 28224 28225 28226 28227 28228 28229 28230 28231 28232 28233 28234 28235 28236 28237 28238 28239 28240 28241 28242 28243 28244 28245 28246 28247 28248 28249 28250 28251 28252 28253 28254 28255 28256 28257 28258 28259 28260 28261 28262 28263 28264 28265 28266 28267 28268 28269 28270 28271 28272 28273 28274 28275 28276 28277 28278 28279 28280 28281 28282 28283 28284 28285 28286 28287 28288 28289 28290 28291 28292 28293 28294 28295 28296 28297 28298 28299 28300 28301 28302 28303 28304 28305 28306 28307 28308 28309 28310 28311 28312 28313 28314 28315 28316 28317 28318 28319 28320 28321 28322 28323 28324 28325 28326 28327 28328 28329 28330 28331 28332 28333 28334 28335 28336 28337 28338 28339 28340 28341 28342 28343 28344 28345 28346 28347 28348 28349 28350 28351 28352 28353 28354 28355 28356 28357 28358 28359 28360 28361 28362 28363 28364 28365 28366 28367 28368 28369 28370 28371 28372 28373 28374 28375 28376 28377 28378 28379 28380 28381 28382 28383 28384 28385 28386 28387 28388 28389 28390 28391 28392 28393 28394 28395 28396 28397 28398 28399 28400 28401 28402 28403 28404 28405 28406 28407 28408 28409 28410 28411 28412 28413 28414 28415 28416 28417 28418 28419 28420 28421 28422 28423 28424 28425 28426 28427 28428 28429 28430 28431 28432 28433 28434 28435 28436 28437 28438 28439 28440 28441 28442 28443 28444 28445 28446 28447 28448 28449 28450 28451 28452 28453 28454 28455 28456 28457 28458 28459 28460 28461 28462 28463 28464 28465 28466 28467 28468 28469 28470 28471 28472 28473 28474 28475 28476 28477 28478 28479 28480 28481 28482 28483 28484 28485 28486 28487 28488 28489 28490 28491 28492 28493 28494 28495 28496 28497 28498 28499 28500 28501 28502 28503 28504 28505 28506 28507 28508 28509 28510 28511 28512 28513 28514 28515 28516 28517 28518 28519 28520 28521 28522 28523 28524 28525 28526 28527 28528 28529 28530 28531 28532 28533 28534 28535 28536 28537 28538 28539 28540 28541 28542 28543 28544 28545 28546 28547 28548 28549 28550 28551 28552 28553 28554 28555 28556 28557 28558 28559 28560 28561 28562 28563 28564 28565 28566 28567 28568 28569 28570 28571 28572 28573 28574 28575 28576 28577 28578 28579 28580 28581 28582 28583 28584 28585 28586 28587 28588 28589 28590 28591 28592 28593 28594 28595 28596 28597 28598 28599 28600 28601 28602 28603 28604 28605 28606 28607 28608 28609 28610 28611 28612 28613 28614 28615 28616 28617 28618 28619 28620 28621 28622 28623 28624 28625 28626 28627 28628 28629 28630 28631 28632 28633 28634 28635 28636 28637 28638 28639 28640 28641 28642 28643 28644 28645 28646 28647 28648 28649 28650 28651 28652 28653 28654 28655 28656 28657 28658 28659 28660 28661 28662 28663 28664 28665 28666 28667 28668 28669 28670 28671 28672 28673 28674 28675 28676 28677 28678 28679 28680 28681 28682 28683 28684 28685 28686 28687 28688 28689 28690 28691 28692 28693 28694 28695 28696 28697 28698 28699 28700 28701 28702 28703 28704 28705 28706 28707 28708 28709 28710 28711 28712 28713 28714 28715 28716 28717 28718 28719 28720 28721 28722 28723 28724 28725 28726 28727 28728 28729 28730 28731 28732 28733 28734 28735 28736 28737 28738 28739 28740 28741 28742 28743 28744 28745 28746 28747 28748 28749 28750 28751 28752 28753 28754 28755 28756 28757 28758 28759 28760 28761 28762 28763 28764 28765 28766 28767 28768 28769 28770 28771 28772 28773 28774 28775 28776 28777 28778 28779 28780 28781 28782 28783 28784 28785 28786 28787 28788 28789 28790 28791 28792 28793 28794 28795 28796 28797 28798 28799 28800 28801 28802 28803 28804 28805 28806 28807 28808 28809 28810 28811 28812 28813 28814 28815 28816 28817 28818 28819 28820 28821 28822 28823 28824 28825 28826 28827 28828 28829 28830 28831 28832 28833 28834 28835 28836 28837 28838 28839 28840 28841 28842 28843 28844 28845 28846 28847 28848 28849 28850 28851 28852 28853 28854 28855 28856 28857 28858 28859 28860 28861 28862 28863 28864 28865 28866 28867 28868 28869 28870 28871 28872 28873 28874 28875 28876 28877 28878 28879 28880 28881 28882 28883 28884 28885 28886 28887 28888 28889 28890 28891 28892 28893 28894 28895 28896 28897 28898 28899 28900 28901 28902 28903 28904 28905 28906 28907 28908 28909 28910 28911 28912 28913 28914 28915 28916 28917 28918 28919 28920 28921 28922 28923 28924 28925 28926 28927 28928 28929 28930 28931 28932 28933 28934 28935 28936 28937 28938 28939 28940 28941 28942 28943 28944 28945 28946 28947 28948 28949 28950 28951 28952 28953 28954 28955 28956 28957 28958 28959 28960 28961 28962 28963 28964 28965 28966 28967 28968 28969 28970 28971 28972 28973 28974 28975 28976 28977 28978 28979 28980 28981 28982 28983 28984 28985 28986 28987 28988 28989 28990 28991 28992 28993 28994 28995 28996 28997 28998 28999 29000 29001 29002 29003 29004 29005 29006 29007 29008 29009 29010 29011 29012 29013 29014 29015 29016 29017 29018 29019 29020 29021 29022 29023 29024 29025 29026 29027 29028 29029 29030 29031 29032 29033 29034 29035 29036 29037 29038 29039 29040 29041 29042 29043 29044 29045 29046 29047 29048 29049 29050 29051 29052 29053 29054 29055 29056 29057 29058 29059 29060 29061 29062 29063 29064 29065 29066 29067 29068 29069 29070 29071 29072 29073 29074 29075 29076 29077 29078 29079 29080 29081 29082 29083 29084 29085 29086 29087 29088 29089 29090 29091 29092 29093 29094 29095 29096 29097 29098 29099 29100 29101 29102 29103 29104 29105 29106 29107 29108 29109 29110 29111 29112 29113 29114 29115 29116 29117 29118 29119 29120 29121 29122 29123 29124 29125 29126 29127 29128 29129 29130 29131 29132 29133 29134 29135 29136 29137 29138 29139 29140 29141 29142 29143 29144 29145 29146 29147 29148 29149 29150 29151 29152 29153 29154 29155 29156 29157 29158 29159 29160 29161 29162 29163 29164 29165 29166 29167 29168 29169 29170 29171 29172 29173 29174 29175 29176 29177 29178 29179 29180 29181 29182 29183 29184 29185 29186 29187 29188 29189 29190 29191 29192 29193 29194 29195 29196 29197 29198 29199 29200 29201 29202 29203 29204 29205 29206 29207 29208 29209 29210 29211 29212 29213 29214 29215 29216 29217 29218 29219 29220 29221 29222 29223 29224 29225 29226 29227 29228 29229 29230 29231 29232 29233 29234 29235 29236 29237 29238 29239 29240 29241 29242 29243 29244 29245 29246 29247 29248 29249 29250 29251 29252 29253 29254 29255 29256 29257 29258 29259 29260 29261 29262 29263 29264 29265 29266 29267 29268 29269 29270 29271 29272 29273 29274 29275 29276 29277 29278 29279 29280 29281 29282 29283 29284 29285 29286 29287 29288 29289 29290 29291 29292 29293 29294 29295 29296 29297 29298 29299 29300 29301 29302 29303 29304 29305 29306 29307 29308 29309 29310 29311 29312 29313 29314 29315 29316 29317 29318 29319 29320 29321 29322 29323 29324 29325 29326 29327 29328 29329 29330 29331 29332 29333 29334 29335 29336 29337 29338 29339 29340 29341 29342 29343 29344 29345 29346 29347 29348 29349 29350 29351 29352 29353 29354 29355 29356 29357 29358 29359 29360 29361 29362 29363 29364 29365 29366 29367 29368 29369 29370 29371 29372 29373 29374 29375 29376 29377 29378 29379 29380 29381 29382 29383 29384 29385 29386 29387 29388 29389 29390 29391 29392 29393 29394 29395 29396 29397 29398 29399 29400 29401 29402 29403 29404 29405 29406 29407 29408 29409 29410 29411 29412 29413 29414 29415 29416 29417 29418 29419 29420 29421 29422 29423 29424 29425 29426 29427 29428 29429 29430 29431 29432 29433 29434 29435 29436 29437 29438 29439 29440 29441 29442 29443 29444 29445 29446 29447 29448 29449 29450 29451 29452 29453 29454 29455 29456 29457 29458 29459 29460 29461 29462 29463 29464 29465 29466 29467 29468 29469 29470 29471 29472 29473 29474 29475 29476 29477 29478 29479 29480 29481 29482 29483 29484 29485 29486 29487 29488 29489 29490 29491 29492 29493 29494 29495 29496 29497 29498 29499 29500 29501 29502 29503 29504 29505 29506 29507 29508 29509 29510 29511 29512 29513 29514 29515 29516 29517 29518 29519 29520 29521 29522 29523 29524 29525 29526 29527 29528 29529 29530 29531 29532 29533 29534 29535 29536 29537 29538 29539 29540 29541 29542 29543 29544 29545 29546 29547 29548 29549 29550 29551 29552 29553 29554 29555 29556 29557 29558 29559 29560 29561 29562 29563 29564 29565 29566 29567 29568 29569 29570 29571 29572 29573 29574 29575 29576 29577 29578 29579 29580 29581 29582 29583 29584 29585 29586 29587 29588 29589 29590 29591 29592 29593 29594 29595 29596 29597 29598 29599 29600 29601 29602 29603 29604 29605 29606 29607 29608 29609 29610 29611 29612 29613 29614 29615 29616 29617 29618 29619 29620 29621 29622 29623 29624 29625 29626 29627 29628 29629 29630 29631 29632 29633 29634 29635 29636 29637 29638 29639 29640 29641 29642 29643 29644 29645 29646 29647 29648 29649 29650 29651 29652 29653 29654 29655 29656 29657 29658 29659 29660 29661 29662 29663 29664 29665 29666 29667 29668 29669 29670 29671 29672 29673 29674 29675 29676 29677 29678 29679 29680 29681 29682 29683 29684 29685 29686 29687 29688 29689 29690 29691 29692 29693 29694 29695 29696 29697 29698 29699 29700 29701 29702 29703 29704 29705 29706 29707 29708 29709 29710 29711 29712 29713 29714 29715 29716 29717 29718 29719 29720 29721 29722 29723 29724 29725 29726 29727 29728 29729 29730 29731 29732 29733 29734 29735 29736 29737 29738 29739 29740 29741 29742 29743 29744 29745 29746 29747 29748 29749 29750 29751 29752 29753 29754 29755 29756 29757 29758 29759 29760 29761 29762 29763 29764 29765 29766 29767 29768 29769 29770 29771 29772 29773 29774 29775 29776 29777 29778 29779 29780 29781 29782 29783 29784 29785 29786 29787 29788 29789 29790 29791 29792 29793 29794 29795 29796 29797 29798 29799 29800 29801 29802 29803 29804 29805 29806 29807 29808 29809 29810 29811 29812 29813 29814 29815 29816 29817 29818 29819 29820 29821 29822 29823 29824 29825 29826 29827 29828 29829 29830 29831 29832 29833 29834 29835 29836 29837 29838 29839 29840 29841 29842 29843 29844 29845 29846 29847 29848 29849 29850 29851 29852 29853 29854 29855 29856 29857 29858 29859 29860 29861 29862 29863 29864 29865 29866 29867 29868 29869 29870 29871 29872 29873 29874 29875 29876 29877 29878 29879 29880 29881 29882 29883 29884 29885 29886 29887 29888 29889 29890 29891 29892 29893 29894 29895 29896 29897 29898 29899 29900 29901 29902 29903 29904 29905 29906 29907 29908 29909 29910 29911 29912 29913 29914 29915 29916 29917 29918 29919 29920 29921 29922 29923 29924 29925 29926 29927 29928 29929 29930 29931 29932 29933 29934 29935 29936 29937 29938 29939 29940 29941 29942 29943 29944 29945 29946 29947 29948 29949 29950 29951 29952 29953 29954 29955 29956 29957 29958 29959 29960 29961 29962 29963 29964 29965 29966 29967 29968 29969 29970 29971 29972 29973 29974 29975 29976 29977 29978 29979 29980 29981 29982 29983 29984 29985 29986 29987 29988 29989 29990 29991 29992 29993 29994 29995 29996 29997 29998 29999 30000 30001 30002 30003 30004 30005 30006 30007 30008 30009 30010 30011 30012 30013 30014 30015 30016 30017 30018 30019 30020 30021 30022 30023 30024 30025 30026 30027 30028 30029 30030 30031 30032 30033 30034 30035 30036 30037 30038 30039 30040 30041 30042 30043 30044 30045 30046 30047 30048 30049 30050 30051 30052 30053 30054 30055 30056 30057 30058 30059 30060 30061 30062 30063 30064 30065 30066 30067 30068 30069 30070 30071 30072 30073 30074 30075 30076 30077 30078 30079 30080 30081 30082 30083 30084 30085 30086 30087 30088 30089 30090 30091 30092 30093 30094 30095 30096 30097 30098 30099 30100 30101 30102 30103 30104 30105 30106 30107 30108 30109 30110 30111 30112 30113 30114 30115 30116 30117 30118 30119 30120 30121 30122 30123 30124 30125 30126 30127 30128 30129 30130 30131 30132 30133 30134 30135 30136 30137 30138 30139 30140 30141 30142 30143 30144 30145 30146 30147 30148 30149 30150 30151 30152 30153 30154 30155 30156 30157 30158 30159 30160 30161 30162 30163 30164 30165 30166 30167 30168 30169 30170 30171 30172 30173 30174 30175 30176 30177 30178 30179 30180 30181 30182 30183 30184 30185 30186 30187 30188 30189 30190 30191 30192 30193 30194 30195 30196 30197 30198 30199 30200 30201 30202 30203 30204 30205 30206 30207 30208 30209 30210 30211 30212 30213 30214 30215 30216 30217 30218 30219 30220 30221 30222 30223 30224 30225 30226 30227 30228 30229 30230 30231 30232 30233 30234 30235 30236 30237 30238 30239 30240 30241 30242 30243 30244 30245 30246 30247 30248 30249 30250 30251 30252 30253 30254 30255 30256 30257 30258 30259 30260 30261 30262 30263 30264 30265 30266 30267 30268 30269 30270 30271 30272 30273 30274 30275 30276 30277 30278 30279 30280 30281 30282 30283 30284 30285 30286 30287 30288 30289 30290 30291 30292 30293 30294 30295 30296 30297 30298 30299 30300 30301 30302 30303 30304 30305 30306 30307 30308 30309 30310 30311 30312 30313 30314 30315 30316 30317 30318 30319 30320 30321 30322 30323 30324 30325 30326 30327 30328 30329 30330 30331 30332 30333 30334 30335 30336 30337 30338 30339 30340 30341 30342 30343 30344 30345 30346 30347 30348 30349 30350 30351 30352 30353 30354 30355 30356 30357 30358 30359 30360 30361 30362 30363 30364 30365 30366 30367 30368 30369 30370 30371 30372 30373 30374 30375 30376 30377 30378 30379 30380 30381 30382 30383 30384 30385 30386 30387 30388 30389 30390 30391 30392 30393 30394 30395 30396 30397 30398 30399 30400 30401 30402 30403 30404 30405 30406 30407 30408 30409 30410 30411 30412 30413 30414 30415 30416 30417 30418 30419 30420 30421 30422 30423 30424 30425 30426 30427 30428 30429 30430 30431 30432 30433 30434 30435 30436 30437 30438 30439 30440 30441 30442 30443 30444 30445 30446 30447 30448 30449 30450 30451 30452 30453 30454 30455 30456 30457 30458 30459 30460 30461 30462 30463 30464 30465 30466 30467 30468 30469 30470 30471 30472 30473 30474 30475 30476 30477 30478 30479 30480 30481 30482 30483 30484 30485 30486 30487 30488 30489 30490 30491 30492 30493 30494 30495 30496 30497 30498 30499 30500 30501 30502 30503 30504 30505 30506 30507 30508 30509 30510 30511 30512 30513 30514 30515 30516 30517 30518 30519 30520 30521 30522 30523 30524 30525 30526 30527 30528 30529 30530 30531 30532 30533 30534 30535 30536 30537 30538 30539 30540 30541 30542 30543 30544 30545 30546 30547 30548 30549 30550 30551 30552 30553 30554 30555 30556 30557 30558 30559 30560 30561 30562 30563 30564 30565 30566 30567 30568 30569 30570 30571 30572 30573 30574 30575 30576 30577 30578 30579 30580 30581 30582 30583 30584 30585 30586 30587 30588 30589 30590 30591 30592 30593 30594 30595 30596 30597 30598 30599 30600 30601 30602 30603 30604 30605 30606 30607 30608 30609 30610 30611 30612 30613 30614 30615 30616 30617 30618 30619 30620 30621 30622 30623 30624 30625 30626 30627 30628 30629 30630 30631 30632 30633 30634 30635 30636 30637 30638 30639 30640 30641 30642 30643 30644 30645 30646 30647 30648 30649 30650 30651 30652 30653 30654 30655 30656 30657 30658 30659 30660 30661 30662 30663 30664 30665 30666 30667 30668 30669 30670 30671 30672 30673 30674 30675 30676 30677 30678 30679 30680 30681 30682 30683 30684 30685 30686 30687 30688 30689 30690 30691 30692 30693 30694 30695 30696 30697 30698 30699 30700 30701 30702 30703 30704 30705 30706 30707 30708 30709 30710 30711 30712 30713 30714 30715 30716 30717 30718 30719 30720 30721 30722 30723 30724 30725 30726 30727 30728 30729 30730 30731 30732 30733 30734 30735 30736 30737 30738 30739 30740 30741 30742 30743 30744 30745 30746 30747 30748 30749 30750 30751 30752 30753 30754 30755 30756 30757 30758 30759 30760 30761 30762 30763 30764 30765 30766 30767 30768 30769 30770 30771 30772 30773 30774 30775 30776 30777 30778 30779 30780 30781 30782 30783 30784 30785 30786 30787 30788 30789 30790 30791 30792 30793 30794 30795 30796 30797 30798 30799 30800 30801 30802 30803 30804 30805 30806 30807 30808 30809 30810 30811 30812 30813 30814 30815 30816 30817 30818 30819 30820 30821 30822 30823 30824 30825 30826 30827 30828 30829 30830 30831 30832 30833 30834 30835 30836 30837 30838 30839 30840 30841 30842 30843 30844 30845 30846 30847 30848 30849 30850 30851 30852 30853 30854 30855 30856 30857 30858 30859 30860 30861 30862 30863 30864 30865 30866 30867 30868 30869 30870 30871 30872 30873 30874 30875 30876 30877 30878 30879 30880 30881 30882 30883 30884 30885 30886 30887 30888 30889 30890 30891 30892 30893 30894 30895 30896 30897 30898 30899 30900 30901 30902 30903 30904 30905 30906 30907 30908 30909 30910 30911 30912 30913 30914 30915 30916 30917 30918 30919 30920 30921 30922 30923 30924 30925 30926 30927 30928 30929 30930 30931 30932 30933 30934 30935 30936 30937 30938 30939 30940 30941 30942 30943 30944 30945 30946 30947 30948 30949 30950 30951 30952 30953 30954 30955 30956 30957 30958 30959 30960 30961 30962 30963 30964 30965 30966 30967 30968 30969 30970 30971 30972 30973 30974 30975 30976 30977 30978 30979 30980 30981 30982 30983 30984 30985 30986 30987 30988 30989 30990 30991 30992 30993 30994 30995 30996 30997 30998 30999 31000 31001 31002 31003 31004 31005 31006 31007 31008 31009 31010 31011 31012 31013 31014 31015 31016 31017 31018 31019 31020 31021 31022 31023 31024 31025 31026 31027 31028 31029 31030 31031 31032 31033 31034 31035 31036 31037 31038 31039 31040 31041 31042 31043 31044 31045 31046 31047 31048 31049 31050 31051 31052 31053 31054 31055 31056 31057 31058 31059 31060 31061 31062 31063 31064 31065 31066 31067 31068 31069 31070 31071 31072 31073 31074 31075 31076 31077 31078 31079 31080 31081 31082 31083 31084 31085 31086 31087 31088 31089 31090 31091 31092 31093 31094 31095 31096 31097 31098 31099 31100 31101 31102 31103 31104 31105 31106 31107 31108 31109 31110 31111 31112 31113 31114 31115 31116 31117 31118 31119 31120 31121 31122 31123 31124 31125 31126 31127 31128 31129 31130 31131 31132 31133 31134 31135 31136 31137 31138 31139 31140 31141 31142 31143 31144 31145 31146 31147 31148 31149 31150 31151 31152 31153 31154 31155 31156 31157 31158 31159 31160 31161 31162 31163 31164 31165 31166 31167 31168 31169 31170 31171 31172 31173 31174 31175 31176 31177 31178 31179 31180 31181 31182 31183 31184 31185 31186 31187 31188 31189 31190 31191 31192 31193 31194 31195 31196 31197 31198 31199 31200 31201 31202 31203 31204 31205 31206 31207 31208 31209 31210 31211 31212 31213 31214 31215 31216 31217 31218 31219 31220 31221 31222 31223 31224 31225 31226 31227 31228 31229 31230 31231 31232 31233 31234 31235 31236 31237 31238 31239 31240 31241 31242 31243 31244 31245 31246 31247 31248 31249 31250 31251 31252 31253 31254 31255 31256 31257 31258 31259 31260 31261 31262 31263 31264 31265 31266 31267 31268 31269 31270 31271 31272 31273 31274 31275 31276 31277 31278 31279 31280 31281 31282 31283 31284 31285 31286 31287 31288 31289 31290 31291 31292 31293 31294 31295 31296 31297 31298 31299 31300 31301 31302 31303 31304 31305 31306 31307 31308 31309 31310 31311 31312 31313 31314 31315 31316 31317 31318 31319 31320 31321 31322 31323 31324 31325 31326 31327 31328 31329 31330 31331 31332 31333 31334 31335 31336 31337 31338 31339 31340 31341 31342 31343 31344 31345 31346 31347 31348 31349 31350 31351 31352 31353 31354 31355 31356 31357 31358 31359 31360 31361 31362 31363 31364 31365 31366 31367 31368 31369 31370 31371 31372 31373 31374 31375 31376 31377 31378 31379 31380 31381 31382 31383 31384 31385 31386 31387 31388 31389 31390 31391 31392 31393 31394 31395 31396 31397 31398 31399 31400 31401 31402 31403 31404 31405 31406 31407 31408 31409 31410 31411 31412 31413 31414 31415 31416 31417 31418 31419 31420 31421 31422 31423 31424 31425 31426 31427 31428 31429 31430 31431 31432 31433 31434 31435 31436 31437 31438 31439 31440 31441 31442 31443 31444 31445 31446 31447 31448 31449 31450 31451 31452 31453 31454 31455 31456 31457 31458 31459 31460 31461 31462 31463 31464 31465 31466 31467 31468 31469 31470 31471 31472 31473 31474 31475 31476 31477 31478 31479 31480 31481 31482 31483 31484 31485 31486 31487 31488 31489 31490 31491 31492 31493 31494 31495 31496 31497 31498 31499 31500 31501 31502 31503 31504 31505 31506 31507 31508 31509 31510 31511 31512 31513 31514 31515 31516 31517 31518 31519 31520 31521 31522 31523 31524 31525 31526 31527 31528 31529 31530 31531 31532 31533 31534 31535 31536 31537 31538 31539 31540 31541 31542 31543 31544 31545 31546 31547 31548 31549 31550 31551 31552 31553 31554 31555 31556 31557 31558 31559 31560 31561 31562 31563 31564 31565 31566 31567 31568 31569 31570 31571 31572 31573 31574 31575 31576 31577 31578 31579 31580 31581 31582 31583 31584 31585 31586 31587 31588 31589 31590 31591 31592 31593 31594 31595 31596 31597 31598 31599 31600 31601 31602 31603 31604 31605 31606 31607 31608 31609 31610 31611 31612 31613 31614 31615 31616 31617 31618 31619 31620 31621 31622 31623 31624 31625 31626 31627 31628 31629 31630 31631 31632 31633 31634 31635 31636 31637 31638 31639 31640 31641 31642 31643 31644 31645 31646 31647 31648 31649 31650 31651 31652 31653 31654 31655 31656 31657 31658 31659 31660 31661 31662 31663 31664 31665 31666 31667 31668 31669 31670 31671 31672 31673 31674 31675 31676 31677 31678 31679 31680 31681 31682 31683 31684 31685 31686 31687 31688 31689 31690 31691 31692 31693 31694 31695 31696 31697 31698 31699 31700 31701 31702 31703 31704 31705 31706 31707 31708 31709 31710 31711 31712 31713 31714 31715 31716 31717 31718 31719 31720 31721 31722 31723 31724 31725 31726 31727 31728 31729 31730 31731 31732 31733 31734 31735 31736 31737 31738 31739 31740 31741 31742 31743 31744 31745 31746 31747 31748 31749 31750 31751 31752 31753 31754 31755 31756 31757 31758 31759 31760 31761 31762 31763 31764 31765 31766 31767 31768 31769 31770 31771 31772 31773 31774 31775 31776 31777 31778 31779 31780 31781 31782 31783 31784 31785 31786 31787 31788 31789 31790 31791 31792 31793 31794 31795 31796 31797 31798 31799 31800 31801 31802 31803 31804 31805 31806 31807 31808 31809 31810 31811 31812 31813 31814 31815 31816 31817 31818 31819 31820 31821 31822 31823 31824 31825 31826 31827 31828 31829 31830 31831 31832 31833 31834 31835 31836 31837 31838 31839 31840 31841 31842 31843 31844 31845 31846 31847 31848 31849 31850 31851 31852 31853 31854 31855 31856 31857 31858 31859 31860 31861 31862 31863 31864 31865 31866 31867 31868 31869 31870 31871 31872 31873 31874 31875 31876 31877 31878 31879 31880 31881 31882 31883 31884 31885 31886 31887 31888 31889 31890 31891 31892 31893 31894 31895 31896 31897 31898 31899 31900 31901 31902 31903 31904 31905 31906 31907 31908 31909 31910 31911 31912 31913 31914 31915 31916 31917 31918 31919 31920 31921 31922 31923 31924 31925 31926 31927 31928 31929 31930 31931 31932 31933 31934 31935 31936 31937 31938 31939 31940 31941 31942 31943 31944 31945 31946 31947 31948 31949 31950 31951 31952 31953 31954 31955 31956 31957 31958 31959 31960 31961 31962 31963 31964 31965 31966 31967 31968 31969 31970 31971 31972 31973 31974 31975 31976 31977 31978 31979 31980 31981 31982 31983 31984 31985 31986 31987 31988 31989 31990 31991 31992 31993 31994 31995 31996 31997 31998 31999 32000 32001 32002 32003 32004 32005 32006 32007 32008 32009 32010 32011 32012 32013 32014 32015 32016 32017 32018 32019 32020 32021 32022 32023 32024 32025 32026 32027 32028 32029 32030 32031 32032 32033 32034 32035 32036 32037 32038 32039 32040 32041 32042 32043 32044 32045 32046 32047 32048 32049 32050 32051 32052 32053 32054 32055 32056 32057 32058 32059 32060 32061 32062 32063 32064 32065 32066 32067 32068 32069 32070 32071 32072 32073 32074 32075 32076 32077 32078 32079 32080 32081 32082 32083 32084 32085 32086 32087 32088 32089 32090 32091 32092 32093 32094 32095 32096 32097 32098 32099 32100 32101 32102 32103 32104 32105 32106 32107 32108 32109 32110 32111 32112 32113 32114 32115 32116 32117 32118 32119 32120 32121 32122 32123 32124 32125 32126 32127 32128 32129 32130 32131 32132 32133 32134 32135 32136 32137 32138 32139 32140 32141 32142 32143 32144 32145 32146 32147 32148 32149 32150 32151 32152 32153 32154 32155 32156 32157 32158 32159 32160 32161 32162 32163 32164 32165 32166 32167 32168 32169 32170 32171 32172 32173 32174 32175 32176 32177 32178 32179 32180 32181 32182 32183 32184 32185 32186 
</DataArray>
<DataArray type="UInt32" Name="offsets" format="ascii">
3 6 9 12 15 18 21 24 27 30 33 36 39 42 45 48 51 53 56 59 62 65 68 71 73 76 79 82 85 88 91 94 97 99 102 105 108 111 114 117 120 123 126 129 132 135 138 141 144 147 149 152 155 158 161 163 165 168 171 174 177 179 182 185 188 191 194 197 199 202 205 208 210 213 215 218 221 224 227 230 233 236 238 241 244 247 250 253 256 259 262 265 268 271 274 277 280 283 286 289 292 295 298 301 304 307 310 313 316 319 322 325 328 331 334 336 339 342 345 348 351 354 357 360 363 365 368 371 374 377 380 383 385 388 391 394 397 399 402 405 408 410 413 416 419 422 425 428 431 434 437 440 443 446 448 451 454 456 459 462 465 468 471 474 477 480 482 485 488 491 494 497 500 502 504 507 510 512 515 518 521 524 527 530 533 536 539 542 545 548 550 553 556 559 562 565 568 571 574 576 579 582 585 588 591 594 597 600 602 605 607 610 613 615 617 620 622 625 628 631 634 637 640 643 646 649 652 655 658 661 664 667 670 673 676 679 682 685 688 691 694 697 700 702 705 708 711 714 716 719 722 725 728 731 733 735 737 739 741 744 747 750 752 755 758 761 764 767 770 773 776 779 781 784 787 790 793 796 799 801 804 806 809 812 815 818 821 824 827 830 833 836 839 842 845 848 850 853 856 859 862 864 867 870 873 876 879 882 885 888 891 894 897 900 903 906 909 912 914 917 920 923 926 929 932 935 938 941 944 947 950 953 956 959 961 964 967 970 973 976 978 981 983 986 988 991 994 997 999 1002 1005 1008 1011 1014 1017 1020 1022 1025 1028 1031 1034 1036 1039 1042 1044 1047 1050 1053 1056 1059 1062 1064 1067 1070 1073 1075 1078 1081 1084 1087 1090 1093 1096 1099 1102 1105 1107 1110 1113 1116 1119 1121 1124 1127 1130 1133 1136 1139 1142 1145 1148 1151 1153 1156 1158 1161 1164 1167 1170 1173 1175 1178 1181 1184 1187 1190 1193 1196 1199 1202 1205 1208 1211 1214 1216 1219 1222 1225 1227 1230 1232 1235 1238 1240 1243 1246 1248 1251 1254 1257 1260 1263 1266 1269 1272 1275 1278 1281 1284 1287 1290 1293 1296 1299 1302 1305 1308 1310 1313 1316 1319 1322 1325 1328 1331 1334 1337 1340 1343 1346 1349 1352 1355 1358 1361 1364 1367 1370 1373 1376 1379 1382 1385 1388 1391 1394 1397 1400 1403 1406 1409 1411 1414 1417 1420 1423 1426 1429 1432 1434 1437 1440 1443 1446 1449 1452 1455 1458 1461 1464 1467 1470 1473 1476 1479 1482 1485 1488 1491 1494 1497 1500 1503 1506 1509 1512 1515 1518 1521 1524 1527 1530 1533 1536 1539 1542 1545 1548 1551 1554 1557 1560 1563 1566 1569 1572 1575 1578 1581 1584 1587 1590 1593 1596 1599 1601 1604 1606 1609 1612 1615 1618 1620 1623 1625 1628 1631 1633 1636 1639 1642 1645 1648 1651 1654 1657 1660 1662 1665 1668 1670 1673 1676 1679 1681 1683 1686 1689 1692 1695 1698 1701 1704 1707 1710 1713 1716 1719 1722 1725 1728 1731 1734 1737 1740 1743 1746 1749 1752 1755 1758 1761 1764 1767 1769 1772 1775 1778 1781 1784 1787 1790 1793 1796 1798 1801 1804 1807 1810 1813 1816 1818 1821 1824 1827 1829 1832 1835 1838 1841 1844 1847 1850 1853 1855 1858 1861 1864 1867 1870 1873 1875 1878 1881 1884 1886 1889 1892 1895 1898 1900 1902 1905 1908 1911 1914 1917 1920 1922 1925 1928 1931 1934 1937 1939 1942 1944 1947 1950 1953 1956 1958 1961 1964 1966 1969 1971 1974 1977 1980 1983 1986 1988 1991 1994 1997 2000 2003 2006 2009 2011 2013 2016 2019 2022 2024 2027 2030 2033 2036 2039 2042 2045 2048 2051 2053 2056 2059 2061 2064 2067 2070 2073 2076 2079 2081 2084 2087 2090 2092 2095 2098 2101 2104 2107 2110 2113 2116 2119 2122 2124 2127 2130 2133 2135 2138 2141 2144 2147 2150 2153 2156 2159 2162 2165 2168 2171 2174 2176 2178 2181 2184 2187 2190 2193 2196 2198 2201 2204 2207 2210 2213 2216 2219 2222 2225 2227 2229 2231 2234 2237 2239 2242 2245 2248 2251 2254 2257 2260 2263 2266 2269 2272 2274 2277 2280 2282 2285 2288 2291 2294 2297 2300 2303 2306 2309 2312 2315 2318 2321 2324 2327 2330 2333 2336 2339 2342 2345 2347 2350 2353 2356 2358 2361 2364 2366 2369 2372 2375 2377 2380 2383 2386 2389 2392 2395 2398 2401 2404 2407 2410 2413 2416 2418 2421 2424 2426 2429 2432 2434 2437 2440 2443 2446 2448 2451 2454 2457 2460 2463 2466 2469 2472 2475 2478 2481 2484 2487 2490 2493 2496 2499 2502 2505 2508 2511 2514 2517 2520 2523 2526 2529 2532 2535 2538 2541 2544 2547 2550 2553 2556 2559 2562 2565 2568 2571 2574 2577 2580 2583 2586 2589 2592 2595 2598 2601 2604 2607 2610 2613 2616 2618 2621 2624 2627 2630 2633 2636 2639 2642 2645 2648 2651 2654 2657 2660 2663 2666 2669 2672 2675 2678 2681 2684 2687 2690 2693 2696 2698 2701 2704 2707 2710 2713 2716 2719 2721 2724 2727 2730 2733 2736 2739 2742 2745 2748 2751 2754 2757 2760 2763 2766 2769 2772 2775 2778 2781 2784 2787 2790 2793 2796 2799 2801 2804 2807 2810 2813 2816 2819 2822 2825 2828 2831 2833 2836 2839 2842 2845 2848 2851 2854 2857 2859 2862 2865 2868 2871 2873 2876 2878 2881 2883 2886 2889 2892 2895 2898 2901 2904 2907 2909 2912 2915 2918 2921 2924 2927 2930 2933 2935 2938 2941 2943 2945 2948 2951 2953 2956 2959 2962 2965 2968 2971 2974 2977 2980 2983 2986 2989 2992 2994 2997 3000 3003 3005 3007 3010 3013 3015 3018 3020 3023 3026 3029 3032 3035 3038 3041 3043 3046 3049 3052 3055 3058 3061 3064 3067 3070 3073 3075 3078 3081 3083 3086 3089 3092 3095 3098 3101 3103 3106 3109 3112 3114 3117 3120 3122 3125 3128 3131 3133 3136 3139 3142 3145 3148 3151 3154 3157 3159 3161 3164 3167 3170 3173 3176 3179 3182 3185 3188 3191 3194 3197 3199 3202 3205 3208 3211 3214 3217 3219 3222 3225 3228 3231 3234 3236 3239 3242 3245 3248 3251 3254 3257 3260 3262 3265 3268 3271 3274 3277 3280 3282 3285 3287 3289 3292 3295 3298 3300 3302 3305 3307 3310 3313 3316 3319 3322 3324 3327 3330 3333 3336 3339 3342 3345 3347 3350 3353 3356 3359 3361 3364 3366 3369 3372 3374 3377 3379 3382 3385 3388 3390 3393 3396 3399 3402 3405 3408 3411 3414 3417 3420 3423 3426 3428 3431 3434 3436 3439 3442 3445 3448 3451 3454 3457 3460 3463 3466 3469 3472 3475 3478 3481 3484 3487 3489 3492 3495 3497 3500 3502 3505 3508 3511 3514 3517 3520 3523 3525 3527 3530 3533 3536 3539 3542 3544 3547 3549 3551 3554 3557 3560 3562 3564 3567 3570 3573 3576 3579 3581 3584 3587 3590 3593 3596 3599 3602 3605 3608 3611 3614 3617 3619 3622 3625 3627 3630 3633 3636 3639 3642 3645 3648 3651 3654 3657 3659 3661 3664 3667 3670 3673 3676 3679 3682 3684 3687 3690 3693 3695 3698 3700 3703 3706 3709 3712 3715 3718 3721 3724 3727 3729 3732 3735 3738 3740 3743 3746 3749 3752 3755 3758 3761 3764 3767 3769 3772 3775 3778 3781 3784 3787 3790 3793 3796 3799 3802 3805 3808 3811 3814 3817 3820 3823 3826 3829 3832 3835 3838 3840 3842 3845 3848 3851 3854 3857 3860 3862 3864 3867 3870 3872 3875 3877 3880 3882 3885 3888 3891 3893 3896 3899 3901 3904 3906 3909 3911 3914 3917 3919 3922 3925 3928 3931 3934 3937 3939 3941 3944 3947 3950 3952 3955 3958 3961 3964 3966 3969 3972 3975 3978 3981 3983 3986 3989 3992 3995 3997 3999 4002 4005 4008 4011 4014 4017 4020 4022 4025 4028 4031 4034 4037 4040 4043 4046 4049 4052 4055 4058 4061 4064 4067 4069 4072 4075 4077 4079 4082 4085 4088 4091 4093 4095 4098 4101 4104 4106 4109 4112 4114 4117 4120 4123 4126 4129 4132 4135 4138 4141 4143 4146 4149 4152 4155 4157 4160 4163 4166 4169 4172 4175 4178 4181 4184 4187 4189 4192 4195 4198 4200 4203 4206 4208 4211 4213 4216 4218 4220 4223 4226 4229 4232 4235 4238 4240 4243 4246 4249 4251 4254 4256 4259 4262 4265 4268 4270 4273 4276 4279 4281 4284 4286 4288 4291 4294 4297 4299 4302 4305 4307 4310 4312 4315 4318 4321 4324 4327 4329 4332 4335 4338 4341 4344 4346 4349 4352 4355 4358 4361 4364 4366 4368 4371 4373 4375 4378 4380 4383 4386 4389 4392 4394 4397 4400 4403 4405 4408 4410 4413 4415 4418 4421 4423 4426 4428 4431 4434 4437 4439 4442 4445 4448 4450 4452 4455 4458 4461 4463 4465 4468 4471 4474 4476 4478 4480 4483 4485 4488 4491 4493 4496 4499 4502 4505 4508 4511 4514 4517 4520 4523 4526 4529 4532 4535 4537 4540 4543 4545 4547 4550 4553 4556 4559 4561 4563 4566 4569 4571 4574 4576 4579 4581 4584 4587 4590 4592 4594 4597 4600 4603 4605 4608 4611 4614 4617 4620 4623 4626 4629 4632 4635 4637 4639 4642 4645 4647 4650 4653 4656 4659 4661 4663 4666 4668 4670 4673 4676 4679 4682 4685 4687 4689 4692 4695 4697 4700 4702 4704 4707 4709 4712 4715 4718 4721 4723 4726 4729 4731 4734 4736 4739 4742 4744 4747 4750 4753 4756 4759 4762 4765 4768 4770 4773 4776 4779 4782 4784 4787 4789 4792 4794 4797 4800 4803 4806 4808 4811 4813 4815 4818 4820 4822 4825 4828 4831 4834 4837 4840 4843 4846 4849 4852 4855 4858 4861 4864 4867 4870 4873 4875 4878 4881 4884 4887 4890 4893 4896 4899 4902 4905 4908 4910 4913 4916 4919 4922 4924 4927 4930 4933 4936 4939 4942 4945 4947 4950 4953 4955 4958 4961 4964 4967 4969 4972 4974 4977 4980 4983 4986 4989 4992 4995 4998 5001 5004 5007 5010 5013 5016 5019 5022 5025 5028 5031 5034 5037 5039 5042 5045 5048 5051 5053 5056 5059 5062 5065 5068 5071 5074 5076 5079 5081 5084 5087 5089 5092 5095 5098 5101 5104 5107 5110 5113 5116 5119 5122 5125 5128 5130 5133 5136 5139 5142 5145 5147 5150 5153 5156 5159 5162 5165 5168 5170 5173 5176 5179 5182 5185 5188 5191 5194 5197 5200 5203 5206 5209 5212 5215 5218 5221 5224 5227 5230 5233 5235 5238 5241 5244 5246 5249 5252 5255 5258 5261 5264 5267 5270 5273 5275 5278 5281 5284 5286 5289 5292 5295 5298 5301 5304 5307 5309 5312 5315 5318 5321 5324 5327 5330 5333 5336 5339 5342 5345 5348 5351 5354 5357 5360 5363 5366 5369 5372 5375 5378 5381 5384 5387 5389 5392 5395 5398 5401 5404 5407 5409 5412 5415 5418 5421 5424 5427 5430 5432 5435 5438 5441 5443 5445 5448 5451 5453 5456 5459 5462 5465 5467 5470 5473 5475 5478 5480 5483 5486 5489 5492 5495 5498 5501 5503 5506 5509 5512 5515 5518 5521 5524 5527 5530 5533 5535 5538 5541 5544 5547 5550 5553 5556 5559 5562 5565 5568 5571 5573 5576 5579 5582 5585 5588 5591 5594 5597 5600 5603 5605 5608 5611 5614 5617 5620 5622 5625 5627 5629 5632 5635 5637 5640 5643 5646 5649 5652 5655 5658 5661 5664 5667 5669 5672 5675 5678 5680 5682 5685 5688 5690 5692 5694 5697 5700 5703 5706 5709 5711 5714 5717 5719 5721 5724 5727 5729 5732 5734 5737 5740 5743 5745 5748 5751 5754 5757 5760 5762 5765 5768 5771 5774 5776 5779 5782 5785 5788 5790 5793 5796 5799 5802 5805 5807 5810 5813 5816 5819 5822 5825 5828 5831 5834 5836 5839 5842 5845 5848 5851 5853 5856 5859 5861 5864 5867 5869 5872 5875 5878 5880 5883 5886 5889 5892 5894 5896 5899 5902 5904 5907 5910 5913 5915 5918 5921 5924 5926 5929 5931 5934 5937 5940 5943 5945 5947 5950 5953 5956 5959 5962 5965 5968 5971 5974 5977 5980 5983 5986 5989 5992 5995 5997 6000 6002 6005 6008 6011 6014 6017 6020 6022 6025 6028 6031 6034 6036 6038 6040 6043 6046 6049 6051 6053 6056 6059 6062 6065 6068 6071 6074 6077 6080 6082 6085 6088 6091 6094 6097 6100 6103 6105 6108 6111 6114 6117 6119 6121 6124 6127 6130 6133 6136 6139 6142 6145 6148 6151 6154 6157 6160 6163 6166 6169 6172 6175 6178 6181 6184 6187 6190 6193 6196 6199 6202 6205 6208 6211 6214 6217 6220 6223 6226 6229 6232 6235 6238 6241 6244 6247 6250 6253 6256 6259 6262 6265 6268 6271 6274 6277 6280 6283 6286 6288 6291 6294 6297 6300 6303 6306 6309 6312 6315 6318 6321 6324 6327 6330 6333 6336 6339 6342 6345 6348 6351 6354 6357 6360 6363 6366 6369 6372 6375 6378 6381 6384 6387 6390 6393 6396 6399 6402 6405 6408 6411 6414 6417 6420 6423 6426 6429 6432 6435 6438 6441 6444 6447 6450 6453 6456 6459 6462 6465 6468 6471 6474 6477 6480 6483 6486 6488 6491 6494 6497 6500 6503 6505 6508 6511 6514 6517 6520 6523 6525 6528 6531 6534 6537 6540 6543 6546 6549 6552 6555 6557 6560 6563 6566 6569 6572 6575 6577 6579 6582 6585 6588 6591 6594 6597 6600 6603 6606 6609 6612 6615 6618 6621 6624 6627 6630 6633 6636 6639 6642 6645 6648 6651 6654 6657 6660 6663 6666 6669 6672 6675 6678 6681 6684 6687 6690 6693 6696 6699 6702 6705 6708 6711 6714 6717 6720 6723 6726 6729 6732 6735 6738 6741 6744 6747 6750 6753 6756 6759 6762 6765 6768 6770 6773 6775 6778 6781 6784 6787 6790 6793 6796 6799 6801 6803 6806 6809 6812 6814 6817 6819 6822 6825 6828 6831 6834 6837 6840 6843 6846 6849 6852 6854 6856 6859 6862 6865 6868 6871 6874 6877 6880 6883 6885 6887 6890 6893 6896 6898 6901 6903 6906 6908 6911 6914 6917 6920 6923 6926 6929 6931 6934 6936 6938 6941 6944 6947 6950 6953 6956 6959 6962 6964 6967 6970 6972 6975 6978 6981 6984 6987 6990 6993 6995 6998 7001 7004 7007 7010 7012 7014 7017 7020 7022 7025 7028 7031 7034 7036 7039 7041 7044 7047 7050 7053 7055 7058 7061 7063 7065 7068 7071 7074 7077 7080 7083 7086 7088 7091 7094 7097 7100 7103 7106 7109 7112 7115 7118 7121 7124 7127 7130 7133 7136 7139 7142 7145 7148 7151 7154 7157 7160 7163 7166 7169 7172 7175 7178 7181 7184 7187 7190 7193 7196 7199 7201 7204 7207 7209 7212 7215 7218 7221 7224 7227 7230 7232 7235 7238 7240 7243 7245 7247 7250 7253 7256 7259 7262 7264 7267 7270 7273 7276 7279 7282 7285 7288 7291 7294 7297 7300 7303 7306 7309 7312 7315 7318 7320 7323 7326 7329 7332 7335 7337 7340 7343 7346 7349 7352 7355 7358 7360 7363 7366 7369 7372 7375 7377 7380 7383 7386 7389 7391 7394 7397 7399 7402 7405 7408 7410 7413 7416 7419 7422 7425 7428 7431 7434 7437 7440 7443 7445 7448 7451 7453 7456 7459 7462 7465 7468 7471 7474 7477 7480 7483 7486 7489 7492 7495 7498 7501 7504 7507 7510 7512 7515 7517 7520 7523 7525 7527 7530 7533 7536 7538 7541 7543 7546 7549 7551 7554 7557 7560 7563 7565 7568 7571 7574 7577 7580 7582 7585 7588 7591 7593 7595 7597 7600 7602 7605 7607 7609 7612 7615 7618 7621 7623 7626 7628 7631 7634 7636 7639 7642 7645 7648 7651 7653 7656 7658 7660 7663 7665 7668 7671 7674 7677 7679 7681 7684 7687 7690 7693 7696 7699 7702 7705 7708 7711 7714 7717 7720 7723 7726 7729 7732 7735 7738 7741 7743 7746 7748 7751 7754 7757 7759 7762 7765 7767 7769 7772 7775 7778 7780 7783 7786 7789 7791 7794 7796 7799 7801 7804 7807 7810 7812 7814 7817 7820 7822 7825 7827 7830 7833 7835 7838 7841 7844 7847 7850 7852 7855 7857 7859 7862 7865 7868 7870 7873 7876 7879 7882 7885 7887 7890 7892 7895 7898 7900 7903 7906 7908 7911 7913 7916 7919 7922 7925 7928 7930 7933 7936 7939 7942 7945 7948 7951 7954 7957 7960 7962 7964 7967 7970 7973 7976 7979 7982 7985 7988 7991 7994 7997 8000 8003 8006 8009 8012 8015 8018 8021 8024 8027 8030 8033 8036 8039 8042 8044 8047 8050 8053 8056 8059 8062 8065 8068 8071 8074 8077 8079 8082 8084 8087 8090 8093 8095 8097 8100 8103 8105 8108 8110 8113 8116 8119 8121 8124 8127 8130 8133 8136 8139 8142 8145 8148 8151 8154 8157 8160 8163 8165 8168 8171 8173 8176 8179 8182 8185 8188 8191 8194 8197 8200 8203 8206 8209 8212 8215 8218 8221 8224 8227 8230 8233 8236 8239 8242 8245 8248 8251 8254 8257 8259 8262 8265 8267 8270 8273 8276 8278 8281 8283 8286 8289 8292 8295 8298 8301 8304 8306 8309 8312 8315 8317 8320 8323 8325 8328 8331 8334 8337 8339 8342 8345 8348 8351 8354 8357 8359 8362 8365 8368 8371 8374 8377 8379 8382 8385 8388 8391 8394 8396 8399 8402 8405 8407 8409 8412 8415 8418 8421 8424 8427 8430 8433 8436 8439 8442 8444 8447 8450 8452 8454 8457 8460 8463 8466 8469 8472 8475 8478 8481 8484 8487 8490 8493 8496 8499 8502 8505 8508 8511 8514 8517 8520 8523 8526 8528 8531 8533 8536 8539 8542 8545 8547 8550 8552 8555 8558 8561 8563 8566 8568 8571 8574 8576 8578 8581 8583 8586 8588 8591 8594 8597 8599 8602 8605 8608 8611 8614 8616 8619 8622 8625 8628 8631 8634 8637 8640 8643 8646 8649 8652 8655 8658 8661 8664 8667 8670 8673 8676 8678 8681 8683 8686 8689 8691 8694 8697 8700 8703 8706 8709 8712 8715 8718 8720 8723 8726 8728 8731 8733 8736 8739 8742 8745 8748 8751 8754 8757 8760 8763 8766 8768 8771 8774 8777 8780 8783 8786 8789 8792 8795 8798 8801 8804 8807 8810 8813 8816 8819 8822 8825 8828 8830 8833 8836 8839 8842 8845 8848 8851 8853 8856 8859 8862 8865 8868 8871 8874 8877 8880 8883 8886 8889 8891 8894 8897 8899 8902 8905 8908 8911 8914 8916 8919 8922 8925 8928 8931 8934 8937 8940 8943 8945 8948 8951 8954 8957 8960 8963 8966 8968 8971 8974 8977 8980 8983 8986 8989 8992 8995 8998 9001 9004 9007 9009 9012 9015 9018 9020 9023 9026 9029 9032 9035 9038 9041 9044 9047 9050 9053 9056 9059 9062 9065 9068 9071 9074 9077 9080 9083 9086 9089 9092 9095 9098 9101 9104 9107 9110 9113 9116 9119 9121 9124 9126 9129 9131 9134 9137 9140 9143 9146 9148 9151 9154 9157 9160 9162 9165 9168 9171 9174 9177 9180 9183 9186 9189 9191 9194 9197 9200 9203 9206 9209 9212 9215 9218 9221 9224 9227 9230 9233 9236 9239 9242 9245 9247 9250 9253 9256 9259 9262 9265 9268 9271 9274 9277 9280 9283 9286 9289 9292 9295 9298 9301 9304 9307 9310 9313 9316 9319 9322 9325 9328 9331 9334 9336 9339 9342 9345 9348 9351 9354 9356 9359 9362 9365 9368 9371 9374 9377 9379 9382 9385 9387 9390 9393 9396 9398 9401 9404 9407 9409 9412 9415 9418 9421 9424 9427 9430 9433 9436 9439 9442 9444 9447 9450 9452 9455 9457 9460 9463 9465 9468 9471 9474 9476 9479 9482 9485 9488 9491 9494 9497 9500 9503 9506 9509 9512 9515 9518 9521 9524 9527 9530 9533 9536 9539 9542 9545 9548 9550 9553 9556 9558 9561 9564 9567 9570 9572 9575 9578 9580 9582 9585 9588 9590 9593 9596 9599 9602 9605 9608 9610 9612 9614 9617 9620 9623 9626 9629 9632 9635 9638 9640 9642 9644 9647 9649 9652 9655 9658 9661 9664 9666 9669 9672 9674 9677 9680 9683 9686 9689 9692 9695 9698 9701 9704 9707 9710 9713 9716 9719 9722 9725 9728 9730 9733 9736 9739 9741 9744 9747 9750 9753 9755 9758 9760 9762 9764 9767 9769 9772 9775 9778 9781 9783 9786 9788 9791 9793 9796 9799 9802 9805 9807 9810 9812 9815 9818 9821 9824 9827 9830 9833 9835 9837 9840 9843 9846 9848 9850 9853 9856 9859 9862 9865 9868 9871 9874 9876 9879 9882 9885 9888 9891 9894 9897 9900 9903 9906 9909 9912 9914 9917 9920 9922 9925 9928 9930 9932 9935 9938 9941 9943 9946 9949 9952 9954 9957 9960 9963 9966 9969 9972 9975 9978 9981 9984 9987 9990 9992 9995 9998 10000 10003 10006 10009 10011 10013 10016 10019 10021 10024 10027 10030 10033 10035 10038 10041 10044 10046 10049 10052 10055 10058 10061 10064 10067 10070 10072 10075 10078 10080 10083 10086 10088 10091 10094 10097 10100 10103 10106 10108 10111 10114 10117 10120 10122 10124 10127 10130 10133 10136 10138 10141 10144 10147 10150 10153 10156 10159 10162 10165 10168 10171 10174 10177 10180 10183 10185 10188 10190 10193 10196 10198 10200 10203 10205 10207 10210 10213 10216 10219 10221 10224 10226 10229 10231 10234 10237 10239 10242 10245 10248 10251 10254 10257 10260 10262 10265 10268 10270 10273 10275 10278 10281 10284 10287 10290 10293 10296 10299 10301 10304 10307 10310 10313 10316 10318 10321 10324 10327 10330 10333 10335 10338 10341 10344 10347 10350 10352 10355 10358 10361 10364 10367 10370 10373 10376 10379 10382 10385 10388 10391 10394 10397 10400 10403 10406 10409 10412 10415 10418 10421 10424 10427 10429 10432 10435 10438 10441 10444 10447 10450 10453 10456 10458 10461 10464 10467 10470 10473 10476 10478 10481 10484 10487 10490 10493 10496 10499 10502 10505 10508 10510 10513 10515 10518 10521 10524 10527 10530 10533 10536 10539 10541 10544 10547 10550 10553 10556 10559 10561 10564 10567 10569 10571 10574 10577 10580 10583 10585 10588 10591 10594 10597 10600 10603 10606 10609 10612 10615 10618 10621 10624 10627 10630 10633 10636 10639 10642 10645 10648 10651 10654 10657 10660 10663 10666 10669 10672 10675 10678 10681 10683 10686 10689 10692 10695 10698 10701 10704 10707 10710 10712 10715 10718 10721 10724 10727 10729 10732 10735 10737 10740 10743 10746 10749 10752 10755 10758 10761 10764 10767 10769 10771 10774 10777 10780 10782 10785 10788 10791 10794 10796 10799 10802 10805 10807 10810 10813 10816 10819 10822 10825 10827 10830 10833 10836 10838 10841 10843 10846 10849 10852 10855 10858 10861 10864 10867 10869 10872 10875 10878 10881 10883 10886 10889 10891 10893 10895 10898 10900 10903 10906 10908 10911 10914 10917 10920 10923 10926 10929 10932 10935 10938 10941 10944 10946 10949 10952 10955 10958 10961 10964 10967 10969 10972 10975 10978 10981 10984 10987 10990 10992 10995 10998 11001 11004 11006 11009 11011 11014 11017 11020 11023 11026 11029 11032 11035 11038 11041 11044 11047 11049 11052 11055 11057 11059 11062 11065 11068 11070 11073 11076 11079 11082 11084 11087 11090 11093 11095 11098 11101 11104 11107 11109 11112 11115 11118 11120 11123 11126 11129 11132 11134 11137 11139 11141 11144 11146 11149 11152 11154 11157 11160 11163 11166 11169 11171 11174 11177 11180 11183 11186 11189 11192 11195 11198 11200 11203 11206 11209 11211 11214 11217 11220 11223 11226 11229 11232 11235 11238 11241 11244 11247 11250 11253 11256 11259 11262 11265 11268 11271 11274 11277 11280 11283 11286 11289 11292 11295 11298 11301 11304 11307 11310 11313 11316 11319 11322 11325 11328 11331 11334 11337 11340 11343 11345 11348 11351 11354 11357 11360 11363 11366 11369 11372 11375 11378 11381 11384 11387 11390 11392 11395 11398 11401 11404 11407 11410 11413 11416 11419 11422 11425 11428 11431 11434 11437 11440 11443 11446 11449 11452 11455 11458 11461 11464 11467 11469 11472 11475 11478 11481 11484 11487 11490 11492 11495 11497 11500 11503 11505 11508 11511 11514 11516 11519 11522 11525 11527 11530 11532 11535 11538 11540 11542 11545 11548 11550 11553 11556 11559 11562 11565 11568 11571 11574 11577 11580 11583 11585 11588 11591 11593 11596 11599 11602 11605 11608 11611 11614 11616 11619 11622 11625 11628 11631 11633 11636 11639 11642 11645 11648 11651 11654 11657 11660 11663 11666 11668 11671 11673 11676 11679 11682 11685 11688 11691 11694 11697 11700 11703 11705 11708 11711 11714 11717 11720 11722 11725 11727 11730 11733 11736 11738 11741 11744 11747 11750 11753 11756 11758 11761 11763 11765 11768 11770 11773 11776 11779 11782 11785 11788 11791 11794 11797 11800 11803 11806 11808 11811 11814 11817 11819 11822 11825 11828 11831 11834 11837 11839 11842 11845 11847 11850 11852 11855 11858 11861 11864 11867 11870 11873 11876 11878 11881 11884 11887 11890 11893 11896 11899 11902 11905 11908 11911 11914 11917 11920 11923 11926 11929 11932 11935 11938 11941 11943 11946 11949 11952 11955 11958 11961 11964 11967 11970 11973 11976 11979 11982 11985 11988 11991 11994 11997 12000 12003 12006 12008 12011 12014 12017 12019 12022 12025 12028 12031 12033 12036 12039 12042 12045 12048 12051 12053 12056 12059 12062 12065 12068 12071 12074 12077 12080 12083 12086 12089 12091 12094 12097 12100 12103 12106 12109 12112 12115 12118 12121 12124 12126 12129 12132 12134 12137 12140 12143 12146 12149 12152 12154 12157 12160 12163 12166 12168 12171 12174 12177 12180 12183 12186 12189 12192 12195 12198 12201 12204 12207 12210 12212 12215 12218 12221 12224 12227 12230 12233 12236 12239 12242 12245 12248 12251 12254 12257 12259 12262 12265 12268 12271 12273 12275 12278 12281 12284 12287 12290 12293 12296 12299 12301 12304 12307 12310 12313 12316 12319 12322 12325 12328 12331 12334 12337 12340 12343 12346 12349 12352 12355 12358 12361 12364 12367 12370 12373 12376 12379 12382 12385 12387 12390 12392 12395 12398 12401 12404 12407 12410 12413 12416 12419 12422 12424 12427 12429 12431 12434 12437 12440 12443 12445 12448 12451 12454 12457 12460 12463 12466 12469 12472 12475 12478 12481 12484 12487 12490 12493 12496 12499 12502 12505 12508 12511 12514 12517 12520 12523 12526 12529 12532 12535 12538 12541 12544 12547 12550 12553 12556 12559 12562 12565 12568 12571 12574 12577 12580 12583 12586 12589 12592 12595 12598 12600 12603 12606 12608 12611 12614 12617 12620 12623 12625 12628 12631 12634 12637 12640 12643 12646 12649 12652 12655 12658 12661 12664 12667 12670 12673 12676 12679 12682 12685 12688 12691 12694 12697 12700 12703 12706 12709 12712 12715 12718 12721 12724 12727 12730 12733 12736 12739 12742 12745 12748 12751 12754 12757 12760 12763 12765 12768 12770 12773 12776 12779 12782 12784 12787 12790 12793 12795 12798 12801 12804 12807 12810 12813 12816 12819 12821 12823 12826 12829 12832 12835 12838 12841 12844 12847 12849 12852 12855 12858 12861 12864 12867 12870 12873 12876 12879 12881 12884 12887 12889 12892 12895 12898 12901 12903 12906 12909 12911 12914 12917 12919 12922 12925 12928 12931 12934 12937 12940 12942 12945 12948 12951 12954 12957 12959 12962 12965 12968 12971 12973 12976 12979 12982 12985 12987 12989 12992 12994 12996 12999 13001 13004 13007 13009 13012 13015 13018 13021 13024 13026 13029 13032 13035 13038 13040 13043 13046 13048 13051 13054 13057 13059 13062 13064 13067 13070 13073 13075 13078 13081 13083 13085 13087 13090 13093 13096 13098 13101 13104 13107 13110 13113 13116 13119 13122 13124 13127 13130 13132 13135 13138 13141 13144 13147 13150 13153 13156 13159 13161 13164 13167 13170 13173 13176 13179 13181 13184 13187 13190 13193 13195 13197 13199 13202 13204 13206 13208 13211 13214 13217 13220 13222 13225 13228 13230 13233 13235 13238 13240 13243 13245 13248 13250 13253 13256 13259 13261 13264 13267 13270 13273 13276 13278 13280 13283 13286 13288 13291 13294 13297 13300 13302 13305 13308 13311 13314 13317 13320 13322 13325 13328 13331 13334 13337 13340 13343 13346 13349 13352 13355 13358 13360 13363 13366 13369 13372 13375 13378 13381 13384 13387 13390 13393 13396 13399 13402 13405 13408 13411 13414 13417 13420 13423 13426 13429 13432 13435 13438 13441 13444 13447 13449 13452 13455 13457 13460 13463 13466 13468 13471 13474 13477 13480 13483 13486 13489 13492 13495 13498 13501 13504 13507 13510 13513 13516 13519 13522 13525 13528 13531 13534 13537 13540 13543 13546 13549 13552 13555 13558 13561 13564 13566 13569 13572 13575 13578 13580 13583 13586 13589 13591 13593 13595 13598 13601 13604 13606 13609 13612 13615 13617 13620 13623 13625 13627 13630 13633 13635 13638 13641 13643 13646 13649 13651 13654 13656 13659 13661 13664 13667 13670 13673 13676 13679 13682 13685 13687 13690 13693 13696 13699 13702 13705 13708 13711 13714 13717 13720 13722 13725 13728 13731 13733 13736 13739 13741 13744 13747 13750 13753 13756 13759 13762 13765 13768 13771 13773 13775 13778 13781 13784 13787 13790 13793 13796 13799 13802 13805 13808 13811 13814 13817 13820 13822 13825 13828 13831 13833 13836 13839 13842 13845 13848 13850 13853 13856 13859 13862 13865 13868 13870 13872 13874 13877 13880 13883 13886 13889 13892 13894 13897 13899 13901 13904 13907 13910 13913 13916 13918 13921 13924 13926 13928 13931 13934 13936 13938 13940 13943 13946 13949 13952 13955 13957 13960 13963 13966 13969 13972 13974 13976 13979 13982 13984 13987 13990 13992 13994 13997 14000 14002 14005 14008 14011 14013 14016 14018 14020 14023 14026 14029 14032 14035 14038 14041 14044 14047 14049 14052 14055 14058 14060 14063 14066 14069 14072 14074 14077 14079 14081 14084 14086 14089 14092 14095 14098 14101 14104 14107 14110 14113 14116 14119 14121 14124 14127 14129 14131 14133 14136 14138 14141 14143 14146 14149 14151 14154 14156 14159 14162 14165 14168 14171 14174 14177 14180 14183 14186 14189 14192 14195 14198 14201 14204 14207 14209 14212 14214 14217 14220 14223 14226 14229 14232 14235 14238 14240 14243 14246 14249 14252 14255 14257 14260 14262 14265 14267 14270 14273 14276 14278 14280 14283 14285 14287 14290 14293 14296 14299 14302 14305 14308 14311 14314 14316 14319 14322 14325 14328 14331 14334 14337 14340 14343 14346 14349 14351 14353 14356 14359 14362 14364 14367 14370 14373 14375 14378 14381 14384 14387 14389 14392 14395 14398 14401 14404 14407 14410 14413 14416 14418 14421 14424 14427 14430 14433 14435 14438 14441 14444 14447 14450 14452 14455 14457 14460 14463 14465 14468 14471 14474 14476 14479 14482 14484 14487 14490 14492 14495 14498 14501 14504 14507 14510 14513 14516 14519 14522 14525 14528 14531 14534 14537 14540 14543 14545 14548 14551 14554 14557 14560 14563 14566 14568 14571 14574 14577 14580 14583 14586 14589 14592 14594 14596 14599 14602 14605 14608 14611 14614 14617 14619 14622 14625 14628 14631 14634 14637 14640 14643 14646 14649 14652 14655 14658 14661 14664 14667 14670 14673 14676 14679 14681 14684 14686 14689 14692 14695 14698 14701 14704 14707 14710 14713 14716 14719 14722 14725 14728 14731 14734 14736 14739 14742 14745 14748 14750 14753 14755 14758 14761 14763 14765 14768 14770 14772 14775 14778 14781 14784 14787 14790 14793 14796 14798 14800 14803 14806 14808 14811 14814 14817 14820 14822 14825 14828 14831 14834 14836 14839 14842 14845 14847 14850 14853 14856 14858 14861 14864 14866 14869 14871 14874 14876 14879 14882 14884 14887 14889 14892 14895 14898 14901 14904 14907 14910 14913 14916 14919 14922 14925 14927 14930 14933 14936 14939 14942 14945 14948 14951 14954 14957 14960 14963 14966 14969 14972 14974 14977 14980 14983 14986 14989 14992 14995 14998 15001 15004 15006 15008 15011 15014 15016 15019 15022 15025 15027 15030 15032 15035 15038 15041 15044 15047 15050 15053 15056 15059 15062 15065 15068 15071 15074 15077 15080 15083 15086 15089 15092 15095 15098 15101 15104 15107 15110 15113 15116 15119 15122 15125 15128 15131 15134 15137 15139 15142 15145 15148 15150 15153 15156 15159 15161 15163 15166 15168 15171 15174 15177 15180 15183 15185 15188 15190 15193 15196 15198 15201 15204 15207 15210 15213 15216 15219 15222 15225 15228 15231 15234 15237 15240 15243 15246 15249 15252 15255 15258 15261 15264 15267 15270 15273 15276 15279 15282 15285 15288 15291 15294 15297 15300 15303 15306 15309 15312 15314 15316 15319 15322 15325 15328 15331 15334 15337 15340 15342 15345 15348 15351 15354 15357 15360 15363 15366 15369 15372 15375 15378 15381 15384 15387 15389 15392 15395 15398 15401 15404 15407 15410 15413 15416 15419 15422 15425 15428 15431 15434 15437 15440 15443 15446 15448 15451 15454 15457 15460 15463 15466 15469 15472 15475 15478 15481 15484 15487 15490 15493 15496 15499 15502 15505 15508 15511 15514 15517 15520 15523 15526 15529 15531 15533 15536 15539 15542 15544 15547 15550 15553 15556 15559 15562 15564 15567 15570 15573 15576 15579 15582 15585 15588 15591 15594 15597 15600 15603 15606 15609 15612 15615 15618 15621 15624 15626 15629 15632 15635 15638 15640 15642 15645 15648 15651 15654 15657 15660 15663 15666 15668 15671 15673 15676 15679 15682 15685 15688 15691 15694 15697 15700 15703 15706 15709 15712 15715 15718 15721 15724 15727 15730 15733 15736 15739 15742 15745 15747 15750 15753 15756 15759 15762 15765 15768 15771 15774 15777 15780 15783 15786 15789 15792 15795 15798 15801 15804 15806 15809 15812 15815 15818 15821 15824 15827 15830 15833 15835 15838 15841 15844 15847 15849 15852 15855 15858 15861 15864 15866 15869 15872 15875 15877 15879 15881 15884 15886 15889 15892 15894 15896 15898 15901 15904 15907 15910 15913 15916 15919 15922 15925 15928 15931 15934 15937 15940 15943 15946 15949 15952 15955 15958 15961 15964 15967 15969 15972 15975 15978 15981 15984 15986 15989 15992 15995 15998 16000 16003 16006 16009 16012 16015 16018 16021 16024 16027 16030 16032 16035 16038 16041 16044 16047 16050 16052 16055 16058 16061 16063 16065 16067 16070 16073 16076 16079 16081 16084 16087 16090 16093 16096 16099 16102 16105 16108 16111 16114 16117 16119 16122 16125 16128 16130 16132 16135 16137 16140 16143 16145 16147 16149 16152 16154 16157 16160 16163 16166 16168 16171 16174 16177 16180 16183 16185 16187 16190 16193 16196 16199 16202 16204 16207 16210 16213 16216 16219 16222 16225 16228 16231 16233 16235 16238 16240 16243 16246 16248 16251 16254 16256 16259 16262 16265 16267 16270 16272 16275 16278 16281 16284 16287 16289 16292 16295 16298 16301 16303 16306 16308 16311 16314 16317 16319 16322 16324 16327 16330 16333 16335 16338 16341 16344 16347 16350 16352 16355 16357 16360 16363 16366 16369 16372 16374 16377 16380 16382 16385 16388 16391 16393 16396 16399 16402 16404 16407 16410 16413 16416 16419 16422 16425 16428 16431 16434 16437 16440 16443 16446 16449 16452 16455 16458 16460 16463 16466 16469 16472 16474 16477 16480 16483 16486 16488 16491 16494 16497 16500 16503 16505 16508 16511 16514 16517 16520 16523 16526 16528 16531 16534 16537 16539 16542 16545 16547 16550 16553 16556 16559 16562 16565 16568 16570 16573 16576 16579 16581 16584 16587 16590 16593 16595 16598 16601 16604 16607 16610 16613 16616 16619 16621 16623 16626 16629 16632 16634 16637 16640 16643 16645 16648 16651 16654 16657 16659 16662 16665 16668 16671 16674 16677 16680 16683 16685 16688 16691 16693 16696 16699 16702 16705 16708 16710 16713 16716 16719 16722 16725 16728 16731 16734 16737 16740 16743 16746 16749 16752 16755 16758 16761 16764 16767 16770 16773 16775 16778 16781 16784 16787 16790 16793 16796 16799 16802 16805 16808 16811 16814 16817 16820 16823 16826 16829 16832 16835 16837 16840 16843 16846 16848 16851 16854 16857 16860 16863 16866 16869 16872 16875 16878 16881 16884 16887 16890 16893 16896 16899 16902 16905 16908 16911 16914 16917 16920 16923 16926 16929 16932 16935 16938 16941 16944 16947 16950 16953 16956 16959 16962 16965 16967 16970 16973 16976 16979 16982 16985 16988 16991 16994 16997 17000 17003 17006 17009 17012 17015 17018 17021 17024 17027 17030 17033 17036 17039 17042 17045 17048 17051 17054 17057 17059 17061 17064 17067 17070 17073 17076 17078 17081 17084 17087 17090 17093 17096 17099 17102 17105 17108 17111 17114 17117 17120 17123 17126 17129 17131 17133 17136 17139 17142 17145 17148 17151 17154 17157 17160 17163 17166 17169 17172 17175 17178 17181 17184 17187 17190 17193 17196 17199 17202 17205 17208 17211 17214 17217 17220 17223 17226 17229 17232 17235 17238 17241 17244 17247 17250 17253 17256 17259 17262 17265 17268 17271 17274 17277 17280 17283 17286 17289 17292 17295 17298 17301 17304 17307 17310 17313 17316 17318 17321 17324 17327 17330 17333 17336 17339 17342 17345 17348 17351 17354 17356 17359 17362 17365 17367 17370 17373 17376 17379 17382 17385 17388 17391 17394 17396 17399 17402 17405 17408 17411 17413 17416 17418 17421 17423 17426 17429 17432 17435 17438 17440 17443 17446 17449 17452 17455 17458 17460 17463 17466 17469 17472 17474 17477 17480 17483 17486 17489 17491 17494 17497 17500 17503 17506 17509 17512 17515 17518 17521 17524 17527 17530 17533 17536 17539 17542 17544 17546 17549 17552 17555 17558 17561 17564 17567 17570 17573 17576 17579 17582 17585 17588 17591 17593 17596 17599 17602 17605 17608 17610 17613 17615 17618 17621 17624 17627 17630 17633 17636 17639 17642 17645 17648 17651 17654 17657 17660 17663 17666 17669 17672 17675 17678 17681 17684 17687 17690 17693 17696 17699 17702 17705 17708 17711 17713 17716 17719 17722 17725 17728 17731 17734 17737 17740 17743 17746 17749 17752 17755 17758 17761 17764 17767 17769 17772 17775 17778 17781 17784 17787 17790 17793 17796 17799 17802 17805 17807 17810 17813 17816 17819 17822 17825 17828 17831 17834 17837 17840 17843 17846 17849 17852 17855 17857 17860 17863 17866 17869 17872 17875 17878 17881 17884 17887 17890 17893 17896 17899 17902 17905 17908 17911 17914 17917 17920 17923 17926 17929 17932 17935 17938 17940 17943 17946 17949 17951 17954 17957 17960 17962 17965 17967 17970 17973 17975 17977 17980 17983 17986 17989 17992 17995 17998 18001 18004 18006 18009 18012 18015 18017 18020 18023 18026 18029 18032 18034 18036 18038 18041 18043 18046 18049 18052 18055 18057 18060 18062 18064 18067 18069 18072 18075 18078 18080 18083 18086 18089 18091 18094 18097 18099 18102 18104 18107 18110 18113 18116 18119 18122 18125 18127 18129 18131 18134 18136 18139 18141 18144 18147 18150 18153 18156 18159 18162 18164 18167 18170 18173 18175 18178 18181 18184 18187 18190 18192 18195 18197 18200 18202 18204 18207 18210 18213 18216 18218 18221 18224 18227 18230 18233 18236 18239 18242 18245 18248 18251 18254 18256 18259 18262 18265 18267 18270 18273 18276 18278 18281 18284 18287 18290 18293 18296 18299 18302 18305 18308 18311 18314 18317 18320 18323 18326 18329 18332 18335 18338 18341 18344 18347 18349 18352 18355 18358 18361 18364 18367 18369 18372 18375 18378 18381 18384 18387 18390 18393 18396 18399 18402 18405 18408 18410 18413 18416 18418 18421 18424 18427 18429 18431 18434 18437 18440 18443 18446 18449 18452 18455 18458 18461 18464 18467 18470 18473 18475 18478 18481 18484 18487 18490 18493 18496 18499 18502 18505 18508 18511 18514 18517 18520 18523 18526 18529 18532 18535 18538 18541 18543 18546 18549 18552 18555 18557 18560 18563 18566 18569 18572 18575 18578 18581 18584 18587 18590 18593 18596 18599 18602 18605 18608 18611 18614 18617 18620 18623 18626 18628 18631 18634 18637 18640 18643 18646 18649 18651 18654 18657 18659 18662 18665 18668 18671 18674 18677 18680 18683 18686 18689 18692 18694 18696 18699 18702 18705 18708 18711 18714 18717 18720 18723 18726 18729 18732 18735 18738 18741 18744 18747 18750 18753 18756 18759 18762 18765 18768 18771 18774 18777 18780 18783 18785 18788 18790 18793 18796 18798 18801 18804 18807 18810 18813 18816 18819 18822 18825 18828 18831 18834 18837 18840 18843 18846 18849 18851 18853 18856 18859 18862 18865 18868 18871 18874 18877 18880 18882 18885 18888 18891 18894 18897 18900 18903 18906 18909 18912 18915 18918 18921 18924 18927 18930 18933 18936 18939 18942 18945 18948 18951 18954 18957 18960 18963 18966 18969 18972 18975 18978 18981 18984 18987 18990 18993 18996 18999 19001 19003 19006 19009 19012 19015 19017 19019 19022 19025 19028 19031 19034 19037 19040 19043 19046 19049 19052 19055 19058 19061 19063 19066 19069 19072 19075 19078 19081 19084 19087 19090 19093 19096 19098 19101 19104 19107 19110 19113 19115 19118 19121 19124 19127 19129 19132 19135 19138 19141 19144 19147 19150 19153 19156 19159 19162 19165 19168 19171 19174 19177 19180 19183 19186 19189 19192 19195 19198 19201 19204 19207 19210 19213 19216 19219 19221 19224 19227 19230 19233 19236 19239 19242 19245 19247 19250 19253 19256 19259 19261 19264 19267 19270 19273 19276 19279 19281 19284 19287 19290 19293 19296 19299 19302 19304 19307 19310 19312 19315 19318 19321 19323 19326 19329 19332 19334 19337 19340 19343 19346 19349 19352 19355 19358 19361 19364 19367 19370 19373 19376 19379 19382 19385 19388 19391 19394 19397 19400 19403 19406 19409 19412 19415 19418 19421 19424 19427 19430 19433 19436 19439 19442 19445 19448 19451 19454 19457 19460 19463 19466 19469 19472 19475 19478 19481 19484 19487 19490 19493 19496 19499 19502 19505 19508 19511 19514 19517 19520 19523 19526 19529 19532 19535 19538 19541 19544 19547 19550 19553 19556 19559 19562 19565 19568 19571 19574 19577 19580 19583 19586 19589 19592 19595 19597 19600 19603 19606 19609 19612 19615 19618 19621 19624 19627 19629 19632 19635 19638 19641 19644 19647 19650 19653 19656 19659 19662 19665 19668 19670 19673 19676 19679 19682 19685 19688 19691 19694 19697 19700 19703 19706 19708 19710 19713 19716 19719 19722 19725 19728 19731 19734 19737 19740 19743 19746 19749 19752 19755 19758 19761 19764 19767 19770 19773 19776 19779 19782 19785 19787 19789 19792 19795 19797 19800 19803 19806 19809 19811 19814 19817 19819 19822 19825 19828 19831 19834 19837 19840 19843 19846 19848 19851 19854 19856 19859 19861 19864 19867 19869 19872 19875 19878 19881 19883 19886 19889 19891 19894 19897 19900 19903 19906 19909 19912 19915 19918 19921 19924 19926 19929 19932 19935 19937 19940 19943 19946 19949 19952 19955 19958 19961 19964 19967 19970 19973 19976 19979 19981 19984 19987 19990 19993 19996 19999 20002 20005 20008 20011 20014 20017 20019 20022 20025 20028 20031 20033 20035 20038 20041 20044 20047 20050 20053 20056 20059 20062 20065 20068 20071 20074 20076 20079 20082 20085 20088 20091 20094 20097 20100 20103 20106 20109 20112 20115 20118 20121 20124 20126 20128 20131 20134 20137 20140 20143 20146 20149 20152 20155 20157 20160 20163 20166 20169 20172 20174 20176 20179 20182 20185 20188 20191 20194 20197 20200 20203 20205 20207 20210 20213 20216 20219 20221 20224 20227 20230 20232 20235 20238 20241 20244 20247 20250 20253 20256 20259 20261 20264 20267 20270 20273 20276 20279 20282 20285 20287 20289 20292 20294 20297 20300 20303 20305 20308 20311 20314 20317 20320 20323 20326 20329 20331 20334 20337 20339 20342 20344 20346 20349 20352 20355 20358 20361 20364 20367 20370 20373 20376 20379 20382 20385 20388 20391 20394 20397 20400 20403 20406 20409 20412 20415 20418 20421 20424 20427 20430 20433 20436 20439 20442 20445 20448 20451 20454 20457 20460 20463 20466 20469 20472 20475 20478 20481 20484 20487 20489 20491 20494 20497 20500 20503 20506 20509 20512 20514 20517 20520 20523 20526 20528 20531 20534 20537 20540 20543 20546 20549 20552 20554 20557 20560 20563 20566 20569 20571 20574 20577 20580 20582 20585 20587 20590 20593 20596 20599 20602 20605 20608 20611 20614 20617 20620 20623 20626 20629 20632 20635 20638 20641 20644 20647 20650 20653 20656 20659 20662 20665 20668 20671 20674 20677 20679 20682 20685 20688 20690 20693 20696 20699 20701 20704 20707 20710 20713 20716 20719 20722 20725 20727 20730 20733 20736 20738 20741 20744 20747 20750 20753 20756 20759 20761 20764 20767 20770 20773 20776 20778 20781 20784 20787 20790 20793 20796 20799 20802 20805 20808 20811 20814 20817 20820 20823 20826 20829 20832 20835 20838 20841 20844 20847 20850 20853 20856 20859 20862 20865 20868 20870 20873 20876 20878 20881 20883 20886 20889 20892 20894 20897 20899 20902 20905 20908 20911 20914 20916 20919 20922 20925 20927 20930 20933 20936 20939 20942 20945 20948 20951 20954 20956 20959 20962 20964 20967 20970 20973 20976 20979 20982 20985 20988 20991 20994 20997 21000 21003 21006 21009 21012 21014 21017 21020 21023 21026 21029 21032 21035 21038 21041 21044 21047 21049 21052 21055 21058 21061 21063 21066 21069 21072 21075 21077 21080 21082 21085 21088 21091 21094 21097 21100 21103 21106 21109 21112 21115 21118 21121 21123 21126 21129 21131 21134 21136 21139 21142 21145 21148 21151 21154 21156 21159 21162 21165 21168 21170 21173 21176 21179 21182 21185 21188 21191 21194 21196 21199 21201 21204 21207 21210 21213 21216 21219 21222 21225 21228 21231 21234 21237 21240 21243 21246 21249 21252 21255 21258 21261 21264 21267 21270 21273 21276 21279 21281 21284 21287 21290 21293 21296 21299 21302 21305 21308 21311 21314 21316 21319 21322 21325 21328 21331 21334 21337 21340 21343 21346 21349 21352 21355 21358 21361 21364 21367 21370 21373 21376 21379 21382 21385 21388 21391 21394 21397 21400 21403 21406 21409 21412 21415 21418 21421 21424 21427 21430 21433 21436 21439 21442 21445 21448 21451 21454 21457 21460 21463 21466 21469 21472 21475 21478 21481 21484 21487 21490 21493 21496 21499 21502 21505 21508 21511 21514 21517 21520 21523 21526 21529 21532 21535 21537 21540 21543 21546 21549 21552 21555 21558 21561 21564 21567 21570 21572 21575 21578 21581 21584 21587 21590 21593 21596 21599 21602 21605 21608 21611 21614 21617 21620 21623 21626 21629 21632 21635 21638 21640 21643 21646 21649 21652 21655 21658 21661 21663 21666 21669 21672 21675 21678 21681 21684 21687 21690 21693 21696 21699 21702 21705 21708 21711 21714 21717 21720 21723 21726 21729 21732 21735 21738 21741 21744 21747 21750 21753 21756 21759 21762 21764 21767 21770 21773 21776 21779 21782 21784 21786 21789 21792 21794 21797 21800 21803 21806 21808 21811 21813 21816 21819 21822 21824 21827 21830 21832 21835 21838 21841 21843 21846 21848 21851 21854 21857 21859 21862 21865 21868 21871 21874 21877 21880 21882 21885 21888 21891 21894 21897 21900 21903 21906 21909 21912 21915 21918 21921 21924 21927 21929 21932 21935 21938 21941 21944 21947 21950 21953 21955 21958 21961 21964 21967 21970 21973 21975 21978 21981 21984 21987 21990 21992 21995 21997 21999 22002 22004 22007 22010 22013 22016 22019 22021 22023 22026 22029 22031 22034 22037 22039 22042 22044 22047 22050 22053 22056 22059 22062 22065 22068 22071 22074 22077 22080 22083 22086 22089 22092 22094 22097 22100 22102 22105 22108 22111 22114 22116 22119 22122 22125 22128 22131 22134 22136 22139 22142 22145 22148 22150 22153 22156 22159 22162 22165 22168 22171 22174 22177 22179 22182 22185 22188 22190 22193 22196 22198 22201 22204 22207 22209 22212 22215 22218 22221 22224 22226 22229 22231 22234 22237 22239 22242 22245 22248 22251 22254 22257 22260 22263 22266 22269 22272 22274 22277 22280 22283 22286 22288 22291 22294 22297 22300 22303 22306 22309 22312 22315 22318 22321 22324 22327 22330 22333 22336 22339 22342 22345 22348 22350 22353 22355 22358 22360 22362 22365 22367 22370 22373 22376 22379 22382 22385 22388 22391 22393 22395 22398 22401 22404 22407 22410 22412 22415 22418 22421 22424 22427 22430 22433 22436 22439 22442 22445 22448 22450 22453 22456 22458 22460 22462 22465 22468 22471 22474 22476 22479 22482 22485 22488 22490 22492 22495 22497 22500 22502 22505 22507 22510 22513 22515 22517 22520 22523 22525 22528 22531 22534 22537 22540 22542 22545 22548 22551 22554 22557 22560 22563 22566 22569 22572 22575 22578 22581 22584 22587 22589 22592 22595 22597 22600 22603 22605 22608 22611 22614 22616 22619 22622 22625 22628 22631 22634 22637 22640 22643 22646 22649 22652 22655 22658 22661 22664 22667 22670 22673 22676 22678 22681 22684 22687 22689 22692 22695 22698 22700 22703 22706 22709 22711 22714 22717 22719 22721 22724 22727 22730 22733 22735 22738 22741 22743 22745 22748 22750 22753 22756 22758 22761 22763 22766 22769 22772 22775 22778 22781 22783 22786 22789 22792 22794 22797 22800 22803 22806 22808 22811 22814 22817 22819 22822 22824 22827 22830 22833 22836 22838 22841 22844 22847 22850 22853 22856 22859 22862 22864 22867 22870 22873 22875 22878 22881 22883 22886 22889 22892 22895 22898 22901 22904 22907 22910 22913 22916 22919 22921 22924 22927 22930 22933 22936 22938 22940 22943 22946 22948 22950 22953 22955 22958 22961 22964 22966 22969 22972 22975 22978 22981 22984 22987 22990 22993 22996 22999 23002 23005 23007 23010 23013 23015 23018 23021 23024 23027 23030 23033 23036 23038 23041 23044 23047 23050 23053 23056 23059 23061 23064 23067 23070 23073 23076 23079 23082 23085 23088 23091 23094 23097 23100 23103 23106 23109 23112 23115 23118 23120 23123 23126 23129 23132 23134 23137 23140 23142 23145 23148 23150 23153 23156 23158 23161 23164 23167 23170 23172 23174 23177 23180 23182 23185 23188 23191 23194 23197 23200 23203 23206 23209 23212 23215 23218 23221 23224 23227 23229 23232 23235 23238 23241 23244 23247 23250 23253 23255 23258 23261 23264 23267 23270 23272 23275 23278 23280 23283 23286 23289 23292 23295 23298 23301 23304 23307 23310 23313 23315 23318 23320 23323 23326 23328 23331 23334 23336 23339 23342 23345 23348 23351 23354 23357 23360 23363 23366 23369 23371 23374 23377 23380 23383 23386 23389 23392 23395 23398 23401 23404 23407 23410 23413 23416 23419 23422 23425 23428 23431 23434 23437 23440 23443 23446 23449 23452 23455 23458 23461 23464 23467 23470 23473 23476 23479 23482 23485 23488 23491 23494 23497 23500 23503 23506 23509 23512 23515 23518 23521 23524 23527 23530 23533 23536 23539 23542 23545 23548 23551 23554 23557 23560 23563 23566 23569 23572 23575 23578 23581 23584 23587 23590 23593 23596 23599 23602 23605 23608 23611 23614 23617 23620 23623 23626 23629 23632 23635 23638 23641 23643 23646 23649 23652 23655 23658 23661 23664 23667 23670 23673 23675 23678 23681 23683 23686 23689 23692 23694 23697 23700 23703 23706 23709 23711 23714 23717 23720 23723 23726 23729 23732 23735 23738 23741 23744 23747 23750 23752 23755 23758 23761 23764 23767 23770 23773 23776 23779 23782 23785 23788 23791 23794 23797 23800 23803 23805 23808 23811 23814 23817 23820 23823 23826 23829 23832 23835 23838 23841 23843 23846 23849 23852 23855 23858 23861 23864 23867 23870 23873 23876 23879 23882 23885 23888 23891 23894 23897 23900 23903 23906 23909 23912 23915 23918 23921 23924 23927 23930 23933 23936 23938 23941 23944 23947 23950 23953 23956 23959 23962 23965 23968 23971 23974 23977 23980 23983 23986 23989 23992 23995 23997 24000 24003 24005 24008 24011 24014 24017 24020 24023 24026 24028 24031 24034 24037 24040 24042 24045 24048 24051 24054 24057 24060 24063 24065 24068 24071 24074 24076 24079 24082 24084 24087 24090 24093 24096 24099 24102 24105 24108 24111 24114 24117 24120 24123 24126 24129 24132 24135 24138 24141 24143 24146 24149 24151 24154 24157 24160 24163 24166 24168 24171 24174 24177 24179 24181 24183 24186 24189 24192 24195 24198 24201 24204 24207 24209 24212 24214 24217 24220 24223 24226 24229 24232 24235 24238 24240 24243 24246 24249 24252 24255 24258 24261 24264 24267 24269 24271 24274 24277 24280 24283 24286 24289 24292 24295 24298 24301 24303 24306 24309 24312 24315 24318 24321 24323 24326 24329 24332 24335 24338 24341 24344 24347 24349 24352 24354 24357 24359 24362 24365 24368 24371 24373 24376 24379 24382 24385 24388 24391 24394 24397 24400 24403 24406 24409 24412 24414 24417 24420 24423 24425 24428 24431 24434 24437 24440 24443 24446 24449 24452 24455 24458 24461 24464 24467 24470 24473 24475 24478 24481 24483 24486 24489 24492 24495 24498 24501 24504 24507 24510 24513 24516 24519 24522 24525 24528 24531 24534 24536 24538 24541 24544 24546 24549 24552 24555 24557 24560 24563 24565 24568 24571 24573 24576 24579 24582 24585 24588 24591 24594 24597 24600 24602 24605 24608 24611 24614 24617 24620 24623 24626 24628 24631 24634 24637 24639 24641 24644 24647 24650 24653 24656 24659 24661 24664 24667 24670 24673 24676 24678 24681 24684 24686 24689 24691 24694 24696 24699 24702 24705 24707 24709 24712 24715 24718 24720 24722 24724 24727 24730 24732 24735 24738 24740 24743 24746 24749 24752 24754 24757 24760 24762 24765 24767 24770 24773 24776 24778 24781 24784 24787 24790 24793 24796 24799 24802 24805 24808 24811 24814 24817 24820 24822 24824 24827 24830 24833 24836 24839 24842 24845 24848 24851 24854 24856 24859 24862 24865 24868 24871 24874 24877 24880 24883 24886 24889 24892 24895 24898 24901 24904 24907 24910 24913 24916 24919 24922 24924 24927 24930 24933 24935 24938 24941 24944 24947 24950 24952 24955 24958 24960 24963 24966 24969 24972 24975 24978 24981 24984 24987 24990 24993 24996 24999 25002 25005 25007 25010 25013 25016 25018 25020 25023 25026 25029 25032 25035 25038 25041 25044 25047 25050 25052 25055 25057 25060 25062 25065 25068 25070 25073 25075 25077 25080 25083 25086 25089 25091 25094 25097 25100 25102 25105 25108 25111 25114 25117 25120 25122 25125 25128 25131 25134 25137 25140 25143 25146 25148 25151 25154 25156 25159 25162 25165 25168 25171 25174 25177 25180 25182 25185 25188 25190 25193 25196 25199 25202 25205 25208 25211 25214 25217 25220 25222 25225 25228 25231 25234 25237 25239 25242 25245 25247 25250 25253 25256 25259 25262 25265 25268 25271 25274 25277 25280 25283 25286 25289 25292 25295 25298 25301 25304 25307 25309 25312 25315 25318 25321 25323 25325 25328 25330 25333 25336 25339 25342 25345 25348 25351 25354 25357 25360 25363 25366 25369 25372 25375 25378 25381 25383 25386 25388 25391 25394 25397 25400 25403 25406 25408 25411 25414 25417 25420 25423 25426 25429 25432 25435 25438 25441 25444 25447 25450 25453 25456 25459 25462 25465 25468 25471 25474 25477 25480 25483 25486 25489 25492 25495 25498 25501 25504 25507 25510 25513 25515 25518 25521 25524 25527 25529 25532 25534 25536 25539 25542 25545 25548 25551 25554 25557 25560 25563 25566 25569 25572 25575 25578 25580 25583 25586 25589 25592 25595 25598 25601 25604 25607 25610 25613 25616 25619 25622 25625 25628 25631 25634 25637 25640 25643 25646 25649 25651 25654 25657 25659 25662 25665 25668 25671 25674 25677 25679 25682 25685 25688 25691 25694 25697 25700 25703 25705 25707 25710 25712 25715 25718 25721 25723 25726 25728 25731 25734 25737 25740 25742 25745 25747 25749 25752 25755 25757 25759 25762 25764 25766 25769 25771 25773 25776 25779 25782 25785 25788 25790 25793 25796 25799 25802 25805 25808 25811 25814 25817 25820 25823 25826 25829 25832 25835 25838 25841 25844 25846 25849 25852 25855 25858 25860 25863 25866 25869 25872 25875 25878 25881 25884 25887 25890 25893 25896 25898 25901 25904 25907 25909 25912 25915 25918 25920 25923 25926 25929 25931 25934 25937 25940 25943 25946 25949 25952 25955 25958 25961 25963 25966 25969 25971 25973 25976 25979 25982 25984 25987 25989 25992 25995 25998 26001 26004 26006 26008 26010 26012 26015 26018 26020 26023 26026 26029 26031 26034 26036 26039 26042 26045 26048 26050 26053 26056 26059 26062 26065 26068 26071 26073 26076 26079 26082 26085 26088 26091 26094 26096 26099 26102 26104 26107 26109 26112 26114 26117 26120 26123 26126 26129 26132 26135 26137 26139 26142 26145 26147 26150 26153 26156 26159 26162 26165 26168 26171 26174 26177 26180 26183 26186 26189 26192 26195 26198 26201 26204 26207 26210 26213 26216 26219 26222 26225 26228 26231 26234 26237 26240 26243 26246 26249 26252 26255 26258 26261 26264 26267 26270 26273 26276 26278 26281 26284 26287 26290 26293 26296 26298 26301 26304 26307 26310 26313 26316 26319 26322 26325 26328 26331 26334 26337 26340 26343 26345 26347 26350 26353 26356 26359 26362 26365 26367 26370 26373 26376 26379 26382 26385 26387 26390 26393 26396 26399 26402 26405 26408 26410 26413 26416 26419 26422 26425 26428 26430 26433 26436 26438 26441 26444 26447 26450 26453 26456 26459 26462 26465 26468 26471 26474 26477 26480 26483 26486 26489 26491 26494 26497 26500 26503 26506 26509 26511 26514 26517 26519 26522 26525 26528 26531 26534 26537 26540 26543 26546 26549 26551 26554 26557 26560 26563 26566 26569 26571 26574 26577 26580 26583 26586 26589 26592 26594 26597 26600 26603 26605 26608 26611 26614 26617 26620 26623 26626 26629 26632 26635 26638 26641 26644 26647 26650 26653 26656 26659 26662 26665 26668 26671 26674 26676 26679 26682 26685 26688 26691 26694 26697 26700 26703 26706 26709 26712 26715 26718 26721 26724 26727 26730 26733 26736 26739 26742 26745 26748 26751 26754 26757 26760 26763 26766 26769 26772 26775 26778 26781 26784 26787 26790 26793 26796 26799 26802 26805 26808 26811 26813 26816 26819 26822 26825 26827 26830 26833 26836 26838 26841 26843 26846 26849 26852 26855 26857 26860 26863 26866 26869 26872 26875 26878 26881 26883 26886 26889 26892 26895 26897 26900 26903 26906 26909 26912 26915 26918 26921 26923 26926 26929 26932 26935 26937 26940 26943 26946 26949 26952 26955 26957 26959 26962 26964 26966 26969 26972 26975 26978 26981 26984 26987 26989 26992 26994 26997 27000 27003 27005 27008 27011 27014 27017 27020 27023 27025 27028 27031 27033 27036 27038 27041 27043 27045 27048 27051 27054 27056 27059 27062 27064 27067 27070 27073 27076 27079 27082 27085 27088 27091 27094 27096 27099 27102 27105 27108 27110 27113 27115 27118 27121 27123 27126 27128 27131 27134 27136 27139 27142 27145 27148 27151 27154 27156 27159 27162 27165 27168 27171 27173 27176 27179 27181 27184 27187 27189 27192 27195 27198 27200 27203 27206 27209 27212 27215 27218 27220 27223 27226 27229 27232 27234 27236 27239 27242 27245 27247 27250 27252 27254 27257 27260 27262 27265 27268 27271 27273 27276 27279 27282 27285 27288 27291 27294 27297 27299 27302 27305 27308 27311 27314 27316 27319 27322 27325 27328 27331 27333 27336 27338 27341 27344 27347 27350 27353 27355 27357 27360 27363 27365 27367 27369 27372 27375 27378 27381 27383 27386 27389 27392 27395 27398 27401 27403 27406 27409 27412 27415 27418 27421 27424 27427 27430 27433 27436 27439 27442 27445 27448 27451 27454 27456 27459 27462 27465 27468 27471 27474 27477 27480 27483 27486 27489 27492 27495 27498 27501 27504 27507 27509 27512 27515 27518 27520 27523 27526 27528 27531 27533 27536 27539 27542 27544 27547 27550 27553 27556 27559 27562 27564 27567 27570 27572 27575 27578 27581 27584 27587 27589 27592 27594 27597 27600 27603 27606 27609 27612 27615 27618 27621 27624 27626 27629 27632 27635 27637 27640 27643 27646 27648 27651 27654 27657 27659 27662 27664 27666 27669 27672 27674 27676 27679 27682 27685 27688 27691 27694 27697 27699 27702 27704 27707 27710 27712 27715 27718 27721 27724 27727 27730 27733 27735 27738 27740 27743 27746 27749 27752 27754 27757 27759 27762 27765 27768 27770 27773 27776 27779 27782 27785 27788 27790 27793 27796 27798 27801 27804 27807 27810 27813 27816 27819 27822 27825 27828 27831 27834 27837 27839 27842 27845 27848 27851 27854 27857 27859 27862 27865 27868 27871 27874 27877 27880 27883 27886 27888 27891 27893 27895 27898 27901 27904 27907 27909 27912 27915 27918 27920 27922 27925 27928 27931 27934 27937 27940 27943 27946 27949 27952 27955 27958 27961 27964 27967 27970 27972 27974 27977 27980 27983 27986 27989 27992 27995 27998 28000 28003 28005 28008 28011 28013 28015 28018 28021 28023 28026 28028 28030 28033 28035 28038 28041 28044 28047 28049 28051 28054 28057 28059 28062 28065 28068 28071 28074 28077 28080 28082 28085 28088 28091 28094 28097 28100 28103 28106 28109 28112 28115 28118 28121 28124 28127 28130 28133 28136 28139 28142 28145 28148 28151 28154 28157 28160 28163 28166 28169 28172 28175 28178 28180 28183 28186 28189 28192 28195 28198 28201 28204 28207 28210 28213 28216 28219 28222 28225 28228 28231 28234 28237 28240 28243 28246 28249 28252 28255 28258 28261 28264 28267 28269 28272 28275 28278 28281 28284 28287 28290 28292 28295 28298 28301 28304 28307 28309 28312 28314 28317 28320 28322 28325 28328 28331 28334 28337 28340 28343 28346 28349 28351 28354 28357 28360 28363 28366 28368 28371 28373 28376 28379 28382 28385 28388 28391 28394 28397 28400 28403 28405 28408 28411 28413 28416 28418 28421 28424 28427 28429 28431 28434 28437 28440 28443 28446 28449 28451 28454 28457 28460 28463 28465 28468 28471 28474 28477 28480 28483 28486 28489 28492 28495 28498 28501 28504 28507 28510 28513 28516 28519 28522 28524 28527 28529 28532 28534 28537 28540 28543 28545 28548 28551 28553 28556 28559 28562 28565 28567 28570 28573 28576 28579 28582 28585 28588 28590 28592 28595 28598 28601 28604 28607 28610 28612 28614 28617 28620 28623 28625 28628 28630 28633 28636 28639 28642 28645 28648 28651 28654 28657 28660 28663 28666 28668 28671 28674 28676 28678 28681 28684 28687 28690 28693 28696 28699 28702 28704 28707 28709 28712 28714 28717 28720 28723 28726 28729 28732 28735 28738 28741 28744 28747 28750 28753 28756 28759 28762 28765 28768 28771 28774 28777 28780 28783 28786 28789 28792 28795 28798 28801 28804 28807 28810 28812 28815 28818 28821 28824 28827 28830 28833 28836 28839 28842 28845 28848 28851 28854 28857 28860 28863 28865 28868 28870 28873 28876 28879 28882 28885 28888 28891 28894 28897 28900 28903 28905 28908 28911 28914 28917 28920 28923 28926 28929 28932 28934 28937 28940 28943 28946 28949 28952 28955 28958 28961 28964 28966 28969 28972 28975 28978 28981 28984 28987 28990 28993 28996 28998 29001 29004 29007 29010 29013 29016 29019 29022 29025 29028 29031 29034 29037 29040 29043 29046 29049 29052 29055 29058 29061 29064 29067 29070 29072 29075 29078 29080 29083 29086 29089 29091 29093 29096 29099 29101 29103 29106 29109 29112 29114 29117 29120 29123 29126 29129 29132 29135 29137 29139 29142 29144 29147 29150 29152 29155 29158 29161 29164 29167 29170 29173 29176 29179 29181 29183 29186 29189 29192 29194 29197 29199 29202 29204 29207 29210 29213 29216 29219 29222 29225 29228 29231 29234 29237 29240 29243 29246 29249 29252 29255 29257 29260 29263 29266 29269 29271 29274 29277 29280 29283 29286 29289 29292 29295 29298 29300 29303 29306 29309 29312 29315 29318 29321 29324 29327 29329 29332 29335 29338 29341 29343 29346 29349 29352 29355 29358 29361 29364 29367 29370 29373 29375 29378 29381 29384 29387 29390 29393 29396 29399 29402 29405 29407 29410 29413 29416 29419 29421 29424 29427 29429 29432 29435 29438 29441 29444 29447 29450 29453 29456 29459 29462 29464 29467 29470 29473 29476 29479 29482 29485 29488 29491 29494 29497 29500 29503 29506 29509 29512 29515 29518 29521 29523 29526 29529 29532 29535 29538 29540 29543 29546 29549 29552 29554 29556 29559 29562 29565 29568 29571 29574 29577 29580 29583 29586 29589 29592 29595 29598 29601 29603 29606 29609 29612 29614 29616 29619 29622 29625 29628 29630 29633 29636 29639 29642 29644 29647 29650 29652 29655 29657 29660 29662 29665 29668 29671 29674 29677 29680 29682 29685 29688 29690 29692 29695 29698 29701 29703 29706 29709 29712 29715 29718 29721 29723 29726 29729 29731 29734 29736 29738 29740 29742 29745 29748 29750 29753 29756 29759 29761 29764 29767 29770 29773 29776 29779 29782 29785 29787 29789 29792 29795 29798 29801 29803 29806 29808 29811 29813 29815 29817 29820 29823 29826 29829 29832 29835 29837 29839 29842 29845 29848 29851 29854 29857 29860 29863 29866 29869 29872 29875 29878 29881 29884 29887 29889 29891 29894 29896 29899 29902 29905 29907 29910 29913 29915 29918 29921 29924 29926 29929 29932 29935 29938 29941 29944 29946 29949 29952 29955 29958 29961 29964 29967 29970 29973 29976 29978 29981 29984 29987 29990 29993 29996 29998 30001 30004 30007 30009 30012 30015 30017 30019 30021 30024 30027 30030 30032 30035 30037 30040 30043 30045 30048 30051 30053 30056 30059 30061 30064 30067 30070 30072 30074 30077 30080 30083 30086 30089 30092 30095 30098 30101 30103 30106 30109 30112 30114 30116 30119 30122 30125 30127 30130 30133 30136 30138 30141 30144 30147 30150 30153 30156 30159 30162 30165 30168 30171 30174 30177 30180 30183 30186 30189 30192 30195 30198 30201 30204 30207 30210 30213 30216 30219 30222 30225 30228 30231 30234 30237 30240 30243 30246 30249 30252 30255 30258 30261 30264 30266 30269 30272 30275 30278 30280 30282 30285 30287 30290 30293 30295 30298 30301 30303 30306 30308 30311 30314 30317 30320 30323 30326 30328 30331 30334 30337 30340 30343 30345 30348 30350 30353 30356 30359 30362 30365 30368 30370 30372 30375 30378 30380 30383 30386 30389 30392 30395 30398 30400 30403 30406 30409 30412 30415 30418 30421 30424 30427 30430 30433 30436 30439 30442 30445 30448 30451 30454 30457 30460 30462 30465 30468 30471 30474 30477 30480 30483 30486 30489 30492 30494 30497 30500 30503 30506 30508 30511 30514 30517 30520 30523 30526 30529 30532 30534 30537 30540 30543 30546 30548 30551 30554 30557 30560 30563 30566 30569 30572 30575 30577 30580 30583 30586 30589 30591 30594 30597 30600 30603 30606 30608 30611 30614 30617 30620 30622 30625 30628 30631 30634 30637 30640 30642 30645 30648 30651 30654 30657 30660 30663 30665 30668 30671 30674 30677 30680 30682 30685 30688 30691 30693 30696 30699 30701 30704 30707 30710 30712 30715 30717 30720 30723 30726 30729 30732 30735 30738 30741 30744 30746 30749 30752 30755 30758 30761 30764 30767 30770 30773 30776 30779 30782 30785 30788 30791 30793 30795 30798 30801 30804 30807 30810 30813 30816 30819 30822 30825 30828 30831 30834 30837 30840 30843 30846 30849 30852 30855 30858 30861 30864 30867 30870 30872 30875 30878 30881 30884 30887 30890 30893 30896 30899 30901 30904 30907 30909 30912 30915 30918 30921 30924 30927 30930 30933 30936 30939 30942 30945 30948 30951 30954 30956 30959 30962 30965 30968 30971 30974 30977 30980 30983 30986 30989 30992 30995 30998 31001 31004 31007 31010 31013 31016 31019 31022 31025 31028 31031 31034 31037 31040 31043 31046 31049 31052 31055 31058 31060 31063 31066 31069 31071 31074 31077 31079 31081 31084 31086 31089 31091 31093 31096 31099 31102 31105 31108 31111 31114 31117 31120 31123 31126 31129 31132 31135 31137 31140 31143 31146 31149 31152 31155 31158 31161 31164 31167 31170 31173 31176 31179 31182 31185 31188 31191 31194 31197 31199 31202 31205 31207 31210 31213 31215 31218 31221 31224 31227 31230 31233 31236 31239 31241 31243 31246 31249 31252 31254 31257 31259 31261 31264 31267 31269 31272 31275 31277 31280 31283 31286 31289 31291 31294 31296 31299 31302 31304 31307 31310 31313 31316 31319 31322 31325 31328 31331 31334 31337 31340 31343 31346 31349 31352 31355 31358 31361 31363 31366 31369 31372 31375 31377 31380 31383 31386 31389 31392 31395 31398 31401 31404 31407 31410 31413 31416 31419 31422 31425 31428 31430 31433 31436 31439 31442 31445 31448 31451 31454 31456 31459 31462 31465 31468 31471 31474 31477 31479 31482 31484 31487 31490 31493 31495 31498 31500 31503 31506 31509 31512 31515 31518 31521 31524 31527 31530 31533 31536 31539 31542 31545 31548 31551 31553 31556 31559 31562 31565 31568 31571 31574 31577 31580 31583 31586 31588 31591 31594 31596 31599 31602 31605 31608 31611 31614 31617 31620 31623 31626 31629 31632 31635 31638 31641 31644 31646 31649 31652 31654 31657 31660 31662 31665 31667 31670 31673 31676 31678 31681 31684 31687 31689 31692 31695 31698 31701 31703 31706 31709 31712 31715 31718 31720 31723 31726 31728 31731 31734 31736 31739 31741 31743 31746 31749 31752 31755 31758 31761 31763 31766 31769 31771 31774 31776 31779 31782 31785 31787 31790 31793 31796 31798 31801 31803 31806 31809 31811 31814 31816 31819 31822 31825 31828 31830 31833 31835 31838 31841 31844 31847 31850 31852 31855 31857 31860 31862 31865 31867 31870 31873 31875 31878 31881 31884 31887 31890 31893 31896 31899 31901 31903 31905 31907 31910 31913 31916 31919 31921 31924 31927 31930 31933 31936 31939 31941 31944 31947 31949 31952 31955 31958 31960 31962 31965 31968 31970 31973 31976 31979 31982 31985 31987 31989 31992 31995 31998 32001 32003 32005 32008 32010 32012 32015 32018 32020 32023 32026 32029 32032 32035 32038 32041 32044 32046 32049 32052 32055 32058 32060 32062 32065 32068 32071 32074 32076 32079 32082 32084 32087 32090 32093 32096 32099 32102 32105 32108 32110 32113 32116 32119 32122 32125 32128 32131 32134 32137 32140 32143 32146 32149 32152 32155 32158 32161 32164 32167 32170 32173 32175 32178 32181 32184 32187 
</DataArray>
<DataArray type="UInt32" Name="types" format="ascii">
5 5 5 5 5 5 5 5 5 5 5 5 5 5 5 5 5 3 5 5 5 5 5 5 3 5 5 5 5 5 5 5 5 3 5 5 5 5 5 5 5 5 5 5 5 5 5 5 5 5 3 5 5 5 5 3 3 5 5 5 5 3 5 5 5 5 5 5 3 5 5 5 3 5 3 5 5 5 5 5 5 5 3 5 5 5 5 5 5 5 5 5 5 5 5 5 5 5 5 5 5 5 5 5 5 5 5 5 5 5 5 5 5 5 5 3 5 5 5 5 5 5 5 5 5 3 5 5 5 5 5 5 3 5 5 5 5 3 5 5 5 3 5 5 5 5 5 5 5 5 5 5 5 5 3 5 5 3 5 5 5 5 5 5 5 5 3 5 5 5 5 5 5 3 3 5 5 3 5 5 5 5 5 5 5 5 5 5 5 5 3 5 5 5 5 5 5 5 5 3 5 5 5 5 5 5 5 5 3 5 3 5 5 3 3 5 3 5 5 5 5 5 5 5 5 5 5 5 5 5 5 5 5 5 5 5 5 5 5 5 5 5 5 3 5 5 5 5 3 5 5 5 5 5 3 3 3 3 3 5 5 5 3 5 5 5 5 5 5 5 5 5 3 5 5 5 5 5 5 3 5 3 5 5 5 5 5 5 5 5 5 5 5 5 5 5 3 5 5 5 5 3 5 5 5 5 5 5 5 5 5 5 5 5 5 5 5 5 3 5 5 5 5 5 5 5 5 5 5 5 5 5 5 5 3 5 5 5 5 5 3 5 3 5 3 5 5 5 3 5 5 5 5 5 5 5 3 5 5 5 5 3 5 5 3 5 5 5 5 5 5 3 5 5 5 3 5 5 5 5 5 5 5 5 5 5 3 5 5 5 5 3 5 5 5 5 5 5 5 5 5 5 3 5 3 5 5 5 5 5 3 5 5 5 5 5 5 5 5 5 5 5 5 5 3 5 5 5 3 5 3 5 5 3 5 5 3 5 5 5 5 5 5 5 5 5 5 5 5 5 5 5 5 5 5 5 5 3 5 5 5 5 5 5 5 5 5 5 5 5 5 5 5 5 5 5 5 5 5 5 5 5 5 5 5 5 5 5 5 5 5 3 5 5 5 5 5 5 5 3 5 5 5 5 5 5 5 5 5 5 5 5 5 5 5 5 5 5 5 5 5 5 5 5 5 5 5 5 5 5 5 5 5 5 5 5 5 5 5 5 5 5 5 5 5 5 5 5 5 5 5 5 5 5 5 3 5 3 5 5 5 5 3 5 3 5 5 3 5 5 5 5 5 5 5 5 5 3 5 5 3 5 5 5 3 3 5 5 5 5 5 5 5 5 5 5 5 5 5 5 5 5 5 5 5 5 5 5 5 5 5 5 5 5 3 5 5 5 5 5 5 5 5 5 3 5 5 5 5 5 5 3 5 5 5 3 5 5 5 5 5 5 5 5 3 5 5 5 5 5 5 3 5 5 5 3 5 5 5 5 3 3 5 5 5 5 5 5 3 5 5 5 5 5 3 5 3 5 5 5 5 3 5 5 3 5 3 5 5 5 5 5 3 5 5 5 5 5 5 5 3 3 5 5 5 3 5 5 5 5 5 5 5 5 5 3 5 5 3 5 5 5 5 5 5 3 5 5 5 3 5 5 5 5 5 5 5 5 5 5 3 5 5 5 3 5 5 5 5 5 5 5 5 5 5 5 5 5 3 3 5 5 5 5 5 5 3 5 5 5 5 5 5 5 5 5 3 3 3 5 5 3 5 5 5 5 5 5 5 5 5 5 5 3 5 5 3 5 5 5 5 5 5 5 5 5 5 5 5 5 5 5 5 5 5 5 5 5 3 5 5 5 3 5 5 3 5 5 5 3 5 5 5 5 5 5 5 5 5 5 5 5 5 3 5 5 3 5 5 3 5 5 5 5 3 5 5 5 5 5 5 5 5 5 5 5 5 5 5 5 5 5 5 5 5 5 5 5 5 5 5 5 5 5 5 5 5 5 5 5 5 5 5 5 5 5 5 5 5 5 5 5 5 5 5 5 5 5 5 5 5 3 5 5 5 5 5 5 5 5 5 5 5 5 5 5 5 5 5 5 5 5 5 5 5 5 5 5 3 5 5 5 5 5 5 5 3 5 5 5 5 5 5 5 5 5 5 5 5 5 5 5 5 5 5 5 5 5 5 5 5 5 5 3 5 5 5 5 5 5 5 5 5 5 3 5 5 5 5 5 5 5 5 3 5 5 5 5 3 5 3 5 3 5 5 5 5 5 5 5 5 3 5 5 5 5 5 5 5 5 3 5 5 3 3 5 5 3 5 5 5 5 5 5 5 5 5 5 5 5 5 3 5 5 5 3 3 5 5 3 5 3 5 5 5 5 5 5 5 3 5 5 5 5 5 5 5 5 5 5 3 5 5 3 5 5 5 5 5 5 3 5 5 5 3 5 5 3 5 5 5 3 5 5 5 5 5 5 5 5 3 3 5 5 5 5 5 5 5 5 5 5 5 5 3 5 5 5 5 5 5 3 5 5 5 5 5 3 5 5 5 5 5 5 5 5 3 5 5 5 5 5 5 3 5 3 3 5 5 5 3 3 5 3 5 5 5 5 5 3 5 5 5 5 5 5 5 3 5 5 5 5 3 5 3 5 5 3 5 3 5 5 5 3 5 5 5 5 5 5 5 5 5 5 5 5 3 5 5 3 5 5 5 5 5 5 5 5 5 5 5 5 5 5 5 5 5 3 5 5 3 5 3 5 5 5 5 5 5 5 3 3 5 5 5 5 5 3 5 3 3 5 5 5 3 3 5 5 5 5 5 3 5 5 5 5 5 5 5 5 5 5 5 5 3 5 5 3 5 5 5 5 5 5 5 5 5 5 3 3 5 5 5 5 5 5 5 3 5 5 5 3 5 3 5 5 5 5 5 5 5 5 5 3 5 5 5 3 5 5 5 5 5 5 5 5 5 3 5 5 5 5 5 5 5 5 5 5 5 5 5 5 5 5 5 5 5 5 5 5 5 3 3 5 5 5 5 5 5 3 3 5 5 3 5 3 5 3 5 5 5 3 5 5 3 5 3 5 3 5 5 3 5 5 5 5 5 5 3 3 5 5 5 3 5 5 5 5 3 5 5 5 5 5 3 5 5 5 5 3 3 5 5 5 5 5 5 5 3 5 5 5 5 5 5 5 5 5 5 5 5 5 5 5 3 5 5 3 3 5 5 5 5 3 3 5 5 5 3 5 5 3 5 5 5 5 5 5 5 5 5 3 5 5 5 5 3 5 5 5 5 5 5 5 5 5 5 3 5 5 5 3 5 5 3 5 3 5 3 3 5 5 5 5 5 5 3 5 5 5 3 5 3 5 5 5 5 3 5 5 5 3 5 3 3 5 5 5 3 5 5 3 5 3 5 5 5 5 5 3 5 5 5 5 5 3 5 5 5 5 5 5 3 3 5 3 3 5 3 5 5 5 5 3 5 5 5 3 5 3 5 3 5 5 3 5 3 5 5 5 3 5 5 5 3 3 5 5 5 3 3 5 5 5 3 3 3 5 3 5 5 3 5 5 5 5 5 5 5 5 5 5 5 5 5 5 3 5 5 3 3 5 5 5 5 3 3 5 5 3 5 3 5 3 5 5 5 3 3 5 5 5 3 5 5 5 5 5 5 5 5 5 5 3 3 5 5 3 5 5 5 5 3 3 5 3 3 5 5 5 5 5 3 3 5 5 3 5 3 3 5 3 5 5 5 5 3 5 5 3 5 3 5 5 3 5 5 5 5 5 5 5 5 3 5 5 5 5 3 5 3 5 3 5 5 5 5 3 5 3 3 5 3 3 5 5 5 5 5 5 5 5 5 5 5 5 5 5 5 5 5 3 5 5 5 5 5 5 5 5 5 5 5 3 5 5 5 5 3 5 5 5 5 5 5 5 3 5 5 3 5 5 5 5 3 5 3 5 5 5 5 5 5 5 5 5 5 5 5 5 5 5 5 5 5 5 5 5 3 5 5 5 5 3 5 5 5 5 5 5 5 3 5 3 5 5 3 5 5 5 5 5 5 5 5 5 5 5 5 5 3 5 5 5 5 5 3 5 5 5 5 5 5 5 3 5 5 5 5 5 5 5 5 5 5 5 5 5 5 5 5 5 5 5 5 5 3 5 5 5 3 5 5 5 5 5 5 5 5 5 3 5 5 5 3 5 5 5 5 5 5 5 3 5 5 5 5 5 5 5 5 5 5 5 5 5 5 5 5 5 5 5 5 5 5 5 5 5 5 3 5 5 5 5 5 5 3 5 5 5 5 5 5 5 3 5 5 5 3 3 5 5 3 5 5 5 5 3 5 5 3 5 3 5 5 5 5 5 5 5 3 5 5 5 5 5 5 5 5 5 5 3 5 5 5 5 5 5 5 5 5 5 5 5 3 5 5 5 5 5 5 5 5 5 5 3 5 5 5 5 5 3 5 3 3 5 5 3 5 5 5 5 5 5 5 5 5 5 3 5 5 5 3 3 5 5 3 3 3 5 5 5 5 5 3 5 5 3 3 5 5 3 5 3 5 5 5 3 5 5 5 5 5 3 5 5 5 5 3 5 5 5 5 3 5 5 5 5 5 3 5 5 5 5 5 5 5 5 5 3 5 5 5 5 5 3 5 5 3 5 5 3 5 5 5 3 5 5 5 5 3 3 5 5 3 5 5 5 3 5 5 5 3 5 3 5 5 5 5 3 3 5 5 5 5 5 5 5 5 5 5 5 5 5 5 5 5 3 5 3 5 5 5 5 5 5 3 5 5 5 5 3 3 3 5 5 5 3 3 5 5 5 5 5 5 5 5 5 3 5 5 5 5 5 5 5 3 5 5 5 5 3 3 5 5 5 5 5 5 5 5 5 5 5 5 5 5 5 5 5 5 5 5 5 5 5 5 5 5 5 5 5 5 5 5 5 5 5 5 5 5 5 5 5 5 5 5 5 5 5 5 5 5 5 5 5 5 5 3 5 5 5 5 5 5 5 5 5 5 5 5 5 5 5 5 5 5 5 5 5 5 5 5 5 5 5 5 5 5 5 5 5 5 5 5 5 5 5 5 5 5 5 5 5 5 5 5 5 5 5 5 5 5 5 5 5 5 5 5 5 5 5 5 5 5 3 5 5 5 5 5 3 5 5 5 5 5 5 3 5 5 5 5 5 5 5 5 5 5 3 5 5 5 5 5 5 3 3 5 5 5 5 5 5 5 5 5 5 5 5 5 5 5 5 5 5 5 5 5 5 5 5 5 5 5 5 5 5 5 5 5 5 5 5 5 5 5 5 5 5 5 5 5 5 5 5 5 5 5 5 5 5 5 5 5 5 5 5 5 5 5 3 5 3 5 5 5 5 5 5 5 5 3 3 5 5 5 3 5 3 5 5 5 5 5 5 5 5 5 5 5 3 3 5 5 5 5 5 5 5 5 5 3 3 5 5 5 3 5 3 5 3 5 5 5 5 5 5 5 3 5 3 3 5 5 5 5 5 5 5 5 3 5 5 3 5 5 5 5 5 5 5 3 5 5 5 5 5 3 3 5 5 3 5 5 5 5 3 5 3 5 5 5 5 3 5 5 3 3 5 5 5 5 5 5 5 3 5 5 5 5 5 5 5 5 5 5 5 5 5 5 5 5 5 5 5 5 5 5 5 5 5 5 5 5 5 5 5 5 5 5 5 5 5 3 5 5 3 5 5 5 5 5 5 5 3 5 5 3 5 3 3 5 5 5 5 5 3 5 5 5 5 5 5 5 5 5 5 5 5 5 5 5 5 5 5 3 5 5 5 5 5 3 5 5 5 5 5 5 5 3 5 5 5 5 5 3 5 5 5 5 3 5 5 3 5 5 5 3 5 5 5 5 5 5 5 5 5 5 5 3 5 5 3 5 5 5 5 5 5 5 5 5 5 5 5 5 5 5 5 5 5 5 3 5 3 5 5 3 3 5 5 5 3 5 3 5 5 3 5 5 5 5 3 5 5 5 5 5 3 5 5 5 3 3 3 5 3 5 3 3 5 5 5 5 3 5 3 5 5 3 5 5 5 5 5 3 5 3 3 5 3 5 5 5 5 3 3 5 5 5 5 5 5 5 5 5 5 5 5 5 5 5 5 5 5 5 5 3 5 3 5 5 5 3 5 5 3 3 5 5 5 3 5 5 5 3 5 3 5 3 5 5 5 3 3 5 5 3 5 3 5 5 3 5 5 5 5 5 3 5 3 3 5 5 5 3 5 5 5 5 5 3 5 3 5 5 3 5 5 3 5 3 5 5 5 5 5 3 5 5 5 5 5 5 5 5 5 5 3 3 5 5 5 5 5 5 5 5 5 5 5 5 5 5 5 5 5 5 5 5 5 5 5 5 5 5 3 5 5 5 5 5 5 5 5 5 5 5 3 5 3 5 5 5 3 3 5 5 3 5 3 5 5 5 3 5 5 5 5 5 5 5 5 5 5 5 5 5 5 3 5 5 3 5 5 5 5 5 5 5 5 5 5 5 5 5 5 5 5 5 5 5 5 5 5 5 5 5 5 5 5 3 5 5 3 5 5 5 3 5 3 5 5 5 5 5 5 5 3 5 5 5 3 5 5 3 5 5 5 5 3 5 5 5 5 5 5 3 5 5 5 5 5 5 3 5 5 5 5 5 3 5 5 5 3 3 5 5 5 5 5 5 5 5 5 5 5 3 5 5 3 3 5 5 5 5 5 5 5 5 5 5 5 5 5 5 5 5 5 5 5 5 5 5 5 5 3 5 3 5 5 5 5 3 5 3 5 5 5 3 5 3 5 5 3 3 5 3 5 3 5 5 5 3 5 5 5 5 5 3 5 5 5 5 5 5 5 5 5 5 5 5 5 5 5 5 5 5 5 5 3 5 3 5 5 3 5 5 5 5 5 5 5 5 5 3 5 5 3 5 3 5 5 5 5 5 5 5 5 5 5 5 3 5 5 5 5 5 5 5 5 5 5 5 5 5 5 5 5 5 5 5 5 3 5 5 5 5 5 5 5 3 5 5 5 5 5 5 5 5 5 5 5 5 3 5 5 3 5 5 5 5 5 3 5 5 5 5 5 5 5 5 5 3 5 5 5 5 5 5 5 3 5 5 5 5 5 5 5 5 5 5 5 5 5 3 5 5 5 3 5 5 5 5 5 5 5 5 5 5 5 5 5 5 5 5 5 5 5 5 5 5 5 5 5 5 5 5 5 5 5 5 5 3 5 3 5 3 5 5 5 5 5 3 5 5 5 5 3 5 5 5 5 5 5 5 5 5 3 5 5 5 5 5 5 5 5 5 5 5 5 5 5 5 5 5 5 3 5 5 5 5 5 5 5 5 5 5 5 5 5 5 5 5 5 5 5 5 5 5 5 5 5 5 5 5 5 3 5 5 5 5 5 5 3 5 5 5 5 5 5 5 3 5 5 3 5 5 5 3 5 5 5 3 5 5 5 5 5 5 5 5 5 5 5 3 5 5 3 5 3 5 5 3 5 5 5 3 5 5 5 5 5 5 5 5 5 5 5 5 5 5 5 5 5 5 5 5 5 5 5 5 3 5 5 3 5 5 5 5 3 5 5 3 3 5 5 3 5 5 5 5 5 5 3 3 3 5 5 5 5 5 5 5 5 3 3 3 5 3 5 5 5 5 5 3 5 5 3 5 5 5 5 5 5 5 5 5 5 5 5 5 5 5 5 5 5 3 5 5 5 3 5 5 5 5 3 5 3 3 3 5 3 5 5 5 5 3 5 3 5 3 5 5 5 5 3 5 3 5 5 5 5 5 5 5 3 3 5 5 5 3 3 5 5 5 5 5 5 5 5 3 5 5 5 5 5 5 5 5 5 5 5 5 3 5 5 3 5 5 3 3 5 5 5 3 5 5 5 3 5 5 5 5 5 5 5 5 5 5 5 5 3 5 5 3 5 5 5 3 3 5 5 3 5 5 5 5 3 5 5 5 3 5 5 5 5 5 5 5 5 3 5 5 3 5 5 3 5 5 5 5 5 5 3 5 5 5 5 3 3 5 5 5 5 3 5 5 5 5 5 5 5 5 5 5 5 5 5 5 5 3 5 3 5 5 3 3 5 3 3 5 5 5 5 3 5 3 5 3 5 5 3 5 5 5 5 5 5 5 3 5 5 3 5 3 5 5 5 5 5 5 5 5 3 5 5 5 5 5 3 5 5 5 5 5 3 5 5 5 5 5 3 5 5 5 5 5 5 5 5 5 5 5 5 5 5 5 5 5 5 5 5 5 5 5 5 5 3 5 5 5 5 5 5 5 5 5 3 5 5 5 5 5 5 3 5 5 5 5 5 5 5 5 5 5 3 5 3 5 5 5 5 5 5 5 5 3 5 5 5 5 5 5 3 5 5 3 3 5 5 5 5 3 5 5 5 5 5 5 5 5 5 5 5 5 5 5 5 5 5 5 5 5 5 5 5 5 5 5 5 5 5 5 5 5 3 5 5 5 5 5 5 5 5 5 3 5 5 5 5 5 3 5 5 3 5 5 5 5 5 5 5 5 5 5 3 3 5 5 5 3 5 5 5 5 3 5 5 5 3 5 5 5 5 5 5 3 5 5 5 3 5 3 5 5 5 5 5 5 5 5 3 5 5 5 5 3 5 5 3 3 3 5 3 5 5 3 5 5 5 5 5 5 5 5 5 5 5 5 3 5 5 5 5 5 5 5 3 5 5 5 5 5 5 5 3 5 5 5 5 3 5 3 5 5 5 5 5 5 5 5 5 5 5 5 3 5 5 3 3 5 5 5 3 5 5 5 5 3 5 5 5 3 5 5 5 5 3 5 5 5 3 5 5 5 5 3 5 3 3 5 3 5 5 3 5 5 5 5 5 3 5 5 5 5 5 5 5 5 5 3 5 5 5 3 5 5 5 5 5 5 5 5 5 5 5 5 5 5 5 5 5 5 5 5 5 5 5 5 5 5 5 5 5 5 5 5 5 5 5 5 5 5 5 5 5 5 5 5 3 5 5 5 5 5 5 5 5 5 5 5 5 5 5 5 3 5 5 5 5 5 5 5 5 5 5 5 5 5 5 5 5 5 5 5 5 5 5 5 5 5 3 5 5 5 5 5 5 5 3 5 3 5 5 3 5 5 5 3 5 5 5 3 5 3 5 5 3 3 5 5 3 5 5 5 5 5 5 5 5 5 5 5 3 5 5 3 5 5 5 5 5 5 5 3 5 5 5 5 5 3 5 5 5 5 5 5 5 5 5 5 5 3 5 3 5 5 5 5 5 5 5 5 5 5 3 5 5 5 5 5 3 5 3 5 5 5 3 5 5 5 5 5 5 3 5 3 3 5 3 5 5 5 5 5 5 5 5 5 5 5 5 3 5 5 5 3 5 5 5 5 5 5 3 5 5 3 5 3 5 5 5 5 5 5 5 5 3 5 5 5 5 5 5 5 5 5 5 5 5 5 5 5 5 5 5 5 5 5 3 5 5 5 5 5 5 5 5 5 5 5 5 5 5 5 5 5 5 5 5 5 3 5 5 5 3 5 5 5 5 3 5 5 5 5 5 5 3 5 5 5 5 5 5 5 5 5 5 5 5 3 5 5 5 5 5 5 5 5 5 5 5 3 5 5 3 5 5 5 5 5 5 3 5 5 5 5 3 5 5 5 5 5 5 5 5 5 5 5 5 5 5 3 5 5 5 5 5 5 5 5 5 5 5 5 5 5 5 3 5 5 5 5 3 3 5 5 5 5 5 5 5 5 3 5 5 5 5 5 5 5 5 5 5 5 5 5 5 5 5 5 5 5 5 5 5 5 5 5 5 5 5 3 5 3 5 5 5 5 5 5 5 5 5 5 3 5 3 3 5 5 5 5 3 5 5 5 5 5 5 5 5 5 5 5 5 5 5 5 5 5 5 5 5 5 5 5 5 5 5 5 5 5 5 5 5 5 5 5 5 5 5 5 5 5 5 5 5 5 5 5 5 5 5 5 3 5 5 3 5 5 5 5 5 3 5 5 5 5 5 5 5 5 5 5 5 5 5 5 5 5 5 5 5 5 5 5 5 5 5 5 5 5 5 5 5 5 5 5 5 5 5 5 5 5 5 5 5 5 5 5 3 5 3 5 5 5 5 3 5 5 5 3 5 5 5 5 5 5 5 5 3 3 5 5 5 5 5 5 5 5 3 5 5 5 5 5 5 5 5 5 5 3 5 5 3 5 5 5 5 3 5 5 3 5 5 3 5 5 5 5 5 5 5 3 5 5 5 5 5 3 5 5 5 5 3 5 5 5 5 3 3 5 3 3 5 3 5 5 3 5 5 5 5 5 3 5 5 5 5 3 5 5 3 5 5 5 3 5 3 5 5 5 3 5 5 3 3 3 5 5 5 3 5 5 5 5 5 5 5 5 3 5 5 3 5 5 5 5 5 5 5 5 5 3 5 5 5 5 5 5 3 5 5 5 5 3 3 3 5 3 3 3 5 5 5 5 3 5 5 3 5 3 5 3 5 3 5 3 5 5 5 3 5 5 5 5 5 3 3 5 5 3 5 5 5 5 3 5 5 5 5 5 5 3 5 5 5 5 5 5 5 5 5 5 5 5 3 5 5 5 5 5 5 5 5 5 5 5 5 5 5 5 5 5 5 5 5 5 5 5 5 5 5 5 5 5 3 5 5 3 5 5 5 3 5 5 5 5 5 5 5 5 5 5 5 5 5 5 5 5 5 5 5 5 5 5 5 5 5 5 5 5 5 5 5 5 3 5 5 5 5 3 5 5 5 3 3 3 5 5 5 3 5 5 5 3 5 5 3 3 5 5 3 5 5 3 5 5 3 5 3 5 3 5 5 5 5 5 5 5 5 3 5 5 5 5 5 5 5 5 5 5 5 3 5 5 5 3 5 5 3 5 5 5 5 5 5 5 5 5 5 3 3 5 5 5 5 5 5 5 5 5 5 5 5 5 5 5 3 5 5 5 3 5 5 5 5 5 3 5 5 5 5 5 5 3 3 3 5 5 5 5 5 5 3 5 3 3 5 5 5 5 5 3 5 5 3 3 5 5 3 3 3 5 5 5 5 5 3 5 5 5 5 5 3 3 5 5 3 5 5 3 3 5 5 3 5 5 5 3 5 3 3 5 5 5 5 5 5 5 5 5 3 5 5 5 3 5 5 5 5 3 5 3 3 5 3 5 5 5 5 5 5 5 5 5 5 5 3 5 5 3 3 3 5 3 5 3 5 5 3 5 3 5 5 5 5 5 5 5 5 5 5 5 5 5 5 5 5 5 3 5 3 5 5 5 5 5 5 5 5 3 5 5 5 5 5 3 5 3 5 3 5 5 5 3 3 5 3 3 5 5 5 5 5 5 5 5 5 3 5 5 5 5 5 5 5 5 5 5 5 3 3 5 5 5 3 5 5 5 3 5 5 5 5 3 5 5 5 5 5 5 5 5 5 3 5 5 5 5 5 3 5 5 5 5 5 3 5 3 5 5 3 5 5 5 3 5 5 3 5 5 3 5 5 5 5 5 5 5 5 5 5 5 5 5 5 5 5 5 3 5 5 5 5 5 5 5 3 5 5 5 5 5 5 5 5 3 3 5 5 5 5 5 5 5 3 5 5 5 5 5 5 5 5 5 5 5 5 5 5 5 5 5 5 5 5 3 5 3 5 5 5 5 5 5 5 5 5 5 5 5 5 5 5 5 3 5 5 5 5 3 5 3 5 5 3 3 5 3 3 5 5 5 5 5 5 5 5 3 3 5 5 3 5 5 5 5 3 5 5 5 5 3 5 5 5 3 5 5 5 3 5 5 3 5 3 5 3 5 5 3 5 3 5 5 5 5 5 5 5 5 5 5 5 5 3 5 5 5 5 5 5 5 5 5 5 5 5 5 5 5 3 5 5 5 5 5 5 5 5 5 5 3 3 5 5 3 5 5 5 3 5 3 5 5 5 5 5 5 5 5 5 5 5 5 5 5 5 5 5 5 5 5 5 5 5 5 5 5 5 5 5 5 5 5 5 5 5 3 5 5 5 3 5 5 5 3 3 5 3 5 5 5 5 5 3 5 3 5 5 3 5 5 5 5 5 5 5 5 5 5 5 5 5 5 5 5 5 5 5 5 5 5 5 5 5 5 5 5 5 5 5 5 5 5 5 5 5 5 3 3 5 5 5 5 5 5 5 5 3 5 5 5 5 5 5 5 5 5 5 5 5 5 5 5 3 5 5 5 5 5 5 5 5 5 5 5 5 5 5 5 5 5 5 5 3 5 5 5 5 5 5 5 5 5 5 5 5 5 5 5 5 5 5 5 5 5 5 5 5 5 5 5 3 3 5 5 5 3 5 5 5 5 5 5 3 5 5 5 5 5 5 5 5 5 5 5 5 5 5 5 5 5 5 5 5 3 5 5 5 5 3 3 5 5 5 5 5 5 5 5 3 5 3 5 5 5 5 5 5 5 5 5 5 5 5 5 5 5 5 5 5 5 5 5 5 5 5 3 5 5 5 5 5 5 5 5 5 5 5 5 5 5 5 5 5 5 5 3 5 5 5 5 5 5 5 5 5 3 5 5 5 5 3 5 5 5 5 5 3 5 5 5 3 3 3 5 3 5 5 3 3 3 5 5 5 5 5 5 5 5 5 5 5 5 5 5 5 5 5 5 5 5 5 5 5 3 5 5 5 5 5 3 5 5 5 5 3 5 5 5 5 5 5 5 5 5 5 3 5 5 5 5 5 5 3 5 5 5 3 3 3 5 5 5 5 3 5 5 5 5 5 5 5 5 5 5 5 5 3 5 5 5 3 3 5 3 5 5 3 3 3 5 3 5 5 5 5 3 5 5 5 5 5 3 3 5 5 5 5 5 3 5 5 5 5 5 5 5 5 5 3 3 5 3 5 5 3 5 5 3 5 5 5 3 5 3 5 5 5 5 5 3 5 5 5 5 3 5 3 5 5 5 3 5 3 5 5 5 3 5 5 5 5 5 3 5 3 5 5 5 5 5 3 5 5 3 5 5 5 3 5 5 5 3 5 5 5 5 5 5 5 5 5 5 5 5 5 5 5 5 5 5 3 5 5 5 5 3 5 5 5 5 3 5 5 5 5 5 3 5 5 5 5 5 5 5 3 5 5 5 3 5 5 3 5 5 5 5 5 5 5 3 5 5 5 3 5 5 5 5 3 5 5 5 5 5 5 5 5 3 3 5 5 5 3 5 5 5 3 5 5 5 5 3 5 5 5 5 5 5 5 5 3 5 5 3 5 5 5 5 5 3 5 5 5 5 5 5 5 5 5 5 5 5 5 5 5 5 5 5 5 5 5 3 5 5 5 5 5 5 5 5 5 5 5 5 5 5 5 5 5 5 5 5 3 5 5 5 3 5 5 5 5 5 5 5 5 5 5 5 5 5 5 5 5 5 5 5 5 5 5 5 5 5 5 5 5 5 5 5 5 5 5 5 5 5 5 5 3 5 5 5 5 5 5 5 5 5 5 5 5 5 5 5 5 5 5 5 5 5 5 5 5 5 5 5 5 5 5 3 3 5 5 5 5 5 3 5 5 5 5 5 5 5 5 5 5 5 5 5 5 5 5 5 3 3 5 5 5 5 5 5 5 5 5 5 5 5 5 5 5 5 5 5 5 5 5 5 5 5 5 5 5 5 5 5 5 5 5 5 5 5 5 5 5 5 5 5 5 5 5 5 5 5 5 5 5 5 5 5 5 5 5 5 5 5 5 3 5 5 5 5 5 5 5 5 5 5 5 5 3 5 5 5 3 5 5 5 5 5 5 5 5 5 3 5 5 5 5 5 3 5 3 5 3 5 5 5 5 5 3 5 5 5 5 5 5 3 5 5 5 5 3 5 5 5 5 5 3 5 5 5 5 5 5 5 5 5 5 5 5 5 5 5 5 5 3 3 5 5 5 5 5 5 5 5 5 5 5 5 5 5 5 3 5 5 5 5 5 3 5 3 5 5 5 5 5 5 5 5 5 5 5 5 5 5 5 5 5 5 5 5 5 5 5 5 5 5 5 5 5 5 5 5 3 5 5 5 5 5 5 5 5 5 5 5 5 5 5 5 5 5 5 3 5 5 5 5 5 5 5 5 5 5 5 5 3 5 5 5 5 5 5 5 5 5 5 5 5 5 5 5 5 3 5 5 5 5 5 5 5 5 5 5 5 5 5 5 5 5 5 5 5 5 5 5 5 5 5 5 5 3 5 5 5 3 5 5 5 3 5 3 5 5 3 3 5 5 5 5 5 5 5 5 5 3 5 5 5 3 5 5 5 5 5 3 3 3 5 3 5 5 5 5 3 5 3 3 5 3 5 5 5 3 5 5 5 3 5 5 3 5 3 5 5 5 5 5 5 5 3 3 3 5 3 5 3 5 5 5 5 5 5 5 3 5 5 5 3 5 5 5 5 5 3 5 3 5 3 3 5 5 5 5 3 5 5 5 5 5 5 5 5 5 5 5 5 3 5 5 5 3 5 5 5 3 5 5 5 5 5 5 5 5 5 5 5 5 5 5 5 5 5 5 5 5 5 5 5 3 5 5 5 5 5 5 3 5 5 5 5 5 5 5 5 5 5 5 5 5 3 5 5 3 5 5 5 3 3 5 5 5 5 5 5 5 5 5 5 5 5 5 5 3 5 5 5 5 5 5 5 5 5 5 5 5 5 5 5 5 5 5 5 5 5 5 3 5 5 5 5 3 5 5 5 5 5 5 5 5 5 5 5 5 5 5 5 5 5 5 5 5 5 5 5 3 5 5 5 5 5 5 5 3 5 5 3 5 5 5 5 5 5 5 5 5 5 5 3 3 5 5 5 5 5 5 5 5 5 5 5 5 5 5 5 5 5 5 5 5 5 5 5 5 5 5 5 5 5 3 5 3 5 5 3 5 5 5 5 5 5 5 5 5 5 5 5 5 5 5 5 5 3 3 5 5 5 5 5 5 5 5 5 3 5 5 5 5 5 5 5 5 5 5 5 5 5 5 5 5 5 5 5 5 5 5 5 5 5 5 5 5 5 5 5 5 5 5 5 5 5 5 5 3 3 5 5 5 5 3 3 5 5 5 5 5 5 5 5 5 5 5 5 5 5 3 5 5 5 5 5 5 5 5 5 5 5 3 5 5 5 5 5 3 5 5 5 5 3 5 5 5 5 5 5 5 5 5 5 5 5 5 5 5 5 5 5 5 5 5 5 5 5 5 5 5 5 5 5 3 5 5 5 5 5 5 5 5 3 5 5 5 5 3 5 5 5 5 5 5 3 5 5 5 5 5 5 5 3 5 5 3 5 5 5 3 5 5 5 3 5 5 5 5 5 5 5 5 5 5 5 5 5 5 5 5 5 5 5 5 5 5 5 5 5 5 5 5 5 5 5 5 5 5 5 5 5 5 5 5 5 5 5 5 5 5 5 5 5 5 5 5 5 5 5 5 5 5 5 5 5 5 5 5 5 5 5 5 5 5 5 5 5 5 5 5 5 5 5 5 5 5 5 5 5 5 5 3 5 5 5 5 5 5 5 5 5 5 3 5 5 5 5 5 5 5 5 5 5 5 5 5 3 5 5 5 5 5 5 5 5 5 5 5 5 3 3 5 5 5 5 5 5 5 5 5 5 5 5 5 5 5 5 5 5 5 5 5 5 5 5 5 3 3 5 5 3 5 5 5 5 3 5 5 3 5 5 5 5 5 5 5 5 5 3 5 5 3 5 3 5 5 3 5 5 5 5 3 5 5 3 5 5 5 5 5 5 5 5 5 5 5 3 5 5 5 3 5 5 5 5 5 5 5 5 5 5 5 5 5 5 3 5 5 5 5 5 5 5 5 5 5 5 5 3 5 5 5 5 3 3 5 5 5 5 5 5 5 5 5 5 5 5 5 3 5 5 5 5 5 5 5 5 5 5 5 5 5 5 5 5 3 3 5 5 5 5 5 5 5 5 5 3 5 5 5 5 5 3 3 5 5 5 5 5 5 5 5 5 3 3 5 5 5 5 3 5 5 5 3 5 5 5 5 5 5 5 5 5 3 5 5 5 5 5 5 5 5 3 3 5 3 5 5 5 3 5 5 5 5 5 5 5 5 3 5 5 3 5 3 3 5 5 5 5 5 5 5 5 5 5 5 5 5 5 5 5 5 5 5 5 5 5 5 5 5 5 5 5 5 5 5 5 5 5 5 5 5 5 5 5 5 5 5 5 5 5 5 3 3 5 5 5 5 5 5 5 3 5 5 5 5 3 5 5 5 5 5 5 5 5 3 5 5 5 5 5 3 5 5 5 3 5 3 5 5 5 5 5 5 5 5 5 5 5 5 5 5 5 5 5 5 5 5 5 5 5 5 5 5 5 5 5 5 3 5 5 5 3 5 5 5 3 5 5 5 5 5 5 5 5 3 5 5 5 3 5 5 5 5 5 5 5 3 5 5 5 5 5 3 5 5 5 5 5 5 5 5 5 5 5 5 5 5 5 5 5 5 5 5 5 5 5 5 5 5 5 5 5 5 3 5 5 3 5 3 5 5 5 3 5 3 5 5 5 5 5 3 5 5 5 3 5 5 5 5 5 5 5 5 5 3 5 5 3 5 5 5 5 5 5 5 5 5 5 5 5 5 5 5 5 3 5 5 5 5 5 5 5 5 5 5 5 3 5 5 5 5 3 5 5 5 5 3 5 3 5 5 5 5 5 5 5 5 5 5 5 5 5 3 5 5 3 5 3 5 5 5 5 5 5 3 5 5 5 5 3 5 5 5 5 5 5 5 5 3 5 3 5 5 5 5 5 5 5 5 5 5 5 5 5 5 5 5 5 5 5 5 5 5 5 5 5 5 3 5 5 5 5 5 5 5 5 5 5 5 3 5 5 5 5 5 5 5 5 5 5 5 5 5 5 5 5 5 5 5 5 5 5 5 5 5 5 5 5 5 5 5 5 5 5 5 5 5 5 5 5 5 5 5 5 5 5 5 5 5 5 5 5 5 5 5 5 5 5 5 5 5 5 5 5 5 5 5 5 5 5 5 5 5 3 5 5 5 5 5 5 5 5 5 5 5 3 5 5 5 5 5 5 5 5 5 5 5 5 5 5 5 5 5 5 5 5 5 5 3 5 5 5 5 5 5 5 3 5 5 5 5 5 5 5 5 5 5 5 5 5 5 5 5 5 5 5 5 5 5 5 5 5 5 5 5 5 5 5 5 5 3 5 5 5 5 5 5 3 3 5 5 3 5 5 5 5 3 5 3 5 5 5 3 5 5 3 5 5 5 3 5 3 5 5 5 3 5 5 5 5 5 5 5 3 5 5 5 5 5 5 5 5 5 5 5 5 5 5 5 3 5 5 5 5 5 5 5 5 3 5 5 5 5 5 5 3 5 5 5 5 5 3 5 3 3 5 3 5 5 5 5 5 3 3 5 5 3 5 5 3 5 3 5 5 5 5 5 5 5 5 5 5 5 5 5 5 5 5 3 5 5 3 5 5 5 5 3 5 5 5 5 5 5 3 5 5 5 5 3 5 5 5 5 5 5 5 5 5 3 5 5 5 3 5 5 3 5 5 5 3 5 5 5 5 5 3 5 3 5 5 3 5 5 5 5 5 5 5 5 5 5 5 3 5 5 5 5 3 5 5 5 5 5 5 5 5 5 5 5 5 5 5 5 5 5 5 5 5 3 5 3 5 3 3 5 3 5 5 5 5 5 5 5 5 3 3 5 5 5 5 5 3 5 5 5 5 5 5 5 5 5 5 5 5 3 5 5 3 3 3 5 5 5 5 3 5 5 5 5 3 3 5 3 5 3 5 3 5 5 3 3 5 5 3 5 5 5 5 5 3 5 5 5 5 5 5 5 5 5 5 5 5 5 5 5 3 5 5 3 5 5 3 5 5 5 3 5 5 5 5 5 5 5 5 5 5 5 5 5 5 5 5 5 5 5 5 3 5 5 5 3 5 5 5 3 5 5 5 3 5 5 3 3 5 5 5 5 3 5 5 3 3 5 3 5 5 3 5 3 5 5 5 5 5 5 3 5 5 5 3 5 5 5 5 3 5 5 5 3 5 3 5 5 5 5 3 5 5 5 5 5 5 5 5 3 5 5 5 3 5 5 3 5 5 5 5 5 5 5 5 5 5 5 5 3 5 5 5 5 5 3 3 5 5 3 3 5 3 5 5 5 3 5 5 5 5 5 5 5 5 5 5 5 5 5 3 5 5 3 5 5 5 5 5 5 5 3 5 5 5 5 5 5 5 3 5 5 5 5 5 5 5 5 5 5 5 5 5 5 5 5 5 5 5 3 5 5 5 5 3 5 5 3 5 5 3 5 5 3 5 5 5 5 3 3 5 5 3 5 5 5 5 5 5 5 5 5 5 5 5 5 5 5 3 5 5 5 5 5 5 5 5 3 5 5 5 5 5 3 5 5 3 5 5 5 5 5 5 5 5 5 5 5 3 5 3 5 5 3 5 5 3 5 5 5 5 5 5 5 5 5 5 5 3 5 5 5 5 5 5 5 5 5 5 5 5 5 5 5 5 5 5 5 5 5 5 5 5 5 5 5 5 5 5 5 5 5 5 5 5 5 5 5 5 5 5 5 5 5 5 5 5 5 5 5 5 5 5 5 5 5 5 5 5 5 5 5 5 5 5 5 5 5 5 5 5 5 5 5 5 5 5 5 5 5 5 5 5 5 5 5 5 5 5 3 5 5 5 5 5 5 5 5 5 5 3 5 5 3 5 5 5 3 5 5 5 5 5 3 5 5 5 5 5 5 5 5 5 5 5 5 5 3 5 5 5 5 5 5 5 5 5 5 5 5 5 5 5 5 5 3 5 5 5 5 5 5 5 5 5 5 5 5 3 5 5 5 5 5 5 5 5 5 5 5 5 5 5 5 5 5 5 5 5 5 5 5 5 5 5 5 5 5 5 5 3 5 5 5 5 5 5 5 5 5 5 5 5 5 5 5 5 5 5 5 3 5 5 3 5 5 5 5 5 5 5 3 5 5 5 5 3 5 5 5 5 5 5 5 3 5 5 5 3 5 5 3 5 5 5 5 5 5 5 5 5 5 5 5 5 5 5 5 5 5 5 3 5 5 3 5 5 5 5 5 3 5 5 5 3 3 3 5 5 5 5 5 5 5 5 3 5 3 5 5 5 5 5 5 5 5 3 5 5 5 5 5 5 5 5 5 3 3 5 5 5 5 5 5 5 5 5 5 3 5 5 5 5 5 5 3 5 5 5 5 5 5 5 5 3 5 3 5 3 5 5 5 5 3 5 5 5 5 5 5 5 5 5 5 5 5 5 3 5 5 5 3 5 5 5 5 5 5 5 5 5 5 5 5 5 5 5 5 3 5 5 3 5 5 5 5 5 5 5 5 5 5 5 5 5 5 5 5 5 3 3 5 5 3 5 5 5 3 5 5 3 5 5 3 5 5 5 5 5 5 5 5 5 3 5 5 5 5 5 5 5 5 3 5 5 5 3 3 5 5 5 5 5 5 3 5 5 5 5 5 3 5 5 3 5 3 5 3 5 5 5 3 3 5 5 5 3 3 3 5 5 3 5 5 3 5 5 5 5 3 5 5 3 5 3 5 5 5 3 5 5 5 5 5 5 5 5 5 5 5 5 5 5 3 3 5 5 5 5 5 5 5 5 5 5 3 5 5 5 5 5 5 5 5 5 5 5 5 5 5 5 5 5 5 5 5 5 5 3 5 5 5 3 5 5 5 5 5 3 5 5 3 5 5 5 5 5 5 5 5 5 5 5 5 5 5 5 3 5 5 5 3 3 5 5 5 5 5 5 5 5 5 5 3 5 3 5 3 5 5 3 5 3 3 5 5 5 5 3 5 5 5 3 5 5 5 5 5 5 3 5 5 5 5 5 5 5 5 3 5 5 3 5 5 5 5 5 5 5 5 3 5 5 3 5 5 5 5 5 5 5 5 5 5 3 5 5 5 5 5 3 5 5 3 5 5 5 5 5 5 5 5 5 5 5 5 5 5 5 5 5 5 5 5 3 5 5 5 5 3 3 5 3 5 5 5 5 5 5 5 5 5 5 5 5 5 5 5 5 5 3 5 3 5 5 5 5 5 5 3 5 5 5 5 5 5 5 5 5 5 5 5 5 5 5 5 5 5 5 5 5 5 5 5 5 5 5 5 5 5 5 5 5 5 5 3 5 5 5 5 3 5 3 3 5 5 5 5 5 5 5 5 5 5 5 5 5 5 3 5 5 5 5 5 5 5 5 5 5 5 5 5 5 5 5 5 5 5 5 5 5 5 3 5 5 3 5 5 5 5 5 5 3 5 5 5 5 5 5 5 5 3 3 5 3 5 5 5 3 5 3 5 5 5 5 3 5 3 3 5 5 3 3 5 3 3 5 3 3 5 5 5 5 5 3 5 5 5 5 5 5 5 5 5 5 5 5 5 5 5 5 5 5 3 5 5 5 5 3 5 5 5 5 5 5 5 5 5 5 5 5 3 5 5 5 3 5 5 5 3 5 5 5 3 5 5 5 5 5 5 5 5 5 5 3 5 5 3 3 5 5 5 3 5 3 5 5 5 5 5 3 3 3 3 5 5 3 5 5 5 3 5 3 5 5 5 5 3 5 5 5 5 5 5 5 3 5 5 5 5 5 5 5 3 5 5 3 5 3 5 3 5 5 5 5 5 5 5 3 3 5 5 3 5 5 5 5 5 5 5 5 5 5 5 5 5 5 5 5 5 5 5 5 5 5 5 5 5 5 5 5 5 5 5 5 5 5 5 5 5 5 5 5 5 5 5 3 5 5 5 5 5 5 3 5 5 5 5 5 5 5 5 5 5 5 5 5 5 5 3 3 5 5 5 5 5 5 3 5 5 5 5 5 5 3 5 5 5 5 5 5 5 3 5 5 5 5 5 5 3 5 5 3 5 5 5 5 5 5 5 5 5 5 5 5 5 5 5 5 5 3 5 5 5 5 5 5 3 5 5 3 5 5 5 5 5 5 5 5 5 5 3 5 5 5 5 5 5 3 5 5 5 5 5 5 5 3 5 5 5 3 5 5 5 5 5 5 5 5 5 5 5 5 5 5 5 5 5 5 5 5 5 5 5 3 5 5 5 5 5 5 5 5 5 5 5 5 5 5 5 5 5 5 5 5 5 5 5 5 5 5 5 5 5 5 5 5 5 5 5 5 5 5 5 5 5 5 5 5 5 3 5 5 5 5 3 5 5 5 3 5 3 5 5 5 5 3 5 5 5 5 5 5 5 5 3 5 5 5 5 3 5 5 5 5 5 5 5 5 3 5 5 5 5 3 5 5 5 5 5 5 3 3 5 3 3 5 5 5 5 5 5 5 3 5 3 5 5 5 3 5 5 5 5 5 5 3 5 5 3 5 3 5 3 3 5 5 5 3 5 5 3 5 5 5 5 5 5 5 5 5 5 3 5 5 5 5 3 5 3 5 5 3 5 3 5 5 3 5 5 5 5 5 5 3 5 5 5 5 5 3 5 5 3 5 5 3 5 5 5 3 5 5 5 5 5 5 3 5 5 5 5 3 3 5 5 5 3 5 3 3 5 5 3 5 5 5 3 5 5 5 5 5 5 5 5 3 5 5 5 5 5 3 5 5 5 5 5 3 5 3 5 5 5 5 5 3 3 5 5 3 3 3 5 5 5 5 3 5 5 5 5 5 5 3 5 5 5 5 5 5 5 5 5 5 5 5 5 5 5 5 5 3 5 5 5 5 5 5 5 5 5 5 5 5 5 5 5 5 5 3 5 5 5 3 5 5 3 5 3 5 5 5 3 5 5 5 5 5 5 3 5 5 3 5 5 5 5 5 3 5 3 5 5 5 5 5 5 5 5 5 5 3 5 5 5 3 5 5 5 3 5 5 5 3 5 3 3 5 5 3 3 5 5 5 5 5 5 5 3 5 3 5 5 3 5 5 5 5 5 5 5 3 5 3 5 5 5 5 3 5 3 5 5 5 3 5 5 5 5 5 5 3 5 5 3 5 5 5 5 5 5 5 5 5 5 5 5 5 3 5 5 5 5 5 5 3 5 5 5 5 5 5 5 5 5 3 5 3 3 5 5 5 5 3 5 5 5 3 3 5 5 5 5 5 5 5 5 5 5 5 5 5 5 5 5 3 3 5 5 5 5 5 5 5 5 3 5 3 5 5 3 3 5 5 3 5 3 3 5 3 5 5 5 5 3 3 5 5 3 5 5 5 5 5 5 5 3 5 5 5 5 5 5 5 5 5 5 5 5 5 5 5 5 5 5 5 5 5 5 5 5 5 5 5 5 5 5 5 5 3 5 5 5 5 5 5 5 5 5 5 5 5 5 5 5 5 5 5 5 5 5 5 5 5 5 5 5 5 5 3 5 5 5 5 5 5 5 3 5 5 5 5 5 3 5 3 5 5 3 5 5 5 5 5 5 5 5 5 3 5 5 5 5 5 3 5 3 5 5 5 5 5 5 5 5 5 5 3 5 5 3 5 3 5 5 5 3 3 5 5 5 5 5 5 3 5 5 5 5 3 5 5 5 5 5 5 5 5 5 5 5 5 5 5 5 5 5 5 5 3 5 3 5 3 5 5 5 3 5 5 3 5 5 5 5 3 5 5 5 5 5 5 5 3 3 5 5 5 5 5 5 3 3 5 5 5 3 5 3 5 5 5 5 5 5 5 5 5 5 5 5 3 5 5 3 3 5 5 5 5 5 5 5 5 3 5 3 5 3 5 5 5 5 5 5 5 5 5 5 5 5 5 5 5 5 5 5 5 5 5 5 5 5 5 5 5 5 5 5 5 5 3 5 5 5 5 5 5 5 5 5 5 5 5 5 5 5 5 5 3 5 3 5 5 5 5 5 5 5 5 5 5 5 3 5 5 5 5 5 5 5 5 5 3 5 5 5 5 5 5 5 5 5 5 3 5 5 5 5 5 5 5 5 5 5 3 5 5 5 5 5 5 5 5 5 5 5 5 5 5 5 5 5 5 5 5 5 5 5 5 3 5 5 3 5 5 5 3 3 5 5 3 3 5 5 5 3 5 5 5 5 5 5 5 3 3 5 3 5 5 3 5 5 5 5 5 5 5 5 5 3 3 5 5 5 3 5 3 5 3 5 5 5 5 5 5 5 5 5 5 5 5 5 5 5 5 5 3 5 5 5 5 3 5 5 5 5 5 5 5 5 5 3 5 5 5 5 5 5 5 5 5 3 5 5 5 5 3 5 5 5 5 5 5 5 5 5 5 3 5 5 5 5 5 5 5 5 5 5 3 5 5 5 5 3 5 5 3 5 5 5 5 5 5 5 5 5 5 5 3 5 5 5 5 5 5 5 5 5 5 5 5 5 5 5 5 5 5 5 3 5 5 5 5 5 3 5 5 5 5 3 3 5 5 5 5 5 5 5 5 5 5 5 5 5 5 5 3 5 5 5 3 3 5 5 5 5 3 5 5 5 5 3 5 5 3 5 3 5 3 5 5 5 5 5 5 3 5 5 3 3 5 5 5 3 5 5 5 5 5 5 3 5 5 3 5 3 3 3 3 5 5 3 5 5 5 3 5 5 5 5 5 5 5 5 3 3 5 5 5 5 3 5 3 5 3 3 3 5 5 5 5 5 5 3 3 5 5 5 5 5 5 5 5 5 5 5 5 5 5 5 5 3 3 5 3 5 5 5 3 5 5 3 5 5 5 3 5 5 5 5 5 5 3 5 5 5 5 5 5 5 5 5 5 3 5 5 5 5 5 5 3 5 5 5 3 5 5 3 3 3 5 5 5 3 5 3 5 5 3 5 5 3 5 5 3 5 5 5 3 3 5 5 5 5 5 5 5 5 5 3 5 5 5 3 3 5 5 5 3 5 5 5 3 5 5 5 5 5 5 5 5 5 5 5 5 5 5 5 5 5 5 5 5 5 5 5 5 5 5 5 5 5 5 5 5 5 5 5 5 5 5 5 5 5 5 3 5 5 5 5 3 3 5 3 5 5 3 5 5 3 5 3 5 5 5 5 5 5 3 5 5 5 5 5 3 5 3 5 5 5 5 5 5 3 3 5 5 3 5 5 5 5 5 5 3 5 5 5 5 5 5 5 5 5 5 5 5 5 5 5 5 5 5 5 5 3 5 5 5 5 5 5 5 5 5 5 3 5 5 5 5 3 5 5 5 5 5 5 5 5 3 5 5 5 5 3 5 5 5 5 5 5 5 5 5 3 5 5 5 5 3 5 5 5 5 5 3 5 5 5 5 3 5 5 5 5 5 5 3 5 5 5 5 5 5 5 3 5 5 5 5 5 3 5 5 5 3 5 5 3 5 5 5 3 5 3 5 5 5 5 5 5 5 5 5 3 5 5 5 5 5 5 5 5 5 5 5 5 5 5 5 3 3 5 5 5 5 5 5 5 5 5 5 5 5 5 5 5 5 5 5 5 5 5 5 5 5 5 3 5 5 5 5 5 5 5 5 5 3 5 5 3 5 5 5 5 5 5 5 5 5 5 5 5 5 5 5 3 5 5 5 5 5 5 5 5 5 5 5 5 5 5 5 5 5 5 5 5 5 5 5 5 5 5 5 5 5 5 5 5 5 5 3 5 5 5 3 5 5 3 3 5 3 5 3 3 5 5 5 5 5 5 5 5 5 5 5 5 5 5 3 5 5 5 5 5 5 5 5 5 5 5 5 5 5 5 5 5 5 5 5 3 5 5 3 5 5 3 5 5 5 5 5 5 5 5 3 3 5 5 5 3 5 3 3 5 5 3 5 5 3 5 5 5 5 3 5 3 5 5 3 5 5 5 5 5 5 5 5 5 5 5 5 5 5 5 5 5 5 5 3 5 5 5 5 3 5 5 5 5 5 5 5 5 5 5 5 5 5 5 5 5 5 3 5 5 5 5 5 5 5 5 3 5 5 5 5 5 5 5 3 5 3 5 5 5 3 5 3 5 5 5 5 5 5 5 5 5 5 5 5 5 5 5 5 5 3 5 5 5 5 5 5 5 5 5 5 5 3 5 5 3 5 5 5 5 5 5 5 5 5 5 5 5 5 5 5 5 3 5 5 3 5 5 3 5 3 5 5 5 3 5 5 5 3 5 5 5 5 3 5 5 5 5 5 3 5 5 3 5 5 3 5 3 3 5 5 5 5 5 5 3 5 5 3 5 3 5 5 5 3 5 5 5 3 5 3 5 5 3 5 3 5 5 5 5 3 5 3 5 5 5 5 5 3 5 3 5 3 5 3 5 5 3 5 5 5 5 5 5 5 5 3 3 3 3 5 5 5 5 3 5 5 5 5 5 5 3 5 5 3 5 5 5 3 3 5 5 3 5 5 5 5 5 3 3 5 5 5 5 3 3 5 3 3 5 5 3 5 5 5 5 5 5 5 5 3 5 5 5 5 3 3 5 5 5 5 3 5 5 3 5 5 5 5 5 5 5 5 3 5 5 5 5 5 5 5 5 5 5 5 5 5 5 5 5 5 5 5 5 5 3 5 5 5 5 
</DataArray>
</Cells>
<PointData Scalars="" Vectors="displacement," Tensors="">
<DataArray type="Float64" Name="displacement" NumberOfComponents="3" format="ascii">
0.044999112083146033 0.044995977210755794 0 0.043672737341588365 0.042557496975055287 0 0.04499644669208222 0.040423440273046639 0 0.044999112083146033 0.044995977210755794 0 0.043672737341588365 0.042557496975055287 0 0.04158659383289972 0.044523243201466084 0 0.044999112083146033 0.044995977210755794 0 0.04158659383289972 0.044523243201466084 0 0.036075296682781595 0.044995957019638287 0 0.043672737341588365 0.042557496975055287 0 0.044465340350662887 0.039992624633030265 0 0.043851289071753674 0.041093473140184252 0 0.043672737341588365 0.042557496975055287 0 0.04499644669208222 0.040423440273046639 0 0.044465340350662887 0.039992624633030265 0 0.043672737341588365 0.042557496975055287 0 0.042502317328570217 0.043435561294703613 0 0.043851289071753674 0.041093473140184252 0 0.043672737341588365 0.042557496975055287 0 0.04158659383289972 0.044523243201466084 0 0.042502317328570217 0.043435561294703613 0 0.042502317328570217 0.043435561294703613 0 0.043851289071753674 0.041093473140184252 0 0.044062058174796616 0.04065820149068089 0 0.04158659383289972 0.044523243201466084 0 0.036075296682781595 0.044995957019638287 0 0.039938119452645533 0.045506189691576021 0 0.036075296682781595 0.044995957019638287 0 0.035490110476921806 0.04637432466891539 0 0.039938119452645533 0.045506189691576021 0 0.036075296682781595 0.044995957019638287 0 0.035490110476921806 0.04637432466891539 0 0.032694679092820346 0.046354999542505 0 0.035490110476921806 0.04637432466891539 0 0.036191860105789668 0.048020072691259442 0 0.033628690223353672 0.047785250392609308 0 0.035490110476921806 0.04637432466891539 0 0.036191860105789668 0.048020072691259442 0 0.039938119452645533 0.045506189691576021 0 0.036191860105789668 0.048020072691259442 0 0.038300000482173614 0.049139243757388845 0 0.036487852942369482 0.049798686226544701 0 0.036191860105789668 0.048020072691259442 0 0.036487852942369482 0.049798686226544701 0 0.034647113652405338 0.049112690517329798 0 0.036191860105789668 0.048020072691259442 0 0.033628690223353672 0.047785250392609308 0 0.034647113652405338 0.049112690517329798 0 0.04158659383289972 0.044523243201466084 0 0.039938119452645533 0.045506189691576021 0 0.042502317328570217 0.043435561294703613 0 0.040259237958885113 0.045235654094840115 0 0.041384996910599089 0.045488416443045465 0 0.036191860105789668 0.048020072691259442 0 0.039938119452645533 0.045506189691576021 0 0.038300000482173614 0.049139243757388845 0 0.039938119452645533 0.045506189691576021 0 0.044763277106155332 0.04223590262128131 0 0.042502317328570217 0.043435561294703613 0 0.044763277106155332 0.04223590262128131 0 0.042502317328570217 0.043435561294703613 0 0.044609590221142532 0.041064880658789826 0 0.042502317328570217 0.043435561294703613 0 0.044609590221142532 0.041064880658789826 0 0.044062058174796616 0.04065820149068089 0 0.044609590221142532 0.041064880658789826 0 0.045064831680434132 0.039538471004866252 0 0.044062058174796616 0.04065820149068089 0 0.038300000482173614 0.049139243757388845 0 0.036708224318213432 0.049450991090488394 0 0.037025188413868461 0.049541458398659671 0 0.041384996910599089 0.045488416443045465 0 0.041687426220093422 0.04402278620286678 0 0.044763277106155332 0.04223590262128131 0 0.044609590221142532 0.041064880658789826 0 0.046125311956547219 0.039754033193764894 0 0.044763277106155332 0.04223590262128131 0 0.046125311956547219 0.039754033193764894 0 0.046650706800038244 0.039269810931231358 0 0.046125311956547219 0.039754033193764894 0 0.046650706800038244 0.039269810931231358 0 0.046094744543497421 0.037555685742600965 0 0.046125311956547219 0.039754033193764894 0 0.045064831680434132 0.039538471004866252 0 0.04594125261721406 0.03819516861137566 0 0.045064831680434132 0.039538471004866252 0 0.045079093840725962 0.037908052149283389 0 0.044497860203444838 0.03937096772066747 0 0.045064831680434132 0.039538471004866252 0 0.045079093840725962 0.037908052149283389 0 0.04594125261721406 0.03819516861137566 0 0.044609590221142532 0.041064880658789826 0 0.046125311956547219 0.039754033193764894 0 0.045064831680434132 0.039538471004866252 0 0.036487852942369482 0.049798686226544701 0 0.034647113652405338 0.049112690517329798 0 0.034135405290498334 0.05082764298124131 0 0.036859733787526834 0.049663589575368823 0 0.034846209470029213 0.050940865365858207 0 0.038300000482173614 0.049139243757388845 0 0.036487852942369482 0.049798686226544701 0 0.037025188413868461 0.049541458398659671 0 0.037025188413868461 0.049541458398659671 0 0.036865700324381141 0.049377881789838297 0 0.036868968176936356 0.049380209746230981 0 0.036708224318213432 0.049450991090488394 0 0.037025188413868461 0.049541458398659671 0 0.036865700324381141 0.049377881789838297 0 0.036708224318213432 0.049450991090488394 0 0.036865700324381141 0.049377881789838297 0 0.036833898823602815 0.049063577408943113 0 0.036865700324381141 0.049377881789838297 0 0.036868968176936356 0.049380209746230981 0 0.036833898823602815 0.049063577408943113 0 0.036487852942369482 0.049798686226544701 0 0.037025188413868461 0.049541458398659671 0 0.036868968176936356 0.049380209746230981 0 0.036487852942369482 0.049798686226544701 0 0.036868968176936356 0.049380209746230981 0 0.037167541470987608 0.04911195730450469 0 0.036487852942369482 0.049798686226544701 0 0.037167541470987608 0.04911195730450469 0 0.037641119288847273 0.049440927666538723 0 0.036868968176936356 0.049380209746230981 0 0.037167541470987608 0.04911195730450469 0 0.037089856796548464 0.048578554059658129 0 0.037167541470987608 0.04911195730450469 0 0.037089856796548464 0.048578554059658129 0 0.03774238750673662 0.048452526307590678 0 0.036868968176936356 0.049380209746230981 0 0.037089856796548464 0.048578554059658129 0 0.036833898823602815 0.049063577408943113 0 0.036708224318213432 0.049450991090488394 0 0.036833898823602815 0.049063577408943113 0 0.036721212379819047 0.048594690931486828 0 0.037089856796548464 0.048578554059658129 0 0.036721212379819047 0.048594690931486828 0 0.036848172805291846 0.047840349039480715 0 0.037089856796548464 0.048578554059658129 0 0.036833898823602815 0.049063577408943113 0 0.036721212379819047 0.048594690931486828 0 0.037089856796548464 0.048578554059658129 0 0.036848172805291846 0.047840349039480715 0 0.037340058168169619 0.047516832801750383 0 0.036721212379819047 0.048594690931486828 0 0.036848172805291846 0.047840349039480715 0 0.036226125798950216 0.047924838352939064 0 0.041050842677197906 0.037096873575539487 0 0.042157269709616071 0.037753834964355366 0 0.037089856796548464 0.048578554059658129 0 0.037340058168169619 0.047516832801750383 0 0.03774238750673662 0.048452526307590678 0 0.04602193664760014 0.036746525360980019 0 0.04594125261721406 0.03819516861137566 0 0.047405968249316192 0.036763187415779761 0 0.04602193664760014 0.036746525360980019 0 0.045079093840725962 0.037908052149283389 0 0.045192955389910909 0.036087704036101571 0 0.04602193664760014 0.036746525360980019 0 0.045079093840725962 0.037908052149283389 0 0.04594125261721406 0.03819516861137566 0 0.041687426220093422 0.04402278620286678 0 0.041403136807772745 0.043517554236689515 0 0.046278627068571686 0.039549211458744814 0 0.046680171132177803 0.037037926091447564 0 0.046650706800038244 0.039269810931231358 0 0.046094744543497421 0.037555685742600965 0 0.046679996924200121 0.036826306424558371 0 0.036708224318213432 0.049450991090488394 0 0.036721212379819047 0.048594690931486828 0 0.036226125798950216 0.047924838352939064 0 0.046125311956547219 0.039754033193764894 0 0.04594125261721406 0.03819516861137566 0 0.047405968249316192 0.036763187415779761 0 0.047405968249316192 0.036763187415779761 0 0.046827011528884105 0.035629241009012651 0 0.048094106421240339 0.033750641358487765 0 0.046680171132177803 0.037037926091447564 0 0.047088946685324304 0.034955476669861166 0 0.046094744543497421 0.037555685742600965 0 0.046679996924200121 0.036826306424558371 0 0.045870591182826215 0.035374896417721756 0 0.046827011528884105 0.035629241009012651 0 0.045846174113583188 0.03516241520680375 0 0.048094106421240339 0.033750641358487765 0 0.04602193664760014 0.036746525360980019 0 0.047405968249316192 0.036763187415779761 0 0.046827011528884105 0.035629241009012651 0 0.04602193664760014 0.036746525360980019 0 0.046827011528884105 0.035629241009012651 0 0.045846174113583188 0.03516241520680375 0 0.04602193664760014 0.036746525360980019 0 0.045846174113583188 0.03516241520680375 0 0.045192955389910909 0.036087704036101571 0 0.045846174113583188 0.03516241520680375 0 0.045192955389910909 0.036087704036101571 0 0.044043795343179426 0.034609608877857564 0 0.045357154184519306 0.035718090277054818 0 0.045491401079785748 0.033941966862761214 0 0.045192955389910909 0.036087704036101571 0 0.045331641730756204 0.036000174800658966 0 0.044043795343179426 0.034609608877857564 0 0.045079093840725962 0.037908052149283389 0 0.044595360355140168 0.038036941559454349 0 0.044524478191257391 0.038568931743298965 0 0.045079093840725962 0.037908052149283389 0 0.045192955389910909 0.036087704036101571 0 0.045331641730756204 0.036000174800658966 0 0.045268645520794862 0.037741612495122367 0 0.045084705505090861 0.036881115736415039 0 0.045079093840725962 0.037908052149283389 0 0.045331641730756204 0.036000174800658966 0 0.04538061328394298 0.035719881096720085 0 0.045084705505090861 0.036881115736415039 0 0.045081489340268392 0.035563614637633363 0 0.044595360355140168 0.038036941559454349 0 0.044789598957397224 0.037721422387830508 0 0.044560478408588275 0.038367692858592803 0 0.044595360355140168 0.038036941559454349 0 0.044524478191257391 0.038568931743298965 0 0.044560478408588275 0.038367692858592803 0 0.045331641730756204 0.036000174800658966 0 0.04538061328394298 0.035719881096720085 0 0.045687424161450239 0.034315357119867565 0 0.04538061328394298 0.035719881096720085 0 0.045687424161450239 0.034315357119867565 0 0.045337300910462723 0.034482342579901223 0 0.045331641730756204 0.036000174800658966 0 0.045687424161450239 0.034315357119867565 0 0.046972282580701831 0.033479389825940072 0 0.045687424161450239 0.034315357119867565 0 0.045337300910462723 0.034482342579901223 0 0.045492067891821107 0.033135103507896869 0 0.045337300910462723 0.034482342579901223 0 0.044998996547468993 0.034374381591136344 0 0.045492067891821107 0.033135103507896869 0 0.045081489340268392 0.035563614637633363 0 0.044999613024988852 0.034376364748221082 0 0.045087397404919113 0.036669496328656161 0 0.044999381088787073 0.034379262911570389 0 0.044970407504845739 0.037134761811258903 0 0.044999381088787073 0.034379262911570389 0 0.044970407504845739 0.037134761811258903 0 0.044998645444387551 0.036972676398149787 0 0.044595360355140168 0.038036941559454349 0 0.045087397404919113 0.036669496328656161 0 0.044789598957397224 0.037721422387830508 0 0.045087397404919113 0.036669496328656161 0 0.044970407504845739 0.037134761811258903 0 0.044789598957397224 0.037721422387830508 0 0.044970407504845739 0.037134761811258903 0 0.044789598957397224 0.037721422387830508 0 0.044606806862640416 0.038595772600601069 0 0.04499644669208222 0.040423440273046639 0 0.044998645444387551 0.036972676398149787 0 0.044465340350662887 0.039992624633030265 0 0.044606806862640416 0.038595772600601069 0 0.044998645444387551 0.036972676398149787 0 0.044465340350662887 0.039992624633030265 0 0.044970407504845739 0.037134761811258903 0 0.044606806862640416 0.038595772600601069 0 0.044998645444387551 0.036972676398149787 0 0.044606806862640416 0.038595772600601069 0 0.044465340350662887 0.039992624633030265 0 0.043851289071753674 0.041093473140184252 0 0.044606806862640416 0.038595772600601069 0 0.043851289071753674 0.041093473140184252 0 0.044303682048795555 0.03938626310449822 0 0.043851289071753674 0.041093473140184252 0 0.044062058174796616 0.04065820149068089 0 0.044303682048795555 0.03938626310449822 0 0.044062058174796616 0.04065820149068089 0 0.044497860203444838 0.03937096772066747 0 0.044303682048795555 0.03938626310449822 0 0.045064831680434132 0.039538471004866252 0 0.044062058174796616 0.04065820149068089 0 0.044497860203444838 0.03937096772066747 0 0.045079093840725962 0.037908052149283389 0 0.044497860203444838 0.03937096772066747 0 0.044524478191257391 0.038568931743298965 0 0.044497860203444838 0.03937096772066747 0 0.044524478191257391 0.038568931743298965 0 0.044303682048795555 0.03938626310449822 0 0.044524478191257391 0.038568931743298965 0 0.044560478408588275 0.038367692858592803 0 0.044303682048795555 0.03938626310449822 0 0.044606806862640416 0.038595772600601069 0 0.044560478408588275 0.038367692858592803 0 0.044303682048795555 0.03938626310449822 0 0.044789598957397224 0.037721422387830508 0 0.044606806862640416 0.038595772600601069 0 0.044560478408588275 0.038367692858592803 0 0.022740121879054703 0.0486098896911916 0 0.023933154474350498 0.048991556691770466 0 0.022870034385359589 0.049924517538417881 0 0.022740121879054703 0.0486098896911916 0 0.023933154474350498 0.048991556691770466 0 0.023836084609131843 0.047917848719636551 0 0.023933154474350498 0.048991556691770466 0 0.023836084609131843 0.047917848719636551 0 0.024702847270903175 0.048219146089884236 0 0.023933154474350498 0.048991556691770466 0 0.024702847270903175 0.048219146089884236 0 0.02540993580633779 0.049320178679520994 0 0.023836084609131843 0.047917848719636551 0 0.024784094821074704 0.047434735373410711 0 0.023971537228427642 0.046733099716784583 0 0.023836084609131843 0.047917848719636551 0 0.024702847270903175 0.048219146089884236 0 0.024784094821074704 0.047434735373410711 0 0.023836084609131843 0.047917848719636551 0 0.022801983382551096 0.04755461912109428 0 0.023971537228427642 0.046733099716784583 0 0.022740121879054703 0.0486098896911916 0 0.023836084609131843 0.047917848719636551 0 0.022801983382551096 0.04755461912109428 0 0.022740121879054703 0.0486098896911916 0 0.022801983382551096 0.04755461912109428 0 0.021714146014680705 0.04811494553159118 0 0.024427533989422323 0.044999557480444298 0 0.023971537228427642 0.046733099716784583 0 0.021414459055425591 0.046639872778323654 0 0.022801983382551096 0.04755461912109428 0 0.023971537228427642 0.046733099716784583 0 0.021414459055425591 0.046639872778323654 0 0.024427533989422323 0.044999557480444298 0 0.023971537228427642 0.046733099716784583 0 0.025258035279963866 0.045978540132160475 0 0.023971537228427642 0.046733099716784583 0 0.025159692601502016 0.046905059601065786 0 0.025258035279963866 0.045978540132160475 0 0.024784094821074704 0.047434735373410711 0 0.023971537228427642 0.046733099716784583 0 0.025159692601502016 0.046905059601065786 0 0.025590307419036212 0.046139916016472278 0 0.025604568684227148 0.047581226511986721 0 0.025159692601502016 0.046905059601065786 0 0.025258035279963866 0.045978540132160475 0 0.026071276185502472 0.047589687380716977 0 0.024427533989422323 0.044999557480444298 0 0.025258035279963866 0.045978540132160475 0 0.027388273298586022 0.04627909231821796 0 0.024784094821074704 0.047434735373410711 0 0.025159692601502016 0.046905059601065786 0 0.025394535321296964 0.047393418294315315 0 0.024427533989422323 0.044999557480444298 0 0.027388273298586022 0.04627909231821796 0 0.029388061111595701 0.045000107885308907 0 0.025258035279963866 0.045978540132160475 0 0.027388273298586022 0.04627909231821796 0 0.027037356086756927 0.047631140670439304 0 0.025159692601502016 0.046905059601065786 0 0.026071276185502472 0.047589687380716977 0 0.025394535321296964 0.047393418294315315 0 0.027388273298586022 0.04627909231821796 0 0.027037356086756927 0.047631140670439304 0 0.02846207643357988 0.047407791468456327 0 0.027037356086756927 0.047631140670439304 0 0.02889053017141463 0.049528842199123312 0 0.02846207643357988 0.047407791468456327 0 0.025855931954762497 0.047186543226259557 0 0.026071276185502472 0.047589687380716977 0 0.024885285338494861 0.046353618432391476 0 0.025604568684227148 0.047581226511986721 0 0.032640777403621792 0.045958598108463582 0 0.025855931954762497 0.047186543226259557 0 0.026071276185502472 0.047589687380716977 0 0.025472017074329768 0.04771264004854664 0 0.026071276185502472 0.047589687380716977 0 0.025394535321296964 0.047393418294315315 0 0.025472017074329768 0.04771264004854664 0 0.024784094821074704 0.047434735373410711 0 0.025394535321296964 0.047393418294315315 0 0.025472017074329768 0.04771264004854664 0 0.024702847270903175 0.048219146089884236 0 0.024784094821074704 0.047434735373410711 0 0.025472017074329768 0.04771264004854664 0 0.024702847270903175 0.048219146089884236 0 0.025472017074329768 0.04771264004854664 0 0.02540993580633779 0.049320178679520994 0 0.025855931954762497 0.047186543226259557 0 0.025472017074329768 0.04771264004854664 0 0.02540993580633779 0.049320178679520994 0 0.025937210249040474 0.047279048982135752 0 0.026409046370727909 0.047034187359969143 0 0.025968218589734585 0.045569718145465753 0 0.024885285338494861 0.046353618432391476 0 0.025527375450679821 0.043628604118782353 0 0.025855931954762497 0.047186543226259557 0 0.025968218589734585 0.045569718145465753 0 0.024885285338494861 0.046353618432391476 0 0.025855931954762497 0.047186543226259557 0 0.027662001611059205 0.044910081604831578 0 0.025968218589734585 0.045569718145465753 0 0.036075296682781595 0.044995957019638287 0 0.029388061111595701 0.045000107885308907 0 0.032694679092820346 0.046354999542505 0 0.032640777403621792 0.045958598108463582 0 0.035264534893914533 0.042932146789790702 0 0.029507615077217584 0.04857937910811571 0 0.031338958279601689 0.048203837687187827 0 0.030778271782197452 0.049865615045518299 0 0.029507615077217584 0.04857937910811571 0 0.031338958279601689 0.048203837687187827 0 0.029987963391755613 0.046806675598586492 0 0.02889053017141463 0.049528842199123312 0 0.02846207643357988 0.047407791468456327 0 0.029987963391755613 0.046806675598586492 0 0.032640777403621792 0.045958598108463582 0 0.028785657598303399 0.048370565137352418 0 0.029388061111595701 0.045000107885308907 0 0.029987963391755613 0.046806675598586492 0 0.032694679092820346 0.046354999542505 0 0.027388273298586022 0.04627909231821796 0 0.02846207643357988 0.047407791468456327 0 0.029987963391755613 0.046806675598586492 0 0.027388273298586022 0.04627909231821796 0 0.029388061111595701 0.045000107885308907 0 0.029987963391755613 0.046806675598586492 0 0.031338958279601689 0.048203837687187827 0 0.029987963391755613 0.046806675598586492 0 0.032694679092820346 0.046354999542505 0 0.035490110476921806 0.04637432466891539 0 0.032694679092820346 0.046354999542505 0 0.033628690223353672 0.047785250392609308 0 0.031338958279601689 0.048203837687187827 0 0.032694679092820346 0.046354999542505 0 0.033628690223353672 0.047785250392609308 0 0.031338958279601689 0.048203837687187827 0 0.032732116295205331 0.049451641032768452 0 0.030778271782197452 0.049865615045518299 0 0.031338958279601689 0.048203837687187827 0 0.033628690223353672 0.047785250392609308 0 0.032732116295205331 0.049451641032768452 0 0.033628690223353672 0.047785250392609308 0 0.034647113652405338 0.049112690517329798 0 0.032732116295205331 0.049451641032768452 0 0.034647113652405338 0.049112690517329798 0 0.034135405290498334 0.05082764298124131 0 0.032732116295205331 0.049451641032768452 0 0.032732116295205331 0.049451641032768452 0 0.032239905210092137 0.051355974011857243 0 0.030778271782197452 0.049865615045518299 0 0.034135405290498334 0.05082764298124131 0 0.032732116295205331 0.049451641032768452 0 0.032239905210092137 0.051355974011857243 0 0.034846209470029213 0.050940865365858207 0 0.038363257951609331 0.040107501695114053 0 0.037641119288847273 0.049440927666538723 0 0.038239341503950197 0.049051772184598559 0 0.03774238750673662 0.048452526307590678 0 0.037167541470987608 0.04911195730450469 0 0.037641119288847273 0.049440927666538723 0 0.03774238750673662 0.048452526307590678 0 0.038363257951609331 0.040107501695114053 0 0.042157269709616071 0.037753834964355366 0 0.0453540473166111 0.027288715113103119 0 0.045910367876717872 0.026666601759563958 0 0.045560945739394482 0.026253245519633525 0 0.045222158456705672 0.026447118350626551 0 0.0453540473166111 0.027288715113103119 0 0.045560945739394482 0.026253245519633525 0 0.0453540473166111 0.027288715113103119 0 0.045910367876717872 0.026666601759563958 0 0.045954030034518464 0.027446752310766553 0 0.045782526199803789 0.028154650895868036 0 0.0453540473166111 0.027288715113103119 0 0.045954030034518464 0.027446752310766553 0 0.045954030034518464 0.027446752310766553 0 0.046518393420396133 0.027106907196186487 0 0.046369676050427501 0.027969850938174771 0 0.045910367876717872 0.026666601759563958 0 0.045954030034518464 0.027446752310766553 0 0.046518393420396133 0.027106907196186487 0 0.046518393420396133 0.027106907196186487 0 0.047227187131599048 0.027056346821835713 0 0.047247864085820789 0.026417949740216821 0 0.046518393420396133 0.027106907196186487 0 0.046782497806831851 0.027543311489875984 0 0.047227187131599048 0.027056346821835713 0 0.044780030473773026 0.027976405373693211 0 0.046171871901842146 0.028495910273565885 0 0.046518393420396133 0.027106907196186487 0 0.046782497806831851 0.027543311489875984 0 0.046369676050427501 0.027969850938174771 0 0.046782497806831851 0.027543311489875984 0 0.046369676050427501 0.027969850938174771 0 0.046793034543311497 0.028248706829493979 0 0.043904784368812469 0.03178432819217724 0 0.041274635419938054 0.029958402098476479 0 0.046793034543311497 0.028248706829493979 0 0.043904784368812469 0.03178432819217724 0 0.041274635419938054 0.029958402098476479 0 0.039827848665967204 0.036014629055498203 0 0.035833518466168883 0.031793087223840541 0 0.041274635419938054 0.029958402098476479 0 0.039827848665967204 0.036014629055498203 0 0.045782526199803789 0.028154650895868036 0 0.045954030034518464 0.027446752310766553 0 0.046369676050427501 0.027969850938174771 0 0.038363257951609331 0.040107501695114053 0 0.044780030473773026 0.027976405373693211 0 0.038363257951609331 0.040107501695114053 0 0.035264534893914533 0.042932146789790702 0 0.043842602058941291 0.040387331528705384 0 0.039827848665967204 0.036014629055498203 0 0.04646425565966527 0.034073970089244399 0 0.043904784368812469 0.03178432819217724 0 0.039827848665967204 0.036014629055498203 0 0.04646425565966527 0.034073970089244399 0 0.032640777403621792 0.045958598108463582 0 0.036312598871650698 0.038165125030345831 0 0.027662001611059205 0.044910081604831578 0 0.025968218589734585 0.045569718145465753 0 0.025527375450679821 0.043628604118782353 0 0.027662001611059205 0.044910081604831578 0 0.025527375450679821 0.043628604118782353 0 0.026655079091854748 0.043049251854677589 0 0.027662001611059205 0.044910081604831578 0 0.027814847289431992 0.043470132653733333 0 0.02895405813573276 0.04244480075008069 0 0.027662001611059205 0.044910081604831578 0 0.027814847289431992 0.043470132653733333 0 0.026655079091854748 0.043049251854677589 0 0.027010277387781514 0.041771824037145903 0 0.026655079091854748 0.043049251854677589 0 0.026453072294200772 0.041002682120982091 0 0.027814847289431992 0.043470132653733333 0 0.027503880031148051 0.042240420690853805 0 0.026655079091854748 0.043049251854677589 0 0.027503880031148051 0.042240420690853805 0 0.027010277387781514 0.041771824037145903 0 0.026655079091854748 0.043049251854677589 0 0.027814847289431992 0.043470132653733333 0 0.028049117992554148 0.042419088639565047 0 0.027503880031148051 0.042240420690853805 0 0.027814847289431992 0.043470132653733333 0 0.028049117992554148 0.042419088639565047 0 0.028668303220280647 0.042475053033536547 0 0.028049117992554148 0.042419088639565047 0 0.027503880031148051 0.042240420690853805 0 0.028163953334445706 0.04127524024741306 0 0.027503880031148051 0.042240420690853805 0 0.027010277387781514 0.041771824037145903 0 0.027440869892135629 0.040786122880003009 0 0.04646425565966527 0.034073970089244399 0 0.046793034543311497 0.028248706829493979 0 0.048198760738264367 0.028214174670596705 0 0.036312598871650698 0.038165125030345831 0 0.037266190019252153 0.035243401967982618 0 0.043904784368812469 0.03178432819217724 0 0.04646425565966527 0.034073970089244399 0 0.046793034543311497 0.028248706829493979 0 0.025527375450679821 0.043628604118782353 0 0.026655079091854748 0.043049251854677589 0 0.026453072294200772 0.041002682120982091 0 0.048198760738264367 0.028214174670596705 0 0.047502727257802226 0.02746334435024575 0 0.048169868360689712 0.026702701818586194 0 0.046793034543311497 0.028248706829493979 0 0.048198760738264367 0.028214174670596705 0 0.047502727257802226 0.02746334435024575 0 0.046782497806831851 0.027543311489875984 0 0.046793034543311497 0.028248706829493979 0 0.047502727257802226 0.02746334435024575 0 0.047227187131599048 0.027056346821835713 0 0.048169868360689712 0.026702701818586194 0 0.047247864085820789 0.026417949740216821 0 0.047502727257802226 0.02746334435024575 0 0.047227187131599048 0.027056346821835713 0 0.048169868360689712 0.026702701818586194 0 0.046782497806831851 0.027543311489875984 0 0.047502727257802226 0.02746334435024575 0 0.047227187131599048 0.027056346821835713 0 0.037266190019252153 0.035243401967982618 0 0.036945074696326421 0.030344693708449048 0 0.027513231729477481 0.038366705184038404 0 0.028129967828050887 0.040108761596499357 0 0.027440869892135629 0.040786122880003009 0 0.027513231729477481 0.038366705184038404 0 0.028129967828050887 0.040108761596499357 0 0.029361914038960886 0.039223115158496552 0 0.026453072294200772 0.041002682120982091 0 0.027513231729477481 0.038366705184038404 0 0.027440869892135629 0.040786122880003009 0 0.027010277387781514 0.041771824037145903 0 0.026453072294200772 0.041002682120982091 0 0.027440869892135629 0.040786122880003009 0 0.028129967828050887 0.040108761596499357 0 0.027440869892135629 0.040786122880003009 0 0.028163953334445706 0.04127524024741306 0 0.027503880031148051 0.042240420690853805 0 0.027440869892135629 0.040786122880003009 0 0.028163953334445706 0.04127524024741306 0 0.0288303097872331 0.041678613942929023 0 0.028415017191265601 0.040699639137036295 0 0.028668303220280647 0.042475053033536547 0 0.028163953334445706 0.04127524024741306 0 0.029361914038960886 0.039223115158496552 0 0.028668303220280647 0.042475053033536547 0 0.026587295217210778 0.036483038732007034 0 0.029267608104509912 0.043805094188785164 0 0.028129967828050887 0.040108761596499357 0 0.028163953334445706 0.04127524024741306 0 0.029361914038960886 0.039223115158496552 0 0.036945074696326421 0.030344693708449048 0 0.026587295217210778 0.036483038732007034 0 0.020055866865753891 0.035529729753252165 0 0.020394914427666441 0.036755818120536236 0 0.020884256348363751 0.035801384043407464 0 0.019271078085177227 0.03624733298111401 0 0.020055866865753891 0.035529729753252165 0 0.020394914427666441 0.036755818120536236 0 0.026587295217210778 0.036483038732007034 0 0.022293294313569922 0.043848614118102147 0 0.022293294313569922 0.043848614118102147 0 0.020414688490241119 0.038924575881856036 0 0.0288303097872331 0.041678613942929023 0 0.028415017191265601 0.040699639137036295 0 0.029233902209508396 0.041115124409314439 0 0.022293294313569922 0.043848614118102147 0 0.02694115602512916 0.047392803155539363 0 0.022641674503232123 0.053229328620948542 0 0.022733059716344803 0.052069085386177695 0 0.02332641005313052 0.051697133962304256 0 0.0288303097872331 0.041678613942929023 0 0.029233902209508396 0.041115124409314439 0 0.02895405813573276 0.04244480075008069 0 0.022641674503232123 0.053229328620948542 0 0.022393051422470993 0.05247281198344729 0 0.021761935577895946 0.05247877694060811 0 0.022641674503232123 0.053229328620948542 0 0.022393051422470993 0.05247281198344729 0 0.022733059716344803 0.052069085386177695 0 0.022393051422470993 0.05247281198344729 0 0.022338410480383927 0.051963126403229629 0 0.022733059716344803 0.052069085386177695 0 0.022393051422470993 0.05247281198344729 0 0.022338410480383927 0.051963126403229629 0 0.022095683257971833 0.052191367432912923 0 0.022338410480383927 0.051963126403229629 0 0.022431497377377801 0.051602778182318655 0 0.022000828332006474 0.05185246159957816 0 0.022338410480383927 0.051963126403229629 0 0.022733059716344803 0.052069085386177695 0 0.022431497377377801 0.051602778182318655 0 0.022733059716344803 0.052069085386177695 0 0.022431497377377801 0.051602778182318655 0 0.022939611066982314 0.051365230127081656 0 0.022641674503232123 0.053229328620948542 0 0.02332641005313052 0.051697133962304256 0 0.024091998868834365 0.051326416542246775 0 0.022431497377377801 0.051602778182318655 0 0.022529511884572171 0.050918685758563099 0 0.022939611066982314 0.051365230127081656 0 0.022431497377377801 0.051602778182318655 0 0.022529511884572171 0.050918685758563099 0 0.021933093698225287 0.051338572329547867 0 0.022529511884572171 0.050918685758563099 0 0.022939611066982314 0.051365230127081656 0 0.023309125614040513 0.050733337565721681 0 0.023516882333142041 0.05117361438350463 0 0.023748496940458722 0.050849770238889681 0 0.023309125614040513 0.050733337565721681 0 0.022939611066982314 0.051365230127081656 0 0.023516882333142041 0.05117361438350463 0 0.023309125614040513 0.050733337565721681 0 0.022939611066982314 0.051365230127081656 0 0.023516882333142041 0.05117361438350463 0 0.02332641005313052 0.051697133962304256 0 0.022733059716344803 0.052069085386177695 0 0.022939611066982314 0.051365230127081656 0 0.02332641005313052 0.051697133962304256 0 0.0288303097872331 0.041678613942929023 0 0.028668303220280647 0.042475053033536547 0 0.02895405813573276 0.04244480075008069 0 0.028049117992554148 0.042419088639565047 0 0.028163953334445706 0.04127524024741306 0 0.028668303220280647 0.042475053033536547 0 0.027814847289431992 0.043470132653733333 0 0.028668303220280647 0.042475053033536547 0 0.02895405813573276 0.04244480075008069 0 0.023516882333142041 0.05117361438350463 0 0.02332641005313052 0.051697133962304256 0 0.024091998868834365 0.051326416542246775 0 0.024091998868834365 0.051326416542246775 0 0.023748496940458722 0.050849770238889681 0 0.024079647458206694 0.050168321441444202 0 0.023516882333142041 0.05117361438350463 0 0.024091998868834365 0.051326416542246775 0 0.023748496940458722 0.050849770238889681 0 0.02540993580633779 0.049320178679520994 0 0.024091998868834365 0.051326416542246775 0 0.024079647458206694 0.050168321441444202 0 0.023748496940458722 0.050849770238889681 0 0.024079647458206694 0.050168321441444202 0 0.023309125614040513 0.050733337565721681 0 0.023933154474350498 0.048991556691770466 0 0.02540993580633779 0.049320178679520994 0 0.024079647458206694 0.050168321441444202 0 0.026409046370727909 0.047034187359969143 0 0.02694115602512916 0.047392803155539363 0 0.023933154474350498 0.048991556691770466 0 0.024079647458206694 0.050168321441444202 0 0.022870034385359589 0.049924517538417881 0 0.022529511884572171 0.050918685758563099 0 0.022870034385359589 0.049924517538417881 0 0.023309125614040513 0.050733337565721681 0 0.022529511884572171 0.050918685758563099 0 0.022870034385359589 0.049924517538417881 0 0.021709084795300732 0.050584094811118259 0 0.024079647458206694 0.050168321441444202 0 0.022870034385359589 0.049924517538417881 0 0.023309125614040513 0.050733337565721681 0 0.031643326351305526 0.02645459268576153 0 0.024000465316873158 0.023502469206356673 0 0.015381721806106891 0.029000699939244375 0 0.015090144003294314 0.028952215880058568 0 0.015779839870349494 0.02605780147725785 0 0.015381721806106891 0.029000699939244375 0 0.016458795596975009 0.028847262249485094 0 0.015779839870349494 0.02605780147725785 0 0.015381721806106891 0.029000699939244375 0 0.015973018295497774 0.029020557218018477 0 0.016458795596975009 0.028847262249485094 0 0.015381721806106891 0.029000699939244375 0 0.015395197734110895 0.029086577703043896 0 0.015973018295497774 0.029020557218018477 0 0.015381721806106891 0.029000699939244375 0 0.015381485897974303 0.029207157863318629 0 0.015090144003294314 0.028952215880058568 0 0.023275687126999661 0.028340259865168287 0 0.023530532769038104 0.028162086921773754 0 0.031643326351305526 0.02645459268576153 0 0.040829431848928267 0.023277315963419927 0 0.023530532769038104 0.028162086921773754 0 0.031643326351305526 0.02645459268576153 0 0.023530532769038104 0.028162086921773754 0 0.024911538829924477 0.031483880257863014 0 0.031643326351305526 0.02645459268576153 0 0.037416719790119513 0.026146494041132715 0 0.043380456716081421 0.025537287250898627 0 0.043773312871532501 0.02504889910167904 0 0.04422379041991302 0.025425673435129553 0 0.030774733948029029 0.026216484095327546 0 0.030500741063309404 0.025988227430462269 0 0.029543042219251234 0.028782589191658315 0 0.019538903040493282 0.032313525381695088 0 0.020284015643295 0.032986512699209131 0 0.019316583343945225 0.03416485435015159 0 0.023530532769038104 0.028162086921773754 0 0.018164956903584838 0.031093059914725572 0 0.015395197734110895 0.029086577703043896 0 0.015973018295497774 0.029020557218018477 0 0.016302986365518402 0.029865603777795884 0 0.015973018295497774 0.029020557218018477 0 0.016484947460265579 0.029180389544220347 0 0.016302986365518402 0.029865603777795884 0 0.015973018295497774 0.029020557218018477 0 0.016458795596975009 0.028847262249485094 0 0.016484947460265579 0.029180389544220347 0 0.020170587011648044 0.03389434241779897 0 0.020396643481524576 0.034686119336831078 0 0.019316583343945225 0.03416485435015159 0 0.020284015643295 0.032986512699209131 0 0.020170587011648044 0.03389434241779897 0 0.020469086717437551 0.03348867905640087 0 0.020284015643295 0.032986512699209131 0 0.020170587011648044 0.03389434241779897 0 0.019316583343945225 0.03416485435015159 0 0.020170587011648044 0.03389434241779897 0 0.020396643481524576 0.034686119336831078 0 0.020649182705448531 0.033884425024240675 0 0.020055866865753891 0.035529729753252165 0 0.020396643481524576 0.034686119336831078 0 0.020884256348363751 0.035801384043407464 0 0.020055866865753891 0.035529729753252165 0 0.020396643481524576 0.034686119336831078 0 0.019316583343945225 0.03416485435015159 0 0.026587295217210778 0.036483038732007034 0 0.024911538829924477 0.031483880257863014 0 0.028504160068606513 0.031497381082378824 0 0.030200421545205428 0.032266274257919433 0 0.030540243270007247 0.029285108953117183 0 0.028504160068606513 0.031497381082378824 0 0.029543042219251234 0.028782589191658315 0 0.030540243270007247 0.029285108953117183 0 0.019271078085177227 0.03624733298111401 0 0.020055866865753891 0.035529729753252165 0 0.019316583343945225 0.03416485435015159 0 0.030774733948029029 0.026216484095327546 0 0.029543042219251234 0.028782589191658315 0 0.030540243270007247 0.029285108953117183 0 0.043773312871532501 0.02504889910167904 0 0.044252714663583076 0.024974602913627658 0 0.04422379041991302 0.025425673435129553 0 0.044040877411545491 0.024465264831860588 0 0.043773312871532501 0.02504889910167904 0 0.044252714663583076 0.024974602913627658 0 0.036945074696326421 0.030344693708449048 0 0.037416719790119513 0.026146494041132715 0 0.044040877411545491 0.024465264831860588 0 0.044252714663583076 0.024974602913627658 0 0.044596674843485902 0.02464064722084329 0 0.036945074696326421 0.030344693708449048 0 0.047262048906802447 0.025669943184572708 0 0.044252714663583076 0.024974602913627658 0 0.044671149633242001 0.025216562385446496 0 0.04422379041991302 0.025425673435129553 0 0.044252714663583076 0.024974602913627658 0 0.044596674843485902 0.02464064722084329 0 0.044671149633242001 0.025216562385446496 0 0.044671149633242001 0.025216562385446496 0 0.04422379041991302 0.025425673435129553 0 0.044943138739501509 0.025561684380346939 0 0.043380456716081421 0.025537287250898627 0 0.04422379041991302 0.025425673435129553 0 0.04399793531589255 0.025884227294708215 0 0.04422379041991302 0.025425673435129553 0 0.044943138739501509 0.025561684380346939 0 0.044643629440643109 0.025809375627854261 0 0.04422379041991302 0.025425673435129553 0 0.044643629440643109 0.025809375627854261 0 0.04399793531589255 0.025884227294708215 0 0.044943138739501509 0.025561684380346939 0 0.045375212486357612 0.025691561620553294 0 0.044643629440643109 0.025809375627854261 0 0.045441079301210489 0.025557019427334338 0 0.045725878438356973 0.025577729032786097 0 0.045375212486357612 0.025691561620553294 0 0.045441079301210489 0.025557019427334338 0 0.044943138739501509 0.025561684380346939 0 0.045375212486357612 0.025691561620553294 0 0.044671149633242001 0.025216562385446496 0 0.044943138739501509 0.025561684380346939 0 0.045234987116555124 0.025417356352500465 0 0.045441079301210489 0.025557019427334338 0 0.044943138739501509 0.025561684380346939 0 0.045234987116555124 0.025417356352500465 0 0.044671149633242001 0.025216562385446496 0 0.045234987116555124 0.025417356352500465 0 0.04518607929745129 0.024943524813934435 0 0.044596674843485902 0.02464064722084329 0 0.044671149633242001 0.025216562385446496 0 0.04518607929745129 0.024943524813934435 0 0.046518393420396133 0.027106907196186487 0 0.047247864085820789 0.026417949740216821 0 0.04652527565038881 0.026091602481586658 0 0.047262048906802447 0.025669943184572708 0 0.045588649938027963 0.025441853834401208 0 0.045910367876717872 0.026666601759563958 0 0.046518393420396133 0.027106907196186487 0 0.04652527565038881 0.026091602481586658 0 0.045910367876717872 0.026666601759563958 0 0.04652527565038881 0.026091602481586658 0 0.045791595562826859 0.025621478950211204 0 0.045234987116555124 0.025417356352500465 0 0.04518607929745129 0.024943524813934435 0 0.045791595562826859 0.025621478950211204 0 0.045441079301210489 0.025557019427334338 0 0.045234987116555124 0.025417356352500465 0 0.045791595562826859 0.025621478950211204 0 0.045588649938027963 0.025441853834401208 0 0.045860779499819503 0.025612181979150592 0 0.045791595562826859 0.025621478950211204 0 0.045560945739394482 0.026253245519633525 0 0.045710483781350501 0.025700546727394826 0 0.045910367876717872 0.026666601759563958 0 0.045791595562826859 0.025621478950211204 0 0.045560945739394482 0.026253245519633525 0 0.045560945739394482 0.026253245519633525 0 0.045710483781350501 0.025700546727394826 0 0.045509484322175789 0.026030147448350218 0 0.045710483781350501 0.025700546727394826 0 0.045633331153669916 0.025802906784168737 0 0.045509484322175789 0.026030147448350218 0 0.04573460509082293 0.025668022723356845 0 0.045813178445727284 0.025618271580670871 0 0.045633331153669916 0.025802906784168737 0 0.04573460509082293 0.025668022723356845 0 0.045725878438356973 0.025577729032786097 0 0.045813178445727284 0.025618271580670871 0 0.045710483781350501 0.025700546727394826 0 0.04573460509082293 0.025668022723356845 0 0.045725878438356973 0.025577729032786097 0 0.045710483781350501 0.025700546727394826 0 0.04573460509082293 0.025668022723356845 0 0.045633331153669916 0.025802906784168737 0 0.045441079301210489 0.025557019427334338 0 0.045791595562826859 0.025621478950211204 0 0.045725878438356973 0.025577729032786097 0 0.045791595562826859 0.025621478950211204 0 0.045710483781350501 0.025700546727394826 0 0.045725878438356973 0.025577729032786097 0 0.045725878438356973 0.025577729032786097 0 0.046021583201574949 0.025500703880950885 0 0.045375212486357612 0.025691561620553294 0 0.045725878438356973 0.025577729032786097 0 0.045813178445727284 0.025618271580670871 0 0.046021583201574949 0.025500703880950885 0 0.045813178445727284 0.025618271580670871 0 0.046021583201574949 0.025500703880950885 0 0.045908145335007873 0.025480338148475026 0 0.046021583201574949 0.025500703880950885 0 0.045908145335007873 0.025480338148475026 0 0.04599811596850667 0.025182104998746534 0 0.046021583201574949 0.025500703880950885 0 0.046151727262680235 0.024854911306741931 0 0.04599811596850667 0.025182104998746534 0 0.046021583201574949 0.025500703880950885 0 0.045504594326090109 0.026107021673756031 0 0.045375212486357612 0.025691561620553294 0 0.045941766042224774 0.025508123217688694 0 0.046201586489584924 0.025537012199897808 0 0.046021583201574949 0.025500703880950885 0 0.046472937700041593 0.024783288382348986 0 0.046151727262680235 0.024854911306741931 0 0.046472937700041593 0.024783288382348986 0 0.046151727262680235 0.024854911306741931 0 0.046172401055458272 0.024401186076387932 0 0.046151727262680235 0.024854911306741931 0 0.046172401055458272 0.024401186076387932 0 0.046103429549503382 0.024685691217562596 0 0.046151727262680235 0.024854911306741931 0 0.04599811596850667 0.025182104998746534 0 0.046103429549503382 0.024685691217562596 0 0.046172401055458272 0.024401186076387932 0 0.046103429549503382 0.024685691217562596 0 0.046158903597275598 0.024297091555385675 0 0.046172401055458272 0.024401186076387932 0 0.046138143506712775 0.024167657207887251 0 0.046158903597275598 0.024297091555385675 0 0.046172401055458272 0.024401186076387932 0 0.046138143506712775 0.024167657207887251 0 0.046140561801291009 0.024143977367639468 0 0.046138143506712775 0.024167657207887251 0 0.046140561801291009 0.024143977367639468 0 0.046103900760691083 0.02411449589461254 0 0.046138143506712775 0.024167657207887251 0 0.04614649780211437 0.024115095447793805 0 0.046103900760691083 0.02411449589461254 0 0.046207486974982864 0.024072468380998403 0 0.04609213389180683 0.024097720780879454 0 0.0459389319491312 0.024110396396732372 0 0.046140561801291009 0.024143977367639468 0 0.046207486974982864 0.024072468380998403 0 0.04609213389180683 0.024097720780879454 0 0.046140561801291009 0.024143977367639468 0 0.046103900760691083 0.02411449589461254 0 0.04609213389180683 0.024097720780879454 0 0.046172401055458272 0.024401186076387932 0 0.046140561801291009 0.024143977367639468 0 0.046207486974982864 0.024072468380998403 0 0.046472937700041593 0.024783288382348986 0 0.046172401055458272 0.024401186076387932 0 0.046207486974982864 0.024072468380998403 0 0.046472937700041593 0.024783288382348986 0 0.046207486974982864 0.024072468380998403 0 0.04670679835754632 0.024401789632232225 0 0.046983051237590528 0.024497091561128208 0 0.043660711082552241 0.023702607268354228 0 0.046207486974982864 0.024072468380998403 0 0.045804975281146118 0.024043372990060069 0 0.0459389319491312 0.024110396396732372 0 0.046207486974982864 0.024072468380998403 0 0.045869779502893615 0.023757578304264209 0 0.045804975281146118 0.024043372990060069 0 0.045804975281146118 0.024043372990060069 0 0.045657379704655408 0.023919597160708694 0 0.045492365814398729 0.024033560592984733 0 0.045869779502893615 0.023757578304264209 0 0.045804975281146118 0.024043372990060069 0 0.045657379704655408 0.023919597160708694 0 0.036014788100752176 0.021465885562369731 0 0.035691973913854348 0.021487946239550883 0 0.035648504787968278 0.021299229853320337 0 0.043660711082552241 0.023702607268354228 0 0.040712612515349571 0.022662546432309267 0 0.044991355054448727 0.026383912641405972 0 0.045026525011876144 0.02606538407224835 0 0.044555920918689131 0.026124205825657335 0 0.043660711082552241 0.023702607268354228 0 0.039341592686845686 0.023567556092527323 0 0.045504594326090109 0.026107021673756031 0 0.044991355054448727 0.026383912641405972 0 0.045026525011876144 0.02606538407224835 0 0.046201586489584924 0.025537012199897808 0 0.043660711082552241 0.023702607268354228 0 0.045504594326090109 0.026107021673756031 0 0.045026525011876144 0.02606538407224835 0 0.045375212486357612 0.025691561620553294 0 0.045026525011876144 0.02606538407224835 0 0.044643629440643109 0.025809375627854261 0 0.044555920918689131 0.026124205825657335 0 0.045026525011876144 0.02606538407224835 0 0.045375212486357612 0.025691561620553294 0 0.044643629440643109 0.025809375627854261 0 0.040829431848928267 0.023277315963419927 0 0.039341592686845686 0.023567556092527323 0 0.044643629440643109 0.025809375627854261 0 0.04399793531589255 0.025884227294708215 0 0.044555920918689131 0.026124205825657335 0 0.035157347155282487 0.020976607692568552 0 0.035175552664822855 0.021387483924818255 0 0.034592219698487824 0.021119008820913183 0 0.035157347155282487 0.020976607692568552 0 0.035175552664822855 0.021387483924818255 0 0.035648504787968278 0.021299229853320337 0 0.035175552664822855 0.021387483924818255 0 0.035648504787968278 0.021299229853320337 0 0.035441588542867594 0.021377601578882559 0 0.035691973913854348 0.021487946239550883 0 0.035648504787968278 0.021299229853320337 0 0.035441588542867594 0.021377601578882559 0 0.035691973913854348 0.021487946239550883 0 0.035441588542867594 0.021377601578882559 0 0.035456820715221007 0.021373808236496775 0 0.035456820715221007 0.021373808236496775 0 0.03529447250023611 0.021213613193160435 0 0.035462198134069645 0.02151825671643769 0 0.040712612515349571 0.022662546432309267 0 0.037835751135385037 0.022106733847496705 0 0.035691973913854348 0.021487946239550883 0 0.035456820715221007 0.021373808236496775 0 0.035462198134069645 0.02151825671643769 0 0.03529447250023611 0.021213613193160435 0 0.035393170314115797 0.020754721243377686 0 0.035181837112665516 0.020597397048584282 0 0.03529447250023611 0.021213613193160435 0 0.035485995704465811 0.021262761586432331 0 0.035393170314115797 0.020754721243377686 0 0.03529447250023611 0.021213613193160435 0 0.035181837112665516 0.020597397048584282 0 0.034946684849572585 0.020808197334605642 0 0.034906012164637616 0.020645049293633918 0 0.037835751135385037 0.022106733847496705 0 0.035456820715221007 0.021373808236496775 0 0.03529447250023611 0.021213613193160435 0 0.035342579275622031 0.021331844058751291 0 0.03529447250023611 0.021213613193160435 0 0.035342579275622031 0.021331844058751291 0 0.035485995704465811 0.021262761586432331 0 0.035176532936211494 0.021380382423449463 0 0.034943188521985261 0.021769698986054891 0 0.035175552664822855 0.021387483924818255 0 0.035342579275622031 0.021331844058751291 0 0.035485995704465811 0.021262761586432331 0 0.035175552664822855 0.021387483924818255 0 0.035441588542867594 0.021377601578882559 0 0.035342579275622031 0.021331844058751291 0 0.035441588542867594 0.021377601578882559 0 0.035456820715221007 0.021373808236496775 0 0.035342579275622031 0.021331844058751291 0 0.034413801277207431 0.022310251411324436 0 0.033559012494902202 0.022492556712310582 0 0.034229737458928003 0.021673766464108585 0 0.035175552664822855 0.021387483924818255 0 0.034413801277207431 0.022310251411324436 0 0.034229737458928003 0.021673766464108585 0 0.035485995704465811 0.021262761586432331 0 0.035499163059708704 0.020551979136829036 0 0.035393170314115797 0.020754721243377686 0 0.034943188521985261 0.021769698986054891 0 0.034564766479947509 0.021721417292780012 0 0.034413801277207431 0.022310251411324436 0 0.033559012494902202 0.022492556712310582 0 0.033716938273493383 0.023045692586593485 0 0.033559012494902202 0.022492556712310582 0 0.034229737458928003 0.021673766464108585 0 0.033290139340027773 0.021917009845968484 0 0.034229737458928003 0.021673766464108585 0 0.033920478199897984 0.021146393585868811 0 0.033290139340027773 0.021917009845968484 0 0.024000465316873158 0.023502469206356673 0 0.025128403861726007 0.022639066798656956 0 0.034229737458928003 0.021673766464108585 0 0.034592219698487824 0.021119008820913183 0 0.033920478199897984 0.021146393585868811 0 0.035175552664822855 0.021387483924818255 0 0.034229737458928003 0.021673766464108585 0 0.034592219698487824 0.021119008820913183 0 0.034470061101748023 0.020540315948404372 0 0.035157347155282487 0.020976607692568552 0 0.034592219698487824 0.021119008820913183 0 0.034470061101748023 0.020540315948404372 0 0.034592219698487824 0.021119008820913183 0 0.033920478199897984 0.021146393585868811 0 0.016458795596975009 0.028847262249485094 0 0.015779839870349494 0.02605780147725785 0 0.017257614051666075 0.026855848918064987 0 0.046044323992832342 0.030687279342953382 0 0.045709450097928116 0.028814730706823197 0 0.043861801018410494 0.02885542303815955 0 0.046542539698130117 0.029495960934900339 0 0.046044323992832342 0.030687279342953382 0 0.047307606861409363 0.031403995211587224 0 0.046542539698130117 0.029495960934900339 0 0.046044323992832342 0.030687279342953382 0 0.045709450097928116 0.028814730706823197 0 0.045361139083545672 0.028068300571102933 0 0.044829995363085684 0.026254686580408401 0 0.043816417169096109 0.030639245853463289 0 0.046542539698130117 0.029495960934900339 0 0.047263885987331965 0.028491398747468023 0 0.047307606861409363 0.031403995211587224 0 0.045994048065381155 0.027521009987412404 0 0.045607329672208888 0.030996902111277765 0 0.045361139083545672 0.028068300571102933 0 0.043816417169096109 0.030639245853463289 0 0.046048422880823482 0.02952345071192217 0 0.045361139083545672 0.028068300571102933 0 0.044829995363085684 0.026254686580408401 0 0.04573370541791754 0.026330267289792146 0 0.046542539698130117 0.029495960934900339 0 0.047263885987331965 0.028491398747468023 0 0.046191482627776184 0.028062672932053535 0 0.044829995363085684 0.026254686580408401 0 0.045671137153466414 0.025935402907158542 0 0.046028201187919025 0.025761306785932827 0 0.045994048065381155 0.027521009987412404 0 0.046051114404208719 0.026001958483358758 0 0.044829995363085684 0.026254686580408401 0 0.04573370541791754 0.026330267289792146 0 0.045671137153466414 0.025935402907158542 0 0.047263885987331965 0.028491398747468023 0 0.046191482627776184 0.028062672932053535 0 0.046029305455171476 0.026953377065754743 0 0.046191482627776184 0.028062672932053535 0 0.045233080008650103 0.02719069920567813 0 0.046029305455171476 0.026953377065754743 0 0.045709450097928116 0.028814730706823197 0 0.045233080008650103 0.02719069920567813 0 0.043861801018410494 0.02885542303815955 0 0.046542539698130117 0.029495960934900339 0 0.045709450097928116 0.028814730706823197 0 0.046191482627776184 0.028062672932053535 0 0.045709450097928116 0.028814730706823197 0 0.046191482627776184 0.028062672932053535 0 0.045233080008650103 0.02719069920567813 0 0.045233080008650103 0.02719069920567813 0 0.043857110867863869 0.027303282541157898 0 0.043861801018410494 0.02885542303815955 0 0.043857110867863869 0.027303282541157898 0 0.043861801018410494 0.02885542303815955 0 0.042460584030932703 0.027517839204616187 0 0.045703935764895232 0.028388551914505702 0 0.044999997177513219 0.029306075503427485 0 0.04499999553654873 0.027808732003004474 0 0.045892848253674644 0.030051078802613158 0 0.045315285696914856 0.029155587123494784 0 0.045417966521188999 0.029708437579719253 0 0.044777167848217329 0.029413926454476526 0 0.044824816762011319 0.028159672594062029 0 0.045315285696914856 0.029155587123494784 0 0.045417966521188999 0.029708437579719253 0 0.044999475200882565 0.0293078485959609 0 0.044824816762011319 0.028159672594062029 0 0.04499992510766674 0.029305757355786426 0 0.044999475200882565 0.0293078485959609 0 0.045444355452727091 0.030420671441047781 0 0.044999218082811668 0.03184126358379611 0 0.045417966521188999 0.029708437579719253 0 0.044999475200882565 0.0293078485959609 0 0.045444355452727091 0.030420671441047781 0 0.045892848253674644 0.030051078802613158 0 0.045417966521188999 0.029708437579719253 0 0.045444355452727091 0.030420671441047781 0 0.045892848253674644 0.030051078802613158 0 0.045444355452727091 0.030420671441047781 0 0.045688737006839106 0.031279583904222794 0 0.046044323992832342 0.030687279342953382 0 0.045892848253674644 0.030051078802613158 0 0.045688737006839106 0.031279583904222794 0 0.045977048363198755 0.030552532520911602 0 0.044777167848217329 0.029413926454476526 0 0.045688737006839106 0.031279583904222794 0 0.045492067891821107 0.033135103507896869 0 0.046130860525206784 0.032368789194094062 0 0.045688737006839106 0.031279583904222794 0 0.044999218082811668 0.03184126358379611 0 0.045492067891821107 0.033135103507896869 0 0.045444355452727091 0.030420671441047781 0 0.045688737006839106 0.031279583904222794 0 0.044999218082811668 0.03184126358379611 0 0.044998996547468993 0.034374381591136344 0 0.044999218082811668 0.03184126358379611 0 0.045492067891821107 0.033135103507896869 0 0.045687424161450239 0.034315357119867565 0 0.045492067891821107 0.033135103507896869 0 0.046130860525206784 0.032368789194094062 0 0.046130860525206784 0.032368789194094062 0 0.047307606861409363 0.031403995211587224 0 0.046972282580701831 0.033479389825940072 0 0.045687424161450239 0.034315357119867565 0 0.046130860525206784 0.032368789194094062 0 0.046972282580701831 0.033479389825940072 0 0.046044323992832342 0.030687279342953382 0 0.045688737006839106 0.031279583904222794 0 0.046130860525206784 0.032368789194094062 0 0.046044323992832342 0.030687279342953382 0 0.046130860525206784 0.032368789194094062 0 0.047307606861409363 0.031403995211587224 0 0.043816417169096109 0.030639245853463289 0 0.045446117329850676 0.031296286119412146 0 0.046048422880823482 0.02952345071192217 0 0.043816417169096109 0.030639245853463289 0 0.045446117329850676 0.031296286119412146 0 0.045327344848894884 0.033146745701895595 0 0.045846174113583188 0.03516241520680375 0 0.044043795343179426 0.034609608877857564 0 0.045327344848894884 0.033146745701895595 0 0.043816417169096109 0.030639245853463289 0 0.044043795343179426 0.034609608877857564 0 0.045327344848894884 0.033146745701895595 0 0.045607329672208888 0.030996902111277765 0 0.045491401079785748 0.033941966862761214 0 0.045327344848894884 0.033146745701895595 0 0.048094106421240339 0.033750641358487765 0 0.046738381712051316 0.031721131335275106 0 0.045846174113583188 0.03516241520680375 0 0.045327344848894884 0.033146745701895595 0 0.048094106421240339 0.033750641358487765 0 0.046679996924200121 0.036826306424558371 0 0.045870591182826215 0.035374896417721756 0 0.0468252007665379 0.034257719033170236 0 0.041403136807772745 0.043517554236689515 0 0.041922901978677179 0.035149928874686813 0 0.045870591182826215 0.035374896417721756 0 0.0468252007665379 0.034257719033170236 0 0.045716693461405777 0.033059988539620874 0 0.047088946685324304 0.034955476669861166 0 0.046170316854563499 0.029298227319752883 0 0.045468314149549445 0.025989079700610103 0 0.045477626478920286 0.025978505603064084 0 0.045513790780818762 0.025956828127105175 0 0.045431463846419724 0.026007541675779663 0 0.045477626478920286 0.025978505603064084 0 0.045454355338405646 0.02599553660048038 0 0.041922901978677179 0.035149928874686813 0 0.042427042016663329 0.032151388203258219 0 0.045468314149549445 0.025989079700610103 0 0.045556906436656275 0.025934515317858783 0 0.045627267233196073 0.025898974326075571 0 0.045468314149549445 0.025989079700610103 0 0.045513790780818762 0.025956828127105175 0 0.045556906436656275 0.025934515317858783 0 0.041922901978677179 0.035149928874686813 0 0.046170316854563499 0.029298227319752883 0 0.045502575467487816 0.025957717841560254 0 0.045513790780818762 0.025956828127105175 0 0.045532736062021788 0.025934444815545247 0 0.045477626478920286 0.025978505603064084 0 0.045502575467487816 0.025957717841560254 0 0.045513790780818762 0.025956828127105175 0 0.045513790780818762 0.025956828127105175 0 0.045556906436656275 0.025934515317858783 0 0.045541924962358211 0.025936088365572856 0 0.045556906436656275 0.025934515317858783 0 0.045564953664884576 0.02592207662693434 0 0.04559160293029 0.025913356816957552 0 0.045556906436656275 0.025934515317858783 0 0.045564953664884576 0.02592207662693434 0 0.045541924962358211 0.025936088365572856 0 0.045564953664884576 0.02592207662693434 0 0.045532736062021788 0.025934444815545247 0 0.045574765014919284 0.025906215828912758 0 0.045532736062021788 0.025934444815545247 0 0.045540083905731298 0.02591694484028401 0 0.045574765014919284 0.025906215828912758 0 0.045513790780818762 0.025956828127105175 0 0.045541924962358211 0.025936088365572856 0 0.045532736062021788 0.025934444815545247 0 0.045564953664884576 0.02592207662693434 0 0.045541924962358211 0.025936088365572856 0 0.045532736062021788 0.025934444815545247 0 0.045556906436656275 0.025934515317858783 0 0.045627267233196073 0.025898974326075571 0 0.04559160293029 0.025913356816957552 0 0.048094106421240339 0.033750641358487765 0 0.046738381712051316 0.031721131335275106 0 0.048563555767639745 0.029797569751738529 0 0.046738381712051316 0.031721131335275106 0 0.046048422880823482 0.02952345071192217 0 0.048563555767639745 0.029797569751738529 0 0.045446117329850676 0.031296286119412146 0 0.046738381712051316 0.031721131335275106 0 0.046048422880823482 0.02952345071192217 0 0.045446117329850676 0.031296286119412146 0 0.045327344848894884 0.033146745701895595 0 0.046738381712051316 0.031721131335275106 0 0.045222158456705672 0.026447118350626551 0 0.045560945739394482 0.026253245519633525 0 0.045509484322175789 0.026030147448350218 0 0.045222158456705672 0.026447118350626551 0 0.045453675121915692 0.026027702108635708 0 0.045509484322175789 0.026030147448350218 0 0.036848172805291846 0.047840349039480715 0 0.037340058168169619 0.047516832801750383 0 0.036362834961869671 0.046103211705307665 0 0.045222158456705672 0.026447118350626551 0 0.045428024875379398 0.026041295315307935 0 0.045453675121915692 0.026027702108635708 0 0.045222158456705672 0.026447118350626551 0 0.045431463846419724 0.026007541675779663 0 0.045428024875379398 0.026041295315307935 0 0.036848172805291846 0.047840349039480715 0 0.036226125798950216 0.047924838352939064 0 0.036362834961869671 0.046103211705307665 0 0.041050842677197906 0.037096873575539487 0 0.041922901978677179 0.035149928874686813 0 0.045431463846419724 0.026007541675779663 0 0.045454355338405646 0.02599553660048038 0 0.045428024875379398 0.026041295315307935 0 0.045454355338405646 0.02599553660048038 0 0.045488207577869817 0.025961421678879913 0 0.045428024875379398 0.026041295315307935 0 0.045477626478920286 0.025978505603064084 0 0.045454355338405646 0.02599553660048038 0 0.045488207577869817 0.025961421678879913 0 0.045502575467487816 0.025957717841560254 0 0.045532736062021788 0.025934444815545247 0 0.045488207577869817 0.025961421678879913 0 0.045477626478920286 0.025978505603064084 0 0.045502575467487816 0.025957717841560254 0 0.045488207577869817 0.025961421678879913 0 0.045488207577869817 0.025961421678879913 0 0.045530542022781229 0.025914837570121394 0 0.045428024875379398 0.026041295315307935 0 0.045532736062021788 0.025934444815545247 0 0.045488207577869817 0.025961421678879913 0 0.045540083905731298 0.02591694484028401 0 0.045488207577869817 0.025961421678879913 0 0.045540083905731298 0.02591694484028401 0 0.045530542022781229 0.025914837570121394 0 0.045530542022781229 0.025914837570121394 0 0.045428024875379398 0.026041295315307935 0 0.045453675121915692 0.026027702108635708 0 0.045453675121915692 0.026027702108635708 0 0.045548980862526019 0.025904512511474111 0 0.045509484322175789 0.026030147448350218 0 0.045530542022781229 0.025914837570121394 0 0.045453675121915692 0.026027702108635708 0 0.045548980862526019 0.025904512511474111 0 0.045548980862526019 0.025904512511474111 0 0.045633331153669916 0.025802906784168737 0 0.045509484322175789 0.026030147448350218 0 0.045813178445727284 0.025618271580670871 0 0.04565058862412167 0.025788636769081563 0 0.045744456121507876 0.025689187429432894 0 0.045813178445727284 0.025618271580670871 0 0.045633331153669916 0.025802906784168737 0 0.04565058862412167 0.025788636769081563 0 0.045548980862526019 0.025904512511474111 0 0.045633331153669916 0.025802906784168737 0 0.04565058862412167 0.025788636769081563 0 0.045530542022781229 0.025914837570121394 0 0.045548980862526019 0.025904512511474111 0 0.04565058862412167 0.025788636769081563 0 0.04565058862412167 0.025788636769081563 0 0.045642349958153437 0.025804383260957933 0 0.045744456121507876 0.025689187429432894 0 0.045642349958153437 0.025804383260957933 0 0.045662305145033652 0.025802811458508674 0 0.045744456121507876 0.025689187429432894 0 0.045530542022781229 0.025914837570121394 0 0.045642349958153437 0.025804383260957933 0 0.045586973736678561 0.025870532316217387 0 0.045530542022781229 0.025914837570121394 0 0.04565058862412167 0.025788636769081563 0 0.045642349958153437 0.025804383260957933 0 0.045540083905731298 0.02591694484028401 0 0.045530542022781229 0.025914837570121394 0 0.045586973736678561 0.025870532316217387 0 0.045540083905731298 0.02591694484028401 0 0.045586973736678561 0.025870532316217387 0 0.045574765014919284 0.025906215828912758 0 0.045586973736678561 0.025870532316217387 0 0.045574765014919284 0.025906215828912758 0 0.045629879897595496 0.025873694734570324 0 0.045662305145033652 0.025802811458508674 0 0.045727819536479412 0.025737882658803411 0 0.045629879897595496 0.025873694734570324 0 0.045642349958153437 0.025804383260957933 0 0.045586973736678561 0.025870532316217387 0 0.045662305145033652 0.025802811458508674 0 0.045586973736678561 0.025870532316217387 0 0.045662305145033652 0.025802811458508674 0 0.045629879897595496 0.025873694734570324 0 0.045727819536479412 0.025737882658803411 0 0.045772646005301502 0.025669943635947691 0 0.045829759124835688 0.025535606040736059 0 0.045727819536479412 0.025737882658803411 0 0.045744456121507876 0.025689187429432894 0 0.045829759124835688 0.025535606040736059 0 0.045662305145033652 0.025802811458508674 0 0.045727819536479412 0.025737882658803411 0 0.045744456121507876 0.025689187429432894 0 0.045744456121507876 0.025689187429432894 0 0.045908145335007873 0.025480338148475026 0 0.045829759124835688 0.025535606040736059 0 0.045813178445727284 0.025618271580670871 0 0.045744456121507876 0.025689187429432894 0 0.045908145335007873 0.025480338148475026 0 0.04641194196152669 0.028429391556542859 0 0.048563555767639745 0.029797569751738529 0 0.04573370541791754 0.026330267289792146 0 0.045660805075133731 0.025889133812066898 0 0.045676988592790235 0.025822929200293072 0 0.04573370541791754 0.026330267289792146 0 0.046170316854563499 0.029298227319752883 0 0.045913130283533693 0.026016226411140757 0 0.045683563326863963 0.025998774320476387 0 0.045660805075133731 0.025889133812066898 0 0.04573370541791754 0.026330267289792146 0 0.045683563326863963 0.025998774320476387 0 0.045719586330919888 0.026038162667872022 0 0.04573370541791754 0.026330267289792146 0 0.045683563326863963 0.025998774320476387 0 0.045695816053336294 0.025952375070699529 0 0.045719586330919888 0.026038162667872022 0 0.045361139083545672 0.028068300571102933 0 0.04641194196152669 0.028429391556542859 0 0.04573370541791754 0.026330267289792146 0 0.045361139083545672 0.028068300571102933 0 0.04641194196152669 0.028429391556542859 0 0.046048422880823482 0.02952345071192217 0 0.04641194196152669 0.028429391556542859 0 0.046048422880823482 0.02952345071192217 0 0.048563555767639745 0.029797569751738529 0 0.045660805075133731 0.025889133812066898 0 0.045627267233196073 0.025898974326075571 0 0.045617854441389147 0.02590236073786812 0 0.046087610081619067 0.028237746356325061 0 0.046170316854563499 0.029298227319752883 0 0.045627267233196073 0.025898974326075571 0 0.04559160293029 0.025913356816957552 0 0.045617854441389147 0.02590236073786812 0 0.04559160293029 0.025913356816957552 0 0.045617854441389147 0.02590236073786812 0 0.045593547125338307 0.025910814527538871 0 0.045617854441389147 0.02590236073786812 0 0.045622752948930929 0.025914365187619737 0 0.045593547125338307 0.025910814527538871 0 0.045660805075133731 0.025889133812066898 0 0.045617854441389147 0.02590236073786812 0 0.045622752948930929 0.025914365187619737 0 0.045622752948930929 0.025914365187619737 0 0.045609417319693854 0.025904405286499097 0 0.045645910189517531 0.025925426298020242 0 0.045622752948930929 0.025914365187619737 0 0.045649398110917304 0.025934832273375685 0 0.045645910189517531 0.025925426298020242 0 0.045683563326863963 0.025998774320476387 0 0.045660805075133731 0.025889133812066898 0 0.045649398110917304 0.025934832273375685 0 0.045660805075133731 0.025889133812066898 0 0.045622752948930929 0.025914365187619737 0 0.045649398110917304 0.025934832273375685 0 0.045564953664884576 0.02592207662693434 0 0.045574765014919284 0.025906215828912758 0 0.045593547125338307 0.025910814527538871 0 0.045564953664884576 0.02592207662693434 0 0.04559160293029 0.025913356816957552 0 0.045593547125338307 0.025910814527538871 0 0.045574765014919284 0.025906215828912758 0 0.045593547125338307 0.025910814527538871 0 0.045609417319693854 0.025904405286499097 0 0.045622752948930929 0.025914365187619737 0 0.045593547125338307 0.025910814527538871 0 0.045609417319693854 0.025904405286499097 0 0.045574765014919284 0.025906215828912758 0 0.045609417319693854 0.025904405286499097 0 0.045629879897595496 0.025873694734570324 0 0.045609417319693854 0.025904405286499097 0 0.045629879897595496 0.025873694734570324 0 0.045645910189517531 0.025925426298020242 0 0.045629879897595496 0.025873694734570324 0 0.045645910189517531 0.025925426298020242 0 0.045694065675175921 0.025864394842620628 0 0.045683563326863963 0.025998774320476387 0 0.045649398110917304 0.025934832273375685 0 0.045645910189517531 0.025925426298020242 0 0.045645910189517531 0.025925426298020242 0 0.045695816053336294 0.025952375070699529 0 0.045694065675175921 0.025864394842620628 0 0.045683563326863963 0.025998774320476387 0 0.045645910189517531 0.025925426298020242 0 0.045695816053336294 0.025952375070699529 0 0.045695816053336294 0.025952375070699529 0 0.045738981592289035 0.025890808416025375 0 0.045719586330919888 0.026038162667872022 0 0.045738981592289035 0.025890808416025375 0 0.045694065675175921 0.025864394842620628 0 0.045772646005301502 0.025669943635947691 0 0.045695816053336294 0.025952375070699529 0 0.045738981592289035 0.025890808416025375 0 0.045694065675175921 0.025864394842620628 0 0.045727819536479412 0.025737882658803411 0 0.045629879897595496 0.025873694734570324 0 0.045694065675175921 0.025864394842620628 0 0.045727819536479412 0.025737882658803411 0 0.045694065675175921 0.025864394842620628 0 0.045772646005301502 0.025669943635947691 0 0.045738981592289035 0.025890808416025375 0 0.045772646005301502 0.025669943635947691 0 0.04577053531252101 0.025743421741593803 0 0.045738981592289035 0.025890808416025375 0 0.04574562664141401 0.025986631866154616 0 0.04577053531252101 0.025743421741593803 0 0.045738981592289035 0.025890808416025375 0 0.04574562664141401 0.025986631866154616 0 0.045719586330919888 0.026038162667872022 0 0.04574562664141401 0.025986631866154616 0 0.045719586330919888 0.026038162667872022 0 0.04573370541791754 0.026330267289792146 0 0.04574562664141401 0.025986631866154616 0 0.04573370541791754 0.026330267289792146 0 0.045671137153466414 0.025935402907158542 0 0.04574562664141401 0.025986631866154616 0 0.045671137153466414 0.025935402907158542 0 0.04577053531252101 0.025743421741593803 0 0.045671137153466414 0.025935402907158542 0 0.04577053531252101 0.025743421741593803 0 0.046028201187919025 0.025761306785932827 0 0.04577053531252101 0.025743421741593803 0 0.045808157776685364 0.025400303831671311 0 0.046028201187919025 0.025761306785932827 0 0.045772646005301502 0.025669943635947691 0 0.04577053531252101 0.025743421741593803 0 0.045808157776685364 0.025400303831671311 0 0.045772646005301502 0.025669943635947691 0 0.045808157776685364 0.025400303831671311 0 0.045854947811662966 0.025363291664613923 0 0.045895534621691637 0.025053258994311267 0 0.046178240768563111 0.024306628943093923 0 0.045816763480669986 0.025127626509219025 0 0.045808157776685364 0.025400303831671311 0 0.045895534621691637 0.025053258994311267 0 0.045816763480669986 0.025127626509219025 0 0.045808157776685364 0.025400303831671311 0 0.045895534621691637 0.025053258994311267 0 0.045854947811662966 0.025363291664613923 0 0.045808157776685364 0.025400303831671311 0 0.045908105962965733 0.025391432275827186 0 0.045816763480669986 0.025127626509219025 0 0.045808157776685364 0.025400303831671311 0 0.045908105962965733 0.025391432275827186 0 0.046028201187919025 0.025761306785932827 0 0.045908105962965733 0.025391432275827186 0 0.045816763480669986 0.025127626509219025 0 0.045887732832195917 0.025218035445230286 0 0.045908145335007873 0.025480338148475026 0 0.04599811596850667 0.025182104998746534 0 0.045996765186158757 0.025130938866497601 0 0.045908145335007873 0.025480338148475026 0 0.045829759124835688 0.025535606040736059 0 0.045996765186158757 0.025130938866497601 0 0.045829759124835688 0.025535606040736059 0 0.045854947811662966 0.025363291664613923 0 0.045996765186158757 0.025130938866497601 0 0.045772646005301502 0.025669943635947691 0 0.045829759124835688 0.025535606040736059 0 0.045854947811662966 0.025363291664613923 0 0.045895534621691637 0.025053258994311267 0 0.045854947811662966 0.025363291664613923 0 0.045996765186158757 0.025130938866497601 0 0.045895534621691637 0.025053258994311267 0 0.045996765186158757 0.025130938866497601 0 0.046178240768563111 0.024306628943093923 0 0.045996765186158757 0.025130938866497601 0 0.046103429549503382 0.024685691217562596 0 0.046178240768563111 0.024306628943093923 0 0.04599811596850667 0.025182104998746534 0 0.045996765186158757 0.025130938866497601 0 0.046103429549503382 0.024685691217562596 0 0.046158903597275598 0.024297091555385675 0 0.046178240768563111 0.024306628943093923 0 0.046263802804299516 0.024028666067898743 0 0.046103429549503382 0.024685691217562596 0 0.046158903597275598 0.024297091555385675 0 0.046178240768563111 0.024306628943093923 0 0.046263802804299516 0.024028666067898743 0 0.046663844202448429 0.023740651152492992 0 0.046204697604761272 0.024150910194460428 0 0.046178240768563111 0.024306628943093923 0 0.046263802804299516 0.024028666067898743 0 0.046663844202448429 0.023740651152492992 0 0.046138143506712775 0.024167657207887251 0 0.046263802804299516 0.024028666067898743 0 0.04614649780211437 0.024115095447793805 0 0.046138143506712775 0.024167657207887251 0 0.046158903597275598 0.024297091555385675 0 0.046263802804299516 0.024028666067898743 0 0.046787025359250521 0.023624537266133935 0 0.046974386282029747 0.023373211787145562 0 0.04704523843546652 0.023378155384203469 0 0.046787025359250521 0.023624537266133935 0 0.046998516707501006 0.023446556448446274 0 0.04704523843546652 0.023378155384203469 0 0.046383391988390081 0.02436070251838612 0 0.046279355320610463 0.024298057311191282 0 0.046178240768563111 0.024306628943093923 0 0.046787025359250521 0.023624537266133935 0 0.046663844202448429 0.023740651152492992 0 0.046269010220617357 0.024321417019910786 0 0.046383391988390081 0.02436070251838612 0 0.046787025359250521 0.023624537266133935 0 0.046663844202448429 0.023740651152492992 0 0.046974386282029747 0.023373211787145562 0 0.046974386282029747 0.023373211787145562 0 0.047266009676684366 0.023049079583786426 0 0.04704523843546652 0.023378155384203469 0 0.047266009676684366 0.023049079583786426 0 0.046910805437754569 0.023354689391997002 0 0.04704523843546652 0.023378155384203469 0 0.047266009676684366 0.023049079583786426 0 0.047219462539551511 0.022845783571476309 0 0.047501018468097483 0.023613067805889825 0 0.04724073417250288 0.023190615420966683 0 0.047259068516220346 0.02340656729524377 0 0.047219462539551511 0.022845783571476309 0 0.047501018468097483 0.023613067805889825 0 0.046582740168713978 0.023544825338976377 0 0.046279355320610463 0.024298057311191282 0 0.046516729550292901 0.024670711593057403 0 0.047501018468097483 0.023613067805889825 0 0.04713202200382937 0.02471717080353306 0 0.046582740168713978 0.023544825338976377 0 0.046910805437754569 0.023354689391997002 0 0.046998516707501006 0.023446556448446274 0 0.046816760294054502 0.023478147797678421 0 0.047259068516220346 0.02340656729524377 0 0.046516729550292901 0.024670711593057403 0 0.046910805437754569 0.023354689391997002 0 0.046998516707501006 0.023446556448446274 0 0.04704523843546652 0.023378155384203469 0 0.045908105962965733 0.025391432275827186 0 0.045887732832195917 0.025218035445230286 0 0.046028201187919025 0.025761306785932827 0 0.045887732832195917 0.025218035445230286 0 0.045579825550616397 0.025890713714775724 0 0.046028201187919025 0.025761306785932827 0 0.044948908449506178 0.025016090478772127 0 0.045579825550616397 0.025890713714775724 0 0.044734148400488068 0.026223419763026296 0 0.045887732832195917 0.025218035445230286 0 0.044948908449506178 0.025016090478772127 0 0.045579825550616397 0.025890713714775724 0 0.045233080008650103 0.02719069920567813 0 0.045579825550616397 0.025890713714775724 0 0.044734148400488068 0.026223419763026296 0 0.045233080008650103 0.02719069920567813 0 0.045579825550616397 0.025890713714775724 0 0.046029305455171476 0.026953377065754743 0 0.047263885987331965 0.028491398747468023 0 0.046029305455171476 0.026953377065754743 0 0.046028201187919025 0.025761306785932827 0 0.045579825550616397 0.025890713714775724 0 0.046029305455171476 0.026953377065754743 0 0.046028201187919025 0.025761306785932827 0 0.044824816762011319 0.028159672594062029 0 0.045206056680031546 0.026490947840848305 0 0.04566120069142858 0.028360920037711155 0 0.045712557163131148 0.026689301004358634 0 0.046795279476695158 0.026796342008398311 0 0.04566120069142858 0.028360920037711155 0 0.045712557163131148 0.026689301004358634 0 0.044999872679148289 0.027808627221137406 0 0.044824816762011319 0.028159672594062029 0 0.045000295973018301 0.027809289536732971 0 0.043857110867863869 0.027303282541157898 0 0.042460584030932703 0.027517839204616187 0 0.043830099621089691 0.025986681392563951 0 0.045233080008650103 0.02719069920567813 0 0.043857110867863869 0.027303282541157898 0 0.044734148400488068 0.026223419763026296 0 0.043857110867863869 0.027303282541157898 0 0.044734148400488068 0.026223419763026296 0 0.043830099621089691 0.025986681392563951 0 0.046516729550292901 0.024670711593057403 0 0.046677460273244459 0.0250989328873183 0 0.046516729550292901 0.024670711593057403 0 0.045206056680031546 0.026490947840848305 0 0.048073245002128284 0.02507706449421437 0 0.046795279476695158 0.026796342008398311 0 0.046199926683038843 0.025171899545000775 0 0.044948908449506178 0.025016090478772127 0 0.044734148400488068 0.026223419763026296 0 0.043830099621089691 0.025986681392563951 0 0.045712557163131148 0.026689301004358634 0 0.046795279476695158 0.026796342008398311 0 0.046199926683038843 0.025171899545000775 0 0.045712557163131148 0.026689301004358634 0 0.044999872679148289 0.027808627221137406 0 0.04499977769727842 0.025249395964984864 0 0.045712557163131148 0.026689301004358634 0 0.046199926683038843 0.025171899545000775 0 0.04499977769727842 0.025249395964984864 0 0.04499977769727842 0.025249395964984864 0 0.045680742414367329 0.024048724416132514 0 0.044999838592122733 0.022691115202631253 0 0.046199926683038843 0.025171899545000775 0 0.04499977769727842 0.025249395964984864 0 0.045680742414367329 0.024048724416132514 0 0.046199926683038843 0.025171899545000775 0 0.045680742414367329 0.024048724416132514 0 0.046582740168713978 0.023544825338976377 0 0.04713202200382937 0.02471717080353306 0 0.046199926683038843 0.025171899545000775 0 0.046582740168713978 0.023544825338976377 0 0.046582740168713978 0.023544825338976377 0 0.044999838592122733 0.022691115202631253 0 0.046497960440535016 0.022375194495960902 0 0.047219462539551511 0.022845783571476309 0 0.046582740168713978 0.023544825338976377 0 0.046497960440535016 0.022375194495960902 0 0.045680742414367329 0.024048724416132514 0 0.046582740168713978 0.023544825338976377 0 0.044999838592122733 0.022691115202631253 0 0.044999838592122733 0.022691115202631253 0 0.045702764768161278 0.021553654852978648 0 0.044999726599112312 0.020133091615302138 0 0.044999838592122733 0.022691115202631253 0 0.045702764768161278 0.021553654852978648 0 0.046497960440535016 0.022375194495960902 0 0.046497960440535016 0.022375194495960902 0 0.046486503460450496 0.021128821909713737 0 0.047006673449565058 0.021988549493016794 0 0.045702764768161278 0.021553654852978648 0 0.046497960440535016 0.022375194495960902 0 0.046486503460450496 0.021128821909713737 0 0.046486503460450496 0.021128821909713737 0 0.047204526337317969 0.020427785583745729 0 0.046479028709482492 0.01999557855534401 0 0.045702764768161278 0.021553654852978648 0 0.046486503460450496 0.021128821909713737 0 0.045872693003465449 0.020361328964105255 0 0.046486503460450496 0.021128821909713737 0 0.045872693003465449 0.020361328964105255 0 0.046479028709482492 0.01999557855534401 0 0.045872693003465449 0.020361328964105255 0 0.044999726599112312 0.020133091615302138 0 0.045756861107505972 0.019188436833073617 0 0.045702764768161278 0.021553654852978648 0 0.045872693003465449 0.020361328964105255 0 0.044999726599112312 0.020133091615302138 0 0.047266009676684366 0.023049079583786426 0 0.047219462539551511 0.022845783571476309 0 0.047533468278684793 0.022362331630492036 0 0.047266009676684366 0.023049079583786426 0 0.047533468278684793 0.022362331630492036 0 0.047174819895632526 0.022893316419239133 0 0.047219462539551511 0.022845783571476309 0 0.046497960440535016 0.022375194495960902 0 0.047006673449565058 0.021988549493016794 0 0.047219462539551511 0.022845783571476309 0 0.047533468278684793 0.022362331630492036 0 0.047006673449565058 0.021988549493016794 0 0.047533468278684793 0.022362331630492036 0 0.047006673449565058 0.021988549493016794 0 0.047204526337317969 0.020427785583745729 0 0.046486503460450496 0.021128821909713737 0 0.047006673449565058 0.021988549493016794 0 0.047204526337317969 0.020427785583745729 0 0.047533468278684793 0.022362331630492036 0 0.047204526337317969 0.020427785583745729 0 0.04897948561320354 0.020365601349767802 0 0.047575554082917332 0.022335492748647646 0 0.047823793131546229 0.021816399795007196 0 0.047533468278684793 0.022362331630492036 0 0.046970968220123123 0.02321744597602508 0 0.047174819895632526 0.022893316419239133 0 0.047204526337317969 0.020427785583745729 0 0.047868993511151134 0.019304373473688397 0 0.04897948561320354 0.020365601349767802 0 0.047204526337317969 0.020427785583745729 0 0.046479028709482492 0.01999557855534401 0 0.046660541912287898 0.018999779919929426 0 0.047868993511151134 0.019304373473688397 0 0.046660541912287898 0.018999779919929426 0 0.047720256984624926 0.018215848444138649 0 0.047204526337317969 0.020427785583745729 0 0.047868993511151134 0.019304373473688397 0 0.046660541912287898 0.018999779919929426 0 0.044999726599112312 0.020133091615302138 0 0.045756861107505972 0.019188436833073617 0 0.044999701992028331 0.01757369541957185 0 0.045756861107505972 0.019188436833073617 0 0.046479028709482492 0.01999557855534401 0 0.046660541912287898 0.018999779919929426 0 0.045872693003465449 0.020361328964105255 0 0.045756861107505972 0.019188436833073617 0 0.046479028709482492 0.01999557855534401 0 0.045756861107505972 0.019188436833073617 0 0.047401897908611948 0.017284774894503786 0 0.046099164920220946 0.016341892335564889 0 0.045815744477627048 0.019158149746513854 0 0.046967911516088284 0.018170464527899343 0 0.045756861107505972 0.019188436833073617 0 0.044999701992028331 0.01757369541957185 0 0.046099164920220946 0.016341892335564889 0 0.046099164920220946 0.016341892335564889 0 0.044999876859781539 0.015014078358325435 0 0.047130109178278992 0.01501250704207407 0 0.044999701992028331 0.01757369541957185 0 0.046099164920220946 0.016341892335564889 0 0.044999876859781539 0.015014078358325435 0 0.044999876859781539 0.015014078358325435 0 0.047130109178278992 0.01501250704207407 0 0.046344354509820641 0.01361143154058948 0 0.047401897908611948 0.017284774894503786 0 0.046099164920220946 0.016341892335564889 0 0.047130109178278992 0.01501250704207407 0 0.047401897908611948 0.017284774894503786 0 0.047130109178278992 0.01501250704207407 0 0.048641620515541245 0.015681782243140829 0 0.046967911516088284 0.018170464527899343 0 0.048212058338110902 0.016929082480949265 0 0.047868993511151134 0.019304373473688397 0 0.047720256984624926 0.018215848444138649 0 0.0488005602604056 0.018698364197757451 0 0.047720256984624926 0.018215848444138649 0 0.048685046977819724 0.017467976168104058 0 0.0488005602604056 0.018698364197757451 0 0.048641620515541245 0.015681782243140829 0 0.048560670395668575 0.014261017587481327 0 0.049690671028229993 0.014319948700378169 0 0.048212058338110902 0.016929082480949265 0 0.048954953341522063 0.016065120614063975 0 0.047130109178278992 0.01501250704207407 0 0.048560670395668575 0.014261017587481327 0 0.047595785484773376 0.013286699622841262 0 0.047130109178278992 0.01501250704207407 0 0.048641620515541245 0.015681782243140829 0 0.048560670395668575 0.014261017587481327 0 0.048560670395668575 0.014261017587481327 0 0.047595785484773376 0.013286699622841262 0 0.049088408941272865 0.012911009370944478 0 0.048560670395668575 0.014261017587481327 0 0.049088408941272865 0.012911009370944478 0 0.049690671028229993 0.014319948700378169 0 0.049088408941272865 0.012911009370944478 0 0.047628462140537765 0.011756056109805409 0 0.049062724630816651 0.011497472492774465 0 0.047595785484773376 0.013286699622841262 0 0.049088408941272865 0.012911009370944478 0 0.047628462140537765 0.011756056109805409 0 0.047595785484773376 0.013286699622841262 0 0.046656759489817554 0.012456849816898321 0 0.047628462140537765 0.011756056109805409 0 0.046656759489817554 0.012456849816898321 0 0.046085208683981908 0.011523514911419749 0 0.047628462140537765 0.011756056109805409 0 0.045000248247040145 0.012455449293580494 0 0.046061667393935621 0.011162396638243562 0 0.046656759489817554 0.012456849816898321 0 0.045000266733245767 0.012456835808645199 0 0.046085208683981908 0.011523514911419749 0 0.045000006850426141 0.012455669996721897 0 0.046108523567934878 0.0107827683919785 0 0.044999976288461779 0.010555818584956911 0 0.044999876859781539 0.015014078358325435 0 0.045000266733245767 0.012456835808645199 0 0.046344354509820641 0.01361143154058948 0 0.046656759489817554 0.012456849816898321 0 0.045000266733245767 0.012456835808645199 0 0.046344354509820641 0.01361143154058948 0 0.047595785484773376 0.013286699622841262 0 0.046656759489817554 0.012456849816898321 0 0.046344354509820641 0.01361143154058948 0 0.047130109178278992 0.01501250704207407 0 0.047595785484773376 0.013286699622841262 0 0.046344354509820641 0.01361143154058948 0 0.037075167347715973 0.018770200666515493 0 0.039214048718353343 0.019051655338491784 0 0.037168738026502411 0.019572552020508865 0 0.037091282549595067 0.019632742866809421 0 0.037107633349986388 0.01962197590857909 0 0.037168738026502411 0.019572552020508865 0 0.037091282549595067 0.019632742866809421 0 0.037258581888349747 0.019518666063559131 0 0.03808809241248759 0.017743810161526354 0 0.037456336266404294 0.018190879585974963 0 0.037678408801619795 0.017165299320088076 0 0.037075167347715973 0.018770200666515493 0 0.037232249681759769 0.019414420045048838 0 0.03808809241248759 0.017743810161526354 0 0.037456336266404294 0.018190879585974963 0 0.038178123334408801 0.018746409132666175 0 0.037456336266404294 0.018190879585974963 0 0.037505820984559006 0.018929004329685351 0 0.037176480355360357 0.019363592086511106 0 0.037091282549595067 0.019632742866809421 0 0.037139062646266388 0.019516804785567596 0 0.037176480355360357 0.019363592086511106 0 0.037456336266404294 0.018190879585974963 0 0.038178123334408801 0.018746409132666175 0 0.037505820984559006 0.018929004329685351 0 0.044167777419576101 0.017421634065934204 0 0.04500155898019579 0.015914836721119357 0 0.04500155898019579 0.015914836721119357 0 0.051214893337140195 0.014372150573012801 0 0.050438898619901959 0.017084893453366955 0 0.050263228841981304 0.016062987422745367 0 0.049520228386732687 0.016757412672816066 0 0.050699910753062405 0.013188373754236741 0 0.049988319852661271 0.012018429195621218 0 0.050856203746121112 0.011575603117672603 0 0.051699639738449897 0.012190831752186207 0 0.050699910753062405 0.013188373754236741 0 0.050856203746121112 0.011575603117672603 0 0.049088408941272865 0.012911009370944478 0 0.050699910753062405 0.013188373754236741 0 0.049988319852661271 0.012018429195621218 0 0.049088408941272865 0.012911009370944478 0 0.049062724630816651 0.011497472492774465 0 0.049988319852661271 0.012018429195621218 0 0.049088408941272865 0.012911009370944478 0 0.050699910753062405 0.013188373754236741 0 0.049690671028229993 0.014319948700378169 0 0.051214893337140195 0.014372150573012801 0 0.048954953341522063 0.016065120614063975 0 0.050438898619901959 0.017084893453366955 0 0.049520228386732687 0.016757412672816066 0 0.049634033514651281 0.017953103320485761 0 0.049520228386732687 0.016757412672816066 0 0.049634033514651281 0.017953103320485761 0 0.048685046977819724 0.017467976168104058 0 0.049634033514651281 0.017953103320485761 0 0.048685046977819724 0.017467976168104058 0 0.0488005602604056 0.018698364197757451 0 0.049634033514651281 0.017953103320485761 0 0.0488005602604056 0.018698364197757451 0 0.049806426354264757 0.019171206807878816 0 0.049634033514651281 0.017953103320485761 0 0.050611546615456172 0.018169482124125638 0 0.049806426354264757 0.019171206807878816 0 0.044561407444678278 0.018905096046515024 0 0.049076215698885484 0.021201800762609496 0 0.050438898619901959 0.017084893453366955 0 0.049634033514651281 0.017953103320485761 0 0.050611546615456172 0.018169482124125638 0 0.044167777419576101 0.017421634065934204 0 0.044561407444678278 0.018905096046515024 0 0.03808809241248759 0.017743810161526354 0 0.037678408801619795 0.017165299320088076 0 0.038045237088575025 0.016844917100187647 0 0.037168738026502411 0.019572552020508865 0 0.03720715720052005 0.019533299898741727 0 0.037258581888349747 0.019518666063559131 0 0.037168738026502411 0.019572552020508865 0 0.03720715720052005 0.019533299898741727 0 0.037186495428593112 0.01953168278528215 0 0.03720715720052005 0.019533299898741727 0 0.037186495428593112 0.01953168278528215 0 0.037216246986786945 0.019502606269493468 0 0.039214048718353343 0.019051655338491784 0 0.044561407444678278 0.018905096046515024 0 0.03720715720052005 0.019533299898741727 0 0.037258581888349747 0.019518666063559131 0 0.037216246986786945 0.019502606269493468 0 0.037258581888349747 0.019518666063559131 0 0.037216246986786945 0.019502606269493468 0 0.037228017322538901 0.019428922724978388 0 0.039214048718353343 0.019051655338491784 0 0.039399248297872808 0.019703202692955953 0 0.037258581888349747 0.019518666063559131 0 0.037228017322538901 0.019428922724978388 0 0.037360951363441523 0.019236266595609747 0 0.044561407444678278 0.018905096046515024 0 0.044462666196881315 0.022438050183193427 0 0.041864393170432765 0.019214101362148562 0 0.041473564258067967 0.019629047935340635 0 0.041794805064531981 0.020346853751720698 0 0.041473564258067967 0.019629047935340635 0 0.041595656670920585 0.020554675892213145 0 0.041794805064531981 0.020346853751720698 0 0.037228017322538901 0.019428922724978388 0 0.037360951363441523 0.019236266595609747 0 0.03717417060641881 0.019359685819841016 0 0.041595656670920585 0.020554675892213145 0 0.041794805064531981 0.020346853751720698 0 0.041708062367960382 0.021467279022711873 0 0.037360951363441523 0.019236266595609747 0 0.037430446717545057 0.019023980870204318 0 0.037241249147179807 0.019090264544583249 0 0.039399248297872808 0.019703202692955953 0 0.04188401728184607 0.021070099242562913 0 0.0470139449968517 0.022790726541840743 0 0.047041987893235576 0.022982235333995044 0 0.046913087906789733 0.023027880848689564 0 0.047041987893235576 0.022982235333995044 0 0.046937875809218259 0.023123336594784213 0 0.046913087906789733 0.023027880848689564 0 0.047041987893235576 0.022982235333995044 0 0.046937875809218259 0.023123336594784213 0 0.047048992985763045 0.023107684017824353 0 0.046937875809218259 0.023123336594784213 0 0.047048992985763045 0.023107684017824353 0 0.046966879027351756 0.023186821821702213 0 0.037435256687031911 0.019014137553743805 0 0.037342824443556168 0.019021574033669671 0 0.037266805704028787 0.018958991343738591 0 0.037430446717545057 0.019023980870204318 0 0.037435256687031911 0.019014137553743805 0 0.037342824443556168 0.019021574033669671 0 0.047048992985763045 0.023107684017824353 0 0.047048744072997049 0.023115857177869358 0 0.046966879027351756 0.023186821821702213 0 0.044462666196881315 0.022438050183193427 0 0.04188401728184607 0.021070099242562913 0 0.04188401728184607 0.021070099242562913 0 0.041948332188350125 0.02089044777674522 0 0.037430446717545057 0.019023980870204318 0 0.037342824443556168 0.019021574033669671 0 0.037241249147179807 0.019090264544583249 0 0.047868993511151134 0.019304373473688397 0 0.0488005602604056 0.018698364197757451 0 0.04897948561320354 0.020365601349767802 0 0.0488005602604056 0.018698364197757451 0 0.049806426354264757 0.019171206807878816 0 0.04897948561320354 0.020365601349767802 0 0.049076215698885484 0.021201800762609496 0 0.047823793131546229 0.021816399795007196 0 0.046937875809218259 0.023123336594784213 0 0.046913087906789733 0.023027880848689564 0 0.046970968220123123 0.02321744597602508 0 0.046937875809218259 0.023123336594784213 0 0.046970968220123123 0.02321744597602508 0 0.046899287693123008 0.023207252869102305 0 0.046970968220123123 0.02321744597602508 0 0.046893800328112425 0.023193585535402333 0 0.047174819895632526 0.022893316419239133 0 0.046899287693123008 0.023207252869102305 0 0.046893800328112425 0.023193585535402333 0 0.046864386010668731 0.023298162916546971 0 0.046970968220123123 0.02321744597602508 0 0.046899287693123008 0.023207252869102305 0 0.046893800328112425 0.023193585535402333 0 0.046663844202448429 0.023740651152492992 0 0.046974386282029747 0.023373211787145562 0 0.046893800328112425 0.023193585535402333 0 0.046663844202448429 0.023740651152492992 0 0.046893800328112425 0.023193585535402333 0 0.046864386010668731 0.023298162916546971 0 0.046974386282029747 0.023373211787145562 0 0.046893800328112425 0.023193585535402333 0 0.047174819895632526 0.022893316419239133 0 0.046974386282029747 0.023373211787145562 0 0.047266009676684366 0.023049079583786426 0 0.047174819895632526 0.022893316419239133 0 0.043499698025168336 0.02211467574193959 0 0.041596957607139946 0.02170832172685885 0 0.047048744072997049 0.023115857177869358 0 0.046966879027351756 0.023186821821702213 0 0.047112658170130162 0.02330619573603902 0 0.046183047222876888 0.024158966001898124 0 0.046016373768166786 0.024182503126342292 0 0.046062107060960873 0.024143221449025674 0 0.041948332188350125 0.02089044777674522 0 0.043499698025168336 0.02211467574193959 0 0.037435256687031911 0.019014137553743805 0 0.037519326684047616 0.018850559114418165 0 0.037266805704028787 0.018958991343738591 0 0.046966879027351756 0.023186821821702213 0 0.046864386010668731 0.023298162916546971 0 0.047112658170130162 0.02330619573603902 0 0.046937875809218259 0.023123336594784213 0 0.046899287693123008 0.023207252869102305 0 0.046966879027351756 0.023186821821702213 0 0.046899287693123008 0.023207252869102305 0 0.046966879027351756 0.023186821821702213 0 0.046864386010668731 0.023298162916546971 0 0.046663844202448429 0.023740651152492992 0 0.046204697604761272 0.024150910194460428 0 0.046197165176591927 0.02428733173659503 0 0.046663844202448429 0.023740651152492992 0 0.046864386010668731 0.023298162916546971 0 0.047112658170130162 0.02330619573603902 0 0.047564129960406661 0.023977211949689055 0 0.043499698025168336 0.02211467574193959 0 0.046183047222876888 0.024158966001898124 0 0.046136330757998154 0.024139609415442354 0 0.046062107060960873 0.024143221449025674 0 0.046263802804299516 0.024028666067898743 0 0.046204697604761272 0.024150910194460428 0 0.04614649780211437 0.024115095447793805 0 0.046204697604761272 0.024150910194460428 0 0.046183047222876888 0.024158966001898124 0 0.046136330757998154 0.024139609415442354 0 0.044001084070766333 0.023227414371100926 0 0.043499698025168336 0.02211467574193959 0 0.046204697604761272 0.024150910194460428 0 0.046136330757998154 0.024139609415442354 0 0.04614649780211437 0.024115095447793805 0 0.046136330757998154 0.024139609415442354 0 0.04614649780211437 0.024115095447793805 0 0.04609872735531767 0.024124825990861173 0 0.04614649780211437 0.024115095447793805 0 0.046103900760691083 0.02411449589461254 0 0.04609872735531767 0.024124825990861173 0 0.046103900760691083 0.02411449589461254 0 0.04603134528064385 0.024118172850911054 0 0.04609872735531767 0.024124825990861173 0 0.046103900760691083 0.02411449589461254 0 0.04603134528064385 0.024118172850911054 0 0.04609213389180683 0.024097720780879454 0 0.04603134528064385 0.024118172850911054 0 0.04609872735531767 0.024124825990861173 0 0.046062107060960873 0.024143221449025674 0 0.046136330757998154 0.024139609415442354 0 0.04609872735531767 0.024124825990861173 0 0.046062107060960873 0.024143221449025674 0 0.046016373768166786 0.024182503126342292 0 0.046062107060960873 0.024143221449025674 0 0.045895123233225102 0.024141551339709352 0 0.04603134528064385 0.024118172850911054 0 0.046062107060960873 0.024143221449025674 0 0.045895123233225102 0.024141551339709352 0 0.04603134528064385 0.024118172850911054 0 0.045903569611022176 0.02411416229514677 0 0.0459389319491312 0.024110396396732372 0 0.045963127853139461 0.024141179447765566 0 0.045871616206478165 0.023929391434051612 0 0.04603134528064385 0.024118172850911054 0 0.04609213389180683 0.024097720780879454 0 0.0459389319491312 0.024110396396732372 0 0.045804975281146118 0.024043372990060069 0 0.0459389319491312 0.024110396396732372 0 0.045739842313685178 0.024118275869028035 0 0.045804975281146118 0.024043372990060069 0 0.045739842313685178 0.024118275869028035 0 0.045492365814398729 0.024033560592984733 0 0.041028532028325244 0.022483908355436084 0 0.040718284412881764 0.021909004871824921 0 0.045903569611022176 0.02411416229514677 0 0.045739842313685178 0.024118275869028035 0 0.045774247022276005 0.024062699080474287 0 0.045903569611022176 0.02411416229514677 0 0.0459389319491312 0.024110396396732372 0 0.045739842313685178 0.024118275869028035 0 0.035406856723025085 0.020457881594994121 0 0.03548960087437273 0.020456307429469352 0 0.035410107673437004 0.02037785730273222 0 0.035406856723025085 0.020457881594994121 0 0.035389294642670155 0.020372020260269109 0 0.035410107673437004 0.02037785730273222 0 0.035406856723025085 0.020457881594994121 0 0.035389294642670155 0.020372020260269109 0 0.035335929626361617 0.020349102048015297 0 0.035410107673437004 0.02037785730273222 0 0.035399501346891342 0.020317421675448106 0 0.035324373578278882 0.020256431100880563 0 0.035389294642670155 0.020372020260269109 0 0.035399501346891342 0.020317421675448106 0 0.035399635632295624 0.020299298476979075 0 0.035389294642670155 0.020372020260269109 0 0.035410107673437004 0.02037785730273222 0 0.035399501346891342 0.020317421675448106 0 0.035399501346891342 0.020317421675448106 0 0.035405971217424774 0.020254298312355666 0 0.035324373578278882 0.020256431100880563 0 0.035399501346891342 0.020317421675448106 0 0.035432599320457323 0.020255352811147521 0 0.035399635632295624 0.020299298476979075 0 0.035399501346891342 0.020317421675448106 0 0.035432599320457323 0.020255352811147521 0 0.035405971217424774 0.020254298312355666 0 0.03548960087437273 0.020456307429469352 0 0.035410107673437004 0.02037785730273222 0 0.035324373578278882 0.020256431100880563 0 0.03689299937013682 0.018970240675958878 0 0.036611826333920669 0.019147067974837124 0 0.03698215248702906 0.01905253408463126 0 0.035984111860583048 0.019210360322107274 0 0.039752758513544498 0.02010053481551519 0 0.040718284412881764 0.021909004871824921 0 0.035243893535943517 0.01946703655473728 0 0.03689299937013682 0.018970240675958878 0 0.036611826333920669 0.019147067974837124 0 0.03648013355417689 0.019143999397653422 0 0.036611826333920669 0.019147067974837124 0 0.036870673259809542 0.019124318606841807 0 0.036941697522562676 0.018980688306528937 0 0.036611826333920669 0.019147067974837124 0 0.036870673259809542 0.019124318606841807 0 0.036803684417689574 0.019207366549552993 0 0.037031741825986265 0.01907858411099839 0 0.037073323665647917 0.019124448737430997 0 0.037241249147179807 0.019090264544583249 0 0.036870673259809542 0.019124318606841807 0 0.036952075910925399 0.019226070465685804 0 0.036803684417689574 0.019207366549552993 0 0.036870673259809542 0.019124318606841807 0 0.036941697522562676 0.018980688306528937 0 0.037073323665647917 0.019124448737430997 0 0.039752758513544498 0.02010053481551519 0 0.037155845185397801 0.018594240023182489 0 0.036870673259809542 0.019124318606841807 0 0.037073323665647917 0.019124448737430997 0 0.036952075910925399 0.019226070465685804 0 0.037073323665647917 0.019124448737430997 0 0.037079370298947922 0.019276153202485484 0 0.036952075910925399 0.019226070465685804 0 0.037073323665647917 0.019124448737430997 0 0.037187008021178615 0.01921367187725807 0 0.037079370298947922 0.019276153202485484 0 0.037360951363441523 0.019236266595609747 0 0.037187008021178615 0.01921367187725807 0 0.037241249147179807 0.019090264544583249 0 0.037073323665647917 0.019124448737430997 0 0.037187008021178615 0.01921367187725807 0 0.037241249147179807 0.019090264544583249 0 0.037266805704028787 0.018958991343738591 0 0.037031741825986265 0.01907858411099839 0 0.037241249147179807 0.019090264544583249 0 0.037342824443556168 0.019021574033669671 0 0.037266805704028787 0.018958991343738591 0 0.037241249147179807 0.019090264544583249 0 0.046016373768166786 0.024182503126342292 0 0.045895123233225102 0.024141551339709352 0 0.04580343275451032 0.024220392189700769 0 0.045895123233225102 0.024141551339709352 0 0.045763446117662109 0.024182075632499283 0 0.04580343275451032 0.024220392189700769 0 0.041596957607139946 0.02170832172685885 0 0.039752758513544498 0.02010053481551519 0 0.045871616206478165 0.023929391434051612 0 0.040718284412881764 0.021909004871824921 0 0.040718284412881764 0.021909004871824921 0 0.039752758513544498 0.02010053481551519 0 0.035499163059708704 0.020551979136829036 0 0.035318384876113863 0.020371674831837508 0 0.03512279292355764 0.020137889292799738 0 0.033716938273493383 0.023045692586593485 0 0.033095145202951801 0.023720362539534936 0 0.032946772207941163 0.023212383018087767 0 0.034564766479947509 0.021721417292780012 0 0.034457559011895442 0.022432644727827446 0 0.033559012494902202 0.022492556712310582 0 0.033716938273493383 0.023045692586593485 0 0.032946772207941163 0.023212383018087767 0 0.035393170314115797 0.020754721243377686 0 0.035318384876113863 0.020371674831837508 0 0.035286530848580404 0.020558914960161323 0 0.035499163059708704 0.020551979136829036 0 0.035393170314115797 0.020754721243377686 0 0.035318384876113863 0.020371674831837508 0 0.035318384876113863 0.020371674831837508 0 0.035280278388101667 0.020317363509900318 0 0.035197836203428819 0.020189029388241495 0 0.035318384876113863 0.020371674831837508 0 0.035197836203428819 0.020189029388241495 0 0.03512279292355764 0.020137889292799738 0 0.035280278388101667 0.020317363509900318 0 0.035259353314700696 0.020454560915253425 0 0.035287837423898391 0.020407276251657648 0 0.035318384876113863 0.020371674831837508 0 0.035280278388101667 0.020317363509900318 0 0.035259353314700696 0.020454560915253425 0 0.035318384876113863 0.020371674831837508 0 0.035259353314700696 0.020454560915253425 0 0.035286530848580404 0.020558914960161323 0 0.035393170314115797 0.020754721243377686 0 0.035286530848580404 0.020558914960161323 0 0.035181837112665516 0.020597397048584282 0 0.035259353314700696 0.020454560915253425 0 0.035181837112665516 0.020597397048584282 0 0.03525983850929984 0.020496847215737551 0 0.035259353314700696 0.020454560915253425 0 0.035286530848580404 0.020558914960161323 0 0.035181837112665516 0.020597397048584282 0 0.041028532028325244 0.022483908355436084 0 0.037835751135385037 0.022106733847496705 0 0.035406856723025085 0.020457881594994121 0 0.03525983850929984 0.020496847215737551 0 0.035231701169999408 0.020538631417154368 0 0.035181837112665516 0.020597397048584282 0 0.03525983850929984 0.020496847215737551 0 0.035231701169999408 0.020538631417154368 0 0.036342618442354896 0.021819015273594287 0 0.037835751135385037 0.022106733847496705 0 0.035406856723025085 0.020457881594994121 0 0.035287837423898391 0.020407276251657648 0 0.035335929626361617 0.020349102048015297 0 0.035406856723025085 0.020457881594994121 0 0.03525983850929984 0.020496847215737551 0 0.035287837423898391 0.020407276251657648 0 0.035259353314700696 0.020454560915253425 0 0.03525983850929984 0.020496847215737551 0 0.035287837423898391 0.020407276251657648 0 0.035280278388101667 0.020317363509900318 0 0.035287837423898391 0.020407276251657648 0 0.035335929626361617 0.020349102048015297 0 0.035335929626361617 0.020349102048015297 0 0.035356278193425468 0.020281357609728747 0 0.035306408616950162 0.020249252456635183 0 0.035335929626361617 0.020349102048015297 0 0.035399635632295624 0.020299298476979075 0 0.035356278193425468 0.020281357609728747 0 0.035389294642670155 0.020372020260269109 0 0.035335929626361617 0.020349102048015297 0 0.035399635632295624 0.020299298476979075 0 0.035399635632295624 0.020299298476979075 0 0.035376162265678503 0.020227342649270303 0 0.035452362051029786 0.02020650955655395 0 0.035432599320457323 0.020255352811147521 0 0.035399635632295624 0.020299298476979075 0 0.035452362051029786 0.02020650955655395 0 0.035399635632295624 0.020299298476979075 0 0.035376162265678503 0.020227342649270303 0 0.035356278193425468 0.020281357609728747 0 0.035376162265678503 0.020227342649270303 0 0.035234355153405464 0.020178184030955355 0 0.03542103016821254 0.020185245471406578 0 0.035376162265678503 0.020227342649270303 0 0.035306408616950162 0.020249252456635183 0 0.035234355153405464 0.020178184030955355 0 0.035306408616950162 0.020249252456635183 0 0.035197836203428819 0.020189029388241495 0 0.035234355153405464 0.020178184030955355 0 0.035376162265678503 0.020227342649270303 0 0.035356278193425468 0.020281357609728747 0 0.035306408616950162 0.020249252456635183 0 0.035280278388101667 0.020317363509900318 0 0.035306408616950162 0.020249252456635183 0 0.035197836203428819 0.020189029388241495 0 0.035280278388101667 0.020317363509900318 0 0.035335929626361617 0.020349102048015297 0 0.035306408616950162 0.020249252456635183 0 0.035197836203428819 0.020189029388241495 0 0.035234355153405464 0.020178184030955355 0 0.034952858903540406 0.020117512258855517 0 0.035234355153405464 0.020178184030955355 0 0.034952858903540406 0.020117512258855517 0 0.034838600678604031 0.020218122747303533 0 0.034952858903540406 0.020117512258855517 0 0.034838600678604031 0.020218122747303533 0 0.034452542493636877 0.020064296863543152 0 0.034952858903540406 0.020117512258855517 0 0.03512279292355764 0.020137889292799738 0 0.034452542493636877 0.020064296863543152 0 0.035197836203428819 0.020189029388241495 0 0.034952858903540406 0.020117512258855517 0 0.03512279292355764 0.020137889292799738 0 0.028300918353890453 0.010336736378862683 0 0.029456798359236789 0.011758734352456604 0 0.028271334702466604 0.010274752967287077 0 0.029016979307861155 0.0097995000795652824 0 0.030091005636703111 0.012571665515012077 0 0.02816625613474686 0.010808786575749164 0 0.028271334702466604 0.010274752967287077 0 0.0278271455280052 0.010566921212355716 0 0.02816625613474686 0.010808786575749164 0 0.028271334702466604 0.010274752967287077 0 0.028739832730884624 0.010912821226479592 0 0.031962065832399189 0.014621388887711754 0 0.030241306724459849 0.019297033102212296 0 0.028271334702466604 0.010274752967287077 0 0.029016979307861155 0.0097995000795652824 0 0.028262916634684967 0.0097870780599241883 0 0.035234355153405464 0.020178184030955355 0 0.034838600678604031 0.020218122747303533 0 0.035276208463662209 0.020272218148057009 0 0.031962065832399189 0.014621388887711754 0 0.033029792765359021 0.015435423009655433 0 0.029016979307861155 0.0097995000795652824 0 0.031122135187724893 0.010805324442855799 0 0.030091005636703111 0.012571665515012077 0 0.035276208463662209 0.020272218148057009 0 0.035489341927984634 0.020126887631045334 0 0.035516797034758713 0.020069546215703993 0 0.031122135187724893 0.010805324442855799 0 0.033135254164759223 0.011807358515204217 0 0.03190446787984462 0.012866052064759608 0 0.033029792765359021 0.015435423009655433 0 0.034999235712959875 0.016849730635342456 0 0.031122135187724893 0.010805324442855799 0 0.03190446787984462 0.012866052064759608 0 0.030091005636703111 0.012571665515012077 0 0.035276208463662209 0.020272218148057009 0 0.035516797034758713 0.020069546215703993 0 0.035522666875484908 0.020069867586927824 0 0.035234355153405464 0.020178184030955355 0 0.035276208463662209 0.020272218148057009 0 0.03542103016821254 0.020185245471406578 0 0.035276208463662209 0.020272218148057009 0 0.03542103016821254 0.020185245471406578 0 0.035489341927984634 0.020126887631045334 0 0.03542103016821254 0.020185245471406578 0 0.035489341927984634 0.020126887631045334 0 0.035490822621800124 0.02015206272695063 0 0.035376162265678503 0.020227342649270303 0 0.03542103016821254 0.020185245471406578 0 0.035452362051029786 0.02020650955655395 0 0.03542103016821254 0.020185245471406578 0 0.035452362051029786 0.02020650955655395 0 0.035490822621800124 0.02015206272695063 0 0.035432599320457323 0.020255352811147521 0 0.035452362051029786 0.02020650955655395 0 0.035495308658415346 0.020169152380004454 0 0.035452362051029786 0.02020650955655395 0 0.035495308658415346 0.020169152380004454 0 0.035490822621800124 0.02015206272695063 0 0.035495308658415346 0.020169152380004454 0 0.035490822621800124 0.02015206272695063 0 0.035577651599004639 0.020074976540935902 0 0.035489341927984634 0.020126887631045334 0 0.035490822621800124 0.02015206272695063 0 0.035577651599004639 0.020074976540935902 0 0.035577651599004639 0.020074976540935902 0 0.035516797034758713 0.020069546215703993 0 0.035740794791894306 0.01993024330093713 0 0.035489341927984634 0.020126887631045334 0 0.035577651599004639 0.020074976540935902 0 0.035516797034758713 0.020069546215703993 0 0.035088557049622673 0.017565906727871984 0 0.034999235712959875 0.016849730635342456 0 0.035516797034758713 0.020069546215703993 0 0.035508980983890902 0.020047885766272148 0 0.035740794791894306 0.01993024330093713 0 0.035508980983890902 0.020047885766272148 0 0.035740794791894306 0.01993024330093713 0 0.035999018643505257 0.019983370503114415 0 0.034999235712959875 0.016849730635342456 0 0.037031828006238679 0.020026251516840499 0 0.033135254164759223 0.011807358515204217 0 0.033368275894211846 0.014276333394452841 0 0.03190446787984462 0.012866052064759608 0 0.037816622042923062 0.020171857775317565 0 0.037744630496489781 0.019045830960147111 0 0.03723842516176705 0.01991834680624005 0 0.034999235712959875 0.016849730635342456 0 0.035987904113995078 0.017031449363865074 0 0.033368275894211846 0.014276333394452841 0 0.031908481827438641 0.014662370447437305 0 0.03361072581797292 0.016621223025849657 0 0.033368275894211846 0.014276333394452841 0 0.031908481827438641 0.014662370447437305 0 0.03190446787984462 0.012866052064759608 0 0.031908481827438641 0.014662370447437305 0 0.03190446787984462 0.012866052064759608 0 0.030091005636703111 0.012571665515012077 0 0.028739832730884624 0.010912821226479592 0 0.028804167993808645 0.011620357707683361 0 0.028253334001284894 0.01136382706073113 0 0.030537471290793344 0.01311410809070802 0 0.029456798359236789 0.011758734352456604 0 0.029566750550329868 0.011817668252320071 0 0.028739832730884624 0.010912821226479592 0 0.028804167993808645 0.011620357707683361 0 0.028804167993808645 0.011620357707683361 0 0.028326578768252671 0.012030766181492304 0 0.029068297231794372 0.012009149087230546 0 0.029566750550329868 0.011817668252320071 0 0.028804167993808645 0.011620357707683361 0 0.029068297231794372 0.012009149087230546 0 0.028804167993808645 0.011620357707683361 0 0.028326578768252671 0.012030766181492304 0 0.028253334001284894 0.01136382706073113 0 0.028326578768252671 0.012030766181492304 0 0.027667401665829778 0.012381595881307696 0 0.027638966828338173 0.011737866325274059 0 0.028326578768252671 0.012030766181492304 0 0.028253334001284894 0.01136382706073113 0 0.027638966828338173 0.011737866325274059 0 0.028253334001284894 0.01136382706073113 0 0.027686058739569291 0.011064198153609364 0 0.027638966828338173 0.011737866325274059 0 0.02816625613474686 0.010808786575749164 0 0.028739832730884624 0.010912821226479592 0 0.028253334001284894 0.01136382706073113 0 0.02816625613474686 0.010808786575749164 0 0.028253334001284894 0.01136382706073113 0 0.027686058739569291 0.011064198153609364 0 0.036954246802570853 0.019541277840177042 0 0.036988061165249282 0.019457842816944904 0 0.036889820888959632 0.019502736743944551 0 0.036954246802570853 0.019541277840177042 0 0.036988061165249282 0.019457842816944904 0 0.037045231814721288 0.019527908217818718 0 0.036988061165249282 0.019457842816944904 0 0.036889820888959632 0.019502736743944551 0 0.036849772450650742 0.019423464949488555 0 0.036775701324428457 0.019522360071027003 0 0.036889820888959632 0.019502736743944551 0 0.036849772450650742 0.019423464949488555 0 0.036775701324428457 0.019522360071027003 0 0.036889820888959632 0.019502736743944551 0 0.036840095590683623 0.019577699892170453 0 0.036954246802570853 0.019541277840177042 0 0.036889820888959632 0.019502736743944551 0 0.036840095590683623 0.019577699892170453 0 0.036954246802570853 0.019541277840177042 0 0.036840095590683623 0.019577699892170453 0 0.03691234114300905 0.019610995809408217 0 0.036840095590683623 0.019577699892170453 0 0.036792696528400066 0.019650195587914962 0 0.03665583293619961 0.019634232098791924 0 0.036840095590683623 0.019577699892170453 0 0.036792696528400066 0.019650195587914962 0 0.03691234114300905 0.019610995809408217 0 0.036954246802570853 0.019541277840177042 0 0.03691234114300905 0.019610995809408217 0 0.036993508973520488 0.019596485673704696 0 0.036954246802570853 0.019541277840177042 0 0.036993508973520488 0.019596485673704696 0 0.037045231814721288 0.019527908217818718 0 0.037140559927044715 0.019518264112207015 0 0.037045231814721288 0.019527908217818718 0 0.037077191337804322 0.019610283291052376 0 0.036993508973520488 0.019596485673704696 0 0.037045231814721288 0.019527908217818718 0 0.037077191337804322 0.019610283291052376 0 0.037168738026502411 0.019572552020508865 0 0.037140559927044715 0.019518264112207015 0 0.037077191337804322 0.019610283291052376 0 0.037168738026502411 0.019572552020508865 0 0.037186495428593112 0.01953168278528215 0 0.037140559927044715 0.019518264112207015 0 0.037216246986786945 0.019502606269493468 0 0.037228017322538901 0.019428922724978388 0 0.037140559927044715 0.019518264112207015 0 0.037186495428593112 0.01953168278528215 0 0.037216246986786945 0.019502606269493468 0 0.037140559927044715 0.019518264112207015 0 0.037140559927044715 0.019518264112207015 0 0.037045231814721288 0.019527908217818718 0 0.037070191613705623 0.019418135043639588 0 0.036988061165249282 0.019457842816944904 0 0.037045231814721288 0.019527908217818718 0 0.037070191613705623 0.019418135043639588 0 0.037070191613705623 0.019418135043639588 0 0.03717417060641881 0.019359685819841016 0 0.037079370298947922 0.019276153202485484 0 0.037228017322538901 0.019428922724978388 0 0.037140559927044715 0.019518264112207015 0 0.03717417060641881 0.019359685819841016 0 0.037140559927044715 0.019518264112207015 0 0.037070191613705623 0.019418135043639588 0 0.03717417060641881 0.019359685819841016 0 0.037360951363441523 0.019236266595609747 0 0.037187008021178615 0.01921367187725807 0 0.03717417060641881 0.019359685819841016 0 0.037187008021178615 0.01921367187725807 0 0.03717417060641881 0.019359685819841016 0 0.037079370298947922 0.019276153202485484 0 0.037079370298947922 0.019276153202485484 0 0.036952075910925399 0.019226070465685804 0 0.036972715750711989 0.019347162903451336 0 0.037070191613705623 0.019418135043639588 0 0.037079370298947922 0.019276153202485484 0 0.036972715750711989 0.019347162903451336 0 0.036988061165249282 0.019457842816944904 0 0.037070191613705623 0.019418135043639588 0 0.036972715750711989 0.019347162903451336 0 0.036988061165249282 0.019457842816944904 0 0.036972715750711989 0.019347162903451336 0 0.036849772450650742 0.019423464949488555 0 0.036972715750711989 0.019347162903451336 0 0.036849772450650742 0.019423464949488555 0 0.036867962388795028 0.019277710938647118 0 0.036849772450650742 0.019423464949488555 0 0.036867962388795028 0.019277710938647118 0 0.036744989398138306 0.019364781762322859 0 0.036952075910925399 0.019226070465685804 0 0.036867962388795028 0.019277710938647118 0 0.036803684417689574 0.019207366549552993 0 0.036952075910925399 0.019226070465685804 0 0.036972715750711989 0.019347162903451336 0 0.036867962388795028 0.019277710938647118 0 0.036867962388795028 0.019277710938647118 0 0.036803684417689574 0.019207366549552993 0 0.036707856719307798 0.019258753078492116 0 0.036867962388795028 0.019277710938647118 0 0.036707856719307798 0.019258753078492116 0 0.036744989398138306 0.019364781762322859 0 0.036611826333920669 0.019147067974837124 0 0.036803684417689574 0.019207366549552993 0 0.036707856719307798 0.019258753078492116 0 0.036611826333920669 0.019147067974837124 0 0.036707856719307798 0.019258753078492116 0 0.036582272200085565 0.019240015134537016 0 0.036611826333920669 0.019147067974837124 0 0.036582272200085565 0.019240015134537016 0 0.03648013355417689 0.019143999397653422 0 0.036582272200085565 0.019240015134537016 0 0.036492280599938948 0.01935792849249595 0 0.03648013355417689 0.019143999397653422 0 0.036707856719307798 0.019258753078492116 0 0.036582272200085565 0.019240015134537016 0 0.036614546971204011 0.019358425750942938 0 0.036582272200085565 0.019240015134537016 0 0.036614546971204011 0.019358425750942938 0 0.036492280599938948 0.01935792849249595 0 0.036614546971204011 0.019358425750942938 0 0.036677446018217937 0.01948281011391893 0 0.036495285933132969 0.019506396186696397 0 0.036614546971204011 0.019358425750942938 0 0.036492280599938948 0.01935792849249595 0 0.036495285933132969 0.019506396186696397 0 0.036849772450650742 0.019423464949488555 0 0.036744989398138306 0.019364781762322859 0 0.036677446018217937 0.01948281011391893 0 0.036614546971204011 0.019358425750942938 0 0.036744989398138306 0.019364781762322859 0 0.036677446018217937 0.01948281011391893 0 0.036707856719307798 0.019258753078492116 0 0.036614546971204011 0.019358425750942938 0 0.036744989398138306 0.019364781762322859 0 0.035740794791894306 0.01993024330093713 0 0.035324373578278882 0.020256431100880563 0 0.035494028226286001 0.020162815521277622 0 0.035740794791894306 0.01993024330093713 0 0.03648013355417689 0.019143999397653422 0 0.036252954069361722 0.019572885178365189 0 0.035928444838043624 0.019980204118418613 0 0.035243893535943517 0.01946703655473728 0 0.035432599320457323 0.020255352811147521 0 0.035405971217424774 0.020254298312355666 0 0.035494028226286001 0.020162815521277622 0 0.035432599320457323 0.020255352811147521 0 0.035495308658415346 0.020169152380004454 0 0.035494028226286001 0.020162815521277622 0 0.035405971217424774 0.020254298312355666 0 0.035324373578278882 0.020256431100880563 0 0.035494028226286001 0.020162815521277622 0 0.036492280599938948 0.01935792849249595 0 0.03648013355417689 0.019143999397653422 0 0.036252954069361722 0.019572885178365189 0 0.036492280599938948 0.01935792849249595 0 0.036252954069361722 0.019572885178365189 0 0.036495285933132969 0.019506396186696397 0 0.035495308658415346 0.020169152380004454 0 0.035577651599004639 0.020074976540935902 0 0.035494028226286001 0.020162815521277622 0 0.035577651599004639 0.020074976540935902 0 0.035740794791894306 0.01993024330093713 0 0.035494028226286001 0.020162815521277622 0 0.035740794791894306 0.01993024330093713 0 0.036252954069361722 0.019572885178365189 0 0.036224871211123 0.019773723769140834 0 0.036252954069361722 0.019572885178365189 0 0.036396596366594626 0.019629812292987686 0 0.036224871211123 0.019773723769140834 0 0.036252954069361722 0.019572885178365189 0 0.036396596366594626 0.019629812292987686 0 0.036495285933132969 0.019506396186696397 0 0.036224871211123 0.019773723769140834 0 0.036391379918740134 0.019788481716393098 0 0.036481727171833608 0.019693692367172874 0 0.036396596366594626 0.019629812292987686 0 0.036224871211123 0.019773723769140834 0 0.036481727171833608 0.019693692367172874 0 0.036224871211123 0.019773723769140834 0 0.036391379918740134 0.019788481716393098 0 0.035999018643505257 0.019983370503114415 0 0.035740794791894306 0.01993024330093713 0 0.036224871211123 0.019773723769140834 0 0.035999018643505257 0.019983370503114415 0 0.036775701324428457 0.019522360071027003 0 0.036849772450650742 0.019423464949488555 0 0.036677446018217937 0.01948281011391893 0 0.036775701324428457 0.019522360071027003 0 0.036677446018217937 0.01948281011391893 0 0.03665583293619961 0.019634232098791924 0 0.036677446018217937 0.01948281011391893 0 0.036559290670629775 0.019588003651445727 0 0.03665583293619961 0.019634232098791924 0 0.036677446018217937 0.01948281011391893 0 0.036495285933132969 0.019506396186696397 0 0.036559290670629775 0.019588003651445727 0 0.036396596366594626 0.019629812292987686 0 0.036495285933132969 0.019506396186696397 0 0.036559290670629775 0.019588003651445727 0 0.036396596366594626 0.019629812292987686 0 0.036559290670629775 0.019588003651445727 0 0.036481727171833608 0.019693692367172874 0 0.036481727171833608 0.019693692367172874 0 0.03665583293619961 0.019634232098791924 0 0.036539721295708524 0.019748075345990272 0 0.036559290670629775 0.019588003651445727 0 0.036481727171833608 0.019693692367172874 0 0.03665583293619961 0.019634232098791924 0 0.036391379918740134 0.019788481716393098 0 0.036481727171833608 0.019693692367172874 0 0.036539721295708524 0.019748075345990272 0 0.036775701324428457 0.019522360071027003 0 0.036840095590683623 0.019577699892170453 0 0.03665583293619961 0.019634232098791924 0 0.036792696528400066 0.019650195587914962 0 0.03665583293619961 0.019634232098791924 0 0.036586080795188783 0.019752742567234791 0 0.03665583293619961 0.019634232098791924 0 0.036586080795188783 0.019752742567234791 0 0.036539721295708524 0.019748075345990272 0 0.03659581864349376 0.019723122140958674 0 0.036381575955611124 0.019047847256857004 0 0.036586080795188783 0.019752742567234791 0 0.036539721295708524 0.019748075345990272 0 0.036618059138455082 0.019697363461141929 0 0.036391379918740134 0.019788481716393098 0 0.036539721295708524 0.019748075345990272 0 0.036618059138455082 0.019697363461141929 0 0.036618059138455082 0.019697363461141929 0 0.037060479621883906 0.019301080820485799 0 0.036467242264133115 0.019191094660694588 0 0.036586080795188783 0.019752742567234791 0 0.036618059138455082 0.019697363461141929 0 0.036467242264133115 0.019191094660694588 0 0.037744630496489781 0.019045830960147111 0 0.03723842516176705 0.01991834680624005 0 0.037060479621883906 0.019301080820485799 0 0.036391379918740134 0.019788481716393098 0 0.036618059138455082 0.019697363461141929 0 0.035999018643505257 0.019983370503114415 0 0.036618059138455082 0.019697363461141929 0 0.03723842516176705 0.01991834680624005 0 0.037060479621883906 0.019301080820485799 0 0.036433229638009677 0.019698487771331024 0 0.037031828006238679 0.020026251516840499 0 0.037744630496489781 0.019045830960147111 0 0.037060479621883906 0.019301080820485799 0 0.036812287755494152 0.018620623319028785 0 0.037060479621883906 0.019301080820485799 0 0.036812287755494152 0.018620623319028785 0 0.036467242264133115 0.019191094660694588 0 0.036586080795188783 0.019752742567234791 0 0.036467242264133115 0.019191094660694588 0 0.035769676924040129 0.018757785725435714 0 0.036812287755494152 0.018620623319028785 0 0.036467242264133115 0.019191094660694588 0 0.035769676924040129 0.018757785725435714 0 0.037145478700809059 0.019633983369310663 0 0.037103355156979732 0.019635221367641249 0 0.037162724123495042 0.019468461027514417 0 0.037145478700809059 0.019633983369310663 0 0.036960777887996621 0.019679885251111494 0 0.037103355156979732 0.019635221367641249 0 0.036586080795188783 0.019752742567234791 0 0.037145478700809059 0.019633983369310663 0 0.036960777887996621 0.019679885251111494 0 0.03691234114300905 0.019610995809408217 0 0.036993508973520488 0.019596485673704696 0 0.036960777887996621 0.019679885251111494 0 0.036993508973520488 0.019596485673704696 0 0.036960777887996621 0.019679885251111494 0 0.037077191337804322 0.019610283291052376 0 0.036792696528400066 0.019650195587914962 0 0.036586080795188783 0.019752742567234791 0 0.036960777887996621 0.019679885251111494 0 0.036792696528400066 0.019650195587914962 0 0.03691234114300905 0.019610995809408217 0 0.036960777887996621 0.019679885251111494 0 0.036960777887996621 0.019679885251111494 0 0.037077191337804322 0.019610283291052376 0 0.037103355156979732 0.019635221367641249 0 0.037077191337804322 0.019610283291052376 0 0.037107633349986388 0.01962197590857909 0 0.037103355156979732 0.019635221367641249 0 0.037168738026502411 0.019572552020508865 0 0.037077191337804322 0.019610283291052376 0 0.037107633349986388 0.01962197590857909 0 0.037091282549595067 0.019632742866809421 0 0.037107633349986388 0.01962197590857909 0 0.037103355156979732 0.019635221367641249 0 0.037091282549595067 0.019632742866809421 0 0.037103355156979732 0.019635221367641249 0 0.037139062646266388 0.019516804785567596 0 0.037103355156979732 0.019635221367641249 0 0.037139062646266388 0.019516804785567596 0 0.037162724123495042 0.019468461027514417 0 0.037162724123495042 0.019468461027514417 0 0.037209229245192411 0.019341258029668493 0 0.037240524896838198 0.019192119469912717 0 0.037139062646266388 0.019516804785567596 0 0.037173992234973689 0.019420958646412245 0 0.037176480355360357 0.019363592086511106 0 0.037139062646266388 0.019516804785567596 0 0.037173992234973689 0.019420958646412245 0 0.037162724123495042 0.019468461027514417 0 0.037173992234973689 0.019420958646412245 0 0.037162724123495042 0.019468461027514417 0 0.037209229245192411 0.019341258029668493 0 0.03719932169538194 0.01935681762282913 0 0.037252600393865007 0.019309498180592844 0 0.037211281434688208 0.019387704796578073 0 0.037173992234973689 0.019420958646412245 0 0.03719932169538194 0.01935681762282913 0 0.037176480355360357 0.019363592086511106 0 0.037173992234973689 0.019420958646412245 0 0.037209229245192411 0.019341258029668493 0 0.03719932169538194 0.01935681762282913 0 0.037209229245192411 0.019341258029668493 0 0.03719932169538194 0.01935681762282913 0 0.037252600393865007 0.019309498180592844 0 0.037380697740031367 0.019265399672454095 0 0.037240524896838198 0.019192119469912717 0 0.037641143915362232 0.019484384734440575 0 0.037789347506479241 0.018877853664850754 0 0.036620487706143755 0.019461212214391517 0 0.037252600393865007 0.019309498180592844 0 0.037380697740031367 0.019265399672454095 0 0.037211281434688208 0.019387704796578073 0 0.037380697740031367 0.019265399672454095 0 0.037832893513947467 0.01888307002927158 0 0.038138168920840154 0.018114002556369607 0 0.037209229245192411 0.019341258029668493 0 0.037252600393865007 0.019309498180592844 0 0.037240524896838198 0.019192119469912717 0 0.037252600393865007 0.019309498180592844 0 0.037380697740031367 0.019265399672454095 0 0.037240524896838198 0.019192119469912717 0 0.037380697740031367 0.019265399672454095 0 0.037832893513947467 0.01888307002927158 0 0.037764671784903156 0.01923044456387471 0 0.037832893513947467 0.01888307002927158 0 0.037764671784903156 0.01923044456387471 0 0.038041591285193452 0.018849019643647009 0 0.035651834273989817 0.017309207712853058 0 0.035972190255022858 0.017873188029740545 0 0.03605547862455645 0.017004700065714799 0 0.035651834273989817 0.017309207712853058 0 0.03605547862455645 0.017004700065714799 0 0.035399923591601871 0.016855976223538433 0 0.035651834273989817 0.017309207712853058 0 0.035177344168889964 0.017508133441180584 0 0.035399923591601871 0.016855976223538433 0 0.035651834273989817 0.017309207712853058 0 0.035177344168889964 0.017508133441180584 0 0.035972190255022858 0.017873188029740545 0 0.036381575955611124 0.019047847256857004 0 0.036516223465385238 0.018837815817688085 0 0.035769676924040129 0.018757785725435714 0 0.035177344168889964 0.017508133441180584 0 0.035972190255022858 0.017873188029740545 0 0.037145478700809059 0.019633983369310663 0 0.037162724123495042 0.019468461027514417 0 0.037240524896838198 0.019192119469912717 0 0.036812287755494152 0.018620623319028785 0 0.035769676924040129 0.018757785725435714 0 0.035972190255022858 0.017873188029740545 0 0.036812287755494152 0.018620623319028785 0 0.035972190255022858 0.017873188029740545 0 0.036704793864833392 0.0176514674616319 0 0.036812287755494152 0.018620623319028785 0 0.036704793864833392 0.0176514674616319 0 0.03763470011817982 0.017753232378018274 0 0.037744630496489781 0.019045830960147111 0 0.036812287755494152 0.018620623319028785 0 0.03763470011817982 0.017753232378018274 0 0.037022023122624204 0.016985680407883688 0 0.036704793864833392 0.0176514674616319 0 0.03763470011817982 0.017753232378018274 0 0.029757209911783922 0.011390703819511907 0 0.029852314923960802 0.011534265745770902 0 0.02975535095862606 0.011362631583538087 0 0.033586212335894643 0.014371476214222285 0 0.032572033704824734 0.014700074675699747 0 0.035972190255022858 0.017873188029740545 0 0.036704793864833392 0.0176514674616319 0 0.03605547862455645 0.017004700065714799 0 0.037022023122624204 0.016985680407883688 0 0.036704793864833392 0.0176514674616319 0 0.03605547862455645 0.017004700065714799 0 0.037022023122624204 0.016985680407883688 0 0.03605547862455645 0.017004700065714799 0 0.036377004636287208 0.016210352868760373 0 0.03605547862455645 0.017004700065714799 0 0.036377004636287208 0.016210352868760373 0 0.03552253305410815 0.016233181357546971 0 0.032788896234389263 0.012960193764933441 0 0.034483644010032358 0.014713794622243384 0 0.029774458763627113 0.011157206207652575 0 0.029727619262124548 0.011165025247467573 0 0.029775489092631526 0.011279567563044572 0 0.030556872845938655 0.012450117782922598 0 0.032788896234389263 0.012960193764933441 0 0.029757209911783922 0.011390703819511907 0 0.029775489092631526 0.011279567563044572 0 0.02975535095862606 0.011362631583538087 0 0.033586212335894643 0.014371476214222285 0 0.032788896234389263 0.012960193764933441 0 0.029757209911783922 0.011390703819511907 0 0.029727619262124548 0.011165025247467573 0 0.029775489092631526 0.011279567563044572 0 0.029774458763627113 0.011157206207652575 0 0.029775489092631526 0.011279567563044572 0 0.029812899554513463 0.011190319505919571 0 0.029812899554513463 0.011190319505919571 0 0.02975535095862606 0.011362631583538087 0 0.029840050994149547 0.011236582259973617 0 0.029775489092631526 0.011279567563044572 0 0.029812899554513463 0.011190319505919571 0 0.02975535095862606 0.011362631583538087 0 0.029812899554513463 0.011190319505919571 0 0.029827354290100944 0.011033701796047788 0 0.029884530691798507 0.010996261236330199 0 0.029812899554513463 0.011190319505919571 0 0.029884530691798507 0.010996261236330199 0 0.029840050994149547 0.011236582259973617 0 0.029774458763627113 0.011157206207652575 0 0.029812899554513463 0.011190319505919571 0 0.029827354290100944 0.011033701796047788 0 0.029827354290100944 0.011033701796047788 0 0.029884530691798507 0.010996261236330199 0 0.02985748912566168 0.010842980716614912 0 0.032788896234389263 0.012960193764933441 0 0.031232274959766996 0.01137200636078505 0 0.02976821549511572 0.011110225369153322 0 0.029811705385275545 0.010996352754347722 0 0.029832531274911624 0.010764298163003415 0 0.029811705385275545 0.010996352754347722 0 0.029832531274911624 0.010764298163003415 0 0.02985748912566168 0.010842980716614912 0 0.029774458763627113 0.011157206207652575 0 0.029827354290100944 0.011033701796047788 0 0.029811705385275545 0.010996352754347722 0 0.029774458763627113 0.011157206207652575 0 0.02976821549511572 0.011110225369153322 0 0.029811705385275545 0.010996352754347722 0 0.029827354290100944 0.011033701796047788 0 0.029811705385275545 0.010996352754347722 0 0.02985748912566168 0.010842980716614912 0 0.033728405915201161 0.013194087826583715 0 0.033015639629603001 0.013212909740110013 0 0.033023310589801146 0.012347096825811352 0 0.032594954089958286 0.012739615236752667 0 0.033015639629603001 0.013212909740110013 0 0.033023310589801146 0.012347096825811352 0 0.032594954089958286 0.012739615236752667 0 0.032300168880786004 0.013236079935870585 0 0.033015639629603001 0.013212909740110013 0 0.031778594056641546 0.011807298184597989 0 0.034403166369088127 0.015798180604036857 0 0.032033611557502305 0.012612298884186171 0 0.032366524127901447 0.013307919003712506 0 0.03178173859854682 0.013305822328318211 0 0.032594954089958286 0.012739615236752667 0 0.032033611557502305 0.012612298884186171 0 0.032300168880786004 0.013236079935870585 0 0.036516223465385238 0.018837815817688085 0 0.034403166369088127 0.015798180604036857 0 0.034403166369088127 0.015798180604036857 0 0.034483644010032358 0.014713794622243384 0 0.037380697740031367 0.019265399672454095 0 0.037641143915362232 0.019484384734440575 0 0.037764671784903156 0.01923044456387471 0 0.035177344168889964 0.017508133441180584 0 0.034643507133724112 0.016250557713373408 0 0.035399923591601871 0.016855976223538433 0 0.034403166369088127 0.015798180604036857 0 0.03808541075242728 0.013359361639515545 0 0.037641143915362232 0.019484384734440575 0 0.037764671784903156 0.01923044456387471 0 0.038026042446856548 0.019356808926797715 0 0.034643507133724112 0.016250557713373408 0 0.035399923591601871 0.016855976223538433 0 0.03552253305410815 0.016233181357546971 0 0.03605547862455645 0.017004700065714799 0 0.035399923591601871 0.016855976223538433 0 0.03552253305410815 0.016233181357546971 0 0.02817700137265829 0.013062939872794813 0 0.02778587155872711 0.012846141872300577 0 0.02776858826884988 0.013286312554401535 0 0.02817700137265829 0.013062939872794813 0 0.028095600297811062 0.012569397310196555 0 0.028689873510598082 0.012489349538614115 0 0.02817700137265829 0.013062939872794813 0 0.028095600297811062 0.012569397310196555 0 0.02778587155872711 0.012846141872300577 0 0.028095600297811062 0.012569397310196555 0 0.027667401665829778 0.012381595881307696 0 0.02778587155872711 0.012846141872300577 0 0.028326578768252671 0.012030766181492304 0 0.028095600297811062 0.012569397310196555 0 0.027667401665829778 0.012381595881307696 0 0.028326578768252671 0.012030766181492304 0 0.028095600297811062 0.012569397310196555 0 0.028689873510598082 0.012489349538614115 0 0.029068297231794372 0.012009149087230546 0 0.028689873510598082 0.012489349538614115 0 0.029659103955774185 0.012112164574951928 0 0.028326578768252671 0.012030766181492304 0 0.029068297231794372 0.012009149087230546 0 0.028689873510598082 0.012489349538614115 0 0.030474548042674646 0.011529237318030777 0 0.029659103955774185 0.012112164574951928 0 0.030119263843591981 0.011214233489211205 0 0.028689873510598082 0.012489349538614115 0 0.028713676391777979 0.013157644444063837 0 0.029659103955774185 0.012112164574951928 0 0.029667235213125132 0.012366637038384974 0 0.029623767519197011 0.012151735346601565 0 0.02817700137265829 0.013062939872794813 0 0.028689873510598082 0.012489349538614115 0 0.028713676391777979 0.013157644444063837 0 0.029659103955774185 0.012112164574951928 0 0.030119263843591981 0.011214233489211205 0 0.029708181035264115 0.011503382641830793 0 0.029566750550329868 0.011817668252320071 0 0.029068297231794372 0.012009149087230546 0 0.029659103955774185 0.012112164574951928 0 0.035987904113995078 0.017031449363865074 0 0.032572033704824734 0.014700074675699747 0 0.030537471290793344 0.01311410809070802 0 0.032572033704824734 0.014700074675699747 0 0.029566750550329868 0.011817668252320071 0 0.029659103955774185 0.012112164574951928 0 0.029616230243190194 0.011983965337222405 0 0.029659103955774185 0.012112164574951928 0 0.029616230243190194 0.011983965337222405 0 0.029708181035264115 0.011503382641830793 0 0.032572033704824734 0.014700074675699747 0 0.02926589379888736 0.010201633674642286 0 0.029616230243190194 0.011983965337222405 0 0.02975535095862606 0.011362631583538087 0 0.029708181035264115 0.011503382641830793 0 0.02940075222134424 0.010686205465045302 0 0.029670062913349168 0.01142502475158595 0 0.029840050994149547 0.011236582259973617 0 0.029964690312662336 0.011107817536311753 0 0.029708181035264115 0.011503382641830793 0 0.02975535095862606 0.011362631583538087 0 0.029840050994149547 0.011236582259973617 0 0.029708181035264115 0.011503382641830793 0 0.029884530691798507 0.010996261236330199 0 0.029964690312662336 0.011107817536311753 0 0.030008453928573296 0.010771009323206094 0 0.02888242386412648 0.010442459624703644 0 0.029735190685901712 0.0096329656349754839 0 0.029357492524668401 0.0086157241256789984 0 0.029884530691798507 0.010996261236330199 0 0.029840050994149547 0.011236582259973617 0 0.029964690312662336 0.011107817536311753 0 0.029916009295841151 0.010623740660227829 0 0.030248945802267016 0.010571704182919391 0 0.030088139532853827 0.010246289193161734 0 0.029735190685901712 0.0096329656349754839 0 0.029916009295841151 0.010623740660227829 0 0.030647946702767031 0.0090779340404986784 0 0.030020421259965707 0.01042231313420555 0 0.030274622944749939 0.0099488294851348517 0 0.029916009295841151 0.010623740660227829 0 0.030119263843591981 0.011214233489211205 0 0.030248945802267016 0.010571704182919391 0 0.02888242386412648 0.010442459624703644 0 0.029735190685901712 0.0096329656349754839 0 0.029916009295841151 0.010623740660227829 0 0.029916009295841151 0.010623740660227829 0 0.030119263843591981 0.011214233489211205 0 0.029708181035264115 0.011503382641830793 0 0.02888242386412648 0.010442459624703644 0 0.029916009295841151 0.010623740660227829 0 0.029708181035264115 0.011503382641830793 0 0.030474548042674646 0.011529237318030777 0 0.030119263843591981 0.011214233489211205 0 0.030544355113559924 0.010844278148773168 0 0.030119263843591981 0.011214233489211205 0 0.030248945802267016 0.010571704182919391 0 0.030544355113559924 0.010844278148773168 0 0.030248945802267016 0.010571704182919391 0 0.030478645845575553 0.010443309537198584 0 0.030088139532853827 0.010246289193161734 0 0.030248945802267016 0.010571704182919391 0 0.030478645845575553 0.010443309537198584 0 0.030544355113559924 0.010844278148773168 0 0.030544355113559924 0.010844278148773168 0 0.0307841795016051 0.010418194861286513 0 0.031063311560866405 0.011003170736130831 0 0.0307841795016051 0.010418194861286513 0 0.030902929821607004 0.010900931218852248 0 0.030933125970564638 0.010642641170154595 0 0.03101848232633202 0.010297825259350833 0 0.028817882260368712 0.011999864466492911 0 0.030478645845575553 0.010443309537198584 0 0.030544355113559924 0.010844278148773168 0 0.0307841795016051 0.010418194861286513 0 0.030474548042674646 0.011529237318030777 0 0.030544355113559924 0.010844278148773168 0 0.031063311560866405 0.011003170736130831 0 0.029667235213125132 0.012366637038384974 0 0.028817882260368712 0.011999864466492911 0 0.02817700137265829 0.013062939872794813 0 0.027733329314431603 0.013832518654395718 0 0.02776858826884988 0.013286312554401535 0 0.02817700137265829 0.013062939872794813 0 0.028713676391777979 0.013157644444063837 0 0.027733329314431603 0.013832518654395718 0 0.030712545971579786 0.00987905114638323 0 0.030468612118870978 0.010156390325622398 0 0.030897064356280601 0.01013796215858814 0 0.0307841795016051 0.010418194861286513 0 0.030468612118870978 0.010156390325622398 0 0.030897064356280601 0.01013796215858814 0 0.030478645845575553 0.010443309537198584 0 0.0307841795016051 0.010418194861286513 0 0.030468612118870978 0.010156390325622398 0 0.030468612118870978 0.010156390325622398 0 0.030239087827651431 0.0098173344598440487 0 0.030088139532853827 0.010246289193161734 0 0.029010685990742562 0.006012984578494732 0 0.030274622944749939 0.0099488294851348517 0 0.031436631787113437 0.0071200321528768909 0 0.030417058749865888 0.0076838434812431184 0 0.030647946702767031 0.0090779340404986784 0 0.030478645845575553 0.010443309537198584 0 0.030468612118870978 0.010156390325622398 0 0.030088139532853827 0.010246289193161734 0 0.026451443221970964 0.00310849770835485 0 0.025727060588803245 0.0030624565774156833 0 0.026032945548514968 0.002126607212763683 0 0.029057431702910769 0.0065126000487160602 0 0.029010685990742562 0.006012984578494732 0 0.030712545971579786 0.00987905114638323 0 0.030468612118870978 0.010156390325622398 0 0.030239087827651431 0.0098173344598440487 0 0.030927951119706174 0.0070268273209698577 0 0.031436631787113437 0.0071200321528768909 0 0.030417058749865888 0.0076838434812431184 0 0.030013490720004855 0.0062235611068351456 0 0.029010685990742562 0.006012984578494732 0 0.030927951119706174 0.0070268273209698577 0 0.031555703712205771 0.0070513214752645458 0 0.030952939661980223 0.0055326622508391219 0 0.030417058749865888 0.0076838434812431184 0 0.029357492524668401 0.0086157241256789984 0 0.028933220392717934 0.0071586919478734872 0 0.029520723588081024 0.0062911016390628967 0 0.030417058749865888 0.0076838434812431184 0 0.027949893781969069 0.0065364728978436872 0 0.03031788608667664 0.007657185554225324 0 0.028138545739235306 0.0066939930227731537 0 0.030927951119706174 0.0070268273209698577 0 0.029520723588081024 0.0062911016390628967 0 0.030952939661980223 0.0055326622508391219 0 0.030927951119706174 0.0070268273209698577 0 0.029520723588081024 0.0062911016390628967 0 0.030417058749865888 0.0076838434812431184 0 0.030417058749865888 0.0076838434812431184 0 0.030033264596719029 0.0087703115220370206 0 0.030647946702767031 0.0090779340404986784 0 0.029735190685901712 0.0096329656349754839 0 0.030033264596719029 0.0087703115220370206 0 0.030647946702767031 0.0090779340404986784 0 0.029735190685901712 0.0096329656349754839 0 0.030033264596719029 0.0087703115220370206 0 0.029357492524668401 0.0086157241256789984 0 0.030417058749865888 0.0076838434812431184 0 0.030033264596719029 0.0087703115220370206 0 0.029357492524668401 0.0086157241256789984 0 0.029357492524668401 0.0086157241256789984 0 0.028078703573866045 0.0084540988714403437 0 0.028933220392717934 0.0071586919478734872 0 0.02888242386412648 0.010442459624703644 0 0.029357492524668401 0.0086157241256789984 0 0.028078703573866045 0.0084540988714403437 0 0.02940075222134424 0.010686205465045302 0 0.029123597496143475 0.0098426260896162868 0 0.028138545739235306 0.0066939930227731537 0 0.028299122506336576 0.0074059518359095525 0 0.028078703573866045 0.0084540988714403437 0 0.028933220392717934 0.0071586919478734872 0 0.027456962982355303 0.00650337752828357 0 0.029520723588081024 0.0062911016390628967 0 0.027949893781969069 0.0065364728978436872 0 0.027899668738603153 0.0046678762667440466 0 0.027899668738603153 0.0046678762667440466 0 0.025633467236301714 0.0054270911985298828 0 0.026187869655259488 0.0034347155811119265 0 0.027949893781969069 0.0065364728978436872 0 0.027899668738603153 0.0046678762667440466 0 0.025633467236301714 0.0054270911985298828 0 0.027899668738603153 0.0046678762667440466 0 0.028179075624525634 0.0024484230203176563 0 0.026187869655259488 0.0034347155811119265 0 0.026446781888208669 0.0010781685793773666 0 0.028179075624525634 0.0024484230203176563 0 0.028429182320310283 -0.00013782073938056267 0 0.026446781888208669 0.0010781685793773666 0 0.028179075624525634 0.0024484230203176563 0 0.026187869655259488 0.0034347155811119265 0 0.028179075624525634 0.0024484230203176563 0 0.030982391442162197 0.0012856741573338201 0 0.028429182320310283 -0.00013782073938056267 0 0.028179075624525634 0.0024484230203176563 0 0.030000199939541537 0.0039109649506493096 0 0.030982391442162197 0.0012856741573338201 0 0.029520723588081024 0.0062911016390628967 0 0.027899668738603153 0.0046678762667440466 0 0.030000199939541537 0.0039109649506493096 0 0.029520723588081024 0.0062911016390628967 0 0.030000199939541537 0.0039109649506493096 0 0.030952939661980223 0.0055326622508391219 0 0.027899668738603153 0.0046678762667440466 0 0.028179075624525634 0.0024484230203176563 0 0.030000199939541537 0.0039109649506493096 0 0.029010685990742562 0.006012984578494732 0 0.029549614482991995 0.0031568410852548575 0 0.030000199939541537 0.0039109649506493096 0 0.032764495817129924 0.0034147225734864504 0 0.030952939661980223 0.0055326622508391219 0 0.031555703712205771 0.0070513214752645458 0 0.032764495817129924 0.0034147225734864504 0 0.030952939661980223 0.0055326622508391219 0 0.030000199939541537 0.0039109649506493096 0 0.032764495817129924 0.0034147225734864504 0 0.030982391442162197 0.0012856741573338201 0 0.032764495817129924 0.0034147225734864504 0 0.030982391442162197 0.0012856741573338201 0 0.033428877554471721 -0.0002253021551255137 0 0.032764495817129924 0.0034147225734864504 0 0.033428877554471721 -0.0002253021551255137 0 0.03390395049148192 -7.6610900392944529e-05 0 0.026032945548514968 0.002126607212763683 0 0.026776313769172815 0.0019661493254688814 0 0.026358266087430204 0.0011751375548930782 0 0.029549614482991995 0.0031568410852548575 0 0.027846303100048663 -0.0026556757569312344 0 0.026451443221970964 0.00310849770835485 0 0.026032945548514968 0.002126607212763683 0 0.026754465642461426 0.002547456059575104 0 0.026032945548514968 0.002126607212763683 0 0.026754465642461426 0.002547456059575104 0 0.026776313769172815 0.0019661493254688814 0 0.029976324770388741 0.010541606173642538 0 0.029992710190213389 0.010490904023894323 0 0.030030551343008541 0.0104416937500452 0 0.029976324770388741 0.010541606173642538 0 0.029992710190213389 0.010490904023894323 0 0.029899638682758203 0.010661027230128919 0 0.032594954089958286 0.012739615236752667 0 0.032271027965865062 0.011479236939728339 0 0.033023310589801146 0.012347096825811352 0 0.031183888622005388 0.011044319762566828 0 0.031232274959766996 0.01137200636078505 0 0.032594954089958286 0.012739615236752667 0 0.032033611557502305 0.012612298884186171 0 0.032271027965865062 0.011479236939728339 0 0.032033611557502305 0.012612298884186171 0 0.032271027965865062 0.011479236939728339 0 0.031629171898963936 0.011656168822239498 0 0.029992710190213389 0.010490904023894323 0 0.029832531274911624 0.010764298163003415 0 0.029899638682758203 0.010661027230128919 0 0.02985748912566168 0.010842980716614912 0 0.029899638682758203 0.010661027230128919 0 0.029914124882307311 0.01066415306834706 0 0.029832531274911624 0.010764298163003415 0 0.02985748912566168 0.010842980716614912 0 0.029899638682758203 0.010661027230128919 0 0.02985748912566168 0.010842980716614912 0 0.029915236619880353 0.010781304912358501 0 0.029914124882307311 0.01066415306834706 0 0.029884530691798507 0.010996261236330199 0 0.030008453928573296 0.010771009323206094 0 0.029915236619880353 0.010781304912358501 0 0.029884530691798507 0.010996261236330199 0 0.02985748912566168 0.010842980716614912 0 0.029915236619880353 0.010781304912358501 0 0.029123597496143475 0.0098426260896162868 0 0.028299122506336576 0.0074059518359095525 0 0.030008453928573296 0.010771009323206094 0 0.029915236619880353 0.010781304912358501 0 0.029972150601249529 0.010565239156893088 0 0.029914124882307311 0.01066415306834706 0 0.029928861820928354 0.010583180212379091 0 0.029972150601249529 0.010565239156893088 0 0.029915236619880353 0.010781304912358501 0 0.029914124882307311 0.01066415306834706 0 0.029972150601249529 0.010565239156893088 0 0.029899638682758203 0.010661027230128919 0 0.029914124882307311 0.01066415306834706 0 0.029928861820928354 0.010583180212379091 0 0.029976324770388741 0.010541606173642538 0 0.029899638682758203 0.010661027230128919 0 0.029928861820928354 0.010583180212379091 0 0.029976324770388741 0.010541606173642538 0 0.029928861820928354 0.010583180212379091 0 0.029926901116560781 0.010568875290295376 0 0.029824299282485006 0.010597292095089871 0 0.029635679255386668 0.0096686249316374102 0 0.029928861820928354 0.010583180212379091 0 0.029926901116560781 0.010568875290295376 0 0.029972150601249529 0.010565239156893088 0 0.028299122506336576 0.0074059518359095525 0 0.027700797024036355 0.0030050196218263485 0 0.029635679255386668 0.0096686249316374102 0 0.028299122506336576 0.0074059518359095525 0 0.028274345358600586 0.0066527315383142476 0 0.029638234879660944 0.0072679806265928439 0 0.029146584309497015 0.0056764978713225341 0 0.025633467236301714 0.0054270911985298828 0 0.026187869655259488 0.0034347155811119265 0 0.02462146280659127 0.0020945688018746342 0 0.026446781888208669 0.0010781685793773666 0 0.026187869655259488 0.0034347155811119265 0 0.024566015945535088 0.0020456702532220291 0 0.025426475273958318 0.002579708576592738 0 0.027700797024036355 0.0030050196218263485 0 0.030432033233479767 0.0038670860861834497 0 0.027700797024036355 0.0030050196218263485 0 0.026446781888208669 0.0010781685793773666 0 0.024428963878762869 0.001606295285868901 0 0.024566015945535088 0.0020456702532220291 0 0.029635679255386668 0.0096686249316374102 0 0.030432033233479767 0.0038670860861834497 0 0.030287306446713375 0.01010058444713019 0 0.03029229528128859 0.010140971346972 0 0.030294360674560167 0.010133148000111175 0 0.030287611062931315 0.010122577336928373 0 0.030287306446713375 0.01010058444713019 0 0.03029229528128859 0.010140971346972 0 0.028274345358600586 0.0066527315383142476 0 0.029082146414134671 0.0054691954077081394 0 0.029146584309497015 0.0056764978713225341 0 0.030287611062931315 0.010122577336928373 0 0.03029229528128859 0.010140971346972 0 0.030295324748655785 0.01016519267453846 0 0.03029229528128859 0.010140971346972 0 0.030295324748655785 0.01016519267453846 0 0.030296111986169855 0.010180296139968271 0 0.029635679255386668 0.0096686249316374102 0 0.030298239545950532 0.010344579736130155 0 0.030031699484988933 0.010463030062363909 0 0.030064708099196674 0.01040362990882252 0 0.030030551343008541 0.0104416937500452 0 0.029976324770388741 0.010541606173642538 0 0.030031699484988933 0.010463030062363909 0 0.030030551343008541 0.0104416937500452 0 0.029992710190213389 0.010490904023894323 0 0.030030551343008541 0.0104416937500452 0 0.030128308238245017 0.01035234635391339 0 0.029992710190213389 0.010490904023894323 0 0.030128308238245017 0.01035234635391339 0 0.030222928346003125 0.010263557505559026 0 0.030128308238245017 0.01035234635391339 0 0.030256893174692923 0.010251623348542321 0 0.030222928346003125 0.010263557505559026 0 0.030064708099196674 0.01040362990882252 0 0.030030551343008541 0.0104416937500452 0 0.030128308238245017 0.01035234635391339 0 0.030064708099196674 0.01040362990882252 0 0.030128308238245017 0.01035234635391339 0 0.030256893174692923 0.010251623348542321 0 0.030298239545950532 0.010344579736130155 0 0.030176260918856144 0.010233837913569023 0 0.030295324748655785 0.01016519267453846 0 0.030256893174692923 0.010251623348542321 0 0.030296111986169855 0.010180296139968271 0 0.030256893174692923 0.010251623348542321 0 0.030362914914504775 0.010232584050845843 0 0.030222928346003125 0.010263557505559026 0 0.030256893174692923 0.010251623348542321 0 0.030362914914504775 0.010232584050845843 0 0.030429872459614656 0.010212685399462986 0 0.030698762605098493 0.010454736647005032 0 0.030605905391010369 0.010197674122142297 0 0.030522904199388436 0.010086611081082695 0 0.03722402929664289 0.010124929590259239 0 0.042009726417218583 0.0039238033631357038 0 0.030698762605098493 0.010454736647005032 0 0.030605905391010369 0.010197674122142297 0 0.031431488883363265 0.010653934004905725 0 0.030644900930650511 0.010240098789122172 0 0.030829635053530965 0.010477591648093441 0 0.030362914914504775 0.010232584050845843 0 0.030605905391010369 0.010197674122142297 0 0.030222928346003125 0.010263557505559026 0 0.044301612670343486 0.008066993178186245 0 0.044171460209165826 0.007798174657951829 0 0.044550871091071628 0.0078690192496707143 0 0.03722402929664289 0.010124929590259239 0 0.037644892924605974 0.0095034754609561525 0 0.030698762605098493 0.010454736647005032 0 0.031431488883363265 0.010653934004905725 0 0.031064465733783277 0.011297183706286597 0 0.031183888622005388 0.011044319762566828 0 0.030829635053530965 0.010477591648093441 0 0.031629171898963936 0.011656168822239498 0 0.031064465733783277 0.011297183706286597 0 0.031423863277418945 0.012265524810933409 0 0.032271027965865062 0.011479236939728339 0 0.031431488883363265 0.010653934004905725 0 0.031629171898963936 0.011656168822239498 0 0.031431488883363265 0.010653934004905725 0 0.031629171898963936 0.011656168822239498 0 0.031064465733783277 0.011297183706286597 0 0.037644892924605974 0.0095034754609561525 0 0.037602285213843865 0.009292405609420077 0 0.044171460209165826 0.007798174657951829 0 0.044303295337141751 0.0075299405922270336 0 0.044549846611421487 0.0076051370126511697 0 0.044171460209165826 0.007798174657951829 0 0.044303295337141751 0.0075299405922270336 0 0.04403849344296621 0.0075073987176797309 0 0.044303295337141751 0.0075299405922270336 0 0.04403849344296621 0.0075073987176797309 0 0.04427551973550798 0.0073224991982622249 0 0.032033611557502305 0.012612298884186171 0 0.031629171898963936 0.011656168822239498 0 0.031423863277418945 0.012265524810933409 0 0.044549846611421487 0.0076051370126511697 0 0.044809700090288167 0.0076710672931160099 0 0.044722790728022467 0.0073807780777720962 0 0.044809700090288167 0.0076710672931160099 0 0.045000841474198174 0.007478030536833667 0 0.044722790728022467 0.0073807780777720962 0 0.044549846611421487 0.0076051370126511697 0 0.044466655504686994 0.0074169649301474632 0 0.044722790728022467 0.0073807780777720962 0 0.044303295337141751 0.0075299405922270336 0 0.044549846611421487 0.0076051370126511697 0 0.044466655504686994 0.0074169649301474632 0 0.044171460209165826 0.007798174657951829 0 0.044549846611421487 0.0076051370126511697 0 0.044550871091071628 0.0078690192496707143 0 0.044809700090288167 0.0076710672931160099 0 0.044550871091071628 0.0078690192496707143 0 0.044935605148258048 0.0078897899592129932 0 0.044549846611421487 0.0076051370126511697 0 0.044809700090288167 0.0076710672931160099 0 0.044550871091071628 0.0078690192496707143 0 0.044550871091071628 0.0078690192496707143 0 0.044648890698171968 0.0081040529371436652 0 0.044935605148258048 0.0078897899592129932 0 0.049091085707397925 0.0040993729299125042 0 0.04735437906078941 0.0053523322941320447 0 0.044301612670343486 0.008066993178186245 0 0.044550871091071628 0.0078690192496707143 0 0.044648890698171968 0.0081040529371436652 0 0.044301612670343486 0.008066993178186245 0 0.044648890698171968 0.0081040529371436652 0 0.044398096552462477 0.0082888779960748997 0 0.049091085707397925 0.0040993729299125042 0 0.042009726417218583 0.0039238033631357038 0 0.051526834873311819 0.00091687315567287391 0 0.049422326447714375 0.0013169397126322332 0 0.049563464813444341 -0.00019737007650570852 0 0.048132502652617454 0.00090422341030041637 0 0.049563464813444341 -0.00019737007650570852 0 0.047749632952355694 -0.0004385861608074434 0 0.049422326447714375 0.0013169397126322332 0 0.048132502652617454 0.00090422341030041637 0 0.049563464813444341 -0.00019737007650570852 0 0.049422326447714375 0.0013169397126322332 0 0.048132502652617454 0.00090422341030041637 0 0.047799903291367796 0.0023724839146846933 0 0.049422326447714375 0.0013169397126322332 0 0.047799903291367796 0.0023724839146846933 0 0.050111177654486583 0.0025722127340016064 0 0.051526834873311819 0.00091687315567287391 0 0.049422326447714375 0.0013169397126322332 0 0.050111177654486583 0.0025722127340016064 0 0.047799903291367796 0.0023724839146846933 0 0.046527822296833658 0.00095606784642355126 0 0.04499994942549692 0.0025848358293087447 0 0.044999868935651083 0.00010792631742217724 0 0.046527822296833658 0.00095606784642355126 0 0.046113571871636581 -0.00067945769224477426 0 0.044999868935651083 0.00010792631742217724 0 0.046527822296833658 0.00095606784642355126 0 0.04499994942549692 0.0025848358293087447 0 0.048132502652617454 0.00090422341030041637 0 0.046527822296833658 0.00095606784642355126 0 0.047749632952355694 -0.0004385861608074434 0 0.048132502652617454 0.00090422341030041637 0 0.047799903291367796 0.0023724839146846933 0 0.046527822296833658 0.00095606784642355126 0 0.047799903291367796 0.0023724839146846933 0 0.04499994942549692 0.0025848358293087447 0 0.046634234468034018 0.0042860160493210959 0 0.04499994942549692 0.0025848358293087447 0 0.046634234468034018 0.0042860160493210959 0 0.04499996302866268 0.0050616878094731236 0 0.046634234468034018 0.0042860160493210959 0 0.045984113464827531 0.0060681925598546505 0 0.047361249680187449 0.0058469464845243724 0 0.046634234468034018 0.0042860160493210959 0 0.048727912491060697 0.0042089551995196988 0 0.047361249680187449 0.0058469464845243724 0 0.046634234468034018 0.0042860160493210959 0 0.04499996302866268 0.0050616878094731236 0 0.045984113464827531 0.0060681925598546505 0 0.044809700090288167 0.0076710672931160099 0 0.044935605148258048 0.0078897899592129932 0 0.04526268556692456 0.0076239373493834171 0 0.04735437906078941 0.0053523322941320447 0 0.04702598358365024 0.0058887528130404298 0 0.047799903291367796 0.0023724839146846933 0 0.046634234468034018 0.0042860160493210959 0 0.048727912491060697 0.0042089551995196988 0 0.047799903291367796 0.0023724839146846933 0 0.050111177654486583 0.0025722127340016064 0 0.048727912491060697 0.0042089551995196988 0 0.04702598358365024 0.0058887528130404298 0 0.046517985991414011 0.0065233809708763217 0 0.04526268556692456 0.0076239373493834171 0 0.045277945425455025 0.0073743802085845947 0 0.045661343677376398 0.007239703480012705 0 0.045028406466649733 0.0074402439716282649 0 0.045189804072929884 0.0072454990715957015 0 0.045277945425455025 0.0073743802085845947 0 0.045000841474198174 0.007478030536833667 0 0.045201531472024561 0.0071498392543024808 0 0.044809700090288167 0.0076710672931160099 0 0.04526268556692456 0.0076239373493834171 0 0.045000841474198174 0.007478030536833667 0 0.04526268556692456 0.0076239373493834171 0 0.045277945425455025 0.0073743802085845947 0 0.045000841474198174 0.007478030536833667 0 0.045000841474198174 0.007478030536833667 0 0.044903093938115118 0.0072678912425748442 0 0.045156425130266339 0.0072887211426272231 0 0.044903093938115118 0.0072678912425748442 0 0.045156425130266339 0.0072887211426272231 0 0.044985223815487391 0.0070772942270330057 0 0.045277945425455025 0.0073743802085845947 0 0.045201531472024561 0.0071498392543024808 0 0.045661343677376398 0.007239703480012705 0 0.045201531472024561 0.0071498392543024808 0 0.045424773609784579 0.0068345684973959058 0 0.045661343677376398 0.007239703480012705 0 0.045189804072929884 0.0072454990715957015 0 0.046643538362972053 0.0077224646099783734 0 0.046643538362972053 0.0077224646099783734 0 0.046821768910270359 0.0083023261005165296 0 0.047722822748916087 0.0094235703268748111 0 0.048950153537731363 0.0094448026909550887 0 0.048322258065001587 0.010499104938976943 0 0.045156425130266339 0.0072887211426272231 0 0.045323345047993936 0.0070700961187498577 0 0.044985223815487391 0.0070772942270330057 0 0.048950153537731363 0.0094448026909550887 0 0.048322258065001587 0.010499104938976943 0 0.049324167714204198 0.01035511033460927 0 0.04499996302866268 0.0050616878094731236 0 0.045984113464827531 0.0060681925598546505 0 0.044999979783285751 0.0075384888321677812 0 0.045424773609784579 0.0068345684973959058 0 0.045661343677376398 0.007239703480012705 0 0.046036325605439757 0.0068235498511320285 0 0.046517985991414011 0.0065233809708763217 0 0.045952930076408618 0.0073050841726808339 0 0.045984113464827531 0.0060681925598546505 0 0.047361249680187449 0.0058469464845243724 0 0.045975158169506113 0.0074989941518272809 0 0.046643538362972053 0.0077224646099783734 0 0.047165641332048619 0.0098605322634777691 0 0.046643538362972053 0.0077224646099783734 0 0.045952930076408618 0.0073050841726808339 0 0.048227540499918987 0.0075410684334383075 0 0.04596809622601037 0.007575450888332007 0 0.047174053415952169 0.00913235535174905 0 0.045984113464827531 0.0060681925598546505 0 0.045975158169506113 0.0074989941518272809 0 0.044999979783285751 0.0075384888321677812 0 0.045993304150680189 0.007515462851029265 0 0.044999998598479446 0.0075385625276250612 0 0.044999998958606797 0.0086560720374687598 0 0.045952930076408618 0.0073050841726808339 0 0.045000196708593315 0.0086558504774284437 0 0.045952930076408618 0.0073050841726808339 0 0.045000444844458469 0.0075384317361546797 0 0.045000003673132012 0.0086561845914154435 0 0.045829736718274845 0.009407186573386371 0 0.044999976288461779 0.010555818584956911 0 0.04596809622601037 0.007575450888332007 0 0.045829736718274845 0.009407186573386371 0 0.047174053415952169 0.00913235535174905 0 0.04596809622601037 0.007575450888332007 0 0.045000003673132012 0.0086561845914154435 0 0.045829736718274845 0.009407186573386371 0 0.045829736718274845 0.009407186573386371 0 0.047174053415952169 0.00913235535174905 0 0.046108523567934878 0.0107827683919785 0 0.046947728720024728 0.010489364891466568 0 0.046085208683981908 0.011523514911419749 0 0.047628462140537765 0.011756056109805409 0 0.047165641332048619 0.0098605322634777691 0 0.046061667393935621 0.011162396638243562 0 0.045829736718274845 0.009407186573386371 0 0.046108523567934878 0.0107827683919785 0 0.044999976288461779 0.010555818584956911 0 0.048322258065001587 0.010499104938976943 0 0.049062724630816651 0.011497472492774465 0 0.049324167714204198 0.01035511033460927 0 0.046947728720024728 0.010489364891466568 0 0.048322258065001587 0.010499104938976943 0 0.047628462140537765 0.011756056109805409 0 0.047722822748916087 0.0094235703268748111 0 0.046947728720024728 0.010489364891466568 0 0.048322258065001587 0.010499104938976943 0 0.048322258065001587 0.010499104938976943 0 0.047628462140537765 0.011756056109805409 0 0.049062724630816651 0.011497472492774465 0 0.049062724630816651 0.011497472492774465 0 0.049988319852661271 0.012018429195621218 0 0.05013988770889679 0.010910720340560823 0 0.049062724630816651 0.011497472492774465 0 0.05013988770889679 0.010910720340560823 0 0.049324167714204198 0.01035511033460927 0 0.05013988770889679 0.010910720340560823 0 0.049324167714204198 0.01035511033460927 0 0.050152342480772438 0.0094824433219150885 0 0.050770292169123085 0.010228322418998447 0 0.050856203746121112 0.011575603117672603 0 0.051516079004658717 0.010841022946802422 0 0.05013988770889679 0.010910720340560823 0 0.050770292169123085 0.010228322418998447 0 0.050152342480772438 0.0094824433219150885 0 0.05013988770889679 0.010910720340560823 0 0.050770292169123085 0.010228322418998447 0 0.050856203746121112 0.011575603117672603 0 0.049988319852661271 0.012018429195621218 0 0.05013988770889679 0.010910720340560823 0 0.050856203746121112 0.011575603117672603 0 0.04500155898019579 0.015914836721119357 0 0.045540102598678307 0.014934037060969869 0 0.051699639738449897 0.012190831752186207 0 0.050856203746121112 0.011575603117672603 0 0.051516079004658717 0.010841022946802422 0 0.039223433008356207 0.017146993326964812 0 0.038138168920840154 0.018114002556369607 0 0.039333265915752785 0.018539950236262467 0 0.04500155898019579 0.015914836721119357 0 0.036620487706143755 0.019461212214391517 0 0.038178123334408801 0.018746409132666175 0 0.037505820984559006 0.018929004329685351 0 0.037211281434688208 0.019387704796578073 0 0.037505820984559006 0.018929004329685351 0 0.037211281434688208 0.019387704796578073 0 0.037176480355360357 0.019363592086511106 0 0.03719932169538194 0.01935681762282913 0 0.037211281434688208 0.019387704796578073 0 0.037176480355360357 0.019363592086511106 0 0.038138168920840154 0.018114002556369607 0 0.038567180311932861 0.018720523524842412 0 0.039333265915752785 0.018539950236262467 0 0.038138168920840154 0.018114002556369607 0 0.038567180311932861 0.018720523524842412 0 0.038041591285193452 0.018849019643647009 0 0.037832893513947467 0.01888307002927158 0 0.038138168920840154 0.018114002556369607 0 0.038041591285193452 0.018849019643647009 0 0.038567180311932861 0.018720523524842412 0 0.038206978355280273 0.019063066217149306 0 0.038697431988455287 0.019260904920101986 0 0.038567180311932861 0.018720523524842412 0 0.038206978355280273 0.019063066217149306 0 0.038041591285193452 0.018849019643647009 0 0.037764671784903156 0.01923044456387471 0 0.038206978355280273 0.019063066217149306 0 0.038041591285193452 0.018849019643647009 0 0.038567180311932861 0.018720523524842412 0 0.039333265915752785 0.018539950236262467 0 0.038697431988455287 0.019260904920101986 0 0.044663676335712235 0.012230733247377902 0 0.03808541075242728 0.013359361639515545 0 0.045540102598678307 0.014934037060969869 0 0.044663676335712235 0.012230733247377902 0 0.044237531584258513 0.0072138287042980967 0 0.043908729855157869 0.0072433076468419368 0 0.044100182868697484 0.0073101842272918069 0 0.039333265915752785 0.018539950236262467 0 0.03947377718626844 0.019775946037533774 0 0.038697431988455287 0.019260904920101986 0 0.050770292169123085 0.010228322418998447 0 0.051516079004658717 0.010841022946802422 0 0.051307331167790175 0.0095042172376535953 0 0.03947377718626844 0.019775946037533774 0 0.038697431988455287 0.019260904920101986 0 0.038214439265255203 0.019832749556290719 0 0.038026042446856548 0.019356808926797715 0 0.038697431988455287 0.019260904920101986 0 0.038214439265255203 0.019832749556290719 0 0.038206978355280273 0.019063066217149306 0 0.038026042446856548 0.019356808926797715 0 0.038697431988455287 0.019260904920101986 0 0.037764671784903156 0.01923044456387471 0 0.038206978355280273 0.019063066217149306 0 0.038026042446856548 0.019356808926797715 0 0.038953343050327667 0.019050501272212757 0 0.03808541075242728 0.013359361639515545 0 0.037641143915362232 0.019484384734440575 0 0.038026042446856548 0.019356808926797715 0 0.038065939359948446 0.01953170317513566 0 0.032033611557502305 0.012612298884186171 0 0.031423863277418945 0.012265524810933409 0 0.03178173859854682 0.013305822328318211 0 0.04403849344296621 0.0075073987176797309 0 0.043908729855157869 0.0072433076468419368 0 0.044100182868697484 0.0073101842272918069 0 0.037602285213843865 0.009292405609420077 0 0.03808541075242728 0.013359361639515545 0 0.044237531584258513 0.0072138287042980967 0 0.04427551973550798 0.0073224991982622249 0 0.044100182868697484 0.0073101842272918069 0 0.044663676335712235 0.012230733247377902 0 0.044117278298188463 0.0066767948216875572 0 0.044262362700057636 0.0071376090962659098 0 0.04427551973550798 0.0073224991982622249 0 0.044478093532174065 0.0072628359152864634 0 0.04403849344296621 0.0075073987176797309 0 0.04427551973550798 0.0073224991982622249 0 0.044100182868697484 0.0073101842272918069 0 0.044478093532174065 0.0072628359152864634 0 0.044722790728022467 0.0073807780777720962 0 0.04464165904960616 0.007098948781065934 0 0.04427551973550798 0.0073224991982622249 0 0.044466655504686994 0.0074169649301474632 0 0.044478093532174065 0.0072628359152864634 0 0.044303295337141751 0.0075299405922270336 0 0.04427551973550798 0.0073224991982622249 0 0.044466655504686994 0.0074169649301474632 0 0.044466655504686994 0.0074169649301474632 0 0.044478093532174065 0.0072628359152864634 0 0.044722790728022467 0.0073807780777720962 0 0.045000841474198174 0.007478030536833667 0 0.044903093938115118 0.0072678912425748442 0 0.044722790728022467 0.0073807780777720962 0 0.044903093938115118 0.0072678912425748442 0 0.044722790728022467 0.0073807780777720962 0 0.04464165904960616 0.007098948781065934 0 0.048950153537731363 0.0094448026909550887 0 0.049324167714204198 0.01035511033460927 0 0.050152342480772438 0.0094824433219150885 0 0.046821768910270359 0.0083023261005165296 0 0.048017164689763157 0.0080819089610236657 0 0.044903093938115118 0.0072678912425748442 0 0.044985223815487391 0.0070772942270330057 0 0.04464165904960616 0.007098948781065934 0 0.044262362700057636 0.0071376090962659098 0 0.044478093532174065 0.0072628359152864634 0 0.04464165904960616 0.007098948781065934 0 0.050770292169123085 0.010228322418998447 0 0.051307331167790175 0.0095042172376535953 0 0.050152342480772438 0.0094824433219150885 0 0.044663676335712235 0.012230733247377902 0 0.048017164689763157 0.0080819089610236657 0 -0.0096464268768769578 0.0041669810032202896 0 -0.0094714390190723755 0.0084925917488478993 0 -0.0062593094040754643 0.0076797230597805835 0 -0.011911471177946572 0.0059700772967107938 0 -0.0096464268768769578 0.0041669810032202896 0 -0.0094714390190723755 0.0084925917488478993 0 -0.011911471177946572 0.0059700772967107938 0 -0.0096464268768769578 0.0041669810032202896 0 -0.014154996855890167 0.0030866448018655136 0 -0.011911471177946572 0.0059700772967107938 0 -0.014349449853208478 0.0081696328579656512 0 -0.0094714390190723755 0.0084925917488478993 0 -0.011911471177946572 0.0059700772967107938 0 -0.014349449853208478 0.0081696328579656512 0 -0.014154996855890167 0.0030866448018655136 0 -0.014349449853208478 0.0081696328579656512 0 -0.014154996855890167 0.0030866448018655136 0 -0.018700864907831068 0.0021798877495271115 0 -0.018613814426327258 0.0024102919639042795 0 -0.019164234905061823 0.0024396655380167758 0 -0.018746844503387039 0.0032123409054550457 0 -0.018613814426327258 0.0024102919639042795 0 -0.017155935192569211 0.0037392382757463838 0 -0.018746844503387039 0.0032123409054550457 0 -0.014349449853208478 0.0081696328579656512 0 -0.009946611712464715 0.010520619320761818 0 -0.0093087822328403215 0.013981338880217017 0 -0.016024678733745423 0.00584323940397663 0 -0.014798357693690943 0.0062885957705064574 0 -0.014349449853208478 0.0081696328579656512 0 -0.0094714390190723755 0.0084925917488478993 0 -0.009946611712464715 0.010520619320761818 0 -0.0094714390190723755 0.0084925917488478993 0 -0.009946611712464715 0.010520619320761818 0 -0.0066157239258084928 0.01143599814761115 0 -0.009946611712464715 0.010520619320761818 0 -0.0066157239258084928 0.01143599814761115 0 -0.0093087822328403215 0.013981338880217017 0 -0.0066157239258084928 0.01143599814761115 0 -0.0039865331398982514 0.009817175872897238 0 -0.002299088075732049 0.012179668296130966 0 -0.0066157239258084928 0.01143599814761115 0 -0.0039865331398982514 0.009817175872897238 0 -0.0062593094040754643 0.0076797230597805835 0 -0.0094714390190723755 0.0084925917488478993 0 -0.0066157239258084928 0.01143599814761115 0 -0.0062593094040754643 0.0076797230597805835 0 -0.002299088075732049 0.012179668296130966 0 -0.0011337313822133753 0.0090920091289259982 0 0.0023431588968982555 0.010518215418536488 0 -0.0039865331398982514 0.009817175872897238 0 -0.0011337313822133753 0.0090920091289259982 0 -0.0031637787510516175 0.0072210849452522081 0 -0.0039865331398982514 0.009817175872897238 0 -0.002299088075732049 0.012179668296130966 0 -0.0011337313822133753 0.0090920091289259982 0 -0.0011337313822133753 0.0090920091289259982 0 0.00038124043646592187 0.0071221397721553236 0 -0.001446918344784936 0.0071782410490243368 0 -0.0011337313822133753 0.0090920091289259982 0 -0.001446918344784936 0.0071782410490243368 0 -0.0031637787510516175 0.0072210849452522081 0 -0.001446918344784936 0.0071782410490243368 0 -0.0031637787510516175 0.0072210849452522081 0 -0.0018870545608475954 0.0051575300281684533 0 -0.0031637787510516175 0.0072210849452522081 0 -0.0018870545608475954 0.0051575300281684533 0 -0.0046773033303199284 0.0048928401325470435 0 0.00038124043646592187 0.0071221397721553236 0 -0.001446918344784936 0.0071782410490243368 0 -0.0018870545608475954 0.0051575300281684533 0 -0.0096464268768769578 0.0041669810032202896 0 -0.0062593094040754643 0.0076797230597805835 0 -0.0046773033303199284 0.0048928401325470435 0 -0.0039865331398982514 0.009817175872897238 0 -0.0031637787510516175 0.0072210849452522081 0 -0.0062593094040754643 0.0076797230597805835 0 -0.0031637787510516175 0.0072210849452522081 0 -0.0062593094040754643 0.0076797230597805835 0 -0.0046773033303199284 0.0048928401325470435 0 -0.0096464268768769578 0.0041669810032202896 0 -0.0046773033303199284 0.0048928401325470435 0 -0.0052635678528506966 0.0022424420563740503 0 -0.0096464268768769578 0.0041669810032202896 0 -0.0052635678528506966 0.0022424420563740503 0 -0.0064313488261933394 -0.00021409738249963015 0 -0.0052635678528506966 0.0022424420563740503 0 -0.0012717301371047486 0.00016939633265350025 0 -0.0064313488261933394 -0.00021409738249963015 0 -0.0046773033303199284 0.0048928401325470435 0 -0.0052635678528506966 0.0022424420563740503 0 -0.0033884858087155564 0.0030911314280642659 0 0.00038124043646592187 0.0071221397721553236 0 0.00040947986111989173 0.0042231504298839411 0 0.00063691717504427787 0.0064600902632345253 0 0.014845255765941591 0.0084784248642615512 0 0.016491144273926527 0.012145359235696561 0 0.017143694082442405 0.010213919990512245 0 0.0053409362344018722 0.0086494940415515285 0 0.0086039238083744293 0.0088146147333479485 0 -0.001168379917334711 0.0039923212894575734 0 0.0053409362344018722 0.0086494940415515285 0 -0.0018870545608475954 0.0051575300281684533 0 -0.0033884858087155564 0.0030911314280642659 0 -0.0012717301371047486 0.00016939633265350025 0 0.00038124043646592187 0.0071221397721553236 0 -0.0018870545608475954 0.0051575300281684533 0 -0.0012717301371047486 0.00016939633265350025 0 -0.0018870545608475954 0.0051575300281684533 0 -0.0046773033303199284 0.0048928401325470435 0 -0.0033884858087155564 0.0030911314280642659 0 -0.0052635678528506966 0.0022424420563740503 0 -0.0033884858087155564 0.0030911314280642659 0 -0.0012717301371047486 0.00016939633265350025 0 -0.00068247986001784714 0.013232332707588099 0 -0.0016739138704395683 0.013133948993070205 0 -0.0010542909761006008 0.012402696719390469 0 0.01438416068020242 0.018685486592812325 0 0.015456191081383469 0.017723936353359438 0 0.013806473128265459 0.017027008825209231 0 0.0053409362344018722 0.0086494940415515285 0 0.0087736645208650113 0.015581416827055923 0 0.0053409362344018722 0.0086494940415515285 0 -0.0048644960730515859 0.0063491943694254415 0 -0.0016739138704395683 0.013133948993070205 0 -0.0019625376923147293 0.012297878691484267 0 -0.0010542909761006008 0.012402696719390469 0 -0.0016739138704395683 0.013133948993070205 0 -0.0025416432503181782 0.013024150664291244 0 -0.0019625376923147293 0.012297878691484267 0 -0.0087775210803881266 0.005417166215022356 0 -0.0067188038481680616 0.011101672686459774 0 -0.0025416432503181782 0.013024150664291244 0 -0.0027710178060071674 0.012167877285773163 0 -0.0019625376923147293 0.012297878691484267 0 -0.0048644960730515859 0.0063491943694254415 0 -0.0087775210803881266 0.005417166215022356 0 -0.0096464268768769578 0.0041669810032202896 0 -0.0064313488261933394 -0.00021409738249963015 0 -0.010969213191472709 -0.00059454645562520786 0 -0.0104760506616759 0.0015430350882337453 0 -0.0087775210803881266 0.005417166215022356 0 -0.0096464268768769578 0.0041669810032202896 0 -0.011274707772084209 -0.00057511838146398421 0 -0.014154996855890167 0.0030866448018655136 0 -0.011274707772084209 -0.00057511838146398421 0 -0.014154996855890167 0.0030866448018655136 0 -0.0157335048727908 0.0010805878465967983 0 -0.011274707772084209 -0.00057511838146398421 0 -0.0157335048727908 0.0010805878465967983 0 -0.018480891082808305 -0.00060775267058862915 0 -0.0087775210803881266 0.005417166215022356 0 -0.016462424742471744 0.0043843222836277718 0 -0.011607357429144241 0.0077392881913131871 0 -0.011732596407474472 0.0077244239872475452 0 -0.011679831551559097 0.0077044024798195547 0 -0.016477541609042155 0.006290247304679978 0 -0.016655571041230804 0.0066833500171225814 0 -0.016418509470322945 0.0065380590875992921 0 -0.016462424742471744 0.0043843222836277718 0 -0.014294600224222409 0.0074050975500812334 0 -0.016477541609042155 0.006290247304679978 0 -0.016198565756330566 0.0063135270419568011 0 -0.016418509470322945 0.0065380590875992921 0 -0.016462424742471744 0.0043843222836277718 0 -0.019003135281533256 0.0047678952242517746 0 -0.018855397230207772 0.0038409705852959397 0 -0.018712816486478202 0.0030348743669547889 0 -0.018966536579671688 0.0030128443580271251 0 -0.019003135281533256 0.0047678952242517746 0 -0.020226238591207805 0.0028852847278517594 0 -0.021719159959969953 0.0038979790504513399 0 -0.021538223964638187 0.0028297592721165145 0 -0.02091521137484301 0.0032635456384447464 0 -0.019347624710827398 0.003795229399165071 0 -0.018855397230207772 0.0038409705852959397 0 -0.018966536579671688 0.0030128443580271251 0 -0.016462424742471744 0.0043843222836277718 0 -0.019248516714642089 0.0024624007970944144 0 -0.014154996855890167 0.0030866448018655136 0 -0.0157335048727908 0.0010805878465967983 0 -0.018700864907831068 0.0021798877495271115 0 -0.0157335048727908 0.0010805878465967983 0 -0.018480891082808305 -0.00060775267058862915 0 -0.018700864907831068 0.0021798877495271115 0 -0.018480891082808305 -0.00060775267058862915 0 -0.019503607697088057 0.0026821857526986488 0 -0.018700864907831068 0.0021798877495271115 0 -0.019503607697088057 0.0026821857526986488 0 -0.018700864907831068 0.0021798877495271115 0 -0.019153584919297448 0.0025136776664636778 0 -0.019403862276115551 0.0053741624193539596 0 -0.019125010775730901 0.0054075202425806213 0 -0.01911414832585339 0.0052769519057011983 0 -0.019813316271362201 0.0040723952893993703 0 -0.020767522661848562 0.0039763615810026413 0 -0.020246201224965361 0.0034659982960812468 0 -0.019043349705420189 0.0052310120606788562 0 -0.020285655576150641 0.0046373932773163505 0 -0.019043349705420189 0.0052310120606788562 0 -0.019043581403367899 0.0056620097304318001 0 -0.019813316271362201 0.0040723952893993703 0 -0.020246201224965361 0.0034659982960812468 0 -0.019808034494006612 0.0035385365853523375 0 -0.018836087085426018 0.005435284541848941 0 -0.019125010775730901 0.0054075202425806213 0 -0.01911414832585339 0.0052769519057011983 0 -0.021719159959969953 0.0038979790504513399 0 -0.020767522661848562 0.0039763615810026413 0 -0.02091521137484301 0.0032635456384447464 0 -0.019003135281533256 0.0047678952242517746 0 -0.020285655576150641 0.0046373932773163505 0 -0.020767522661848562 0.0039763615810026413 0 -0.02091521137484301 0.0032635456384447464 0 -0.020246201224965361 0.0034659982960812468 0 -0.02091521137484301 0.0032635456384447464 0 -0.020246201224965361 0.0034659982960812468 0 -0.01996289479572113 0.0027862302579805625 0 -0.020246201224965361 0.0034659982960812468 0 -0.019808034494006612 0.0035385365853523375 0 -0.01996289479572113 0.0027862302579805625 0 -0.02091521137484301 0.0032635456384447464 0 -0.01996289479572113 0.0027862302579805625 0 -0.020693991758892812 0.002208678085561259 0 -0.019954707388555672 0.0027187193388978786 0 -0.019819539742001995 0.001359918387726666 0 -0.01996289479572113 0.0027862302579805625 0 -0.020693991758892812 0.002208678085561259 0 -0.019740884142183366 0.0012918027560778779 0 -0.021538223964638187 0.0028297592721165145 0 -0.02091521137484301 0.0032635456384447464 0 -0.020693991758892812 0.002208678085561259 0 -0.021538223964638187 0.0028297592721165145 0 -0.020693991758892812 0.002208678085561259 0 -0.021360590622429888 0.0017065581800065465 0 -0.020693991758892812 0.002208678085561259 0 -0.021360590622429888 0.0017065581800065465 0 -0.020561951242223878 0.0012456467369624477 0 -0.020693991758892812 0.002208678085561259 0 -0.020561951242223878 0.0012456467369624477 0 -0.019740884142183366 0.0012918027560778779 0 -0.016024678733745423 0.00584323940397663 0 -0.018811022014591342 0.0021447810549963687 0 -0.018613814426327258 0.0024102919639042795 0 -0.018700864907831068 0.0021798877495271115 0 -0.019026575374381766 0.0024729288292317519 0 -0.018700864907831068 0.0021798877495271115 0 -0.019026575374381766 0.0024729288292317519 0 -0.019153584919297448 0.0025136776664636778 0 -0.019026575374381766 0.0024729288292317519 0 -0.019153584919297448 0.0025136776664636778 0 -0.019264334278845371 0.002500208216806779 0 -0.019026575374381766 0.0024729288292317519 0 -0.019264334278845371 0.002500208216806779 0 -0.019164234905061823 0.0024396655380167758 0 -0.019248516714642089 0.0024624007970944144 0 -0.019749362298515066 0.0014817376163025555 0 -0.020226238591207805 0.0028852847278517594 0 -0.019749362298515066 0.0014817376163025555 0 -0.019503607697088057 0.0026821857526986488 0 -0.019153584919297448 0.0025136776664636778 0 -0.019264334278845371 0.002500208216806779 0 -0.019503607697088057 0.0026821857526986488 0 -0.018729015107780963 0.0024161901520125114 0 -0.019264334278845371 0.002500208216806779 0 -0.018712816486478202 0.0030348743669547889 0 -0.018966536579671688 0.0030128443580271251 0 -0.0185813411349584 0.0021967190930530993 0 -0.018729015107780963 0.0024161901520125114 0 -0.019544463591532193 0.0019835028434751598 0 -0.019324709538921743 0.00071591717015473562 0 -0.018729015107780963 0.0024161901520125114 0 -0.019264334278845371 0.002500208216806779 0 -0.019544463591532193 0.0019835028434751598 0 -0.018613814426327258 0.0024102919639042795 0 -0.019026575374381766 0.0024729288292317519 0 -0.019164234905061823 0.0024396655380167758 0 -0.019544463591532193 0.0019835028434751598 0 -0.019164234905061823 0.0024396655380167758 0 -0.018746844503387039 0.0032123409054550457 0 -0.019074463338601196 0.0022021905494436704 0 -0.020851596417937743 0.0017869571937151525 0 -0.019264334278845371 0.002500208216806779 0 -0.019544463591532193 0.0019835028434751598 0 -0.019164234905061823 0.0024396655380167758 0 -0.019544463591532193 0.0019835028434751598 0 -0.020337587605730189 0.0011121768217201699 0 -0.021032643856701897 0.0013196581921614929 0 -0.020337587605730189 0.0011121768217201699 0 -0.021143718165641607 -0.00053769366005947854 0 -0.020145547610718108 -0.00014512887204885534 0 -0.020337587605730189 0.0011121768217201699 0 -0.019324709538921743 0.00071591717015473562 0 -0.020145547610718108 -0.00014512887204885534 0 -0.018729015107780963 0.0024161901520125114 0 -0.019324709538921743 0.00071591717015473562 0 -0.018232390887707055 0.00014626552428984114 0 -0.019544463591532193 0.0019835028434751598 0 -0.020337587605730189 0.0011121768217201699 0 -0.019324709538921743 0.00071591717015473562 0 -0.019324709538921743 0.00071591717015473562 0 -0.019421344769402979 -0.00058193758347618635 0 -0.018232390887707055 0.00014626552428984114 0 -0.019324709538921743 0.00071591717015473562 0 -0.019421344769402979 -0.00058193758347618635 0 -0.020145547610718108 -0.00014512887204885534 0 -0.019421344769402979 -0.00058193758347618635 0 -0.020145547610718108 -0.00014512887204885534 0 -0.020135742565716638 -0.0016674657209308967 0 -0.019421344769402979 -0.00058193758347618635 0 -0.018232390887707055 0.00014626552428984114 0 -0.019166870597130271 -0.0016069691854451388 0 -0.019421344769402979 -0.00058193758347618635 0 -0.020135742565716638 -0.0016674657209308967 0 -0.019166870597130271 -0.0016069691854451388 0 -0.021143718165641607 -0.00053769366005947854 0 -0.020145547610718108 -0.00014512887204885534 0 -0.020135742565716638 -0.0016674657209308967 0 -0.021143718165641607 -0.00053769366005947854 0 -0.021195543697074905 -0.0018231933019219589 0 -0.020135742565716638 -0.0016674657209308967 0 -0.019740884142183366 0.0012918027560778779 0 -0.020126086439336357 0.00061032340964138761 0 -0.019551440612738068 -0.00033379430491508027 0 -0.020561951242223878 0.0012456467369624477 0 -0.020126086439336357 0.00061032340964138761 0 -0.0206311640386629 0.00021544278981836906 0 -0.019819539742001995 0.001359918387726666 0 -0.019794070382056571 4.1191996705343699e-05 0 -0.020126086439336357 0.00061032340964138761 0 -0.0206311640386629 0.00021544278981836906 0 -0.019551440612738068 -0.00033379430491508027 0 -0.020561951242223878 0.0012456467369624477 0 -0.019740884142183366 0.0012918027560778779 0 -0.020126086439336357 0.00061032340964138761 0 -0.019749362298515066 0.0014817376163025555 0 -0.020144174826089024 -0.0010787949075388725 0 -0.019749362298515066 0.0014817376163025555 0 -0.019042709318170058 -0.0010849105127290995 0 -0.020204577591741543 -0.00037229467162477268 0 -0.019366907348490607 -0.002138058939233382 0 -0.019886577134188205 -0.0021233109664670364 0 -0.021360590622429888 0.0017065581800065465 0 -0.020561951242223878 0.0012456467369624477 0 -0.0206311640386629 0.00021544278981836906 0 -0.019366907348490607 -0.002138058939233382 0 -0.019886577134188205 -0.0021233109664670364 0 -0.019521731355011011 -0.0035247464462357303 0 -0.018232390887707055 0.00014626552428984114 0 -0.018411152846094406 -0.0022890069503697799 0 -0.019166870597130271 -0.0016069691854451388 0 -0.019042709318170058 -0.0010849105127290995 0 -0.0189954654262161 -0.0028301561969659374 0 -0.020144174826089024 -0.0010787949075388725 0 -0.019270820158390909 -0.0024579927649881301 0 -0.0206311640386629 0.00021544278981836906 0 -0.019806478169832668 -0.0013658772072343425 0 -0.019551440612738068 -0.00033379430491508027 0 -0.019366907348490607 -0.002138058939233382 0 -0.018806640028759612 -0.0035237699116845529 0 -0.019521731355011011 -0.0035247464462357303 0 -0.018806640028759612 -0.0035237699116845529 0 -0.019521731355011011 -0.0035247464462357303 0 -0.018979426371390287 -0.0039644599871893876 0 -0.019270820158390909 -0.0024579927649881301 0 -0.019460564155033003 -0.0022340410408440885 0 -0.018411152846094406 -0.0022890069503697799 0 -0.019166870597130271 -0.0016069691854451388 0 -0.019604491655929559 -0.0028577074021826666 0 -0.019604491655929559 -0.0028577074021826666 0 -0.019060472091398929 -0.0042302644692285502 0 -0.019740602702119459 -0.0043377946499831791 0 -0.0189954654262161 -0.0028301561969659374 0 -0.019019628474853747 -0.004097776847817136 0 -0.018411152846094406 -0.0022890069503697799 0 -0.019604491655929559 -0.0028577074021826666 0 -0.019060472091398929 -0.0042302644692285502 0 -0.019521731355011011 -0.0035247464462357303 0 -0.018979426371390287 -0.0039644599871893876 0 -0.019060472091398929 -0.0042302644692285502 0 -0.018979426371390287 -0.0039644599871893876 0 -0.018800542254917299 -0.0043939886560335458 0 -0.019060472091398929 -0.0042302644692285502 0 -0.018806640028759612 -0.0035237699116845529 0 -0.018979426371390287 -0.0039644599871893876 0 -0.018778161139650862 -0.0039280986557314037 0 -0.021195543697074905 -0.0018231933019219589 0 -0.020135742565716638 -0.0016674657209308967 0 -0.020552257691892974 -0.0035523367388096572 0 -0.020135742565716638 -0.0016674657209308967 0 -0.019166870597130271 -0.0016069691854451388 0 -0.019604491655929559 -0.0028577074021826666 0 -0.020135742565716638 -0.0016674657209308967 0 -0.019604491655929559 -0.0028577074021826666 0 -0.020552257691892974 -0.0035523367388096572 0 -0.019604491655929559 -0.0028577074021826666 0 -0.020552257691892974 -0.0035523367388096572 0 -0.019740602702119459 -0.0043377946499831791 0 -0.021195543697074905 -0.0018231933019219589 0 -0.020552257691892974 -0.0035523367388096572 0 -0.021665926386773986 -0.0028248653396480842 0 -0.0213226006230622 -0.0037733192110519197 0 -0.020402543620325918 -0.0034097259877864119 0 -0.020552257691892974 -0.0035523367388096572 0 -0.021665926386773986 -0.0028248653396480842 0 -0.022313751502310131 -0.0039101606673247946 0 -0.021665926386773986 -0.0028248653396480842 0 -0.022470546284864185 -0.0028120176924839057 0 -0.022313751502310131 -0.0039101606673247946 0 -0.022470546284864185 -0.0028120176924839057 0 -0.023489767451522474 -0.0026216851668567709 0 -0.022313751502310131 -0.0039101606673247946 0 -0.013507023292893321 -0.0051894083411104909 0 -0.013296173146649539 -5.9425681938609783e-05 0 -0.017613088010236495 -0.0012701060597560916 0 -0.018596510359150116 -0.003963455064078184 0 -0.020402543620325918 -0.0034097259877864119 0 -0.022470546284864185 -0.0028120176924839057 0 -0.02310100176297665 -0.0018945509101386529 0 -0.023489767451522474 -0.0026216851668567709 0 -0.022470546284864185 -0.0028120176924839057 0 -0.02310100176297665 -0.0018945509101386529 0 -0.022198262943243091 -0.0018675159518131194 0 -0.02310100176297665 -0.0018945509101386529 0 -0.022198262943243091 -0.0018675159518131194 0 -0.022947056972869345 -0.0010863261549851246 0 -0.02310100176297665 -0.0018945509101386529 0 -0.022947056972869345 -0.0010863261549851246 0 -0.023560719844498122 -0.0013419567924785837 0 -0.021195543697074905 -0.0018231933019219589 0 -0.021665926386773986 -0.0028248653396480842 0 -0.022198262943243091 -0.0018675159518131194 0 -0.021665926386773986 -0.0028248653396480842 0 -0.022470546284864185 -0.0028120176924839057 0 -0.022198262943243091 -0.0018675159518131194 0 -0.021195543697074905 -0.0018231933019219589 0 -0.022198262943243091 -0.0018675159518131194 0 -0.022088900733535987 -0.0008988980322308292 0 -0.021143718165641607 -0.00053769366005947854 0 -0.021195543697074905 -0.0018231933019219589 0 -0.022088900733535987 -0.0008988980322308292 0 -0.021143718165641607 -0.00053769366005947854 0 -0.022088900733535987 -0.0008988980322308292 0 -0.02240897911837714 4.1680625171672962e-05 0 -0.022947056972869345 -0.0010863261549851246 0 -0.02240897911837714 4.1680625171672962e-05 0 -0.023915787509677315 -0.00068953833554379887 0 -0.022864822657774803 0.0002937314172592187 0 -0.018019972813270637 0.00098977786224093713 0 -0.022198262943243091 -0.0018675159518131194 0 -0.022088900733535987 -0.0008988980322308292 0 -0.022947056972869345 -0.0010863261549851246 0 -0.022088900733535987 -0.0008988980322308292 0 -0.022947056972869345 -0.0010863261549851246 0 -0.02240897911837714 4.1680625171672962e-05 0 -0.021448136441747239 0.0011282291050382885 0 -0.021032643856701897 0.0013196581921614929 0 -0.021336599811177304 0.0010132188171520235 0 -0.014798357693690943 0.0062885957705064574 0 -0.020851596417937743 0.0017869571937151525 0 -0.021444889665521868 0.001102329673020915 0 -0.021336599811177304 0.0010132188171520235 0 -0.021487377996262418 0.0010341314059092179 0 -0.021444889665521868 0.001102329673020915 0 -0.021448136441747239 0.0011282291050382885 0 -0.021336599811177304 0.0010132188171520235 0 -0.016071482933369907 0.0039947885971622476 0 -0.014798357693690943 0.0062885957705064574 0 -0.020337587605730189 0.0011121768217201699 0 -0.021143718165641607 -0.00053769366005947854 0 -0.02240897911837714 4.1680625171672962e-05 0 -0.019964296447068527 0.0011928053460446536 0 -0.022864822657774803 0.0002937314172592187 0 -0.020337587605730189 0.0011121768217201699 0 -0.021032643856701897 0.0013196581921614929 0 -0.021336599811177304 0.0010132188171520235 0 -0.0049897528300319582 0.0037457284559461791 0 -0.007254539498651796 0.0068555809184189798 0 -0.0022224773238438663 0.0091987879900584969 0 -0.007254539498651796 0.0068555809184189798 0 -0.0030992311943972622 0.0032226406673719001 0 -0.003299531190305465 0.0039394139918010988 0 -0.0090178309450935513 0.0030329092499301854 0 -0.002299088075732049 0.012179668296130966 0 -9.5226654146327735e-05 0.015217827235208238 0 -0.0045322910864297947 0.014945568560283793 0 -0.002299088075732049 0.012179668296130966 0 -9.5226654146327735e-05 0.015217827235208238 0 0.0023431588968982555 0.010518215418536488 0 -0.0061205037978793514 0.0048437264819844068 0 -0.003299531190305465 0.0039394139918010988 0 -0.0098014026188526435 0.0026241190190531122 0 -0.0061205037978793514 0.0048437264819844068 0 -0.0098014026188526435 0.0026241190190531122 0 -0.007129399875845985 0.0061650518772835335 0 -0.0061205037978793514 0.0048437264819844068 0 -0.003299531190305465 0.0039394139918010988 0 -0.0042566853588116684 0.0066381143618313536 0 -0.014798357693690943 0.0062885957705064574 0 -0.007254539498651796 0.0068555809184189798 0 -0.014952810665193326 0.0060877520129952204 0 -0.015928290953482457 0.0050050264705640531 0 -0.0075623584810388519 0.006625476492390198 0 -0.0066157239258084928 0.01143599814761115 0 -0.002299088075732049 0.012179668296130966 0 -0.0045322910864297947 0.014945568560283793 0 -0.0066157239258084928 0.01143599814761115 0 -0.0093087822328403215 0.013981338880217017 0 -0.0045322910864297947 0.014945568560283793 0 -0.016071482933369907 0.0039947885971622476 0 -0.007254539498651796 0.0068555809184189798 0 -0.015904840965875931 0.0021739335122968259 0 -0.0098014026188526435 0.0026241190190531122 0 -0.011488435672736115 0.0070804689755754966 0 -0.016071482933369907 0.0039947885971622476 0 -0.018019972813270637 0.00098977786224093713 0 -0.0098014026188526435 0.0026241190190531122 0 -0.011488435672736115 0.0070804689755754966 0 -0.007129399875845985 0.0061650518772835335 0 -0.022947056972869345 -0.0010863261549851246 0 -0.023915787509677315 -0.00068953833554379887 0 -0.023560719844498122 -0.0013419567924785837 0 -0.023915787509677315 -0.00068953833554379887 0 -0.023560719844498122 -0.0013419567924785837 0 -0.023966872558631919 -0.0012963721443816488 0 -0.023915787509677315 -0.00068953833554379887 0 -0.023966872558631919 -0.0012963721443816488 0 -0.024498226575106592 -0.0014156309496607337 0 -0.018019972813270637 0.00098977786224093713 0 -0.015517211423614915 -0.0036403883401770489 0 -0.016140683074568358 -0.0026283190521313626 0 -0.012992748858753012 0.00083249163718525951 0 -0.011700897936131285 -3.0304215432028065e-05 0 -0.011488435672736115 0.0070804689755754966 0 -0.007129399875845985 0.0061650518772835335 0 -0.0037998669179740295 0.0094640546560436547 0 -0.016140683074568358 -0.0026283190521313626 0 -0.011700897936131285 -3.0304215432028065e-05 0 -0.0098104149391478029 -0.00069173724610612072 0 -0.018019972813270637 0.00098977786224093713 0 -0.0058513359221840037 -0.00020449305617426921 0 -0.012992748858753012 0.00083249163718525951 0 -0.01220151302625334 0.00045373668815641553 0 -0.011700897936131285 -3.0304215432028065e-05 0 -0.012267787910814841 -0.0032285735965062981 0 -0.012423367620135158 -0.0029123263172179154 0 -0.015517211423614915 -0.0036403883401770489 0 -0.012267787910814841 -0.0032285735965062981 0 -0.0061205037978793514 0.0048437264819844068 0 -0.007129399875845985 0.0061650518772835335 0 -0.0042566853588116684 0.0066381143618313536 0 -0.007129399875845985 0.0061650518772835335 0 -0.0042566853588116684 0.0066381143618313536 0 -0.0037998669179740295 0.0094640546560436547 0 -0.012201379192134912 0.00045446690119914292 0 -0.011700897936131285 -3.0304215432028065e-05 0 -0.0098104149391478029 -0.00069173724610612072 0 -0.012267787910814841 -0.0032285735965062981 0 -0.0058513359221840037 -0.00020449305617426921 0 -0.0095661518607246861 -0.0092241940275694882 0 -0.007639299939645447 -0.0071357963301539968 0 -0.0092283622124608999 -0.0039769431521442973 0 -0.0089550732289311492 -0.0094625458422643062 0 -0.0072483115808660509 -0.010286000429247544 0 -0.007639299939645447 -0.0071357963301539968 0 -0.015517211423614915 -0.0036403883401770489 0 -0.0096386171705785586 -0.0061559801841766975 0 -0.0095167564838616377 -0.009190081574450849 0 -0.0089550732289311492 -0.0094625458422643062 0 -0.007639299939645447 -0.0071357963301539968 0 -0.015517211423614915 -0.0036403883401770489 0 -0.018596510359150116 -0.003963455064078184 0 -0.0095661518607246861 -0.0092241940275694882 0 -0.013507023292893321 -0.0051894083411104909 0 -0.0092283622124608999 -0.0039769431521442973 0 -0.024397593834051549 -0.0014207825026675634 0 -0.023807256054546581 -0.0017844315589069651 0 -0.023489767451522474 -0.0026216851668567709 0 -0.02310100176297665 -0.0018945509101386529 0 -0.023560719844498122 -0.0013419567924785837 0 -0.023807256054546581 -0.0017844315589069651 0 -0.023560719844498122 -0.0013419567924785837 0 -0.023966872558631919 -0.0012963721443816488 0 -0.023807256054546581 -0.0017844315589069651 0 -0.023966872558631919 -0.0012963721443816488 0 -0.024498226575106592 -0.0014156309496607337 0 -0.023807256054546581 -0.0017844315589069651 0 -0.015517211423614915 -0.0036403883401770489 0 -0.025312447905473975 -0.00049718373302108621 0 -0.02310100176297665 -0.0018945509101386529 0 -0.023807256054546581 -0.0017844315589069651 0 -0.023489767451522474 -0.0026216851668567709 0 -0.013507023292893321 -0.0051894083411104909 0 -0.0092283622124608999 -0.0039769431521442973 0 -0.013296173146649539 -5.9425681938609783e-05 0 -0.0066761178121664006 -0.0050716040318782227 0 -0.0092283622124608999 -0.0039769431521442973 0 -0.0055151437438522213 -0.0025295262811390298 0 -0.007639299939645447 -0.0071357963301539968 0 -0.0066761178121664006 -0.0050716040318782227 0 -0.0092283622124608999 -0.0039769431521442973 0 -0.0055151437438522213 -0.0025295262811390298 0 -0.0043219023363409576 -0.0066517844820194894 0 -0.0020607424287318074 -0.0061456279253984539 0 -0.0020031397562453356 -0.0096254430007594351 0 0.0014227734531717519 -0.0086829939303716356 0 0.0010282845408592816 -0.016288348159192736 0 0.0029183652975901379 -0.018061056720737545 0 0.00302037998888707 -0.016964897409418204 0 -0.0066761178121664006 -0.0050716040318782227 0 -0.0055151437438522213 -0.0025295262811390298 0 -0.0043219023363409576 -0.0066517844820194894 0 0.0010282845408592816 -0.016288348159192736 0 0.00302037998888707 -0.016964897409418204 0 0.002626849975753675 -0.01565222005857779 0 -0.0072483115808660509 -0.010286000429247544 0 -0.007639299939645447 -0.0071357963301539968 0 -0.0043219023363409576 -0.0066517844820194894 0 -0.0072483115808660509 -0.010286000429247544 0 -0.0043219023363409576 -0.0066517844820194894 0 -0.0007259070673467879 -0.0082970924402892467 0 -0.007639299939645447 -0.0071357963301539968 0 -0.0066761178121664006 -0.0050716040318782227 0 -0.0043219023363409576 -0.0066517844820194894 0 -0.0036241406219998818 -0.0078482784831303606 0 0.0014227734531717519 -0.0086829939303716356 0 0.007211911568819113 -0.0010829865711635062 0 0.004766817476614134 -0.0014150798484670849 0 0.0050846722132471909 -0.00081546837817490477 0 0.0050179559617285043 -0.0007473720607312726 0 0.0049776075861295227 -0.00084776611397541441 0 0.007211911568819113 -0.0010829865711635062 0 0.0053988426278604278 -0.003578252200432331 0 0.0053988426278604278 -0.003578252200432331 0 0.004766817476614134 -0.0014150798484670849 0 0.01225687455096435 0.005255303355765603 0 0.012493693010825868 0.0049782277157344942 0 0.012191549259634501 0.0048414030160106678 0 0.007211911568819113 -0.0010829865711635062 0 0.0074001295538322406 -0.00048685152647938321 0 0.012067904718114383 0.0054473368685364308 0 0.01225687455096435 0.005255303355765603 0 0.012842994810793415 0.0052060960523021395 0 0.012071313870081793 0.0054367766611552364 0 0.01225687455096435 0.005255303355765603 0 0.011807799596670446 0.0053550256103113017 0 0.01225687455096435 0.005255303355765603 0 0.011807799596670446 0.0053550256103113017 0 0.012191549259634501 0.0048414030160106678 0 -0.0043219023363409576 -0.0066517844820194894 0 -0.0007259070673467879 -0.0082970924402892467 0 -0.0019878736583016821 -0.0060876475709353301 0 0.0053988426278604278 -0.003578252200432331 0 0.0014227734531717519 -0.0086829939303716356 0 -0.00048561341054923824 -0.0076719685150543745 0 -0.0007259070673467879 -0.0082970924402892467 0 -0.0019878736583016821 -0.0060876475709353301 0 0.0072844632394121877 -0.0052876244802903651 0 0.0075139492477828158 -0.0038643630753714565 0 0.0086176977537520665 -0.0036060711045313438 0 0.0072844632394121877 -0.0052876244802903651 0 0.0070599371621134777 -0.0050504758598151596 0 0.0075139492477828158 -0.0038643630753714565 0 0.0014227734531717519 -0.0086829939303716356 0 0.0053138643539474015 -0.0098469002718104652 0 0.0043138424420468835 -0.0075705318707562632 0 0.0045043384807943445 -0.0077938367946883032 0 0.0042073136772319492 -0.0078693031048540796 0 0.0053988426278604278 -0.003578252200432331 0 0.0053138643539474015 -0.0098469002718104652 0 0.004033871215739027 -0.017779578067894874 0 0.0043144873692746921 -0.017034989085579745 0 0.00302037998888707 -0.016964897409418204 0 0.0053138643539474015 -0.0098469002718104652 0 0.005669595953066214 -0.015240870003951459 0 0.0029183652975901379 -0.018061056720737545 0 0.004033871215739027 -0.017779578067894874 0 0.00302037998888707 -0.016964897409418204 0 0.0043144873692746921 -0.017034989085579745 0 0.00302037998888707 -0.016964897409418204 0 0.002626849975753675 -0.01565222005857779 0 0.005669595953066214 -0.015240870003951459 0 0.0028749090566092916 -0.01606896928506122 0 0.0050393149547710648 -0.017684297310512374 0 0.004528306899621551 -0.015798054463763485 0 0.002626849975753675 -0.01565222005857779 0 0.005669595953066214 -0.015240870003951459 0 0.0057405770131802036 -0.015976518647181633 0 0.0053843023283958995 -0.017200441363324988 0 0.0064512197487512721 -0.016712882473967881 0 0.0060772213850681265 -0.015014699400480811 0 0.0064512197487512721 -0.016712882473967881 0 0.0078879761928718345 -0.01734189153396172 0 0.006955335374524251 -0.015970209451185699 0 0.010205570719575849 -0.0062147701608983672 0 0.011904151172704935 -0.0058140800256750681 0 0.011233323390124957 -0.0070257521017892182 0 0.00789683404522659 -0.0095753981316911048 0 0.010521395097924831 -0.01185562837363744 0 0.0064512197487512721 -0.016712882473967881 0 0.00611190461135077 -0.017766515803682322 0 0.0078879761928718345 -0.01734189153396172 0 0.0053843023283958995 -0.017200441363324988 0 0.0064512197487512721 -0.016712882473967881 0 0.00611190461135077 -0.017766515803682322 0 0.0057740457822227503 -0.011075245531557252 0 0.005908205208491636 -0.010732683138486278 0 0.0062165630894721281 -0.010973335432091122 0 0.0053138643539474015 -0.0098469002718104652 0 0.00789683404522659 -0.0095753981316911048 0 0.005669595953066214 -0.015240870003951459 0 0.00789683404522659 -0.0095753981316911048 0 0.008117051302375668 -0.017650247996665088 0 0.011908441158255579 -0.016754312441131076 0 0.0088795792296017945 -0.015673899099781535 0 0.012206459913719169 -0.0076222099042277686 0 0.012924644517124653 -0.0086719730644069654 0 0.016066169869341784 -0.0067192388628928307 0 0.008117051302375668 -0.017650247996665088 0 0.006955335374524251 -0.015970209451185699 0 0.0088795792296017945 -0.015673899099781535 0 0.010521395097924831 -0.01185562837363744 0 0.0083507784797386339 -0.016384905658613062 0 0.010521395097924831 -0.01185562837363744 0 0.014968458460147533 -0.0025793004588059174 0 0.013955293896933891 0.0060459960986430014 0 0.013666143230864987 0.0049552855967468631 0 0.015379423386121017 0.0049598602624616036 0 0.016111293238277393 0.0014840451421958649 0 0.016274694256951897 0.0015337643483968053 0 0.016077294490174966 0.0017735882344555214 0 0.011904151172704935 -0.0058140800256750681 0 0.01247234840362885 -0.0066357925072065083 0 0.011233323390124957 -0.0070257521017892182 0 0.014968458460147533 -0.0025793004588059174 0 0.012657747105824889 -0.0010446323486183345 0 0.012657747105824889 -0.0010446323486183345 0 0.01548358504358781 0.0035818107868289795 0 0.014968458460147533 -0.0025793004588059174 0 0.018078341864821854 0.0017830081987832542 0 0.016111293238277393 0.0014840451421958649 0 0.016077294490174966 0.0017735882344555214 0 0.015989155367177179 0.0017496321844303838 0 0.007211911568819113 -0.0010829865711635062 0 0.012657747105824889 -0.0010446323486183345 0 0.0072844632394121877 -0.0052876244802903651 0 0.0086176977537520665 -0.0036060711045313438 0 0.0097634858539461279 -0.0045159383780602148 0 0.012067904718114383 0.0054473368685364308 0 0.013955293896933891 0.0060459960986430014 0 0.012842994810793415 0.0052060960523021395 0 0.00789683404522659 -0.0095753981316911048 0 0.012657747105824889 -0.0010446323486183345 0 0.013955293896933891 0.0060459960986430014 0 0.012842994810793415 0.0052060960523021395 0 0.013666143230864987 0.0049552855967468631 0 0.01225687455096435 0.005255303355765603 0 0.012842994810793415 0.0052060960523021395 0 0.012493693010825868 0.0049782277157344942 0 0.012685245260879307 0.0046106553855794546 0 0.013666143230864987 0.0049552855967468631 0 0.013168874234623849 0.0040876090859687962 0 0.012842994810793415 0.0052060960523021395 0 0.012685245260879307 0.0046106553855794546 0 0.012493693010825868 0.0049782277157344942 0 0.013666143230864987 0.0049552855967468631 0 0.013168874234623849 0.0040876090859687962 0 0.014493206718739932 0.0033473583606467715 0 0.012842994810793415 0.0052060960523021395 0 0.012685245260879307 0.0046106553855794546 0 0.013666143230864987 0.0049552855967468631 0 0.013168874234623849 0.0040876090859687962 0 0.014493206718739932 0.0033473583606467715 0 0.011999892763971657 0.0031697200334371424 0 0.012685245260879307 0.0046106553855794546 0 0.013168874234623849 0.0040876090859687962 0 0.012459067418506954 0.0040261461777770019 0 0.013168874234623849 0.0040876090859687962 0 0.011999892763971657 0.0031697200334371424 0 0.012459067418506954 0.0040261461777770019 0 0.013666143230864987 0.0049552855967468631 0 0.015379423386121017 0.0049598602624616036 0 0.014493206718739932 0.0033473583606467715 0 0.015379423386121017 0.0049598602624616036 0 0.014493206718739932 0.0033473583606467715 0 0.016819064384851114 0.0038620144925533375 0 0.02027590684243314 0.01597646805107187 0 0.021235833058073861 0.015499470042096902 0 0.020702963495013556 0.014708083435104682 0 0.02027590684243314 0.01597646805107187 0 0.019416065609265655 0.015211898020166146 0 0.020702963495013556 0.014708083435104682 0 0.02027590684243314 0.01597646805107187 0 0.021235833058073861 0.015499470042096902 0 0.02224259281663421 0.016150521446717626 0 0.019728628095964425 0.015012082279619855 0 0.02051350099581906 0.014787036188486886 0 0.021235833058073861 0.015499470042096902 0 0.021718622072526925 0.015163789423516224 0 0.020702963495013556 0.014708083435104682 0 0.02027590684243314 0.01597646805107187 0 0.019416065609265655 0.015211898020166146 0 0.0181204979527472 0.01577280444999973 0 0.017207741238570776 0.0095150757535749 0 0.015364410037225893 0.011008428325202779 0 0.019728628095964425 0.015012082279619855 0 0.015364410037225893 0.011008428325202779 0 0.019917206211904903 0.015175549391368363 0 0.019299884891906222 0.015086417351302495 0 0.018942629404472167 0.01570231568881595 0 0.019917206211904903 0.015175549391368363 0 0.019299884891906222 0.015086417351302495 0 0.020000916370759351 0.014244113674299485 0 0.019299884891906222 0.015086417351302495 0 0.018625529890718553 0.015109708576727375 0 0.018972594081784918 0.014561306865793825 0 0.019299884891906222 0.015086417351302495 0 0.018942629404472167 0.01570231568881595 0 0.018625529890718553 0.015109708576727375 0 0.015364410037225893 0.011008428325202779 0 0.006835454011728059 0.0059990482841446018 0 0.015364410037225893 0.011008428325202779 0 0.0084132051360479073 0.012163425311758803 0 0.013069264258961332 0.0097369202752797777 0 0.0075201653884276352 0.0093206311164916577 0 0.0085039088775272515 0.011919424921765837 0 0.018942629404472167 0.01570231568881595 0 0.018625529890718553 0.015109708576727375 0 0.018210392112637964 0.015666188758906959 0 0.0084132051360479073 0.012163425311758803 0 0.006835454011728059 0.0059990482841446018 0 -9.5226654146327735e-05 0.015217827235208238 0 0.004292167113977275 0.015530142010863678 0 0.0023431588968982555 0.010518215418536488 0 -0.0022224773238438663 0.0091987879900584969 0 0.0084132051360479073 0.012163425311758803 0 -0.003299531190305465 0.0039394139918010988 0 0.0035490587570426199 0.0037106448092268417 0 0.0042851960813952992 0.0056413497838673091 0 0.0084132051360479073 0.012163425311758803 0 0.010342580487379805 0.013283847881578692 0 0.018625529890718553 0.015109708576727375 0 0.018210392112637964 0.015666188758906959 0 0.017625074348449406 0.014453978751954102 0 -0.0030992311943972622 0.0032226406673719001 0 -0.003299531190305465 0.0039394139918010988 0 0.0035490587570426199 0.0037106448092268417 0 -0.003299531190305465 0.0039394139918010988 0 -0.0042566853588116684 0.0066381143618313536 0 0.0042851960813952992 0.0056413497838673091 0 -0.0058513359221840037 -0.00020449305617426921 0 0.006835454011728059 0.0059990482841446018 0 -0.0058513359221840037 -0.00020449305617426921 0 0.004766817476614134 -0.0014150798484670849 0 -0.0042566853588116684 0.0066381143618313536 0 -0.0037998669179740295 0.0094640546560436547 0 0.0042851960813952992 0.0056413497838673091 0 -0.0016192678476385474 0.001301171238191309 0 0.0038524724573614786 0.0029855646466901819 0 0.0024743830474385055 -0.00063014266815082621 0 0.011807799596670446 0.0053550256103113017 0 0.011982146123062266 0.0042354552071798097 0 0.011129612863561506 0.0035811061872969082 0 0.004766817476614134 -0.0014150798484670849 0 0.006835454011728059 0.0059990482841446018 0 0.011807799596670446 0.0053550256103113017 0 0.012191549259634501 0.0048414030160106678 0 0.011982146123062266 0.0042354552071798097 0 0.012685245260879307 0.0046106553855794546 0 0.012493693010825868 0.0049782277157344942 0 0.012191549259634501 0.0048414030160106678 0 0.012685245260879307 0.0046106553855794546 0 0.012191549259634501 0.0048414030160106678 0 0.011982146123062266 0.0042354552071798097 0 0.012685245260879307 0.0046106553855794546 0 0.011982146123062266 0.0042354552071798097 0 0.012459067418506954 0.0040261461777770019 0 0.011999892763971657 0.0031697200334371424 0 0.011982146123062266 0.0042354552071798097 0 0.012459067418506954 0.0040261461777770019 0 0.011999892763971657 0.0031697200334371424 0 0.011982146123062266 0.0042354552071798097 0 0.011129612863561506 0.0035811061872969082 0 0.026754465642461426 0.002547456059575104 0 0.026776313769172815 0.0019661493254688814 0 0.027342056581031261 0.0023610272472216242 0 0.026776313769172815 0.0019661493254688814 0 0.027489214496461824 0.0015478193316850943 0 0.027342056581031261 0.0023610272472216242 0 0.026776313769172815 0.0019661493254688814 0 0.026358266087430204 0.0011751375548930782 0 0.026927774297737007 0.001370575903498702 0 0.026776313769172815 0.0019661493254688814 0 0.027489214496461824 0.0015478193316850943 0 0.026927774297737007 0.001370575903498702 0 0.020921929652874632 -0.0019375285564586081 0 0.025767575030670526 -0.0020480453322379751 0 0.020921929652874632 -0.0019375285564586081 0 0.023820920025182487 0.0019798977559857081 0 0.020119607498145314 0.0018843350575745658 0 0.020141457715898411 0.0019539616639124824 0 0.020117311299991471 0.0019905877153295953 0 0.020139001662656513 -0.0064360678728090613 0 0.016503724637033076 -0.0075641366803953208 0 0.0199893240151496 -0.0058033496997429183 0 0.020921929652874632 -0.0019375285564586081 0 0.019213925760392287 -0.010168813539900307 0 0.020141457715898411 0.0019539616639124824 0 0.020117311299991471 0.0019905877153295953 0 0.020161736793024427 0.0020115706385121696 0 0.020141457715898411 0.0019539616639124824 0 0.020161736793024427 0.0020115706385121696 0 0.020160260051458316 0.0019269669685620695 0 0.020161736793024427 0.0020115706385121696 0 0.020160260051458316 0.0019269669685620695 0 0.020174337402370398 0.0020105976468189398 0 0.016503724637033076 -0.0075641366803953208 0 0.016066169869341784 -0.0067192388628928307 0 0.0199893240151496 -0.0058033496997429183 0 0.013590991109664345 -0.011944158063777074 0 0.019213925760392287 -0.010168813539900307 0 0.020921929652874632 -0.0019375285564586081 0 0.018452240345086576 -0.0029204711069289852 0 0.020119607498145314 0.0018843350575745658 0 0.020141457715898411 0.0019539616639124824 0 0.020160260051458316 0.0019269669685620695 0 0.010521395097924831 -0.01185562837363744 0 0.013590991109664345 -0.011944158063777074 0 0.014968458460147533 -0.0025793004588059174 0 0.018452240345086576 -0.0029204711069289852 0 0.012924644517124653 -0.0086719730644069654 0 0.016503724637033076 -0.0075641366803953208 0 0.016066169869341784 -0.0067192388628928307 0 0.020160260051458316 0.0019269669685620695 0 0.020180717446638758 0.0019892799466046211 0 0.020174337402370398 0.0020105976468189398 0 0.020163034102111635 0.0019357079569455227 0 0.020160260051458316 0.0019269669685620695 0 0.020180717446638758 0.0019892799466046211 0 0.014493206718739932 0.0033473583606467715 0 0.017027471671596163 0.0035665634479694428 0 0.016819064384851114 0.0038620144925533375 0 0.016077294490174966 0.0017735882344555214 0 0.015989155367177179 0.0017496321844303838 0 0.015886761126875336 0.0020755145874353873 0 0.018078341864821854 0.0017830081987832542 0 0.019718646168263097 0.0059164365062377147 0 0.01548358504358781 0.0035818107868289795 0 0.019718646168263097 0.0059164365062377147 0 0.020180717446638758 0.0019892799466046211 0 0.020174337402370398 0.0020105976468189398 0 0.020186930186117832 0.0020630686291427344 0 0.020174337402370398 0.0020105976468189398 0 0.02018214159672873 0.0020781685295232308 0 0.020186930186117832 0.0020630686291427344 0 0.021175777410447363 0.0096821485756223881 0 0.019718646168263097 0.0059164365062377147 0 0.019720685578738437 0.0085119635121112241 0 0.01923698908650091 0.0084776563652170372 0 0.020354693882021047 0.0075464785277818891 0 0.020135322155380723 0.0097284403705605749 0 0.021175777410447363 0.0096821485756223881 0 0.020135322155380723 0.0097284403705605749 0 0.019718646168263097 0.0059164365062377147 0 0.021235833058073861 0.015499470042096902 0 0.02224259281663421 0.016150521446717626 0 0.021718622072526925 0.015163789423516224 0 0.017207741238570776 0.0095150757535749 0 0.020135322155380723 0.0097284403705605749 0 0.021718622072526925 0.015163789423516224 0 0.022336667346507372 0.015322229237224524 0 0.02239759425658357 0.014773380300729871 0 0.02224259281663421 0.016150521446717626 0 0.021718622072526925 0.015163789423516224 0 0.022336667346507372 0.015322229237224524 0 0.02224259281663421 0.016150521446717626 0 0.022336667346507372 0.015322229237224524 0 0.02298961855262828 0.015195260859270808 0 0.023573942754330383 0.014492944277303101 0 0.023601969962350599 0.014498161719119778 0 0.023769061098297264 0.014322615161034702 0 0.021175777410447363 0.0096821485756223881 0 0.023693539972121608 0.014855082008854754 0 0.023475530759975403 0.014655146228430111 0 0.023922186762190652 0.01436116818066545 0 0.024029607309898803 0.014731676015824143 0 0.023601969962350599 0.014498161719119778 0 0.023769061098297264 0.014322615161034702 0 0.023922186762190652 0.01436116818066545 0 0.020135322155380723 0.0097284403705605749 0 0.022957648191093905 0.015026345029144047 0 0.022336667346507372 0.015322229237224524 0 0.02298961855262828 0.015195260859270808 0 0.02239759425658357 0.014773380300729871 0 0.021175777410447363 0.0096821485756223881 0 0.021668716273257727 0.0083735926926680505 0 0.020161736793024427 0.0020115706385121696 0 0.02018214159672873 0.0020781685295232308 0 0.020160842123080287 0.0020854200009369126 0 0.020161736793024427 0.0020115706385121696 0 0.020174337402370398 0.0020105976468189398 0 0.02018214159672873 0.0020781685295232308 0 0.021668716273257727 0.0083735926926680505 0 0.025516714680106047 0.0071965177616850539 0 0.020117311299991471 0.0019905877153295953 0 0.020160842123080287 0.0020854200009369126 0 0.02013226211415552 0.0020993951870235256 0 0.020117311299991471 0.0019905877153295953 0 0.020161736793024427 0.0020115706385121696 0 0.020160842123080287 0.0020854200009369126 0 0.023922186762190652 0.01436116818066545 0 0.024029607309898803 0.014731676015824143 0 0.024177616675596158 0.014507290616145987 0 0.024029607309898803 0.014731676015824143 0 0.024177616675596158 0.014507290616145987 0 0.024599990910513125 0.014754576904655677 0 0.023922186762190652 0.01436116818066545 0 0.024177616675596158 0.014507290616145987 0 0.02416553587440802 0.014264956031501085 0 0.024177616675596158 0.014507290616145987 0 0.024418542383829782 0.014371006147647756 0 0.02416553587440802 0.014264956031501085 0 0.024177616675596158 0.014507290616145987 0 0.024418542383829782 0.014371006147647756 0 0.024599990910513125 0.014754576904655677 0 0.031075826518255478 0.010394658517972489 0 0.030897064356280601 0.01013796215858814 0 0.031146038025819885 0.0099235325181258171 0 0.027877616339444605 0.01307606210152589 0 0.025516714680106047 0.0071965177616850539 0 0.024418542383829782 0.014371006147647756 0 0.024759154793563092 0.014247535877245423 0 0.024599990910513125 0.014754576904655677 0 0.0307841795016051 0.010418194861286513 0 0.031075826518255478 0.010394658517972489 0 0.030897064356280601 0.01013796215858814 0 0.030712545971579786 0.00987905114638323 0 0.030897064356280601 0.01013796215858814 0 0.031146038025819885 0.0099235325181258171 0 0.026754465642461426 0.002547456059575104 0 0.027342056581031261 0.0023610272472216242 0 0.027174885860282202 0.0031752519300300821 0 0.029057431702910769 0.0065126000487160602 0 0.025516714680106047 0.0071965177616850539 0 0.026451443221970964 0.00310849770835485 0 0.026754465642461426 0.002547456059575104 0 0.027174885860282202 0.0031752519300300821 0 0.023820920025182487 0.0019798977559857081 0 0.025516714680106047 0.0071965177616850539 0 0.027678084938371837 0.013684783692420656 0 0.027733329314431603 0.013832518654395718 0 0.02776858826884988 0.013286312554401535 0 0.027733915790522094 0.012910257064383684 0 0.027683287754319403 0.013427042659285938 0 0.025041823899935811 0.013191177243246715 0 0.025549984781207756 0.01315208767218806 0 0.024883554808076455 0.012717300478389315 0 0.025041823899935811 0.013191177243246715 0 0.025492128443089346 0.013448581184205754 0 0.024687924280233177 0.013484518152983386 0 0.025041823899935811 0.013191177243246715 0 0.025492128443089346 0.013448581184205754 0 0.025549984781207756 0.01315208767218806 0 0.030968221160140346 0.010860398896798096 0 0.030902929821607004 0.010900931218852248 0 0.030933125970564638 0.010642641170154595 0 0.027326083409896808 0.012514172284254549 0 0.027733915790522094 0.012910257064383684 0 0.027794891113188728 0.011826290281616129 0 0.027618070870238872 0.012607198935678965 0 0.027424011303905104 0.012084743973743033 0 0.027733915790522094 0.012910257064383684 0 0.028817882260368712 0.011999864466492911 0 0.027326083409896808 0.012514172284254549 0 0.028817882260368712 0.011999864466492911 0 0.025492128443089346 0.013448581184205754 0 0.02444298666221292 0.014065351559464537 0 0.024687924280233177 0.013484518152983386 0 0.027326083409896808 0.012514172284254549 0 0.02378707179167 0.014498237624395404 0 0.027877616339444605 0.01307606210152589 0 0.027326083409896808 0.012514172284254549 0 0.031075826518255478 0.010394658517972489 0 0.030968221160140346 0.010860398896798096 0 0.030933125970564638 0.010642641170154595 0 0.024759154793563092 0.014247535877245423 0 0.024915682510822067 0.013722577845665209 0 0.02444298666221292 0.014065351559464537 0 0.0307841795016051 0.010418194861286513 0 0.031075826518255478 0.010394658517972489 0 0.030933125970564638 0.010642641170154595 0 0.02444298666221292 0.014065351559464537 0 0.024148693018153471 0.013510010308665018 0 0.024687924280233177 0.013484518152983386 0 0.024418542383829782 0.014371006147647756 0 0.02444298666221292 0.014065351559464537 0 0.02416553587440802 0.014264956031501085 0 0.024418542383829782 0.014371006147647756 0 0.024759154793563092 0.014247535877245423 0 0.02444298666221292 0.014065351559464537 0 0.02444298666221292 0.014065351559464537 0 0.02416553587440802 0.014264956031501085 0 0.023858952483933923 0.014040051802045277 0 0.02444298666221292 0.014065351559464537 0 0.024148693018153471 0.013510010308665018 0 0.023858952483933923 0.014040051802045277 0 0.024148693018153471 0.013510010308665018 0 0.024446153400452308 0.012993652869347816 0 0.023468622032530275 0.013079047848037442 0 0.025041823899935811 0.013191177243246715 0 0.024687924280233177 0.013484518152983386 0 0.024446153400452308 0.012993652869347816 0 0.024148693018153471 0.013510010308665018 0 0.024687924280233177 0.013484518152983386 0 0.024446153400452308 0.012993652869347816 0 0.025041823899935811 0.013191177243246715 0 0.024446153400452308 0.012993652869347816 0 0.024883554808076455 0.012717300478389315 0 0.024446153400452308 0.012993652869347816 0 0.023468622032530275 0.013079047848037442 0 0.02430344371360494 0.012234246860462537 0 0.024148693018153471 0.013510010308665018 0 0.023468622032530275 0.013079047848037442 0 0.023858952483933923 0.014040051802045277 0 0.023769061098297264 0.014322615161034702 0 0.023922186762190652 0.01436116818066545 0 0.023858952483933923 0.014040051802045277 0 0.023922186762190652 0.01436116818066545 0 0.02416553587440802 0.014264956031501085 0 0.023858952483933923 0.014040051802045277 0 0.02298961855262828 0.015195260859270808 0 0.023858952483933923 0.014040051802045277 0 0.023089677789909717 0.014432282840634818 0 0.022957648191093905 0.015026345029144047 0 0.023869378852135421 0.013998998301094388 0 0.023089677789909717 0.014432282840634818 0 0.022603873803732803 0.014015328976479237 0 0.02239759425658357 0.014773380300729871 0 0.02298961855262828 0.015195260859270808 0 0.023089677789909717 0.014432282840634818 0 0.02239759425658357 0.014773380300729871 0 0.023858952483933923 0.014040051802045277 0 0.023089677789909717 0.014432282840634818 0 0.022603873803732803 0.014015328976479237 0 0.023468622032530275 0.013079047848037442 0 0.023858952483933923 0.014040051802045277 0 0.022603873803732803 0.014015328976479237 0 0.022603873803732803 0.014015328976479237 0 0.02239759425658357 0.014773380300729871 0 0.021661236170922322 0.014414180583661878 0 0.021718622072526925 0.015163789423516224 0 0.02239759425658357 0.014773380300729871 0 0.021661236170922322 0.014414180583661878 0 0.021718622072526925 0.015163789423516224 0 0.021661236170922322 0.014414180583661878 0 0.020702963495013556 0.014708083435104682 0 0.022603873803732803 0.014015328976479237 0 0.021661236170922322 0.014414180583661878 0 0.021110424801363784 0.013412917568523249 0 0.023468622032530275 0.013079047848037442 0 0.022603873803732803 0.014015328976479237 0 0.021110424801363784 0.013412917568523249 0 0.023468622032530275 0.013079047848037442 0 0.021110424801363784 0.013412917568523249 0 0.023081086386665492 0.011775260418865093 0 0.021110424801363784 0.013412917568523249 0 0.019288418923487649 0.013597010108927767 0 0.020410482040256649 0.013315771464504272 0 0.021034457657748053 0.013459425224636083 0 0.021166069278531284 0.012827605638469998 0 0.019288418923487649 0.013597010108927767 0 0.020410482040256649 0.013315771464504272 0 0.020196937384070093 0.014090922571425994 0 0.019288418923487649 0.013597010108927767 0 0.020196937384070093 0.014090922571425994 0 0.0193204746676869 0.015131883123288762 0 0.019288418923487649 0.013597010108927767 0 0.017807113850604135 0.015895622281972187 0 0.0193204746676869 0.015131883123288762 0 0.023081086386665492 0.011775260418865093 0 0.024430714382611227 0.011625245066969251 0 0.0246713885374341 0.011204197450655798 0 0.021166069278531284 0.012827605638469998 0 0.021308185440590294 0.013620762628257475 0 0.023081086386665492 0.011775260418865093 0 0.02430344371360494 0.012234246860462537 0 0.024430714382611227 0.011625245066969251 0 0.023468622032530275 0.013079047848037442 0 0.023081086386665492 0.011775260418865093 0 0.02430344371360494 0.012234246860462537 0 0.024883554808076455 0.012717300478389315 0 0.02430344371360494 0.012234246860462537 0 0.025137416210903461 0.012053383210182098 0 0.02430344371360494 0.012234246860462537 0 0.024430714382611227 0.011625245066969251 0 0.025137416210903461 0.012053383210182098 0 0.024446153400452308 0.012993652869347816 0 0.024883554808076455 0.012717300478389315 0 0.02430344371360494 0.012234246860462537 0 0.024430714382611227 0.011625245066969251 0 0.025137416210903461 0.012053383210182098 0 0.024997440428309686 0.011338482396676501 0 0.027667401665829778 0.012381595881307696 0 0.027351031865274284 0.012832894829771894 0 0.026860428426535771 0.012128710433335676 0 0.026159760334206226 0.012497796752426533 0 0.025942991070464549 0.011656200681438992 0 0.027667401665829778 0.012381595881307696 0 0.02778587155872711 0.012846141872300577 0 0.027351031865274284 0.012832894829771894 0 0.027692346786315391 0.013644409756744099 0 0.027351031865274284 0.012832894829771894 0 0.02776858826884988 0.013286312554401535 0 0.027733915790522094 0.012910257064383684 0 0.026159760334206226 0.012497796752426533 0 0.02778587155872711 0.012846141872300577 0 0.027351031865274284 0.012832894829771894 0 0.02776858826884988 0.013286312554401535 0 0.025549984781207756 0.01315208767218806 0 0.024883554808076455 0.012717300478389315 0 0.025137416210903461 0.012053383210182098 0 0.018533789571285469 0.013565806081771952 0 0.019556814425394635 0.013217780844918203 0 0.019281984104183528 0.013868551419677721 0 0.018533789571285469 0.013565806081771952 0 0.019556814425394635 0.013217780844918203 0 0.018443250625418989 0.012695460465521721 0 0.017158460650258028 0.012991661212311881 0 0.018915249867200716 0.011729183273080432 0 0.016491144273926527 0.012145359235696561 0 0.016986771068253328 0.012913207383852701 0 0.017625074348449406 0.014453978751954102 0 0.0086039238083744293 0.0088146147333479485 0 0.010342580487379805 0.013283847881578692 0 0.00038124043646592187 0.0071221397721553236 0 0.00063691717504427787 0.0064600902632345253 0 0.0023431588968982555 0.010518215418536488 0 0.018533789571285469 0.013565806081771952 0 0.016986771068253328 0.012913207383852701 0 0.018443250625418989 0.012695460465521721 0 0.016491144273926527 0.012145359235696561 0 0.016986771068253328 0.012913207383852701 0 0.018967074499987243 0.011197394050692909 0 0.018533789571285469 0.013565806081771952 0 0.016986771068253328 0.012913207383852701 0 0.017625074348449406 0.014453978751954102 0 -0.0011337313822133753 0.0090920091289259982 0 0.00038124043646592187 0.0071221397721553236 0 0.0023431588968982555 0.010518215418536488 0 0.018625529890718553 0.015109708576727375 0 0.017625074348449406 0.014453978751954102 0 0.018972594081784918 0.014561306865793825 0 0.018533789571285469 0.013565806081771952 0 0.017625074348449406 0.014453978751954102 0 0.018972594081784918 0.014561306865793825 0 0.018533789571285469 0.013565806081771952 0 0.019281984104183528 0.013868551419677721 0 0.018972594081784918 0.014561306865793825 0 0.019281984104183528 0.013868551419677721 0 0.018972594081784918 0.014561306865793825 0 0.020000916370759351 0.014244113674299485 0 0.019299884891906222 0.015086417351302495 0 0.018972594081784918 0.014561306865793825 0 0.020000916370759351 0.014244113674299485 0 0.019917206211904903 0.015175549391368363 0 0.020000916370759351 0.014244113674299485 0 0.020702963495013556 0.014708083435104682 0 0.019281984104183528 0.013868551419677721 0 0.020000916370759351 0.014244113674299485 0 0.0198077293541963 0.013655783012755329 0 0.021110424801363784 0.013412917568523249 0 0.020000916370759351 0.014244113674299485 0 0.020702963495013556 0.014708083435104682 0 0.021661236170922322 0.014414180583661878 0 0.021110424801363784 0.013412917568523249 0 0.020702963495013556 0.014708083435104682 0 0.021110424801363784 0.013412917568523249 0 0.020397397214996969 0.013327620547922798 0 0.020410482040256649 0.013315771464504272 0 0.021110424801363784 0.013412917568523249 0 0.020000916370759351 0.014244113674299485 0 0.020397397214996969 0.013327620547922798 0 0.020000916370759351 0.014244113674299485 0 0.020397397214996969 0.013327620547922798 0 0.0198077293541963 0.013655783012755329 0 0.019556814425394635 0.013217780844918203 0 0.020397397214996969 0.013327620547922798 0 0.0198077293541963 0.013655783012755329 0 0.019556814425394635 0.013217780844918203 0 0.019281984104183528 0.013868551419677721 0 0.0198077293541963 0.013655783012755329 0 0.019556814425394635 0.013217780844918203 0 0.020517366562170451 0.013103843145465074 0 0.019403287052657422 0.012475518468346398 0 0.019556814425394635 0.013217780844918203 0 0.020397397214996969 0.013327620547922798 0 0.020517366562170451 0.013103843145465074 0 0.020808173707528754 0.013086701031260905 0 0.019237822546115141 0.013357841268854189 0 0.020517366562170451 0.013103843145465074 0 0.020410482040256649 0.013315771464504272 0 0.020196937384070093 0.014090922571425994 0 0.020397397214996969 0.013327620547922798 0 0.020517366562170451 0.013103843145465074 0 0.020410482040256649 0.013315771464504272 0 0.020196937384070093 0.014090922571425994 0 0.020819845947079002 0.014211964572495217 0 0.020318170988723273 0.015459302903881455 0 0.020517366562170451 0.013103843145465074 0 0.020196937384070093 0.014090922571425994 0 0.020819845947079002 0.014211964572495217 0 0.019762286218486053 0.016322642154543935 0 0.019237822546115141 0.013357841268854189 0 0.020517366562170451 0.013103843145465074 0 0.020819845947079002 0.014211964572495217 0 0.021603924337724078 0.013208922179383117 0 0.019023317567466398 0.017742824435360321 0 0.018544903636308518 0.017785997388366066 0 0.018037882542068666 0.019003183562004314 0 0.019023317567466398 0.017742824435360321 0 0.018544903636308518 0.017785997388366066 0 0.018874141963885097 0.017606841281081718 0 0.016703327796193383 0.017328236112788557 0 0.01744714016209091 0.018176941845139682 0 0.016154895962332855 0.018920177602478432 0 0.018544903636308518 0.017785997388366066 0 0.016703327796193383 0.017328236112788557 0 0.01744714016209091 0.018176941845139682 0 0.018544903636308518 0.017785997388366066 0 0.01744714016209091 0.018176941845139682 0 0.018037882542068666 0.019003183562004314 0 0.021018223767698675 0.009261050049918295 0 0.018967074499987243 0.011197394050692909 0 0.018091965688866021 0.0089313273438276497 0 0.019237822546115141 0.013357841268854189 0 0.018755227762219828 0.014029440151061737 0 0.01744714016209091 0.018176941845139682 0 0.018037882542068666 0.019003183562004314 0 0.016154895962332855 0.018920177602478432 0 0.019237822546115141 0.013357841268854189 0 0.018915249867200716 0.011729183273080432 0 0.019556814425394635 0.013217780844918203 0 0.019403287052657422 0.012475518468346398 0 0.018443250625418989 0.012695460465521721 0 0.014845255765941591 0.0084784248642615512 0 0.017143694082442405 0.010213919990512245 0 0.018091965688866021 0.0089313273438276497 0 0.0053409362344018722 0.0086494940415515285 0 0.018755227762219828 0.014029440151061737 0 0.016491144273926527 0.012145359235696561 0 0.018967074499987243 0.011197394050692909 0 0.017143694082442405 0.010213919990512245 0 0.018967074499987243 0.011197394050692909 0 0.017143694082442405 0.010213919990512245 0 0.018091965688866021 0.0089313273438276497 0 0.016703327796193383 0.017328236112788557 0 0.016154895962332855 0.018920177602478432 0 0.015456191081383469 0.017723936353359438 0 0.01438416068020242 0.018685486592812325 0 0.016154895962332855 0.018920177602478432 0 0.015456191081383469 0.017723936353359438 0 0.016703327796193383 0.017328236112788557 0 0.015456191081383469 0.017723936353359438 0 0.015740075513764707 0.016687398031719557 0 0.016703327796193383 0.017328236112788557 0 0.015740075513764707 0.016687398031719557 0 0.016305662870548607 0.015678104001101371 0 0.015456191081383469 0.017723936353359438 0 0.015740075513764707 0.016687398031719557 0 0.015005475372256272 0.016661381199390479 0 0.015740075513764707 0.016687398031719557 0 0.015271031898818477 0.016074141009425488 0 0.015005475372256272 0.016661381199390479 0 0.015740075513764707 0.016687398031719557 0 0.016305662870548607 0.015678104001101371 0 0.015271031898818477 0.016074141009425488 0 0.016305662870548607 0.015678104001101371 0 0.01432307379522163 0.014238388888426878 0 0.014800044024238861 0.015376625822006247 0 0.01861764742883408 0.017853885274665627 0 0.017705599455928006 0.016455094878626762 0 0.01604499447523958 0.016208686864560898 0 0.016305662870548607 0.015678104001101371 0 0.015271031898818477 0.016074141009425488 0 0.014800044024238861 0.015376625822006247 0 0.01861764742883408 0.017853885274665627 0 0.018938355296009179 0.017335316566934617 0 0.017705599455928006 0.016455094878626762 0 0.017422907264712916 0.016789228010771529 0 0.015177502575075157 0.01517458338466561 0 0.018938355296009179 0.017335316566934617 0 0.018944985076288719 0.017505267410852239 0 0.019052300089057166 0.01758824887051803 0 0.01861764742883408 0.017853885274665627 0 0.018938355296009179 0.017335316566934617 0 0.018811806267603468 0.017650680107559311 0 0.018938355296009179 0.017335316566934617 0 0.018811806267603468 0.017650680107559311 0 0.018944985076288719 0.017505267410852239 0 0.018811806267603468 0.017650680107559311 0 0.0188409871583608 0.017593421196780847 0 0.018944985076288719 0.017505267410852239 0 0.018544903636308518 0.017785997388366066 0 0.018811806267603468 0.017650680107559311 0 0.0188409871583608 0.017593421196780847 0 0.018509757049683762 0.017757118414376716 0 0.017422907264712916 0.016789228010771529 0 0.018544903636308518 0.017785997388366066 0 0.01861764742883408 0.017853885274665627 0 0.018811806267603468 0.017650680107559311 0 0.018544903636308518 0.017785997388366066 0 0.016703327796193383 0.017328236112788557 0 0.016305662870548607 0.015678104001101371 0 0.018544903636308518 0.017785997388366066 0 0.018874141963885097 0.017606841281081718 0 0.0188409871583608 0.017593421196780847 0 0.018874141963885097 0.017606841281081718 0 0.018909323666513361 0.017508516353089726 0 0.018968500781193106 0.017454592657818905 0 0.019023317567466398 0.017742824435360321 0 0.018874141963885097 0.017606841281081718 0 0.018968500781193106 0.017454592657818905 0 0.018874141963885097 0.017606841281081718 0 0.018909323666513361 0.017508516353089726 0 0.0188409871583608 0.017593421196780847 0 0.020196937384070093 0.014090922571425994 0 0.020318170988723273 0.015459302903881455 0 0.0193204746676869 0.015131883123288762 0 0.019762286218486053 0.016322642154543935 0 0.019603659753560123 0.016436863448070636 0 0.018909323666513361 0.017508516353089726 0 0.018968500781193106 0.017454592657818905 0 0.018915106751796942 0.017438800623548141 0 0.018915106751796942 0.017438800623548141 0 0.018815902858723702 0.017560552302093576 0 0.018900138447114925 0.017033106182894789 0 0.018968500781193106 0.017454592657818905 0 0.018915106751796942 0.017438800623548141 0 0.018900138447114925 0.017033106182894789 0 0.018909323666513361 0.017508516353089726 0 0.018915106751796942 0.017438800623548141 0 0.018944985076288719 0.017505267410852239 0 0.018915106751796942 0.017438800623548141 0 0.018944985076288719 0.017505267410852239 0 0.019011190784705485 0.017695278325502026 0 0.018909323666513361 0.017508516353089726 0 0.0188409871583608 0.017593421196780847 0 0.018944985076288719 0.017505267410852239 0 0.019011190784705485 0.017695278325502026 0 0.019128500152851793 0.018191406514068618 0 0.019165513817964348 0.017858866416387387 0 0.018915106751796942 0.017438800623548141 0 0.019011190784705485 0.017695278325502026 0 0.018887419614564058 0.017834409378485606 0 0.019011190784705485 0.017695278325502026 0 0.018887419614564058 0.017834409378485606 0 0.019128500152851793 0.018191406514068618 0 0.018915106751796942 0.017438800623548141 0 0.018815902858723702 0.017560552302093576 0 0.018887419614564058 0.017834409378485606 0 0.018815902858723702 0.017560552302093576 0 0.018887419614564058 0.017834409378485606 0 0.018671900390813564 0.018080300307940198 0 0.018671900390813564 0.018080300307940198 0 0.018864580459460191 0.018343885683017265 0 0.018573737199413059 0.018607269068205264 0 0.018887419614564058 0.017834409378485606 0 0.018671900390813564 0.018080300307940198 0 0.018864580459460191 0.018343885683017265 0 0.018864580459460191 0.018343885683017265 0 0.019128500152851793 0.018191406514068618 0 0.019192437815228044 0.019145018485187078 0 0.018887419614564058 0.017834409378485606 0 0.018864580459460191 0.018343885683017265 0 0.019128500152851793 0.018191406514068618 0 0.019128500152851793 0.018191406514068618 0 0.019427785738216016 0.018267940393473164 0 0.019447475998792336 0.01862592691491597 0 0.019427785738216016 0.018267940393473164 0 0.019788020052435195 0.018056514973446878 0 0.019165513817964348 0.017858866416387387 0 0.019128500152851793 0.018191406514068618 0 0.019427785738216016 0.018267940393473164 0 0.019165513817964348 0.017858866416387387 0 0.019427785738216016 0.018267940393473164 0 0.019700381587785004 0.018572729890919175 0 0.019447475998792336 0.01862592691491597 0 0.019700381587785004 0.018572729890919175 0 0.019788020052435195 0.018056514973446878 0 0.020091279064993549 0.018929817218624273 0 0.016877724128517606 0.014097612286890415 0 0.017707516536843101 0.014732204377951053 0 0.016523505288625385 0.013091074250419192 0 0.018719317052930767 0.016448501540161618 0 0.018324384238748194 0.016109138467147736 0 0.016877724128517606 0.014097612286890415 0 0.017707516536843101 0.014732204377951053 0 0.0158808576838614 0.014516487100937706 0 0.019427785738216016 0.018267940393473164 0 0.019700381587785004 0.018572729890919175 0 0.019788020052435195 0.018056514973446878 0 0.018938355296009179 0.017335316566934617 0 0.017707516536843101 0.014732204377951053 0 0.017705599455928006 0.016455094878626762 0 0.018970604722319956 0.01730110106950105 0 0.018719317052930767 0.016448501540161618 0 0.017707516536843101 0.014732204377951053 0 0.017705599455928006 0.016455094878626762 0 0.01604499447523958 0.016208686864560898 0 0.018938355296009179 0.017335316566934617 0 0.019788020052435195 0.018056514973446878 0 0.019052300089057166 0.01758824887051803 0 0.019788020052435195 0.018056514973446878 0 0.019052300089057166 0.01758824887051803 0 0.019165513817964348 0.017858866416387387 0 0.018944985076288719 0.017505267410852239 0 0.019011190784705485 0.017695278325502026 0 0.019052300089057166 0.01758824887051803 0 0.019011190784705485 0.017695278325502026 0 0.019052300089057166 0.01758824887051803 0 0.019165513817964348 0.017858866416387387 0 0.027686058739569291 0.011064198153609364 0 0.02707139118047348 0.011322471572327136 0 0.027105551573613662 0.01072678986084208 0 0.027686058739569291 0.011064198153609364 0 0.02707139118047348 0.011322471572327136 0 0.027638966828338173 0.011737866325274059 0 0.027667401665829778 0.012381595881307696 0 0.027638966828338173 0.011737866325274059 0 0.026860428426535771 0.012128710433335676 0 0.02707139118047348 0.011322471572327136 0 0.027638966828338173 0.011737866325274059 0 0.026860428426535771 0.012128710433335676 0 0.025942991070464549 0.011656200681438992 0 0.025788282666726312 0.010934246807841058 0 0.02707139118047348 0.011322471572327136 0 0.026860428426535771 0.012128710433335676 0 0.025849173584576338 0.010948879347517468 0 0.024997440428309686 0.011338482396676501 0 0.025849173584576338 0.010948879347517468 0 0.0246713885374341 0.011204197450655798 0 0.024430714382611227 0.011625245066969251 0 0.024997440428309686 0.011338482396676501 0 0.0246713885374341 0.011204197450655798 0 0.021308185440590294 0.013620762628257475 0 0.021567760628097649 0.013873356891976669 0 0.025849173584576338 0.010948879347517468 0 0.0246713885374341 0.011204197450655798 0 0.026464136876330476 0.010585580582538518 0 0.025849173584576338 0.010948879347517468 0 0.026464136876330476 0.010585580582538518 0 0.027105551573613662 0.01072678986084208 0 0.02707139118047348 0.011322471572327136 0 0.025849173584576338 0.010948879347517468 0 0.027105551573613662 0.01072678986084208 0 0.018090118217465971 0.017213835805821327 0 0.017807113850604135 0.015895622281972187 0 0.018900138447114925 0.017033106182894789 0 0.018090118217465971 0.017213835805821327 0 0.017807113850604135 0.015895622281972187 0 0.017496786922683003 0.017561656055345983 0 0.017807113850604135 0.015895622281972187 0 0.0193204746676869 0.015131883123288762 0 0.018900138447114925 0.017033106182894789 0 0.020318170988723273 0.015459302903881455 0 0.0193204746676869 0.015131883123288762 0 0.018900138447114925 0.017033106182894789 0 0.019603659753560123 0.016436863448070636 0 0.018950163244934676 0.017026438880237235 0 0.018090118217465971 0.017213835805821327 0 0.018900138447114925 0.017033106182894789 0 0.018618520913729963 0.017493661537220817 0 0.018815902858723702 0.017560552302093576 0 0.018900138447114925 0.017033106182894789 0 0.018618520913729963 0.017493661537220817 0 0.018815902858723702 0.017560552302093576 0 0.018671900390813564 0.018080300307940198 0 0.0184682409977069 0.017869239512994406 0 0.018815902858723702 0.017560552302093576 0 0.018618520913729963 0.017493661537220817 0 0.0184682409977069 0.017869239512994406 0 0.018618520913729963 0.017493661537220817 0 0.0184682409977069 0.017869239512994406 0 0.018223881596895905 0.017707192659954275 0 0.018671900390813564 0.018080300307940198 0 0.018336226858964706 0.018336497645287251 0 0.018573737199413059 0.018607269068205264 0 0.018671900390813564 0.018080300307940198 0 0.0184682409977069 0.017869239512994406 0 0.018336226858964706 0.018336497645287251 0 0.0184682409977069 0.017869239512994406 0 0.018336226858964706 0.018336497645287251 0 0.018085275318523726 0.018046518474538607 0 0.018336226858964706 0.018336497645287251 0 0.018085275318523726 0.018046518474538607 0 0.018041335791795711 0.018266560027449818 0 0.018085275318523726 0.018046518474538607 0 0.018041335791795711 0.018266560027449818 0 0.017815691780236152 0.01818317803827809 0 0.018041335791795711 0.018266560027449818 0 0.017804524216702484 0.018293382231365399 0 0.017815691780236152 0.01818317803827809 0 0.018085275318523726 0.018046518474538607 0 0.017852398397522954 0.018025128928020502 0 0.017831732296161317 0.01780151269353179 0 0.018085275318523726 0.018046518474538607 0 0.017852398397522954 0.018025128928020502 0 0.017815691780236152 0.01818317803827809 0 0.018085275318523726 0.018046518474538607 0 0.017831732296161317 0.01780151269353179 0 0.018223881596895905 0.017707192659954275 0 0.0184682409977069 0.017869239512994406 0 0.018085275318523726 0.018046518474538607 0 0.018223881596895905 0.017707192659954275 0 0.018090118217465971 0.017213835805821327 0 0.018618520913729963 0.017493661537220817 0 0.018223881596895905 0.017707192659954275 0 0.018090118217465971 0.017213835805821327 0 0.017831732296161317 0.01780151269353179 0 0.018223881596895905 0.017707192659954275 0 0.018090118217465971 0.017213835805821327 0 0.017831732296161317 0.01780151269353179 0 0.017496786922683003 0.017561656055345983 0 0.026464136876330476 0.010585580582538518 0 0.027401990825734371 0.010277493060751142 0 0.027105551573613662 0.01072678986084208 0 0.017831732296161317 0.01780151269353179 0 0.017496786922683003 0.017561656055345983 0 0.017586472042479713 0.017934965188412984 0 0.017852398397522954 0.018025128928020502 0 0.017831732296161317 0.01780151269353179 0 0.017682983006421661 0.018067673060018028 0 0.017804524216702484 0.018293382231365399 0 0.017815691780236152 0.01818317803827809 0 0.01738100415770933 0.018300432286572053 0 0.017831732296161317 0.01780151269353179 0 0.017586472042479713 0.017934965188412984 0 0.017682983006421661 0.018067673060018028 0 0.017682983006421661 0.018067673060018028 0 0.017815691780236152 0.01818317803827809 0 0.01738100415770933 0.018300432286572053 0 0.017496786922683003 0.017561656055345983 0 0.017586472042479713 0.017934965188412984 0 0.01738100415770933 0.018300432286572053 0 0.026464136876330476 0.010585580582538518 0 0.027401990825734371 0.010277493060751142 0 0.027618512142018509 0.0096535759289746309 0 0.021567760628097649 0.013873356891976669 0 0.025145151077052567 0.015375676293748008 0 0.017852398397522954 0.018025128928020502 0 0.017682983006421661 0.018067673060018028 0 0.017815691780236152 0.01818317803827809 0 0.017586472042479713 0.017934965188412984 0 0.017682983006421661 0.018067673060018028 0 0.01738100415770933 0.018300432286572053 0 0.027903837794580832 0.010071331504210407 0 0.027401990825734371 0.010277493060751142 0 0.027618512142018509 0.0096535759289746309 0 0.029016979307861155 0.0097995000795652824 0 0.028262916634684967 0.0097870780599241883 0 0.027975038715980914 0.009690086146487949 0 0.028262916634684967 0.0097870780599241883 0 0.027903837794580832 0.010071331504210407 0 0.027618512142018509 0.0096535759289746309 0 0.028271334702466604 0.010274752967287077 0 0.028262916634684967 0.0097870780599241883 0 0.027903837794580832 0.010071331504210407 0 0.027770691022742197 0.012450362037653387 0 0.025145151077052567 0.015375676293748008 0 0.028271334702466604 0.010274752967287077 0 0.027903837794580832 0.010071331504210407 0 0.027863269544867512 0.010293374021008104 0 0.027903837794580832 0.010071331504210407 0 0.027863269544867512 0.010293374021008104 0 0.027401990825734371 0.010277493060751142 0 0.028271334702466604 0.010274752967287077 0 0.027863269544867512 0.010293374021008104 0 0.0278271455280052 0.010566921212355716 0 0.027863269544867512 0.010293374021008104 0 0.027401990825734371 0.010277493060751142 0 0.0278271455280052 0.010566921212355716 0 0.027401990825734371 0.010277493060751142 0 0.027105551573613662 0.01072678986084208 0 0.0278271455280052 0.010566921212355716 0 0.02816625613474686 0.010808786575749164 0 0.027686058739569291 0.011064198153609364 0 0.0278271455280052 0.010566921212355716 0 0.027686058739569291 0.011064198153609364 0 0.027105551573613662 0.01072678986084208 0 0.0278271455280052 0.010566921212355716 0 0.034457559011895442 0.022432644727827446 0 0.030241306724459849 0.019297033102212296 0 0.033095145202951801 0.023720362539534936 0 0.032540269515983357 0.024387317942492107 0 0.032423816065409859 0.023881412598798436 0 0.026004637034241058 0.021774480078435784 0 0.026556184454552045 0.020611753645878628 0 0.022834214575703862 0.020393465312607495 0 0.028262916634684967 0.0097870780599241883 0 0.027906779557467416 0.0098324792472882557 0 0.027975038715980914 0.009690086146487949 0 0.025145151077052567 0.015375676293748008 0 0.030241306724459849 0.019297033102212296 0 0.030241306724459849 0.019297033102212296 0 0.023415219215947129 0.021777915231676874 0 0.017804524216702484 0.018293382231365399 0 0.01738100415770933 0.018300432286572053 0 0.018002207908030629 0.01842356531302692 0 0.032540269515983357 0.024387317942492107 0 0.032423816065409859 0.023881412598798436 0 0.031749349848970848 0.024048008336544715 0 0.025145151077052567 0.015375676293748008 0 0.018158288765498992 0.019886281771500189 0 0.026004637034241058 0.021774480078435784 0 0.022834214575703862 0.020393465312607495 0 0.019466562568147609 0.020323593488208787 0 0.026556184454552045 0.020611753645878628 0 0.022834214575703862 0.020393465312607495 0 0.020406530000696546 0.01767808930103373 0 0.022834214575703862 0.020393465312607495 0 0.020406530000696546 0.01767808930103373 0 0.020519338744653375 0.019671152772187086 0 0.032423816065409859 0.023881412598798436 0 0.031749349848970848 0.024048008336544715 0 0.032243403967779936 0.02337199951608987 0 0.023415219215947129 0.021777915231676874 0 0.025692538983939629 0.021652539173691979 0 0.019216803817752572 0.019751219171427106 0 0.019059223302083952 0.019671124510772579 0 0.01911835994597549 0.019959975196354462 0 0.019059223302083952 0.019671124510772579 0 0.01911835994597549 0.019959975196354462 0 0.018642725141726449 0.019982981586794599 0 0.019157766621090911 0.019738564921594287 0 0.023415219215947129 0.021777915231676874 0 0.019466562568147609 0.020323593488208787 0 0.019483269992685251 0.019997488271374878 0 0.018961235328218872 0.019710351464043728 0 0.023415219215947129 0.021777915231676874 0 0.021501561192263742 0.020335367791170875 0 0.019216803817752572 0.019751219171427106 0 0.019501947113325799 0.01982172187058073 0 0.019483269992685251 0.019997488271374878 0 0.020406530000696546 0.01767808930103373 0 0.020519338744653375 0.019671152772187086 0 0.019483269992685251 0.019997488271374878 0 0.022834214575703862 0.020393465312607495 0 0.020519338744653375 0.019671152772187086 0 0.019466562568147609 0.020323593488208787 0 0.018041335791795711 0.018266560027449818 0 0.017804524216702484 0.018293382231365399 0 0.018002207908030629 0.01842356531302692 0 0.020519338744653375 0.019671152772187086 0 0.019466562568147609 0.020323593488208787 0 0.019483269992685251 0.019997488271374878 0 0.018336226858964706 0.018336497645287251 0 0.018041335791795711 0.018266560027449818 0 0.018002207908030629 0.01842356531302692 0 0.018336226858964706 0.018336497645287251 0 0.018002207908030629 0.01842356531302692 0 0.018573737199413059 0.018607269068205264 0 0.018158288765498992 0.019886281771500189 0 0.01895108372307976 0.019127561571317515 0 0.019216803817752572 0.019751219171427106 0 0.019483269992685251 0.019997488271374878 0 0.018961235328218872 0.019710351464043728 0 0.019216803817752572 0.019751219171427106 0 0.019102245232146511 0.019826063113761932 0 0.01911835994597549 0.019959975196354462 0 0.019216803817752572 0.019751219171427106 0 0.019102245232146511 0.019826063113761932 0 0.018961235328218872 0.019710351464043728 0 0.019185881228663573 0.020204084668698542 0 0.019186738921691149 0.020356195504186325 0 0.01911835994597549 0.019959975196354462 0 0.019102245232146511 0.019826063113761932 0 0.019185881228663573 0.020204084668698542 0 0.01911835994597549 0.019959975196354462 0 0.019185881228663573 0.020204084668698542 0 0.019186738921691149 0.020356195504186325 0 0.019255643162766796 0.020460559580347124 0 0.019186738921691149 0.020356195504186325 0 0.018642725141726449 0.019982981586794599 0 0.019189997139770716 0.021112706821765276 0 0.019186738921691149 0.020356195504186325 0 0.019189997139770716 0.021112706821765276 0 0.019255643162766796 0.020460559580347124 0 0.019186738921691149 0.020356195504186325 0 0.01911835994597549 0.019959975196354462 0 0.018642725141726449 0.019982981586794599 0 0.018642725141726449 0.019982981586794599 0 0.017842488239571425 0.021066608238001532 0 0.019189997139770716 0.021112706821765276 0 0.025692538983939629 0.021652539173691979 0 0.025233018215271331 0.021936446069761945 0 0.032243403967779936 0.02337199951608987 0 0.032946772207941163 0.023212383018087767 0 0.032745018946822448 0.02268362530679708 0 0.033559012494902202 0.022492556712310582 0 0.032946772207941163 0.023212383018087767 0 0.032745018946822448 0.02268362530679708 0 0.033095145202951801 0.023720362539534936 0 0.032423816065409859 0.023881412598798436 0 0.032946772207941163 0.023212383018087767 0 0.032423816065409859 0.023881412598798436 0 0.032243403967779936 0.02337199951608987 0 0.032946772207941163 0.023212383018087767 0 0.019690312610920527 0.019508243545802353 0 0.019665533998555838 0.019019352269118241 0 0.019192437815228044 0.019145018485187078 0 0.019690312610920527 0.019508243545802353 0 0.020091279064993549 0.018929817218624273 0 0.020164533173580339 0.019521597081771175 0 0.019690312610920527 0.019508243545802353 0 0.020091279064993549 0.018929817218624273 0 0.019665533998555838 0.019019352269118241 0 0.019700381587785004 0.018572729890919175 0 0.020091279064993549 0.018929817218624273 0 0.019665533998555838 0.019019352269118241 0 0.019665533998555838 0.019019352269118241 0 0.019447475998792336 0.01862592691491597 0 0.019192437815228044 0.019145018485187078 0 0.019700381587785004 0.018572729890919175 0 0.019665533998555838 0.019019352269118241 0 0.019447475998792336 0.01862592691491597 0 0.019128500152851793 0.018191406514068618 0 0.019447475998792336 0.01862592691491597 0 0.019192437815228044 0.019145018485187078 0 0.018864580459460191 0.018343885683017265 0 0.019192437815228044 0.019145018485187078 0 0.018573737199413059 0.018607269068205264 0 0.019162602410104194 0.01916812561147288 0 0.01895108372307976 0.019127561571317515 0 0.019102245232146511 0.019826063113761932 0 0.018961235328218872 0.019710351464043728 0 0.019079976165519388 0.019755488708081474 0 0.019192437815228044 0.019145018485187078 0 0.018961235328218872 0.019710351464043728 0 0.019079976165519388 0.019755488708081474 0 0.019690312610920527 0.019508243545802353 0 0.019192437815228044 0.019145018485187078 0 0.019079976165519388 0.019755488708081474 0 0.019690312610920527 0.019508243545802353 0 0.019079976165519388 0.019755488708081474 0 0.019153391393747287 0.020232088405272918 0 0.019102245232146511 0.019826063113761932 0 0.019185881228663573 0.020204084668698542 0 0.019079976165519388 0.019755488708081474 0 0.019185881228663573 0.020204084668698542 0 0.019079976165519388 0.019755488708081474 0 0.019153391393747287 0.020232088405272918 0 0.019185881228663573 0.020204084668698542 0 0.019255643162766796 0.020460559580347124 0 0.01915432527560585 0.020257457637279423 0 0.019185881228663573 0.020204084668698542 0 0.019153391393747287 0.020232088405272918 0 0.01915432527560585 0.020257457637279423 0 0.019153391393747287 0.020232088405272918 0 0.01915432527560585 0.020257457637279423 0 0.01869795258046095 0.020152296668805515 0 0.019153391393747287 0.020232088405272918 0 0.018408207003045272 0.020610066874988141 0 0.01869795258046095 0.020152296668805515 0 0.018739398684877898 0.020137111003641763 0 0.01993436328738836 0.020661562819750554 0 0.019690312610920527 0.019508243545802353 0 0.019153391393747287 0.020232088405272918 0 0.01979179285952631 0.02001952974834896 0 0.019690312610920527 0.019508243545802353 0 0.01979179285952631 0.02001952974834896 0 0.020164533173580339 0.019521597081771175 0 0.018408207003045272 0.020610066874988141 0 0.017973396084846063 0.020321894500162741 0 0.01869795258046095 0.020152296668805515 0 0.018408207003045272 0.020610066874988141 0 0.017419333219444451 0.020693187786831168 0 0.017973396084846063 0.020321894500162741 0 0.017419333219444451 0.020693187786831168 0 0.017973396084846063 0.020321894500162741 0 0.017152617611818605 0.020217441425586433 0 0.01993436328738836 0.020661562819750554 0 0.015261717695956124 0.01788100519188052 0 0.015049164882715692 0.0099511013673490994 0 0.014350775555681431 0.011291132325195742 0 0.013504235110713237 0.0096979865607710585 0 0.015261717695956124 0.01788100519188052 0 0.0093915587479829546 0.014816583780478542 0 0.015261717695956124 0.01788100519188052 0 0.012239451885191767 0.018238508200253169 0 0.0092779936524888685 0.020341430223943635 0 0.0041873398074367216 0.019815751290355045 0 0.0075252920715004152 0.016021571385081635 0 0.015049164882715692 0.0099511013673490994 0 0.014350775555681431 0.011291132325195742 0 0.015754698907128221 0.01172772243119694 0 0.015261717695956124 0.01788100519188052 0 0.018124105302274027 0.015111831943172858 0 0.01979179285952631 0.02001952974834896 0 0.020223769688422714 0.019883915151724836 0 0.020164533173580339 0.019521597081771175 0 -0.018334808779613861 0.01107050062246274 0 -0.01822016372279639 0.010873570860414418 0 -0.017805084378884846 0.011744399283405871 0 -0.018334808779613861 0.01107050062246274 0 -0.018567934416975445 0.010955699440856963 0 -0.018241789390805015 0.011014561474915452 0 -0.018567934416975445 0.010955699440856963 0 -0.018586745099108268 0.010847158820254513 0 -0.018421682145431745 0.010834710957751643 0 -0.018586745099108268 0.010847158820254513 0 -0.018421682145431745 0.010834710957751643 0 -0.018608472141261132 0.01076404393117575 0 -0.018567934416975445 0.010955699440856963 0 -0.018586745099108268 0.010847158820254513 0 -0.018723506694098765 0.010847736287470742 0 -0.018334808779613861 0.01107050062246274 0 -0.01839990954078314 0.010933448051727244 0 -0.01822016372279639 0.010873570860414418 0 -0.018334808779613861 0.01107050062246274 0 -0.018567934416975445 0.010955699440856963 0 -0.01839990954078314 0.010933448051727244 0 -0.018421682145431745 0.010834710957751643 0 -0.01839990954078314 0.010933448051727244 0 -0.01822016372279639 0.010873570860414418 0 -0.018567934416975445 0.010955699440856963 0 -0.018421682145431745 0.010834710957751643 0 -0.01839990954078314 0.010933448051727244 0 -0.00088252306993203539 0.011402458805595339 0 0.0093915587479829546 0.014816583780478542 0 -0.00089141119684480038 0.019266044595935772 0 0.0041873398074367216 0.019815751290355045 0 0.002883831464651522 0.016223029270535181 0 0.011845235465833395 0.0095124619598898445 0 0.013504235110713237 0.0096979865607710585 0 0.01243379790523093 0.011342465641183708 0 0.014350775555681431 0.011291132325195742 0 0.013504235110713237 0.0096979865607710585 0 0.01243379790523093 0.011342465641183708 0 -0.018578606331654972 0.01084425134906516 0 -0.018669211590686241 0.010634399714919418 0 -0.00088252306993203539 0.011402458805595339 0 -4.748384168927943e-05 0.011296136942218751 0 -0.01822016372279639 0.010873570860414418 0 -0.017805084378884846 0.011744399283405871 0 -0.017485185442247884 0.011915601248209085 0 -0.018567934416975445 0.010955699440856963 0 -0.018241789390805015 0.011014561474915452 0 -0.017883387371988062 0.011069155082994888 0 -0.017513700128847048 0.010803378959602277 0 -0.013505351288664237 0.0096188572798200488 0 -0.013505351288664237 0.0096188572798200488 0 -4.748384168927943e-05 0.011296136942218751 0 -0.013505351288664237 0.0096188572798200488 0 -0.017534279807481724 0.0097194931597874758 0 -0.018334808779613861 0.01107050062246274 0 -0.018285558993868734 0.010927676642648026 0 -0.018241789390805015 0.011014561474915452 0 -0.01795011049451237 0.011054417632847705 0 -0.018241789390805015 0.011014561474915452 0 -0.017883387371988062 0.011069155082994888 0 -0.01795011049451237 0.011054417632847705 0 -0.017801958968042219 0.011003466235954197 0 -0.017883387371988062 0.011069155082994888 0 -0.01795011049451237 0.011054417632847705 0 -0.017801958968042219 0.011003466235954197 0 -0.017721491729470715 0.010966538363993427 0 -0.017801958968042219 0.011003466235954197 0 -0.017744584607087464 0.010986314263893843 0 -0.017883387371988062 0.011069155082994888 0 -0.013505351288664237 0.0096188572798200488 0 -0.0045797505356683426 0.010868820405176073 0 0.014350775555681431 0.011291132325195742 0 0.01243379790523093 0.011342465641183708 0 0.013996762367540263 0.012423368861539073 0 0.0092472810144072683 0.0071028582341779202 0 0.010298865655277704 0.010648536252365972 0 0.012164517467256461 0.0094968600954524491 0 -4.748384168927943e-05 0.011296136942218751 0 0.014499482811138643 0.01139914882508415 0 -4.748384168927943e-05 0.011296136942218751 0 -0.0045797505356683426 0.010868820405176073 0 -0.0068196907938522762 0.0101727832510172 0 -0.0065361310040331711 0.010382901978796471 0 -0.006062288138916079 0.011683307650544485 0 -0.0032330361388156021 0.010766043811996542 0 -0.0028050160275881258 0.011816108044837513 0 -0.0028934945786555965 0.011982170136453 0 -0.0045797505356683426 0.010868820405176073 0 0.0029843625131263166 0.011869600791077649 0 0.010298865655277704 0.010648536252365972 0 0.012260914609402793 0.012301106870519647 0 0.011524332515743391 0.013598961623013972 0 -0.0045797505356683426 0.010868820405176073 0 -0.0042062836044723419 0.011683731911824627 0 -0.017721491729470715 0.010966538363993427 0 -0.017620845222346266 0.010921740691197498 0 -0.017680275455594873 0.010921682306854998 0 0.010298865655277704 0.010648536252365972 0 0.012406714245951541 0.011194639588880345 0 0.012260914609402793 0.012301106870519647 0 0.010298865655277704 0.010648536252365972 0 0.012164517467256461 0.0094968600954524491 0 0.012406714245951541 0.011194639588880345 0 0.008526055483759204 0.010638870382813711 0 0.0029843625131263166 0.011869600791077649 0 -0.017721491729470715 0.010966538363993427 0 -0.017733440960032671 0.0109205066381333 0 -0.017680275455594873 0.010921682306854998 0 -0.017801958968042219 0.011003466235954197 0 -0.017721491729470715 0.010966538363993427 0 -0.017733440960032671 0.0109205066381333 0 -0.017733440960032671 0.0109205066381333 0 -0.017744584607087464 0.010986314263893843 0 -0.017737896962102158 0.010867627760888307 0 -0.017801958968042219 0.011003466235954197 0 -0.017733440960032671 0.0109205066381333 0 -0.017744584607087464 0.010986314263893843 0 0.016523505288625385 0.013091074250419192 0 0.015754698907128221 0.01172772243119694 0 0.015113980735297641 0.012414978504885266 0 0.018324384238748194 0.016109138467147736 0 0.018124105302274027 0.015111831943172858 0 0.014350775555681431 0.011291132325195742 0 0.015754698907128221 0.01172772243119694 0 0.015113980735297641 0.012414978504885266 0 0.015113980735297641 0.012414978504885266 0 0.013996762367540263 0.012423368861539073 0 0.015393601496352513 0.013258411057670269 0 0.014350775555681431 0.011291132325195742 0 0.015113980735297641 0.012414978504885266 0 0.013996762367540263 0.012423368861539073 0 0.012164517467256461 0.0094968600954524491 0 0.012406714245951541 0.011194639588880345 0 0.01467227314827192 0.011762306728283177 0 0.014499482811138643 0.01139914882508415 0 0.014784270309824987 0.012364796253745107 0 0.012406714245951541 0.011194639588880345 0 0.012260914609402793 0.012301106870519647 0 0.013453593611288631 0.012409049946507973 0 0.012260914609402793 0.012301106870519647 0 0.013453593611288631 0.012409049946507973 0 0.013067341146930199 0.013332584242093054 0 0.012406714245951541 0.011194639588880345 0 0.013453593611288631 0.012409049946507973 0 0.01467227314827192 0.011762306728283177 0 0.013453593611288631 0.012409049946507973 0 0.01467227314827192 0.011762306728283177 0 0.014912139425183714 0.013380238398106708 0 0.016788906616338483 0.014015640316616465 0 0.014784270309824987 0.012364796253745107 0 0.016523505288625385 0.013091074250419192 0 0.015113980735297641 0.012414978504885266 0 0.015393601496352513 0.013258411057670269 0 0.016877724128517606 0.014097612286890415 0 0.016523505288625385 0.013091074250419192 0 0.015393601496352513 0.013258411057670269 0 0.016877724128517606 0.014097612286890415 0 0.01467227314827192 0.011762306728283177 0 0.014912139425183714 0.013380238398106708 0 0.0158808576838614 0.014516487100937706 0 0.01604499447523958 0.016208686864560898 0 0.013067341146930199 0.013332584242093054 0 0.016877724128517606 0.014097612286890415 0 0.014912139425183714 0.013380238398106708 0 0.0158808576838614 0.014516487100937706 0 0.015177502575075157 0.01517458338466561 0 0.013193046623822695 0.013412905453962896 0 0.014912139425183714 0.013380238398106708 0 0.0158808576838614 0.014516487100937706 0 0.013067341146930199 0.013332584242093054 0 0.017707516536843101 0.014732204377951053 0 0.0158808576838614 0.014516487100937706 0 0.01604499447523958 0.016208686864560898 0 0.01432307379522163 0.014238388888426878 0 0.014274777392272758 0.014899463121984849 0 0.013873223237068789 0.014713535066319039 0 0.01432307379522163 0.014238388888426878 0 0.013448513165980988 0.01418017124659523 0 0.013873223237068789 0.014713535066319039 0 0.01432307379522163 0.014238388888426878 0 0.013448513165980988 0.01418017124659523 0 0.013067341146930199 0.013332584242093054 0 0.013104523040480832 0.014405679547908133 0 0.012987681427247625 0.014287454337831299 0 0.013048492079292252 0.014721531404837927 0 0.013448513165980988 0.01418017124659523 0 0.012987681427247625 0.014287454337831299 0 0.013067341146930199 0.013332584242093054 0 0.013104523040480832 0.014405679547908133 0 0.013448513165980988 0.01418017124659523 0 0.013873223237068789 0.014713535066319039 0 0.013104523040480832 0.014405679547908133 0 0.013448513165980988 0.01418017124659523 0 0.012987681427247625 0.014287454337831299 0 0.0057108870625578014 0.012612754457601062 0 0.0029843625131263166 0.011869600791077649 0 0.012987681427247625 0.014287454337831299 0 0.013067341146930199 0.013332584242093054 0 0.012150796831077478 0.013221298199008061 0 0.013453593611288631 0.012409049946507973 0 0.014912139425183714 0.013380238398106708 0 0.013067341146930199 0.013332584242093054 0 0.012260914609402793 0.012301106870519647 0 0.013067341146930199 0.013332584242093054 0 0.012150796831077478 0.013221298199008061 0 -0.017620845222346266 0.010921740691197498 0 -0.017652895101522206 0.010916762390651081 0 -0.017620539105933426 0.010914111153057791 0 -0.0018196885176655509 0.010718399846468102 0 -0.0021824693362936833 0.0098639504194662931 0 -0.0020123427215564412 0.010407192594448346 0 -0.0042062836044723419 0.011683731911824627 0 -0.008649079082974449 0.010740479112117101 0 -0.0022642791052511742 0.0099478118962981702 0 -0.0022173401292472461 0.010140692286668076 0 -0.0028358839494061349 0.010862477418351392 0 -0.0021824693362936833 0.0098639504194662931 0 -0.0022517168663331527 0.0099880381383246775 0 -0.0022173401292472461 0.010140692286668076 0 0.0029843625131263166 0.011869600791077649 0 -0.0042062836044723419 0.011683731911824627 0 -0.017620845222346266 0.010921740691197498 0 -0.017680275455594873 0.010921682306854998 0 -0.017652895101522206 0.010916762390651081 0 -0.0021824693362936833 0.0098639504194662931 0 -0.0022173401292472461 0.010140692286668076 0 -0.0020123427215564412 0.010407192594448346 0 -0.0042062836044723419 0.011683731911824627 0 -0.0040325616840460052 0.011202015677439087 0 -0.017733440960032671 0.0109205066381333 0 -0.017680275455594873 0.010921682306854998 0 -0.017675488963877335 0.010911866787678422 0 -0.017733440960032671 0.0109205066381333 0 -0.017675488963877335 0.010911866787678422 0 -0.017737896962102158 0.010867627760888307 0 -0.017680275455594873 0.010921682306854998 0 -0.017652895101522206 0.010916762390651081 0 -0.017675488963877335 0.010911866787678422 0 -0.017777495643924578 0.010588705846691457 0 -0.016047221768779842 0.0094229642384290359 0 -0.017652895101522206 0.010916762390651081 0 -0.017675488963877335 0.010911866787678422 0 -0.017632583611653655 0.010911529651232833 0 -0.017939189669481805 0.010202734597261769 0 -0.018156913031312387 0.0094949989157823711 0 -0.017693175732267689 0.0097080157164139494 0 -0.017652895101522206 0.010916762390651081 0 -0.017632583611653655 0.010911529651232833 0 -0.017620539105933426 0.010914111153057791 0 -0.011323300395975018 0.009964295844219706 0 -0.011058792838147743 0.0098328393426182249 0 -0.011260933053996995 0.010170545665586651 0 -0.016047221768779842 0.0094229642384290359 0 -0.008649079082974449 0.010740479112117101 0 -0.008649079082974449 0.010740479112117101 0 -0.011003444759220231 0.0089675417227264836 0 -0.0018196885176655509 0.010718399846468102 0 -0.0020123427215564412 0.010407192594448346 0 -0.0026621672524274539 0.010727352656665421 0 -0.0018196885176655509 0.010718399846468102 0 -0.0026621672524274539 0.010727352656665421 0 -0.0022787323623313194 0.011463445814248218 0 -0.00078924284564320553 0.0095530956696050079 0 -0.008649079082974449 0.010740479112117101 0 -0.0022173401292472461 0.010140692286668076 0 -0.0020123427215564412 0.010407192594448346 0 -0.0028358839494061349 0.010862477418351392 0 -0.0022787323623313194 0.011463445814248218 0 -0.0030206332334801471 0.011333585536609837 0 -0.0027710178060071674 0.012167877285773163 0 -0.0026621672524274539 0.010727352656665421 0 -0.0022787323623313194 0.011463445814248218 0 -0.0030206332334801471 0.011333585536609837 0 -0.011003444759220231 0.0089675417227264836 0 -0.014294600224222409 0.0074050975500812334 0 -0.016822049422780996 0.0070622366592856117 0 -0.016655551911240195 0.0069414615887064372 0 -0.016655571041230804 0.0066833500171225814 0 -0.016774743681379347 0.0072381628854806517 0 -0.016822049422780996 0.0070622366592856117 0 -0.016655551911240195 0.0069414615887064372 0 -0.016774743681379347 0.0072381628854806517 0 -0.016655551911240195 0.0069414615887064372 0 -0.016539494962617241 0.0069435864426197515 0 -0.016047221768779842 0.0094229642384290359 0 -0.011003444759220231 0.0089675417227264836 0 -0.011646791878302636 0.0077095321668839813 0 -0.011632172785648858 0.0077171766924184482 0 -0.011679831551559097 0.0077044024798195547 0 -0.011003444759220231 0.0089675417227264836 0 -0.0067188038481680616 0.011101672686459774 0 -0.011607357429144241 0.0077392881913131871 0 -0.011632172785648858 0.0077171766924184482 0 -0.011679831551559097 0.0077044024798195547 0 -0.0022787323623313194 0.011463445814248218 0 -0.0027710178060071674 0.012167877285773163 0 -0.0019625376923147293 0.012297878691484267 0 -0.0019625376923147293 0.012297878691484267 0 -0.0010542909761006008 0.012402696719390469 0 -0.0014542124854964884 0.011533603462550536 0 -0.0022787323623313194 0.011463445814248218 0 -0.0019625376923147293 0.012297878691484267 0 -0.0014542124854964884 0.011533603462550536 0 0.0087736645208650113 0.015581416827055923 0 0.0054971880562509753 0.01267679839871483 0 0.0087736645208650113 0.015581416827055923 0 0.013354993117576246 0.015458061275198958 0 0.012890506712501306 0.015050983568618408 0 0.013048492079292252 0.014721531404837927 0 0.013048240018629149 0.014766253929394919 0 0.015456191081383469 0.017723936353359438 0 0.013806473128265459 0.017027008825209231 0 0.015005475372256272 0.016661381199390479 0 0.013806473128265459 0.017027008825209231 0 0.01421867843558699 0.016119153269817894 0 0.013457208214717582 0.015591780679132108 0 0.013806473128265459 0.017027008825209231 0 0.015005475372256272 0.016661381199390479 0 0.01421867843558699 0.016119153269817894 0 0.015271031898818477 0.016074141009425488 0 0.015005475372256272 0.016661381199390479 0 0.01421867843558699 0.016119153269817894 0 0.015271031898818477 0.016074141009425488 0 0.01421867843558699 0.016119153269817894 0 0.014800044024238861 0.015376625822006247 0 0.01421867843558699 0.016119153269817894 0 0.013833105459246774 0.015512964975828915 0 0.013457208214717582 0.015591780679132108 0 0.01421867843558699 0.016119153269817894 0 0.013833105459246774 0.015512964975828915 0 0.01411237304121918 0.015289995635479794 0 0.01432307379522163 0.014238388888426878 0 0.014800044024238861 0.015376625822006247 0 0.014274777392272758 0.014899463121984849 0 0.013833105459246774 0.015512964975828915 0 0.01411237304121918 0.015289995635479794 0 0.013655732027773208 0.015095912454833386 0 0.01421867843558699 0.016119153269817894 0 0.01411237304121918 0.015289995635479794 0 0.014800044024238861 0.015376625822006247 0 0.01411237304121918 0.015289995635479794 0 0.014800044024238861 0.015376625822006247 0 0.014274777392272758 0.014899463121984849 0 0.01411237304121918 0.015289995635479794 0 0.014274777392272758 0.014899463121984849 0 0.013873223237068789 0.014713535066319039 0 0.01411237304121918 0.015289995635479794 0 0.013873223237068789 0.014713535066319039 0 0.013655732027773208 0.015095912454833386 0 0.013104523040480832 0.014405679547908133 0 0.013873223237068789 0.014713535066319039 0 0.013655732027773208 0.015095912454833386 0 -0.0018196885176655509 0.010718399846468102 0 -0.0022787323623313194 0.011463445814248218 0 -0.0014542124854964884 0.011533603462550536 0 0.0057108870625578014 0.012612754457601062 0 0.0054971880562509753 0.01267679839871483 0 0.013104523040480832 0.014405679547908133 0 0.013655732027773208 0.015095912454833386 0 0.013457208214717582 0.015591780679132108 0 0.013068797002892962 0.014384458788011574 0 0.013354993117576246 0.015458061275198958 0 0.013104523040480832 0.014405679547908133 0 0.013048492079292252 0.014721531404837927 0 0.013048240018629149 0.014766253929394919 0 0.013833105459246774 0.015512964975828915 0 0.013655732027773208 0.015095912454833386 0 0.013457208214717582 0.015591780679132108 0 -0.018279206582620389 0.0069738893910364121 0 -0.018749375535293225 0.0059863914048060504 0 -0.018849659802774414 0.007220136405740759 0 -0.018279206582620389 0.0069738893910364121 0 -0.01802279622966416 0.0063364399096439089 0 -0.018749375535293225 0.0059863914048060504 0 -0.018279206582620389 0.0069738893910364121 0 -0.01802279622966416 0.0063364399096439089 0 -0.017639792430926685 0.0068823843009288514 0 -0.01802279622966416 0.0063364399096439089 0 -0.018749375535293225 0.0059863914048060504 0 -0.017880232036640294 0.005804301316273402 0 -0.019043349705420189 0.0052310120606788562 0 -0.018749042931960228 0.0059233163127984066 0 -0.01878883795075276 0.006065027380949088 0 -0.018598994108529724 0.0060001701097266843 0 -0.018608943715101162 0.0060374274642928973 0 -0.018053520513362089 0.0053587199929485381 0 -0.018749375535293225 0.0059863914048060504 0 -0.017880232036640294 0.005804301316273402 0 -0.018598994108529724 0.0060001701097266843 0 -0.018608943715101162 0.0060374274642928973 0 -0.018412172100111056 0.0059906196201931815 0 -0.018598994108529724 0.0060001701097266843 0 -0.018412172100111056 0.0059906196201931815 0 -0.018393248140249615 0.005916493425910609 0 -0.019043581403367899 0.0056620097304318001 0 -0.017708150716385391 0.0061423745743493996 0 -0.019003135281533256 0.0047678952242517746 0 -0.017708150716385391 0.0061423745743493996 0 -0.018749042931960228 0.0059233163127984066 0 -0.017996051290063843 0.0071742398902082637 0 -0.016198565756330566 0.0063135270419568011 0 -0.01627002371230411 0.0067333473712976955 0 -0.016418509470322945 0.0065380590875992921 0 -0.018836087085426018 0.005435284541848941 0 -0.01911414832585339 0.0052769519057011983 0 -0.018772347530203962 0.0051619542005554957 0 -0.016283452637617792 0.0067439371850914458 0 -0.016406542162896817 0.0067911629303911373 0 -0.016318850475183243 0.0069450512924074783 0 -0.017708150716385391 0.0061423745743493996 0 -0.017996051290063843 0.0071742398902082637 0 -0.017708150716385391 0.0061423745743493996 0 -0.016738200086495576 0.0062041745187952722 0 -0.016655571041230804 0.0066833500171225814 0 -0.016418509470322945 0.0065380590875992921 0 -0.016472924179739695 0.006689740829285023 0 -0.01627002371230411 0.0067333473712976955 0 -0.016418509470322945 0.0065380590875992921 0 -0.016472924179739695 0.006689740829285023 0 -0.01627002371230411 0.0067333473712976955 0 -0.016472924179739695 0.006689740829285023 0 -0.016406542162896817 0.0067911629303911373 0 -0.016406542162896817 0.0067911629303911373 0 -0.016540744342373764 0.006800939535314258 0 -0.016539494962617241 0.0069435864426197515 0 -0.016472924179739695 0.006689740829285023 0 -0.016406542162896817 0.0067911629303911373 0 -0.016540744342373764 0.006800939535314258 0 -0.016655571041230804 0.0066833500171225814 0 -0.016472924179739695 0.006689740829285023 0 -0.016540744342373764 0.006800939535314258 0 -0.016655551911240195 0.0069414615887064372 0 -0.016655571041230804 0.0066833500171225814 0 -0.016540744342373764 0.006800939535314258 0 -0.016774743681379347 0.0072381628854806517 0 -0.016539494962617241 0.0069435864426197515 0 -0.016318850475183243 0.0069450512924074783 0 -0.018156913031312387 0.0094949989157823711 0 -0.017101441822641849 0.0088752933746408212 0 -0.017693175732267689 0.0097080157164139494 0 -0.016047221768779842 0.0094229642384290359 0 -0.017996051290063843 0.0071742398902082637 0 -0.016655551911240195 0.0069414615887064372 0 -0.016540744342373764 0.006800939535314258 0 -0.016539494962617241 0.0069435864426197515 0 -0.016406542162896817 0.0067911629303911373 0 -0.016539494962617241 0.0069435864426197515 0 -0.016318850475183243 0.0069450512924074783 0 -0.019631874294251631 0.0066376626892292083 0 -0.019360653455672418 0.007371123209929299 0 -0.018849659802774414 0.007220136405740759 0 -0.018749375535293225 0.0059863914048060504 0 -0.019631874294251631 0.0066376626892292083 0 -0.018849659802774414 0.007220136405740759 0 -0.019631874294251631 0.0066376626892292083 0 -0.019360653455672418 0.007371123209929299 0 -0.019776447376039025 0.007794041412205647 0 -0.019360653455672418 0.007371123209929299 0 -0.019166244418092431 0.0080347461854176922 0 -0.018849659802774414 0.007220136405740759 0 -0.019360653455672418 0.007371123209929299 0 -0.019776447376039025 0.007794041412205647 0 -0.019166244418092431 0.0080347461854176922 0 -0.017996051290063843 0.0071742398902082637 0 -0.018606375273032699 0.0090293963273829127 0 -0.017101441822641849 0.0088752933746408212 0 -0.017693175732267689 0.0097080157164139494 0 -0.017336460517834249 0.010015799267463283 0 -0.017939189669481805 0.010202734597261769 0 -0.017693175732267689 0.0097080157164139494 0 -0.017336460517834249 0.010015799267463283 0 -0.019776447376039025 0.007794041412205647 0 -0.019516493108005 0.0084811330644837899 0 -0.019779002456816016 0.0090689762333841274 0 -0.017336460517834249 0.010015799267463283 0 -0.017737896962102158 0.010867627760888307 0 -0.017626385352576723 0.01097676150722981 0 -0.017777495643924578 0.010588705846691457 0 -0.017746199136018853 0.01081264773236725 0 -0.018606375273032699 0.0090293963273829127 0 -0.018680784835446829 0.009959676380371393 0 -0.017939189669481805 0.010202734597261769 0 -0.017336460517834249 0.010015799267463283 0 -0.017737896962102158 0.010867627760888307 0 -0.019776447376039025 0.007794041412205647 0 -0.019516493108005 0.0084811330644837899 0 -0.019166244418092431 0.0080347461854176922 0 -0.019516493108005 0.0084811330644837899 0 -0.019166244418092431 0.0080347461854176922 0 -0.019228778063573149 0.0086302774088242665 0 -0.019516493108005 0.0084811330644837899 0 -0.019228778063573149 0.0086302774088242665 0 -0.019414319185390102 0.0089116173994234927 0 -0.019166244418092431 0.0080347461854176922 0 -0.019228778063573149 0.0086302774088242665 0 -0.018861571095327635 0.0086856092217944721 0 -0.018395573962225891 0.0086065000049221907 0 -0.01859923425664264 0.0080284519021334797 0 -0.018861571095327635 0.0086856092217944721 0 -0.018395573962225891 0.0086065000049221907 0 -0.01859923425664264 0.0080284519021334797 0 -0.018062409256754484 0.0081424321135518379 0 -0.019166244418092431 0.0080347461854176922 0 -0.01859923425664264 0.0080284519021334797 0 -0.018861571095327635 0.0086856092217944721 0 -0.01859923425664264 0.0080284519021334797 0 -0.018849659802774414 0.007220136405740759 0 -0.018289488539539753 0.0075922078676852979 0 -0.019166244418092431 0.0080347461854176922 0 -0.01859923425664264 0.0080284519021334797 0 -0.018849659802774414 0.007220136405740759 0 -0.018279206582620389 0.0069738893910364121 0 -0.018849659802774414 0.007220136405740759 0 -0.018289488539539753 0.0075922078676852979 0 -0.018279206582620389 0.0069738893910364121 0 -0.017855021509289082 0.0076266804477507178 0 -0.017639792430926685 0.0068823843009288514 0 -0.018279206582620389 0.0069738893910364121 0 -0.018289488539539753 0.0075922078676852979 0 -0.017855021509289082 0.0076266804477507178 0 -0.018289488539539753 0.0075922078676852979 0 -0.017855021509289082 0.0076266804477507178 0 -0.018062409256754484 0.0081424321135518379 0 -0.017855021509289082 0.0076266804477507178 0 -0.018062409256754484 0.0081424321135518379 0 -0.017373799022706974 0.0084244648675210667 0 -0.018062409256754484 0.0081424321135518379 0 -0.017936462357572125 0.0087210774703557082 0 -0.017373799022706974 0.0084244648675210667 0 -0.01859923425664264 0.0080284519021334797 0 -0.018289488539539753 0.0075922078676852979 0 -0.018062409256754484 0.0081424321135518379 0 -0.018395573962225891 0.0086065000049221907 0 -0.018062409256754484 0.0081424321135518379 0 -0.017936462357572125 0.0087210774703557082 0 -0.017936462357572125 0.0087210774703557082 0 -0.017886306008788398 0.0093628495782001383 0 -0.017562848188581608 0.0091178308430094248 0 -0.017936462357572125 0.0087210774703557082 0 -0.018225007982366405 0.0090810022437108531 0 -0.017886306008788398 0.0093628495782001383 0 -0.018225007982366405 0.0090810022437108531 0 -0.018287429434344988 0.0095493669987538159 0 -0.017886306008788398 0.0093628495782001383 0 -0.018395573962225891 0.0086065000049221907 0 -0.017936462357572125 0.0087210774703557082 0 -0.018225007982366405 0.0090810022437108531 0 -0.018395573962225891 0.0086065000049221907 0 -0.018595184594569204 0.0091861888836488569 0 -0.018225007982366405 0.0090810022437108531 0 -0.018395573962225891 0.0086065000049221907 0 -0.018595184594569204 0.0091861888836488569 0 -0.018861571095327635 0.0086856092217944721 0 -0.018595184594569204 0.0091861888836488569 0 -0.018638248827602687 0.0097341720704292138 0 -0.018933524287231 0.0093425848853199607 0 -0.018595184594569204 0.0091861888836488569 0 -0.018225007982366405 0.0090810022437108531 0 -0.018287429434344988 0.0095493669987538159 0 -0.018595184594569204 0.0091861888836488569 0 -0.018287429434344988 0.0095493669987538159 0 -0.018638248827602687 0.0097341720704292138 0 -0.018287429434344988 0.0095493669987538159 0 -0.018638248827602687 0.0097341720704292138 0 -0.018304787409583391 0.0099315474304035745 0 -0.018638248827602687 0.0097341720704292138 0 -0.018304787409583391 0.0099315474304035745 0 -0.018510631646814411 0.010168415608861158 0 -0.018304787409583391 0.0099315474304035745 0 -0.018150145794743579 0.01024834937013637 0 -0.018510631646814411 0.010168415608861158 0 -0.018287429434344988 0.0095493669987538159 0 -0.018304787409583391 0.0099315474304035745 0 -0.017935914905529451 0.0099052284295707629 0 -0.018304787409583391 0.0099315474304035745 0 -0.017935914905529451 0.0099052284295707629 0 -0.018150145794743579 0.01024834937013637 0 -0.017512161882632379 0.0097022594348804819 0 -0.017631541816789702 0.010104358083164986 0 -0.017332136719852887 0.010243180722731057 0 -0.017935914905529451 0.0099052284295707629 0 -0.017512161882632379 0.0097022594348804819 0 -0.017631541816789702 0.010104358083164986 0 -0.017935914905529451 0.0099052284295707629 0 -0.017512161882632379 0.0097022594348804819 0 -0.017886306008788398 0.0093628495782001383 0 -0.017512161882632379 0.0097022594348804819 0 -0.017886306008788398 0.0093628495782001383 0 -0.017562848188581608 0.0091178308430094248 0 -0.018287429434344988 0.0095493669987538159 0 -0.017935914905529451 0.0099052284295707629 0 -0.017886306008788398 0.0093628495782001383 0 -0.017744584607087464 0.010986314263893843 0 -0.017737896962102158 0.010867627760888307 0 -0.017626385352576723 0.01097676150722981 0 -0.019516493108005 0.0084811330644837899 0 -0.019779002456816016 0.0090689762333841274 0 -0.019414319185390102 0.0089116173994234927 0 -0.019779002456816016 0.0090689762333841274 0 -0.019350313273003048 0.0093003083019471411 0 -0.019414319185390102 0.0089116173994234927 0 -0.019779002456816016 0.0090689762333841274 0 -0.019350313273003048 0.0093003083019471411 0 -0.019403563646835854 0.0096799965600099722 0 -0.019350313273003048 0.0093003083019471411 0 -0.019188802466630833 0.0090358795713597392 0 -0.018933524287231 0.0093425848853199607 0 -0.019350313273003048 0.0093003083019471411 0 -0.018933524287231 0.0093425848853199607 0 -0.019204329201484682 0.0096397402586803141 0 -0.019228778063573149 0.0086302774088242665 0 -0.019414319185390102 0.0089116173994234927 0 -0.019188802466630833 0.0090358795713597392 0 -0.019350313273003048 0.0093003083019471411 0 -0.019414319185390102 0.0089116173994234927 0 -0.019188802466630833 0.0090358795713597392 0 -0.019188802466630833 0.0090358795713597392 0 -0.018861571095327635 0.0086856092217944721 0 -0.018933524287231 0.0093425848853199607 0 -0.019228778063573149 0.0086302774088242665 0 -0.019188802466630833 0.0090358795713597392 0 -0.018861571095327635 0.0086856092217944721 0 -0.018595184594569204 0.0091861888836488569 0 -0.018861571095327635 0.0086856092217944721 0 -0.018933524287231 0.0093425848853199607 0 -0.018638248827602687 0.0097341720704292138 0 -0.018933524287231 0.0093425848853199607 0 -0.018967341338458087 0.0097550541537311432 0 -0.018638248827602687 0.0097341720704292138 0 -0.018844789801514675 0.010140226280680209 0 -0.018510631646814411 0.010168415608861158 0 -0.018638248827602687 0.0097341720704292138 0 -0.018844789801514675 0.010140226280680209 0 -0.018967341338458087 0.0097550541537311432 0 -0.018844789801514675 0.010140226280680209 0 -0.019142100922370998 0.0099762506726645949 0 -0.019084576945928012 0.010369276756848407 0 -0.018844789801514675 0.010140226280680209 0 -0.019142100922370998 0.0099762506726645949 0 -0.018967341338458087 0.0097550541537311432 0 -0.018933524287231 0.0093425848853199607 0 -0.018967341338458087 0.0097550541537311432 0 -0.019204329201484682 0.0096397402586803141 0 -0.019142100922370998 0.0099762506726645949 0 -0.018967341338458087 0.0097550541537311432 0 -0.019204329201484682 0.0096397402586803141 0 -0.018680784835446829 0.009959676380371393 0 -0.018669211590686241 0.010634399714919418 0 -0.017744584607087464 0.010986314263893843 0 -0.017626385352576723 0.01097676150722981 0 -0.017883387371988062 0.011069155082994888 0 -0.019779002456816016 0.0090689762333841274 0 -0.019403563646835854 0.0096799965600099722 0 -0.019488047906286908 0.010320514832881267 0 -0.019350313273003048 0.0093003083019471411 0 -0.019204329201484682 0.0096397402586803141 0 -0.019403563646835854 0.0096799965600099722 0 -0.019142100922370998 0.0099762506726645949 0 -0.019204329201484682 0.0096397402586803141 0 -0.019403563646835854 0.0096799965600099722 0 -0.019142100922370998 0.0099762506726645949 0 -0.019488047906286908 0.010320514832881267 0 -0.019084576945928012 0.010369276756848407 0 -0.019142100922370998 0.0099762506726645949 0 -0.019403563646835854 0.0096799965600099722 0 -0.019488047906286908 0.010320514832881267 0 -0.018567934416975445 0.010955699440856963 0 -0.019108863129816866 0.010619089054321438 0 -0.019488047906286908 0.010320514832881267 0 -0.019108863129816866 0.010619089054321438 0 -0.019488047906286908 0.010320514832881267 0 -0.019084576945928012 0.010369276756848407 0 -0.019108863129816866 0.010619089054321438 0 -0.019084576945928012 0.010369276756848407 0 -0.018975839503530188 0.010620322745897902 0 -0.019108863129816866 0.010619089054321438 0 -0.018975839503530188 0.010620322745897902 0 -0.018943702491139445 0.010775602689106482 0 -0.019084576945928012 0.010369276756848407 0 -0.018975839503530188 0.010620322745897902 0 -0.018872182694842528 0.010470134738841359 0 -0.018975839503530188 0.010620322745897902 0 -0.018824043650039483 0.010706909095613193 0 -0.018921106286610916 0.010773420572118188 0 -0.018975839503530188 0.010620322745897902 0 -0.018824043650039483 0.010706909095613193 0 -0.018872182694842528 0.010470134738841359 0 -0.018844789801514675 0.010140226280680209 0 -0.019084576945928012 0.010369276756848407 0 -0.018872182694842528 0.010470134738841359 0 -0.018844789801514675 0.010140226280680209 0 -0.018872182694842528 0.010470134738841359 0 -0.018632431805986598 0.010528037790879035 0 -0.018844789801514675 0.010140226280680209 0 -0.018632431805986598 0.010528037790879035 0 -0.018510631646814411 0.010168415608861158 0 -0.018824043650039483 0.010706909095613193 0 -0.018872182694842528 0.010470134738841359 0 -0.018632431805986598 0.010528037790879035 0 -0.018824043650039483 0.010706909095613193 0 -0.018632431805986598 0.010528037790879035 0 -0.018614735426163414 0.010845971928671297 0 -0.018614735426163414 0.010845971928671297 0 -0.018703711802690755 0.010969091365087405 0 -0.018392989728889888 0.011070453565057202 0 -0.018824043650039483 0.010706909095613193 0 -0.018614735426163414 0.010845971928671297 0 -0.01875940311474239 0.01087680116680787 0 -0.018614735426163414 0.010845971928671297 0 -0.01875940311474239 0.01087680116680787 0 -0.018703711802690755 0.010969091365087405 0 -0.018703711802690755 0.010969091365087405 0 -0.018824825158748133 0.010964462440765299 0 -0.018915117664379248 0.011020718778427368 0 -0.018703711802690755 0.010969091365087405 0 -0.018392989728889888 0.011070453565057202 0 -0.018915117664379248 0.011020718778427368 0 -0.01875940311474239 0.01087680116680787 0 -0.018703711802690755 0.010969091365087405 0 -0.018824825158748133 0.010964462440765299 0 -0.018860466189795543 0.010933008794798206 0 -0.018819889534248908 0.010889140764616643 0 -0.018915117664379248 0.011020718778427368 0 -0.01875940311474239 0.01087680116680787 0 -0.018824825158748133 0.010964462440765299 0 -0.018856021695830501 0.010865915630010518 0 -0.018824825158748133 0.010964462440765299 0 -0.018860466189795543 0.010933008794798206 0 -0.018915117664379248 0.011020718778427368 0 -0.018824825158748133 0.010964462440765299 0 -0.018860466189795543 0.010933008794798206 0 -0.018856021695830501 0.010865915630010518 0 -0.018860466189795543 0.010933008794798206 0 -0.018856021695830501 0.010865915630010518 0 -0.018877790986020646 0.010862773535628305 0 -0.018824043650039483 0.010706909095613193 0 -0.018856021695830501 0.010865915630010518 0 -0.018921106286610916 0.010773420572118188 0 -0.018824043650039483 0.010706909095613193 0 -0.01875940311474239 0.01087680116680787 0 -0.018856021695830501 0.010865915630010518 0 -0.018975839503530188 0.010620322745897902 0 -0.018921106286610916 0.010773420572118188 0 -0.018943702491139445 0.010775602689106482 0 -0.018921106286610916 0.010773420572118188 0 -0.018943702491139445 0.010775602689106482 0 -0.018877790986020646 0.010862773535628305 0 -0.018943702491139445 0.010775602689106482 0 -0.018877790986020646 0.010862773535628305 0 -0.018847993430612567 0.010854006124162523 0 -0.018856021695830501 0.010865915630010518 0 -0.018921106286610916 0.010773420572118188 0 -0.018877790986020646 0.010862773535628305 0 -0.018860466189795543 0.010933008794798206 0 -0.018877790986020646 0.010862773535628305 0 -0.018819889534248908 0.010889140764616643 0 -0.018877790986020646 0.010862773535628305 0 -0.018819889534248908 0.010889140764616643 0 -0.018815656261087683 0.010863374620502806 0 -0.018877790986020646 0.010862773535628305 0 -0.018815656261087683 0.010863374620502806 0 -0.018847993430612567 0.010854006124162523 0 -0.018815656261087683 0.010863374620502806 0 -0.018847993430612567 0.010854006124162523 0 -0.018828552872379493 0.01085499337793179 0 -0.018819889534248908 0.010889140764616643 0 -0.018815656261087683 0.010863374620502806 0 -0.018723506694098765 0.010847736287470742 0 -0.018815656261087683 0.010863374620502806 0 -0.018723506694098765 0.010847736287470742 0 -0.018828552872379493 0.01085499337793179 0 -0.018819889534248908 0.010889140764616643 0 -0.018723506694098765 0.010847736287470742 0 -0.018718483751603419 0.010810615107623543 0 -0.018586745099108268 0.010847158820254513 0 -0.018723506694098765 0.010847736287470742 0 -0.018608472141261132 0.01076404393117575 0 -0.018567934416975445 0.010955699440856963 0 -0.018723506694098765 0.010847736287470742 0 -0.018828552872379493 0.01085499337793179 0 -0.019108863129816866 0.010619089054321438 0 -0.018943702491139445 0.010775602689106482 0 -0.018828552872379493 0.01085499337793179 0 -0.018567934416975445 0.010955699440856963 0 -0.019108863129816866 0.010619089054321438 0 -0.018828552872379493 0.01085499337793179 0 -0.018943702491139445 0.010775602689106482 0 -0.018847993430612567 0.010854006124162523 0 -0.018828552872379493 0.01085499337793179 0 -0.017811339719446356 0.010851827589680778 0 -0.017752198630149412 0.010428879272897429 0 -0.018044002746367225 0.010545172731458621 0 -0.017811339719446356 0.010851827589680778 0 -0.017752198630149412 0.010428879272897429 0 -0.017460326281837708 0.010913695031389066 0 -0.017752198630149412 0.010428879272897429 0 -0.017460326281837708 0.010913695031389066 0 -0.017387537763138262 0.01057789788702272 0 -0.017631541816789702 0.010104358083164986 0 -0.017387537763138262 0.01057789788702272 0 -0.017332136719852887 0.010243180722731057 0 -0.017631541816789702 0.010104358083164986 0 -0.017752198630149412 0.010428879272897429 0 -0.017387537763138262 0.01057789788702272 0 -0.017935914905529451 0.0099052284295707629 0 -0.017752198630149412 0.010428879272897429 0 -0.018150145794743579 0.01024834937013637 0 -0.017935914905529451 0.0099052284295707629 0 -0.017631541816789702 0.010104358083164986 0 -0.017752198630149412 0.010428879272897429 0 -0.017752198630149412 0.010428879272897429 0 -0.018150145794743579 0.01024834937013637 0 -0.018044002746367225 0.010545172731458621 0 -0.018150145794743579 0.01024834937013637 0 -0.018349261163747486 0.010487644063321007 0 -0.018044002746367225 0.010545172731458621 0 -0.018150145794743579 0.01024834937013637 0 -0.018510631646814411 0.010168415608861158 0 -0.018349261163747486 0.010487644063321007 0 -0.018632431805986598 0.010528037790879035 0 -0.018510631646814411 0.010168415608861158 0 -0.018349261163747486 0.010487644063321007 0 -0.018632431805986598 0.010528037790879035 0 -0.018614735426163414 0.010845971928671297 0 -0.018383394502760355 0.010778607361637426 0 -0.018632431805986598 0.010528037790879035 0 -0.018349261163747486 0.010487644063321007 0 -0.018383394502760355 0.010778607361637426 0 -0.018349261163747486 0.010487644063321007 0 -0.018137127780474466 0.010734139884734642 0 -0.018383394502760355 0.010778607361637426 0 -0.018349261163747486 0.010487644063321007 0 -0.018044002746367225 0.010545172731458621 0 -0.018137127780474466 0.010734139884734642 0 -0.017811339719446356 0.010851827589680778 0 -0.018044002746367225 0.010545172731458621 0 -0.018137127780474466 0.010734139884734642 0 -0.018082288134305655 0.011002142675956127 0 -0.018392989728889888 0.011070453565057202 0 -0.017652864703968037 0.011461427884811885 0 -0.018392989728889888 0.011070453565057202 0 -0.017652864703968037 0.011461427884811885 0 -0.018915117664379248 0.011020718778427368 0 -0.017652864703968037 0.011461427884811885 0 -0.017495639354243541 0.011918498482887084 0 -0.016539286765022226 0.013381063550203277 0 -0.016905629995738757 0.01149595836024026 0 -0.019062656202430226 0.012009815244458558 0 -0.017811339719446356 0.010851827589680778 0 -0.018137127780474466 0.010734139884734642 0 -0.018082288134305655 0.011002142675956127 0 -0.018137127780474466 0.010734139884734642 0 -0.018082288134305655 0.011002142675956127 0 -0.018383394502760355 0.010778607361637426 0 -0.018082288134305655 0.011002142675956127 0 -0.018383394502760355 0.010778607361637426 0 -0.018392989728889888 0.011070453565057202 0 -0.018614735426163414 0.010845971928671297 0 -0.018383394502760355 0.010778607361637426 0 -0.018392989728889888 0.011070453565057202 0 -0.0031187477570508472 0.023378137569594143 0 -0.0030186714267535423 0.023417909790755032 0 -0.0030686261802120676 0.023301155569210943 0 -0.0097767190618454416 0.017614958558858505 0 -0.012681397729705892 0.017370854659245833 0 -0.017652864703968037 0.011461427884811885 0 -0.017495639354243541 0.011918498482887084 0 -0.017183212737679095 0.011156317581696799 0 -0.017652864703968037 0.011461427884811885 0 -0.017460326281837708 0.010913695031389066 0 -0.017183212737679095 0.011156317581696799 0 -0.017811339719446356 0.010851827589680778 0 -0.017652864703968037 0.011461427884811885 0 -0.017460326281837708 0.010913695031389066 0 -0.017811339719446356 0.010851827589680778 0 -0.018082288134305655 0.011002142675956127 0 -0.017652864703968037 0.011461427884811885 0 -0.0030315978314762954 0.023537624980561708 0 -0.0031187477570508472 0.023378137569594143 0 -0.0030186714267535423 0.023417909790755032 0 -0.0030315978314762954 0.023537624980561708 0 -0.0031187477570508472 0.023378137569594143 0 -0.0031126012546676867 0.023558622754144904 0 -0.0097767190618454416 0.017614958558858505 0 -0.010198067601714609 0.01842684678615971 0 -0.0031187477570508472 0.023378137569594143 0 -0.0031126012546676867 0.023558622754144904 0 -0.0033395581606501541 0.023409399171001797 0 -0.0030315978314762954 0.023537624980561708 0 -0.0031126012546676867 0.023558622754144904 0 -0.0030165656954968 0.023657602262318524 0 -0.0031126012546676867 0.023558622754144904 0 -0.0030165656954968 0.023657602262318524 0 -0.0030587396624835797 0.023752821044774674 0 -0.0030165656954968 0.023657602262318524 0 -0.0030068243116393549 0.0237346303172064 0 -0.0030587396624835797 0.023752821044774674 0 -0.0030165656954968 0.023657602262318524 0 -0.0030068243116393549 0.0237346303172064 0 -0.0029733389068344195 0.023744455264645966 0 -0.0030068243116393549 0.0237346303172064 0 -0.0030587396624835797 0.023752821044774674 0 -0.0029985653850919574 0.02379410933278784 0 -0.0030068243116393549 0.0237346303172064 0 -0.0029733389068344195 0.023744455264645966 0 -0.0029985653850919574 0.02379410933278784 0 -0.0030587396624835797 0.023752821044774674 0 -0.0031063068925001581 0.023829652953229322 0 -0.0031815712271859812 0.023674464292282493 0 -0.0031063068925001581 0.023829652953229322 0 -0.0031876801016934918 0.023848321150680155 0 -0.0031815712271859812 0.023674464292282493 0 -0.0031126012546676867 0.023558622754144904 0 -0.0030587396624835797 0.023752821044774674 0 -0.0031815712271859812 0.023674464292282493 0 -0.0061873566792080498 0.022877540592566085 0 -0.0085469042691371164 0.022585757534868332 0 -0.0030315978314762954 0.023537624980561708 0 -0.0029117006737628065 0.023724574001323023 0 -0.0030186714267535423 0.023417909790755032 0 -0.0030315978314762954 0.023537624980561708 0 -0.0030165656954968 0.023657602262318524 0 -0.0029117006737628065 0.023724574001323023 0 -0.0030165656954968 0.023657602262318524 0 -0.0029733389068344195 0.023744455264645966 0 -0.0029117006737628065 0.023724574001323023 0 -0.0029733389068344195 0.023744455264645966 0 -0.0029117006737628065 0.023724574001323023 0 -0.0029612790494650382 0.023788231943578757 0 -0.0029733389068344195 0.023744455264645966 0 -0.0029612790494650382 0.023788231943578757 0 -0.0029985653850919574 0.02379410933278784 0 -0.0029117006737628065 0.023724574001323023 0 -0.0029558343002471436 0.023982814760995712 0 -0.0029416565194506031 0.024251318572848783 0 -0.0061873566792080498 0.022877540592566085 0 -0.0021287068758939738 0.024237942780810394 0 -0.0061873566792080498 0.022877540592566085 0 -0.0073765860671064949 0.019452047730567096 0 -0.012642593307342137 0.020527215675248154 0 -0.012049117244442298 0.019423142210521282 0 -0.013073206578477783 0.019438522836844514 0 -0.0029117006737628065 0.023724574001323023 0 -0.0029581139767883222 0.023847153969035504 0 -0.0029558343002471436 0.023982814760995712 0 -0.0029117006737628065 0.023724574001323023 0 -0.0029581139767883222 0.023847153969035504 0 -0.0029612790494650382 0.023788231943578757 0 -0.0029581139767883222 0.023847153969035504 0 -0.0029612790494650382 0.023788231943578757 0 -0.0029985653850919574 0.02379410933278784 0 -0.0029985653850919574 0.02379410933278784 0 -0.0030354904202985664 0.023843463470781461 0 -0.0029892473351573884 0.023862028749264814 0 -0.002970373729363136 0.023496994713261804 0 -0.0028966771169494855 0.024222257671380452 0 -0.0029416565194506031 0.024251318572848783 0 -0.0029581139767883222 0.023847153969035504 0 -0.0029985653850919574 0.02379410933278784 0 -0.0029892473351573884 0.023862028749264814 0 -0.0030587396624835797 0.023752821044774674 0 -0.0029985653850919574 0.02379410933278784 0 -0.0030354904202985664 0.023843463470781461 0 -0.0030587396624835797 0.023752821044774674 0 -0.0030354904202985664 0.023843463470781461 0 -0.0031063068925001581 0.023829652953229322 0 -0.0029984666397842382 0.023920836884211497 0 -0.0030485940186026068 0.023930706050322357 0 -0.0030041254531749991 0.023964577595682379 0 -0.0030354904202985664 0.023843463470781461 0 -0.0029984666397842382 0.023920836884211497 0 -0.0030485940186026068 0.023930706050322357 0 -0.0029581139767883222 0.023847153969035504 0 -0.0029745680993721246 0.023905014768272177 0 -0.0029558343002471436 0.023982814760995712 0 -0.0030354904202985664 0.023843463470781461 0 -0.0029984666397842382 0.023920836884211497 0 -0.0029892473351573884 0.023862028749264814 0 -0.0029984666397842382 0.023920836884211497 0 -0.0029745680993721246 0.023905014768272177 0 -0.0029558343002471436 0.023982814760995712 0 -0.0029581139767883222 0.023847153969035504 0 -0.0029745680993721246 0.023905014768272177 0 -0.0029892473351573884 0.023862028749264814 0 -0.0029984666397842382 0.023920836884211497 0 -0.0029745680993721246 0.023905014768272177 0 -0.0029892473351573884 0.023862028749264814 0 -0.0031063068925001581 0.023829652953229322 0 -0.0031160909378678985 0.02395219874851227 0 -0.0031876801016934918 0.023848321150680155 0 -0.0030354904202985664 0.023843463470781461 0 -0.0031063068925001581 0.023829652953229322 0 -0.0030485940186026068 0.023930706050322357 0 -0.0031063068925001581 0.023829652953229322 0 -0.0030485940186026068 0.023930706050322357 0 -0.0031160909378678985 0.02395219874851227 0 -0.0031160909378678985 0.02395219874851227 0 -0.0030890724781348828 0.0240579116402721 0 -0.0031990246688007786 0.02407487502965076 0 -0.0031160909378678985 0.02395219874851227 0 -0.0030669353596391694 0.023990813540277583 0 -0.0030890724781348828 0.0240579116402721 0 -0.0030485940186026068 0.023930706050322357 0 -0.0030669353596391694 0.023990813540277583 0 -0.00301314462013054 0.024024241237459384 0 -0.0030669353596391694 0.023990813540277583 0 -0.0030890724781348828 0.0240579116402721 0 -0.00301314462013054 0.024024241237459384 0 -0.0030485940186026068 0.023930706050322357 0 -0.0031160909378678985 0.02395219874851227 0 -0.0030669353596391694 0.023990813540277583 0 -0.0030890724781348828 0.0240579116402721 0 -0.00301314462013054 0.024024241237459384 0 -0.0030101064506557786 0.024128584270006363 0 -0.0030890724781348828 0.0240579116402721 0 -0.0030859407384157714 0.024182754598711612 0 -0.0031990246688007786 0.02407487502965076 0 -0.0029984666397842382 0.023920836884211497 0 -0.0029558343002471436 0.023982814760995712 0 -0.0030041254531749991 0.023964577595682379 0 -0.0030485940186026068 0.023930706050322357 0 -0.0030041254531749991 0.023964577595682379 0 -0.00301314462013054 0.024024241237459384 0 -0.0029558343002471436 0.023982814760995712 0 -0.0030041254531749991 0.023964577595682379 0 -0.00301314462013054 0.024024241237459384 0 -0.0029558343002471436 0.023982814760995712 0 -0.00301314462013054 0.024024241237459384 0 -0.0030101064506557786 0.024128584270006363 0 -0.0028966771169494855 0.024222257671380452 0 -0.0029416565194506031 0.024251318572848783 0 -0.0030335860354954729 0.024825322088924528 0 -0.0029558343002471436 0.023982814760995712 0 -0.0029416565194506031 0.024251318572848783 0 -0.0030101064506557786 0.024128584270006363 0 -0.0029416565194506031 0.024251318572848783 0 -0.003143005884838818 0.024363118270129516 0 -0.0030335860354954729 0.024825322088924528 0 -0.0029416565194506031 0.024251318572848783 0 -0.0030859407384157714 0.024182754598711612 0 -0.0030101064506557786 0.024128584270006363 0 -0.0029416565194506031 0.024251318572848783 0 -0.0030859407384157714 0.024182754598711612 0 -0.003143005884838818 0.024363118270129516 0 -0.0030890724781348828 0.0240579116402721 0 -0.0030859407384157714 0.024182754598711612 0 -0.0030101064506557786 0.024128584270006363 0 -0.012049117244442298 0.019423142210521282 0 -0.012859525371571675 0.018183226101197724 0 -0.013073206578477783 0.019438522836844514 0 -0.0035079798260044819 0.024255370855921821 0 -0.0032996156025976624 0.024299397372544596 0 -0.0033666012068296614 0.024057853726708996 0 -0.0035079798260044819 0.024255370855921821 0 -0.0034218073676139165 0.024484451943633235 0 -0.0032996156025976624 0.024299397372544596 0 -0.0035079798260044819 0.024255370855921821 0 -0.0034218073676139165 0.024484451943633235 0 -0.0036342048728490364 0.024532390457023389 0 -0.0034218073676139165 0.024484451943633235 0 -0.0032996156025976624 0.024299397372544596 0 -0.0032704874575597816 0.024543278057366433 0 -0.003143005884838818 0.024363118270129516 0 -0.0032996156025976624 0.024299397372544596 0 -0.0032704874575597816 0.024543278057366433 0 -0.003143005884838818 0.024363118270129516 0 -0.0032996156025976624 0.024299397372544596 0 -0.0031990246688007786 0.02407487502965076 0 -0.0030859407384157714 0.024182754598711612 0 -0.003143005884838818 0.024363118270129516 0 -0.0031990246688007786 0.02407487502965076 0 -0.0032996156025976624 0.024299397372544596 0 -0.0031990246688007786 0.02407487502965076 0 -0.0033666012068296614 0.024057853726708996 0 -0.0031990246688007786 0.02407487502965076 0 -0.0032959707998436436 0.023891330986638086 0 -0.0033666012068296614 0.024057853726708996 0 -0.0031990246688007786 0.02407487502965076 0 -0.0031876801016934918 0.023848321150680155 0 -0.0032959707998436436 0.023891330986638086 0 -0.0031160909378678985 0.02395219874851227 0 -0.0031990246688007786 0.02407487502965076 0 -0.0031876801016934918 0.023848321150680155 0 -0.0031876801016934918 0.023848321150680155 0 -0.0032959707998436436 0.023891330986638086 0 -0.0033157047949834541 0.023680814237477525 0 -0.0035079798260044819 0.024255370855921821 0 -0.0033666012068296614 0.024057853726708996 0 -0.003453103649325101 0.02384447500812931 0 -0.0032959707998436436 0.023891330986638086 0 -0.0033666012068296614 0.024057853726708996 0 -0.003453103649325101 0.02384447500812931 0 -0.0035079798260044819 0.024255370855921821 0 -0.003453103649325101 0.02384447500812931 0 -0.0038222662233804027 0.024361587558977042 0 -0.003453103649325101 0.02384447500812931 0 -0.0035035855560265911 0.023495762573258902 0 -0.0036118858821295031 0.023497221895583752 0 -0.0035035855560265911 0.023495762573258902 0 -0.0033395581606501541 0.023409399171001797 0 -0.0037587692544562368 0.023304297514298064 0 -0.003453103649325101 0.02384447500812931 0 -0.0036118858821295031 0.023497221895583752 0 -0.0037581393530452282 0.023614467230755012 0 -0.003453103649325101 0.02384447500812931 0 -0.0035035855560265911 0.023495762573258902 0 -0.0033157047949834541 0.023680814237477525 0 -0.0035035855560265911 0.023495762573258902 0 -0.0036118858821295031 0.023497221895583752 0 -0.0037587692544562368 0.023304297514298064 0 -0.0035035855560265911 0.023495762573258902 0 -0.0033157047949834541 0.023680814237477525 0 -0.0033395581606501541 0.023409399171001797 0 -0.0031815712271859812 0.023674464292282493 0 -0.0033157047949834541 0.023680814237477525 0 -0.0033395581606501541 0.023409399171001797 0 -0.0031126012546676867 0.023558622754144904 0 -0.0031815712271859812 0.023674464292282493 0 -0.0033395581606501541 0.023409399171001797 0 -0.0031876801016934918 0.023848321150680155 0 -0.0031815712271859812 0.023674464292282493 0 -0.0033157047949834541 0.023680814237477525 0 -0.0032959707998436436 0.023891330986638086 0 -0.003453103649325101 0.02384447500812931 0 -0.0033157047949834541 0.023680814237477525 0 -0.017495639354243541 0.011918498482887084 0 -0.016373463444365865 0.013466623421728469 0 -0.016539286765022226 0.013381063550203277 0 -0.019062656202430226 0.012009815244458558 0 -0.010083411310064089 0.01485675567580871 0 -0.016373463444365865 0.013466623421728469 0 -0.014966678941584974 0.014867486357273184 0 -0.015000160776484412 0.014699858815663356 0 -0.010198067601714609 0.01842684678615971 0 -0.0087298169736307642 0.019624403610585314 0 -0.016373463444365865 0.013466623421728469 0 -0.016539286765022226 0.013381063550203277 0 -0.014966678941584974 0.014867486357273184 0 -0.018819889534248908 0.010889140764616643 0 -0.018915117664379248 0.011020718778427368 0 -0.018718483751603419 0.010810615107623543 0 -0.018915117664379248 0.011020718778427368 0 -0.018718483751603419 0.010810615107623543 0 -0.018525424493806179 0.010566185909367518 0 -0.018723506694098765 0.010847736287470742 0 -0.018718483751603419 0.010810615107623543 0 -0.018608472141261132 0.01076404393117575 0 -0.018421682145431745 0.010834710957751643 0 -0.01822016372279639 0.010873570860414418 0 -0.018525424493806179 0.010566185909367518 0 -0.00089141119684480038 0.019266044595935772 0 -0.002189402318958734 0.014292375718093494 0 0.002883831464651522 0.016223029270535181 0 -0.018718483751603419 0.010810615107623543 0 -0.018608472141261132 0.01076404393117575 0 -0.018525424493806179 0.010566185909367518 0 -0.018421682145431745 0.010834710957751643 0 -0.018608472141261132 0.01076404393117575 0 -0.018525424493806179 0.010566185909367518 0 -0.00088252306993203539 0.011402458805595339 0 -0.010083411310064089 0.01485675567580871 0 -0.010083411310064089 0.01485675567580871 0 -0.0087298169736307642 0.019624403610585314 0 -0.002189402318958734 0.014292375718093494 0 0.002883831464651522 0.016223029270535181 0 0.0057886709362051638 0.011734429833477869 0 0.0041873398074367216 0.019815751290355045 0 0.002883831464651522 0.016223029270535181 0 0.0075252920715004152 0.016021571385081635 0 -0.0039542719147734624 0.022107723129874652 0 -0.0047712423153339492 0.023368426483615208 0 -0.0056944971243461122 0.023188704701881589 0 -0.010083411310064089 0.01485675567580871 0 0.0033628280018605846 0.020163851743901336 0 -0.0047712423153339492 0.023368426483615208 0 -0.0056944971243461122 0.023188704701881589 0 -0.0051979540547527382 0.024241830892628033 0 0.0033628280018605846 0.020163851743901336 0 -0.0041864561002372992 0.025265086301511759 0 -0.0047712423153339492 0.023368426483615208 0 -0.0044725792080242124 0.023968550427685444 0 -0.0051979540547527382 0.024241830892628033 0 -0.0047712423153339492 0.023368426483615208 0 -0.0043002448318791246 0.023457185053639761 0 -0.0044725792080242124 0.023968550427685444 0 -0.0043002448318791246 0.023457185053639761 0 -0.0040807933649886514 0.023726495309159098 0 -0.0044725792080242124 0.023968550427685444 0 -0.0043002448318791246 0.023457185053639761 0 -0.0040807933649886514 0.023726495309159098 0 -0.0039684506646322773 0.023394871872328759 0 -0.0040807933649886514 0.023726495309159098 0 -0.0037581393530452282 0.023614467230755012 0 -0.0039280911305986108 0.024122062724953524 0 -0.0036118858821295031 0.023497221895583752 0 -0.0037581393530452282 0.023614467230755012 0 -0.0037345660970489222 0.023310307628867745 0 -0.0037581393530452282 0.023614467230755012 0 -0.0039684506646322773 0.023394871872328759 0 -0.0037345660970489222 0.023310307628867745 0 -0.0040807933649886514 0.023726495309159098 0 -0.0037581393530452282 0.023614467230755012 0 -0.0039684506646322773 0.023394871872328759 0 -0.0039684506646322773 0.023394871872328759 0 -0.0037345660970489222 0.023310307628867745 0 -0.0041277134954619378 0.022879545848355134 0 -0.0037345660970489222 0.023310307628867745 0 -0.0037871029640050751 0.022937241914695667 0 -0.0041277134954619378 0.022879545848355134 0 -0.0036118858821295031 0.023497221895583752 0 -0.0037345660970489222 0.023310307628867745 0 -0.0037587692544562368 0.023304297514298064 0 -0.0078451559356777743 0.021242896595604396 0 -0.0087298169736307642 0.019624403610585314 0 -0.0087298169736307642 0.019624403610585314 0 -0.0063924452173258301 0.019949521364865629 0 -0.0039542719147734624 0.022107723129874652 0 -0.0038728269202498778 0.02249185835074104 0 -0.0041277134954619378 0.022879545848355134 0 -0.0039542719147734624 0.022107723129874652 0 -0.0047712423153339492 0.023368426483615208 0 -0.0041277134954619378 0.022879545848355134 0 -0.0047712423153339492 0.023368426483615208 0 -0.0043002448318791246 0.023457185053639761 0 -0.0041277134954619378 0.022879545848355134 0 -0.0043002448318791246 0.023457185053639761 0 -0.0039684506646322773 0.023394871872328759 0 -0.0041277134954619378 0.022879545848355134 0 0.017973396084846063 0.020321894500162741 0 0.017775484044807225 0.019954722122162628 0 0.018238756807031353 0.01992011094242432 0 0.017775484044807225 0.019954722122162628 0 0.017152617611818605 0.020217441425586433 0 0.017356927126706154 0.019829326741874511 0 0.017973396084846063 0.020321894500162741 0 0.017775484044807225 0.019954722122162628 0 0.017152617611818605 0.020217441425586433 0 0.002883831464651522 0.016223029270535181 0 0.0075252920715004152 0.016021571385081635 0 0.0057886709362051638 0.011734429833477869 0 0.017152617611818605 0.020217441425586433 0 0.016827512149620475 0.019686241016364708 0 0.017356927126706154 0.019829326741874511 0 0.012239451885191767 0.018238508200253169 0 0.0033628280018605846 0.020163851743901336 0 0.0033628280018605846 0.020163851743901336 0 0.010923724867065386 0.023850408185386977 0 -0.0034664997837485002 0.026632442996028672 0 -0.0026297072534921103 0.026356035019899471 0 -0.0032059600675631876 0.026030105684015384 0 0.016827512149620475 0.019686241016364708 0 0.017356927126706154 0.019829326741874511 0 0.017684462611362112 0.019434126688617638 0 0.017775484044807225 0.019954722122162628 0 0.017356927126706154 0.019829326741874511 0 0.017684462611362112 0.019434126688617638 0 0.010923724867065386 0.023850408185386977 0 0.01617753789262736 0.022829174865748678 0 0.017775484044807225 0.019954722122162628 0 0.017777974213692774 0.019660941825872087 0 0.018238756807031353 0.01992011094242432 0 0.01643466770637261 0.019019293620500373 0 0.010923724867065386 0.023850408185386977 0 -0.0026297072534921103 0.026356035019899471 0 -0.0032059600675631876 0.026030105684015384 0 -0.0027710580299236472 0.0256227172783637 0 0.010923724867065386 0.023850408185386977 0 0.0072057227394992616 0.028101101474131973 0 0.011356172782171409 0.026795563407712001 0 0.011221149084064394 0.024764906107506771 0 0.012571602295354634 0.025361078562287486 0 -0.0034664997837485002 0.026632442996028672 0 -0.0032059600675631876 0.026030105684015384 0 -0.0038009439807891007 0.02606837075534868 0 -0.0032059600675631876 0.026030105684015384 0 -0.003467398614695525 0.025500142290306782 0 -0.0027710580299236472 0.0256227172783637 0 -0.0032059600675631876 0.026030105684015384 0 -0.003467398614695525 0.025500142290306782 0 -0.0038009439807891007 0.02606837075534868 0 -0.003467398614695525 0.025500142290306782 0 -0.0032191164669969925 0.025314894164635681 0 -0.003843469102472713 0.024941617634000903 0 -0.003467398614695525 0.025500142290306782 0 -0.0032191164669969925 0.025314894164635681 0 -0.0027710580299236472 0.0256227172783637 0 0.011224097377424833 0.033662435540539049 0 0.011321109501857322 0.03557186256932604 0 0.009389721987447636 0.035716409507981245 0 0.0072057227394992616 0.028101101474131973 0 0.0050210999714337262 0.033453209046980507 0 -0.0032191164669969925 0.025314894164635681 0 -0.0027710580299236472 0.0256227172783637 0 -0.002799603316802643 0.025179230125605041 0 0.0072057227394992616 0.028101101474131973 0 0.010952576848439177 0.029157862070442898 0 -0.0035876755360822795 0.024370261655694204 0 -0.004068964157901523 0.023357300113356468 0 -0.003453103649325101 0.02384447500812931 0 -0.0039280911305986108 0.024122062724953524 0 -0.0041865022409645451 0.025122998919654502 0 -0.0041942443998696762 0.024280932420022258 0 -0.004347240453513577 0.024700817845235905 0 -0.0041865022409645451 0.025122998919654502 0 -0.0039280911305986108 0.024122062724953524 0 -0.0041942443998696762 0.024280932420022258 0 -0.0041865022409645451 0.025122998919654502 0 -0.003453103649325101 0.02384447500812931 0 -0.0037581393530452282 0.023614467230755012 0 -0.0039280911305986108 0.024122062724953524 0 -0.0040807933649886514 0.023726495309159098 0 -0.0041942443998696762 0.024280932420022258 0 -0.0044725792080242124 0.023968550427685444 0 -0.0041942443998696762 0.024280932420022258 0 -0.0044725792080242124 0.023968550427685444 0 -0.004347240453513577 0.024700817845235905 0 -0.0040807933649886514 0.023726495309159098 0 -0.0039280911305986108 0.024122062724953524 0 -0.0041942443998696762 0.024280932420022258 0 -0.0044725792080242124 0.023968550427685444 0 -0.0051979540547527382 0.024241830892628033 0 -0.004347240453513577 0.024700817845235905 0 -0.0041864561002372992 0.025265086301511759 0 -0.0043267461362961482 0.025110916678823911 0 -0.003467398614695525 0.025500142290306782 0 -0.0038009439807891007 0.02606837075534868 0 -0.0041931388433005595 0.025223973660333729 0 -0.0051979540547527382 0.024241830892628033 0 -0.004347240453513577 0.024700817845235905 0 -0.0041931388433005595 0.025223973660333729 0 -0.004068964157901523 0.023357300113356468 0 -0.00051029202646175474 0.033774199580830729 0 -0.0041931388433005595 0.025223973660333729 0 -0.0041865022409645451 0.025122998919654502 0 -0.003843469102472713 0.024941617634000903 0 -0.004347240453513577 0.024700817845235905 0 -0.0041931388433005595 0.025223973660333729 0 -0.0041865022409645451 0.025122998919654502 0 -0.003467398614695525 0.025500142290306782 0 -0.0041931388433005595 0.025223973660333729 0 -0.003843469102472713 0.024941617634000903 0 -0.0038222662233804027 0.024361587558977042 0 -0.0036342048728490364 0.024532390457023389 0 -0.0037131725920847127 0.024797725220934951 0 -0.0035079798260044819 0.024255370855921821 0 -0.0038222662233804027 0.024361587558977042 0 -0.0036342048728490364 0.024532390457023389 0 0.0016847233625831232 0.052894106863342012 0 0.0050134873235551242 0.053138284378545023 0 0.0032229689076617735 0.050318884851095202 0 -0.0038222662233804027 0.024361587558977042 0 -0.0037131725920847127 0.024797725220934951 0 -0.0040346798881008188 0.024836527944864441 0 -0.00084976754986246098 0.039178678766299428 0 -0.00051029202646175474 0.033774199580830729 0 0.0050134873235551242 0.053138284378545023 0 0.0053966463385201622 0.05067264792914037 0 0.0032229689076617735 0.050318884851095202 0 0.0053966463385201622 0.05067264792914037 0 0.0032229689076617735 0.050318884851095202 0 0.0054206976277655266 0.048926498563459798 0 0.0016847233625831232 0.052894106863342012 0 0.0032229689076617735 0.050318884851095202 0 0.00064272803942853971 0.050689946022512138 0 0.0032229689076617735 0.050318884851095202 0 0.00064272803942853971 0.050689946022512138 0 0.0019041062124508597 0.048334062682683629 0 0.013584601589586142 0.036106243586162136 0 0.011631517340597178 0.039600442760156375 0 0.009389721987447636 0.035716409507981245 0 0.0050210999714337262 0.033453209046980507 0 0.01209935567099377 0.035827057207208142 0 -0.00051029202646175474 0.033774199580830729 0 0.0050210999714337262 0.033453209046980507 0 0.0052140825399772011 0.038184459587592617 0 0.0029089567664315687 0.037945435542035784 0 0.0041482522871859832 0.039334735918569792 0 -0.0032191164669969925 0.025314894164635681 0 -0.003843469102472713 0.024941617634000903 0 -0.002799603316802643 0.025179230125605041 0 -0.00051029202646175474 0.033774199580830729 0 0.0045816470713378066 0.045778642217718116 0 0.0050134873235551242 0.053138284378545023 0 0.0053966463385201622 0.05067264792914037 0 0.0068702814812173036 0.051384319420085318 0 0.0053966463385201622 0.05067264792914037 0 0.0070096297399207825 0.049423575255875089 0 0.0068702814812173036 0.051384319420085318 0 0.0053966463385201622 0.05067264792914037 0 0.0070096297399207825 0.049423575255875089 0 0.0054206976277655266 0.048926498563459798 0 0.0070096297399207825 0.049423575255875089 0 0.0068702814812173036 0.051384319420085318 0 0.0087299061436706994 0.04929488700363515 0 0.0045816470713378066 0.045778642217718116 0 0.0081448441221004253 0.044673295481479934 0 0.0029089567664315687 0.037945435542035784 0 0.0041482522871859832 0.039334735918569792 0 0.0030712614389963844 0.04049298679298232 0 0.0050210999714337262 0.033453209046980507 0 0.0081448441221004253 0.044673295481479934 0 0.013584601589586142 0.036106243586162136 0 0.013993195663433577 0.042758193102869303 0 0.011631517340597178 0.039600442760156375 0 0.0070096297399207825 0.049423575255875089 0 0.0087299061436706994 0.04929488700363515 0 0.0086251312370684598 0.048297852035389784 0 0.013993195663433577 0.042758193102869303 0 0.011631517340597178 0.039600442760156375 0 0.010799829650104535 0.042900314870402717 0 0.0084904077091158582 0.047040575290197784 0 0.0098126775518889951 0.045862641753926028 0 0.0096073912238118422 0.046269097163326139 0 0.0086115483057558218 0.046903994555851494 0 0.010913150653961303 0.046544253052213665 0 0.013993195663433577 0.042758193102869303 0 0.010799829650104535 0.042900314870402717 0 0.0096073912238118422 0.046269097163326139 0 0.0087523944703364141 0.049043248053468595 0 0.0086251312370684598 0.048297852035389784 0 0.0096073912238118422 0.046269097163326139 0 0.0081448441221004253 0.044673295481479934 0 0.010275189511204978 0.046127380649862999 0 0.0081448441221004253 0.044673295481479934 0 0.0083256610298784711 0.046874383772866304 0 0.0086251312370684598 0.048297852035389784 0 0.0084904077091158582 0.047040575290197784 0 0.0071077157507534079 0.047979625900907596 0 0.0086251312370684598 0.048297852035389784 0 0.0084904077091158582 0.047040575290197784 0 0.0096073912238118422 0.046269097163326139 0 0.0084904077091158582 0.047040575290197784 0 0.0070943128247462862 0.046857502969069688 0 0.0071077157507534079 0.047979625900907596 0 0.0070096297399207825 0.049423575255875089 0 0.0086251312370684598 0.048297852035389784 0 0.0071077157507534079 0.047979625900907596 0 0.0070096297399207825 0.049423575255875089 0 0.0071077157507534079 0.047979625900907596 0 0.0054206976277655266 0.048926498563459798 0 0.0071077157507534079 0.047979625900907596 0 0.0057597876023188317 0.047046795371420813 0 0.0054206976277655266 0.048926498563459798 0 0.0070943128247462862 0.046857502969069688 0 0.0071077157507534079 0.047979625900907596 0 0.0057597876023188317 0.047046795371420813 0 0.0094219035205082638 0.045839556990413609 0 0.0069453639760521145 0.043847281366574509 0 0.0072266985877353848 0.045616230085771682 0 0.0092248532754176747 0.045593204099180357 0 0.0067791194949502137 0.043729388125425345 0 0.0057597876023188317 0.047046795371420813 0 0.0072266985877353848 0.045616230085771682 0 0.0053842729441779084 0.0454009574901987 0 0.0070943128247462862 0.046857502969069688 0 0.0057597876023188317 0.047046795371420813 0 0.0072266985877353848 0.045616230085771682 0 0.0072266985877353848 0.045616230085771682 0 0.0053842729441779084 0.0454009574901987 0 0.0067791194949502137 0.043729388125425345 0 0.0084904077091158582 0.047040575290197784 0 0.0070943128247462862 0.046857502969069688 0 0.0072266985877353848 0.045616230085771682 0 0.0093870079340644657 0.045841877589981476 0 0.0099297199957918154 0.045667968369777996 0 0.011852785330506542 0.047780125413442884 0 0.0084904077091158582 0.047040575290197784 0 0.0092248532754176747 0.045593204099180357 0 0.011310679158960956 0.047273134180605803 0 0.0084904077091158582 0.047040575290197784 0 0.0072266985877353848 0.045616230085771682 0 0.0092248532754176747 0.045593204099180357 0 0.0093870079340644657 0.045841877589981476 0 0.0099297199957918154 0.045667968369777996 0 0.0075059860010278038 0.043326750269381847 0 0.00064272803942853971 0.050689946022512138 0 0.0019041062124508597 0.048334062682683629 0 -4.9821302935986879e-05 0.049206290924618902 0 0.0019041062124508597 0.048334062682683629 0 7.8715870808438278e-05 0.047709444453843459 0 -4.9821302935986879e-05 0.049206290924618902 0 0.0032229689076617735 0.050318884851095202 0 0.0054206976277655266 0.048926498563459798 0 0.0039887231423754973 0.048234055282424797 0 0.0032229689076617735 0.050318884851095202 0 0.0019041062124508597 0.048334062682683629 0 0.0039887231423754973 0.048234055282424797 0 0.0057597876023188317 0.047046795371420813 0 0.0054206976277655266 0.048926498563459798 0 0.0039887231423754973 0.048234055282424797 0 0.0057597876023188317 0.047046795371420813 0 0.0039887231423754973 0.048234055282424797 0 0.0036659572269575002 0.046514447616555453 0 0.0019041062124508597 0.048334062682683629 0 0.0039887231423754973 0.048234055282424797 0 0.0036659572269575002 0.046514447616555453 0 0.0057597876023188317 0.047046795371420813 0 0.0036659572269575002 0.046514447616555453 0 0.0053842729441779084 0.0454009574901987 0 0.0036659572269575002 0.046514447616555453 0 0.0053842729441779084 0.0454009574901987 0 0.003506290588521871 0.044272252785931443 0 0.0019041062124508597 0.048334062682683629 0 0.0036659572269575002 0.046514447616555453 0 0.0017488211689076904 0.046003380868145212 0 0.0017488211689076904 0.046003380868145212 0 -0.00042725139389351076 0.045651940929802369 0 0.003506290588521871 0.044272252785931443 0 0.0019041062124508597 0.048334062682683629 0 0.0017488211689076904 0.046003380868145212 0 7.8715870808438278e-05 0.047709444453843459 0 0.0036659572269575002 0.046514447616555453 0 0.0017488211689076904 0.046003380868145212 0 0.003506290588521871 0.044272252785931443 0 0.0017488211689076904 0.046003380868145212 0 0.00046759185512685984 0.046467005513491345 0 7.8715870808438278e-05 0.047709444453843459 0 0.0017488211689076904 0.046003380868145212 0 -0.00042725139389351076 0.045651940929802369 0 0.00046759185512685984 0.046467005513491345 0 -0.00042725139389351076 0.045651940929802369 0 -0.0013938433286612921 0.047529759604363099 0 0.00046759185512685984 0.046467005513491345 0 -0.0013938433286612921 0.047529759604363099 0 0.00046759185512685984 0.046467005513491345 0 7.8715870808438278e-05 0.047709444453843459 0 7.8715870808438278e-05 0.047709444453843459 0 -0.0015928124011607809 0.049184304867947115 0 -4.9821302935986879e-05 0.049206290924618902 0 -0.0013938433286612921 0.047529759604363099 0 7.8715870808438278e-05 0.047709444453843459 0 -0.0015928124011607809 0.049184304867947115 0 -0.0015928124011607809 0.049184304867947115 0 -4.9821302935986879e-05 0.049206290924618902 0 -0.0013613113825766969 0.050572025363143265 0 -0.0028203255148941259 0.0487943273775895 0 -0.0038128901681549971 0.047490152815796785 0 -0.004214064184962416 0.049513687066583663 0 -0.0028203255148941259 0.0487943273775895 0 -0.004214064184962416 0.049513687066583663 0 -0.0029515526360148407 0.050195474253837927 0 -0.004214064184962416 0.049513687066583663 0 -0.0041418992982608996 0.050423913616868418 0 -0.0029515526360148407 0.050195474253837927 0 -0.0015928124011607809 0.049184304867947115 0 -0.0028203255148941259 0.0487943273775895 0 -0.0029515526360148407 0.050195474253837927 0 -0.0013938433286612921 0.047529759604363099 0 -0.0015928124011607809 0.049184304867947115 0 -0.0028203255148941259 0.0487943273775895 0 0.0036245767368622795 0.053080056895859887 0 0.0025236413891245087 0.052912203824529297 0 0.00055217763879202172 0.053572260813115002 0 -0.00042725139389351076 0.045651940929802369 0 -0.0013938433286612921 0.047529759604363099 0 -0.0038128901681549971 0.047490152815796785 0 -0.0013938433286612921 0.047529759604363099 0 -0.0028203255148941259 0.0487943273775895 0 -0.0038128901681549971 0.047490152815796785 0 0.0016469235523193847 0.049386863574027995 0 -0.0015379028045457938 0.050486698485167111 0 0.0025236413891245087 0.052912203824529297 0 0.00055217763879202172 0.053572260813115002 0 0.0011374621736203081 0.052359985274458322 0 -0.0038128901681549971 0.047490152815796785 0 -0.0060683378390711199 0.049584367438953642 0 -0.004214064184962416 0.049513687066583663 0 -0.0015379028045457938 0.050486698485167111 0 -0.0043164251472488663 0.051333556366882714 0 0.00055217763879202172 0.053572260813115002 0 -0.00042621847261599421 0.052260751949332433 0 0.0011374621736203081 0.052359985274458322 0 0.00055217763879202172 0.053572260813115002 0 -0.002938668075460912 0.053181040472484176 0 -0.00042621847261599421 0.052260751949332433 0 -0.0060683378390711199 0.049584367438953642 0 -0.0052552994129830477 0.050645426454406048 0 -0.0065164676910897824 0.051051768713580255 0 -0.0060683378390711199 0.049584367438953642 0 -0.004214064184962416 0.049513687066583663 0 -0.0052552994129830477 0.050645426454406048 0 -0.004214064184962416 0.049513687066583663 0 -0.0041418992982608996 0.050423913616868418 0 -0.0052552994129830477 0.050645426454406048 0 -0.0041418992982608996 0.050423913616868418 0 -0.0052552994129830477 0.050645426454406048 0 -0.0040112212594430475 0.051320036802245256 0 -0.0052552994129830477 0.050645426454406048 0 -0.0040112212594430475 0.051320036802245256 0 -0.0043762078566845211 0.051845181873059684 0 -0.0080502501264329025 0.048310800650715066 0 -0.005808492136178886 0.033628724116536682 0 -0.0052552994129830477 0.050645426454406048 0 -0.0064780210529015517 0.051442972234595777 0 -0.0043762078566845211 0.051845181873059684 0 -0.0052552994129830477 0.050645426454406048 0 -0.0064780210529015517 0.051442972234595777 0 -0.0065164676910897824 0.051051768713580255 0 -0.01010857516409909 0.035058934381905195 0 -0.005808492136178886 0.033628724116536682 0 -0.012049117244442298 0.019423142210521282 0 -0.012859525371571675 0.018183226101197724 0 -0.011408801527919139 0.01841345623782472 0 -0.0073765860671064949 0.019452047730567096 0 -0.005808492136178886 0.033628724116536682 0 -0.005808492136178886 0.033628724116536682 0 -0.001998735374989831 0.039020538399367193 0 -0.0043975009080072531 0.0522058424359296 0 -0.00147121624196026 0.052603715040589819 0 -0.0027705192112404777 0.051434575203112468 0 -0.0030335860354954729 0.024825322088924528 0 -0.0032704874575597816 0.024543278057366433 0 -0.0033976964935852681 0.024784958720879199 0 -0.003143005884838818 0.024363118270129516 0 -0.0030335860354954729 0.024825322088924528 0 -0.0032704874575597816 0.024543278057366433 0 -0.0034218073676139165 0.024484451943633235 0 -0.0032704874575597816 0.024543278057366433 0 -0.0033976964935852681 0.024784958720879199 0 -0.0036342048728490364 0.024532390457023389 0 -0.0037131725920847127 0.024797725220934951 0 -0.0033976964935852681 0.024784958720879199 0 -0.00084976754986246098 0.039178678766299428 0 -0.001998735374989831 0.039020538399367193 0 0.0016847233625831232 0.052894106863342012 0 0.00064272803942853971 0.050689946022512138 0 -0.00147121624196026 0.052603715040589819 0 -0.0034218073676139165 0.024484451943633235 0 -0.0036342048728490364 0.024532390457023389 0 -0.0033976964935852681 0.024784958720879199 0 0.00064272803942853971 0.050689946022512138 0 -0.00147121624196026 0.052603715040589819 0 -0.0013613113825766969 0.050572025363143265 0 0.00064272803942853971 0.050689946022512138 0 -4.9821302935986879e-05 0.049206290924618902 0 -0.0013613113825766969 0.050572025363143265 0 -0.0013613113825766969 0.050572025363143265 0 -0.0029515526360148407 0.050195474253837927 0 -0.0027705192112404777 0.051434575203112468 0 -0.0015928124011607809 0.049184304867947115 0 -0.0013613113825766969 0.050572025363143265 0 -0.0029515526360148407 0.050195474253837927 0 -0.0041418992982608996 0.050423913616868418 0 -0.0040112212594430475 0.051320036802245256 0 -0.0029515526360148407 0.050195474253837927 0 -0.0040112212594430475 0.051320036802245256 0 -0.0043975009080072531 0.0522058424359296 0 -0.0027705192112404777 0.051434575203112468 0 -0.0040112212594430475 0.051320036802245256 0 -0.0029515526360148407 0.050195474253837927 0 -0.0027705192112404777 0.051434575203112468 0 -0.00147121624196026 0.052603715040589819 0 -0.0013613113825766969 0.050572025363143265 0 -0.0027705192112404777 0.051434575203112468 0 0.015779839870349494 0.02605780147725785 0 0.017257614051666075 0.026855848918064987 0 0.017835389221088887 0.025376578876502395 0 0.017257614051666075 0.026855848918064987 0 0.017835389221088887 0.025376578876502395 0 0.018770371786691858 0.027155492936526613 0 0.017835389221088887 0.025376578876502395 0 0.019457444443855883 0.025536787719882388 0 0.018770371786691858 0.027155492936526613 0 0.01924553699345645 0.024312410341651929 0 0.017835389221088887 0.025376578876502395 0 0.018298822604665668 0.022552593410182516 0 0.01924553699345645 0.024312410341651929 0 0.017835389221088887 0.025376578876502395 0 0.019457444443855883 0.025536787719882388 0 0.015779839870349494 0.02605780147725785 0 0.017835389221088887 0.025376578876502395 0 0.016710840351885321 0.023356203883432458 0 0.017835389221088887 0.025376578876502395 0 0.016710840351885321 0.023356203883432458 0 0.018298822604665668 0.022552593410182516 0 0.016710840351885321 0.023356203883432458 0 0.017842488239571425 0.021066608238001532 0 0.018298822604665668 0.022552593410182516 0 0.025128403861726007 0.022639066798656956 0 0.025233018215271331 0.021936446069761945 0 0.033559012494902202 0.022492556712310582 0 0.033290139340027773 0.021917009845968484 0 0.032745018946822448 0.02268362530679708 0 0.017842488239571425 0.021066608238001532 0 0.018298822604665668 0.022552593410182516 0 0.019189997139770716 0.021112706821765276 0 0.01924553699345645 0.024312410341651929 0 0.018298822604665668 0.022552593410182516 0 0.020011731311714468 0.023210088564313412 0 0.018298822604665668 0.022552593410182516 0 0.020011731311714468 0.023210088564313412 0 0.019189997139770716 0.021112706821765276 0 0.020011731311714468 0.023210088564313412 0 0.019189997139770716 0.021112706821765276 0 0.021418914938386435 0.022639218529243842 0 0.0192932933176247 0.02110766827930512 0 0.020076967036616083 0.021464567384445066 0 0.019189997139770716 0.021112706821765276 0 0.019255643162766796 0.020460559580347124 0 0.019285632544759471 0.020337481320940848 0 0.020011731311714468 0.023210088564313412 0 0.021418914938386435 0.022639218529243842 0 0.021460684727636948 0.024215928482124838 0 0.021460684727636948 0.024215928482124838 0 0.020835383808740917 0.025952990066713047 0 0.022650218306235356 0.025023373243297127 0 0.020011731311714468 0.023210088564313412 0 0.021460684727636948 0.024215928482124838 0 0.020325746045884389 0.024728815457481075 0 0.021460684727636948 0.024215928482124838 0 0.020325746045884389 0.024728815457481075 0 0.020835383808740917 0.025952990066713047 0 0.01924553699345645 0.024312410341651929 0 0.020011731311714468 0.023210088564313412 0 0.020325746045884389 0.024728815457481075 0 0.01924553699345645 0.024312410341651929 0 0.020325746045884389 0.024728815457481075 0 0.019457444443855883 0.025536787719882388 0 0.015350441488206485 0.029612538167380617 0 0.016295046069749217 0.029286726438769704 0 0.020325746045884389 0.024728815457481075 0 0.019457444443855883 0.025536787719882388 0 0.020835383808740917 0.025952990066713047 0 0.019457444443855883 0.025536787719882388 0 0.020835383808740917 0.025952990066713047 0 0.018770371786691858 0.027155492936526613 0 0.0098410063189784992 0.033437432688394338 0 0.0081762424940071063 0.032721362228097343 0 0.0076248329984184276 0.033035346186622558 0 0.0098410063189784992 0.033437432688394338 0 0.0092630362853789658 0.032240997452484876 0 0.010110164240513354 0.031256610326498818 0 0.0098410063189784992 0.033437432688394338 0 0.0081762424940071063 0.032721362228097343 0 0.0092630362853789658 0.032240997452484876 0 0.015350441488206485 0.029612538167380617 0 0.014476344276281137 0.029926802130626855 0 0.0098410063189784992 0.033437432688394338 0 0.0076248329984184276 0.033035346186622558 0 0.0063850394588468853 0.034110083229047225 0 0.0076248329984184276 0.033035346186622558 0 0.00642507062800833 0.033617435819410506 0 0.0063850394588468853 0.034110083229047225 0 0.00642507062800833 0.033617435819410506 0 0.0063850394588468853 0.034110083229047225 0 0.0063333812466195632 0.03375036703001523 0 0.00642507062800833 0.033617435819410506 0 0.0063333812466195632 0.03375036703001523 0 0.0060561081188759873 0.034469716547969945 0 0.014476344276281137 0.029926802130626855 0 0.01559136001240582 0.025687198056610933 0 0.022650218306235356 0.025023373243297127 0 0.022881613420352522 0.02375020216240957 0 0.024036677990232857 0.024433878285189635 0 0.0063850394588468853 0.034110083229047225 0 0.0068084672438475371 0.032661118886605604 0 0.0063333812466195632 0.03375036703001523 0 0.021968518241449277 0.021578841945316757 0 0.01559136001240582 0.025687198056610933 0 0.021460684727636948 0.024215928482124838 0 0.022650218306235356 0.025023373243297127 0 0.022881613420352522 0.02375020216240957 0 0.021418914938386435 0.022639218529243842 0 0.021460684727636948 0.024215928482124838 0 0.022881613420352522 0.02375020216240957 0 0.019285632544759471 0.020337481320940848 0 0.01915432527560585 0.020257457637279423 0 0.019109975388171548 0.019927799993250849 0 0.020076967036616083 0.021464567384445066 0 0.021968518241449277 0.021578841945316757 0 0.019255643162766796 0.020460559580347124 0 0.019285632544759471 0.020337481320940848 0 0.01915432527560585 0.020257457637279423 0 0.01915432527560585 0.020257457637279423 0 0.01883562021657624 0.01995513884372789 0 0.01869795258046095 0.020152296668805515 0 0.019109975388171548 0.019927799993250849 0 0.01883562021657624 0.01995513884372789 0 0.018611686946163324 0.019540292797124648 0 0.01915432527560585 0.020257457637279423 0 0.019109975388171548 0.019927799993250849 0 0.01883562021657624 0.01995513884372789 0 0.01883562021657624 0.01995513884372789 0 0.018514456278682999 0.019795064833686801 0 0.01869795258046095 0.020152296668805515 0 0.01883562021657624 0.01995513884372789 0 0.018514456278682999 0.019795064833686801 0 0.018611686946163324 0.019540292797124648 0 0.017973396084846063 0.020321894500162741 0 0.01869795258046095 0.020152296668805515 0 0.018238756807031353 0.01992011094242432 0 0.018514456278682999 0.019795064833686801 0 0.01869795258046095 0.020152296668805515 0 0.018238756807031353 0.01992011094242432 0 0.018514456278682999 0.019795064833686801 0 0.018238756807031353 0.01992011094242432 0 0.018216179999503521 0.019583474042935499 0 0.017777974213692774 0.019660941825872087 0 0.018238756807031353 0.01992011094242432 0 0.018216179999503521 0.019583474042935499 0 0.011356172782171409 0.026795563407712001 0 0.012641012544884221 0.026387205860936722 0 0.012571602295354634 0.025361078562287486 0 0.010952576848439177 0.029157862070442898 0 0.01559136001240582 0.025687198056610933 0 0.0089572484086355899 0.032780077476484405 0 0.0068084672438475371 0.032661118886605604 0 0.0072420467608635486 0.033511785925377242 0 0.012641012544884221 0.026387205860936722 0 0.012571602295354634 0.025361078562287486 0 0.013946601587339 0.025970861777349349 0 0.01617753789262736 0.022829174865748678 0 0.01559136001240582 0.025687198056610933 0 0.018514456278682999 0.019795064833686801 0 0.018216179999503521 0.019583474042935499 0 0.018611686946163324 0.019540292797124648 0 0.0068084672438475371 0.032661118886605604 0 0.0072420467608635486 0.033511785925377242 0 0.0063333812466195632 0.03375036703001523 0 0.0072420467608635486 0.033511785925377242 0 0.0060561081188759873 0.034469716547969945 0 0.009389721987447636 0.035716409507981245 0 0.0072420467608635486 0.033511785925377242 0 0.0063333812466195632 0.03375036703001523 0 0.0060561081188759873 0.034469716547969945 0 0.011224097377424833 0.033662435540539049 0 0.0089572484086355899 0.032780077476484405 0 0.009389721987447636 0.035716409507981245 0 0.0089572484086355899 0.032780077476484405 0 0.0072420467608635486 0.033511785925377242 0 0.009389721987447636 0.035716409507981245 0 0.0092980256281322386 0.038772947763088476 0 0.009389721987447636 0.035716409507981245 0 0.0070024164459691436 0.038428774143870172 0 0.011631517340597178 0.039600442760156375 0 0.0092980256281322386 0.038772947763088476 0 0.009389721987447636 0.035716409507981245 0 0.0060561081188759873 0.034469716547969945 0 0.009389721987447636 0.035716409507981245 0 0.0070024164459691436 0.038428774143870172 0 0.0060561081188759873 0.034469716547969945 0 0.0070024164459691436 0.038428774143870172 0 0.0010477009855158759 0.037793694886962305 0 0.0070024164459691436 0.038428774143870172 0 0.0058487279909929498 0.042952018956454847 0 0.0093046275151310413 0.041419329499594072 0 0.0070024164459691436 0.038428774143870172 0 0.0058487279909929498 0.042952018956454847 0 0.0010477009855158759 0.037793694886962305 0 0.0058487279909929498 0.042952018956454847 0 0.0093046275151310413 0.041419329499594072 0 0.0093045485642229368 0.044005227943716474 0 0.0092980256281322386 0.038772947763088476 0 0.0070024164459691436 0.038428774143870172 0 0.0093046275151310413 0.041419329499594072 0 0.011631517340597178 0.039600442760156375 0 0.0092980256281322386 0.038772947763088476 0 0.0093046275151310413 0.041419329499594072 0 0.0093046275151310413 0.041419329499594072 0 0.010799829650104535 0.042900314870402717 0 0.0093045485642229368 0.044005227943716474 0 0.011631517340597178 0.039600442760156375 0 0.0093046275151310413 0.041419329499594072 0 0.010799829650104535 0.042900314870402717 0 0.010799829650104535 0.042900314870402717 0 0.0093045485642229368 0.044005227943716474 0 0.0096073912238118422 0.046269097163326139 0 0.008917455758122167 0.043606211418212019 0 0.011522713177008644 0.046135691178220042 0 0.012046159853753459 0.046187367764046069 0 0.0092808844378486025 0.043009835824289834 0 0.010913150653961303 0.046544253052213665 0 0.0058487279909929498 0.042952018956454847 0 0.0093045485642229368 0.044005227943716474 0 0.0098126775518889951 0.045862641753926028 0 0.011969645201808371 0.046699230723107006 0 0.010913150653961303 0.046544253052213665 0 0.0093045485642229368 0.044005227943716474 0 0.0098126775518889951 0.045862641753926028 0 0.0096073912238118422 0.046269097163326139 0 0.010818318884797866 0.049622130540750438 0 0.011313251455904628 0.05006056646477125 0 0.01129167864017748 0.049573485630860829 0 0.010339570131679661 0.047575902639555169 0 0.011969645201808371 0.046699230723107006 0 0.0094219035205082638 0.045839556990413609 0 0.010913150653961303 0.046544253052213665 0 0.0099297199957918154 0.045667968369777996 0 0.012222351168531556 0.047811774781410736 0 0.011852785330506542 0.047780125413442884 0 0.011313251455904628 0.05006056646477125 0 0.01129167864017748 0.049573485630860829 0 0.011861359693297579 0.049600867315631944 0 0.011313251455904628 0.05006056646477125 0 0.011861359693297579 0.049600867315631944 0 0.011924871176787415 0.050112897812472676 0 0.011969645201808371 0.046699230723107006 0 0.01131060198841796 0.046706049307694023 0 0.012018719275094259 0.042665001808408529 0 0.013096415714634404 0.043735199569507548 0 0.011376258742422733 0.043547587305300145 0 0.0092808844378486025 0.043009835824289834 0 0.011969645201808371 0.046699230723107006 0 0.012018719275094259 0.042665001808408529 0 0.011376258742422733 0.043547587305300145 0 0.010752919535644244 0.042832026773831751 0 0.011376258742422733 0.043547587305300145 0 0.010752919535644244 0.042832026773831751 0 0.0096734915423062583 0.043375696395756384 0 0.01131060198841796 0.046706049307694023 0 0.013028798947177194 0.049678946424614484 0 0.011861359693297579 0.049600867315631944 0 0.011924871176787415 0.050112897812472676 0 0.012528350739248491 0.050162577504976359 0 0.010752919535644244 0.042832026773831751 0 0.0096734915423062583 0.043375696395756384 0 0.0099240642374429158 0.04252779952388426 0 0.013553800824477316 0.054706686044342777 0 0.014857647393931438 0.054848446233654806 0 0.014394056872858654 0.053830237850849297 0 0.013553800824477316 0.054706686044342777 0 0.014857647393931438 0.054848446233654806 0 0.015223665287349402 0.056109817108797491 0 0.013044885185482479 0.052699111297345738 0 0.013028798947177194 0.049678946424614484 0 0.014857647393931438 0.054848446233654806 0 0.015603985213404621 0.055246015386445059 0 0.015223665287349402 0.056109817108797491 0 0.015603985213404621 0.055246015386445059 0 0.016485883998847942 0.056213309864396835 0 0.016494281499454859 0.05484419112287027 0 0.015603985213404621 0.055246015386445059 0 0.016494281499454859 0.05484419112287027 0 0.0155204860700076 0.054339069117512157 0 0.014857647393931438 0.054848446233654806 0 0.015603985213404621 0.055246015386445059 0 0.0155204860700076 0.054339069117512157 0 0.013313093906362013 0.048048812913091161 0 0.013247163509202537 0.047976301027482626 0 0.013206848637499479 0.048031089672799697 0 0.013028798947177194 0.049678946424614484 0 0.01448133616508796 0.049015015384604808 0 0.015603985213404621 0.055246015386445059 0 0.015223665287349402 0.056109817108797491 0 0.016485883998847942 0.056213309864396835 0 0.0096734915423062583 0.043375696395756384 0 0.0094555548501083185 0.042617788768281872 0 0.0099240642374429158 0.04252779952388426 0 0.0096734915423062583 0.043375696395756384 0 0.0088305918344187499 0.042609597028119194 0 0.0094555548501083185 0.042617788768281872 0 0.013028798947177194 0.049678946424614484 0 0.012266597299750558 0.04366121037988932 0 0.012266597299750558 0.04366121037988932 0 0.01448133616508796 0.049015015384604808 0 0.012266597299750558 0.04366121037988932 0 0.012470529748428983 0.039789025572016641 0 0.011297700388089501 0.040557546696027208 0 0.011356300223915884 0.041077533899519909 0 0.010822103019113384 0.041069717215252155 0 0.012266597299750558 0.04366121037988932 0 0.010025109077029436 0.041315864598038966 0 0.011297700388089501 0.040557546696027208 0 0.011356300223915884 0.041077533899519909 0 0.011656448343221508 0.040866281817234777 0 0.010279319681121333 0.038144389053548965 0 0.012470529748428983 0.039789025572016641 0 0.010279319681121333 0.038144389053548965 0 0.010025109077029436 0.041315864598038966 0 0.0077081164861157424 0.028690530617025593 0 0.0073918820483205635 0.029874537322745594 0 0.008611445344131342 0.029683453885331657 0 0.0086988405258114146 0.041845131291029847 0 0.0095096386300659863 0.041704633453505488 0 0.0093583891919309919 0.041867118649817195 0 0.0086988405258114146 0.041845131291029847 0 0.0095096386300659863 0.041704633453505488 0 0.0099814685718454844 0.040933095886700001 0 0.0077081164861157424 0.028690530617025593 0 0.0052987860355045609 0.030375284443032433 0 0.0073918820483205635 0.029874537322745594 0 0.010279319681121333 0.038144389053548965 0 0.0072113833647847242 0.034942092025414546 0 0.0095096386300659863 0.041704633453505488 0 0.0093552437341458405 0.041869123010119629 0 0.010435250793557983 0.041945442061950611 0 0.0099130404375187466 0.041427596564377528 0 0.010025109077029436 0.041315864598038966 0 0.0088305918344187499 0.042609597028119194 0 0.0093952840401493928 0.041968082486569469 0 0.0094555548501083185 0.042617788768281872 0 0.0093952840401493928 0.041968082486569469 0 0.0094555548501083185 0.042617788768281872 0 0.0099240642374429158 0.04252779952388426 0 0.0092808844378486025 0.043009835824289834 0 0.0052667668952965834 0.035089484413568094 0 0.012018719275094259 0.042665001808408529 0 0.010752919535644244 0.042832026773831751 0 0.010435250793557983 0.041945442061950611 0 0.012018719275094259 0.042665001808408529 0 0.010435250793557983 0.041945442061950611 0 0.0099814685718454844 0.040933095886700001 0 0.010752919535644244 0.042832026773831751 0 0.0099240642374429158 0.04252779952388426 0 0.010435250793557983 0.041945442061950611 0 0.0093952840401493928 0.041968082486569469 0 0.0099240642374429158 0.04252779952388426 0 0.010435250793557983 0.041945442061950611 0 0.01056626463980375 0.041469684309077645 0 0.0046677586736213299 0.036551084365503771 0 0.0051818815513713064 0.036187012753655518 0 0.0092808844378486025 0.043009835824289834 0 0.0072113833647847242 0.034942092025414546 0 0.0095096386300659863 0.041704633453505488 0 0.010435250793557983 0.041945442061950611 0 0.0099814685718454844 0.040933095886700001 0 0.010025109077029436 0.041315864598038966 0 0.010110644580844331 0.041774692680332265 0 0.0053732809709500055 0.034670291177194092 0 0.0052667668952965834 0.035089484413568094 0 0.00642507062800833 0.033617435819410506 0 0.0060561081188759873 0.034469716547969945 0 0.0064282412553930031 0.033012191499697655 0 0.0072113833647847242 0.034942092025414546 0 0.0052667668952965834 0.035089484413568094 0 0.0076248329984184276 0.033035346186622558 0 0.0059428904365906856 0.031144671791508424 0 0.0057023958828773588 0.031317664330865809 0 0.0081762424940071063 0.032721362228097343 0 0.0052987860355045609 0.030375284443032433 0 0.0079389514794863877 0.030749046573731557 0 0.0081762424940071063 0.032721362228097343 0 0.0076248329984184276 0.033035346186622558 0 0.0059428904365906856 0.031144671791508424 0 0.0052987860355045609 0.030375284443032433 0 0.0079389514794863877 0.030749046573731557 0 0.0073918820483205635 0.029874537322745594 0 0.0070304194772797578 0.031375678589792295 0 0.0072113833647847242 0.034942092025414546 0 0.0073128507963193092 0.032456849873492989 0 0.0052667668952965834 0.035089484413568094 0 0.0076248329984184276 0.033035346186622558 0 0.00642507062800833 0.033617435819410506 0 0.0064282412553930031 0.033012191499697655 0 0.0079389514794863877 0.030749046573731557 0 0.0073918820483205635 0.029874537322745594 0 0.008611445344131342 0.029683453885331657 0 0.010199847510318806 0.029830614667430949 0 0.0092939937000909995 0.030433765205232111 0 0.0095490919482504859 0.02920220487465405 0 0.010134127929286951 0.030392490899448087 0 0.0092939937000909995 0.030433765205232111 0 0.010110164240513354 0.031256610326498818 0 0.010134127929286951 0.030392490899448087 0 0.010110164240513354 0.031256610326498818 0 0.01093288855584067 0.030052292514134143 0 0.010134127929286951 0.030392490899448087 0 0.010199847510318806 0.029830614667430949 0 0.01093288855584067 0.030052292514134143 0 0.010134127929286951 0.030392490899448087 0 0.010199847510318806 0.029830614667430949 0 0.0092939937000909995 0.030433765205232111 0 0.0079389514794863877 0.030749046573731557 0 0.0092939937000909995 0.030433765205232111 0 0.0089328037062383243 0.031531692042519585 0 0.0079389514794863877 0.030749046573731557 0 0.0092939937000909995 0.030433765205232111 0 0.008611445344131342 0.029683453885331657 0 0.0081762424940071063 0.032721362228097343 0 0.0079389514794863877 0.030749046573731557 0 0.0089328037062383243 0.031531692042519585 0 0.0081762424940071063 0.032721362228097343 0 0.0089328037062383243 0.031531692042519585 0 0.0092630362853789658 0.032240997452484876 0 0.0089328037062383243 0.031531692042519585 0 0.0092630362853789658 0.032240997452484876 0 0.010110164240513354 0.031256610326498818 0 0.0092939937000909995 0.030433765205232111 0 0.0089328037062383243 0.031531692042519585 0 0.010110164240513354 0.031256610326498818 0 0.011994828621925841 0.030680144423913883 0 0.012045414710004755 0.028665775414563128 0 0.014624928328077741 0.029656149084982215 0 0.0098410063189784992 0.033437432688394338 0 0.010110164240513354 0.031256610326498818 0 0.011994828621925841 0.030680144423913883 0 0.0098410063189784992 0.033437432688394338 0 0.011994828621925841 0.030680144423913883 0 0.014068259923767206 0.031390578725768552 0 0.010110164240513354 0.031256610326498818 0 0.011994828621925841 0.030680144423913883 0 0.01093288855584067 0.030052292514134143 0 0.011994828621925841 0.030680144423913883 0 0.01093288855584067 0.030052292514134143 0 0.012045414710004755 0.028665775414563128 0 0.010199847510318806 0.029830614667430949 0 0.01093288855584067 0.030052292514134143 0 0.011907950093638821 0.028780657608619618 0 0.014480366299686466 0.039178804471396475 0 0.014334270805552081 0.038893210292568439 0 0.013559799720489547 0.039169185420611582 0 0.013407695737270004 0.032766554762561628 0 0.015185592861537436 0.03693833158903162 0 0.014480366299686466 0.039178804471396475 0 0.014334270805552081 0.038893210292568439 0 0.015037998125442206 0.038492741941511706 0 0.012314405179654353 0.030135933474871285 0 0.013407695737270004 0.032766554762561628 0 0.011907950093638821 0.028780657608619618 0 0.0095490919482504859 0.02920220487465405 0 0.0090147965959420633 0.028746816075052251 0 0.010199847510318806 0.029830614667430949 0 0.011907950093638821 0.028780657608619618 0 0.0095490919482504859 0.02920220487465405 0 0.014334270805552081 0.038893210292568439 0 0.013559799720489547 0.039169185420611582 0 0.013391265929876092 0.039025052021914343 0 0.013407695737270004 0.032766554762561628 0 0.010692972258019856 0.035150872297974034 0 0.0092939937000909995 0.030433765205232111 0 0.0095490919482504859 0.02920220487465405 0 0.008611445344131342 0.029683453885331657 0 0.0095490919482504859 0.02920220487465405 0 0.008611445344131342 0.029683453885331657 0 0.0089675141937544771 0.028708212107347596 0 0.0090287491533663031 0.032708014647979081 0 0.010692972258019856 0.035150872297974034 0 0.010279319681121333 0.038144389053548965 0 0.010692972258019856 0.035150872297974034 0 0.0077081164861157424 0.028690530617025593 0 0.008611445344131342 0.029683453885331657 0 0.0089675141937544771 0.028708212107347596 0 0.015358924502787204 0.045016269931903219 0 0.015116572077386601 0.044794134454904204 0 0.015056360033842973 0.045378660850835216 0 0.010891771423399586 0.037039033031367269 0 0.011913719208916887 0.037048952271058068 0 0.011445353615713178 0.036643927669932741 0 0.010692972258019856 0.035150872297974034 0 0.012470529748428983 0.039789025572016641 0 0.014334270805552081 0.038893210292568439 0 0.013391265929876092 0.039025052021914343 0 0.014375337462613491 0.038374161993265606 0 0.01484617140468155 0.045363366637980761 0 0.015067401608693675 0.045386709270610677 0 0.014102534482387134 0.046539315399776626 0 0.015116572077386601 0.044794134454904204 0 0.01484617140468155 0.045363366637980761 0 0.014141694932388432 0.045536900519095841 0 0.012470529748428983 0.039789025572016641 0 0.015192215881825519 0.041882449749755232 0 0.015116572077386601 0.044794134454904204 0 0.01484617140468155 0.045363366637980761 0 0.015056360033842973 0.045378660850835216 0 0.014595304170245328 0.048366413959497853 0 0.01448133616508796 0.049015015384604808 0 0.016494281499454859 0.05484419112287027 0 0.018110827258691523 0.054528756539251391 0 0.016869569601148757 0.053915233987681201 0 0.01448133616508796 0.049015015384604808 0 0.016867129254115369 0.049383455343970956 0 0.016494281499454859 0.05484419112287027 0 0.016869569601148757 0.053915233987681201 0 0.0155204860700076 0.054339069117512157 0 0.016485883998847942 0.056213309864396835 0 0.016494281499454859 0.05484419112287027 0 0.018110827258691523 0.054528756539251391 0 0.017468810029848708 0.044899090541489842 0 0.017502624799739637 0.044126158014356306 0 0.017040891855742066 0.044473873970257677 0 0.016867129254115369 0.049383455343970956 0 0.015192215881825519 0.041882449749755232 0 0.015192215881825519 0.041882449749755232 0 0.016005921588616492 0.041301782634558012 0 0.01484617140468155 0.045363366637980761 0 0.014102534482387134 0.046539315399776626 0 0.014141694932388432 0.045536900519095841 0 0.014390115809720596 0.038392385523721366 0 0.015037998125442206 0.038492741941511706 0 0.014975308712462904 0.038000320215021852 0 0.014695224828054356 0.038216958754879848 0 0.015192215881825519 0.041882449749755232 0 0.014334270805552081 0.038893210292568439 0 0.014390115809720596 0.038392385523721366 0 0.015037998125442206 0.038492741941511706 0 0.015185592861537436 0.03693833158903162 0 0.017966083235744522 0.037111467248856167 0 0.015847014038942175 0.034492954424591452 0 0.015456980147994973 0.035088677717174943 0 0.015325834675154321 0.034480525651993207 0 0.015037998125442206 0.038492741941511706 0 0.014975308712462904 0.038000320215021852 0 0.015608655989541852 0.037799517678321348 0 0.016005921588616492 0.041301782634558012 0 0.017708401780498238 0.041368781962940325 0 0.014975308712462904 0.038000320215021852 0 0.015574300217111051 0.037611712309753305 0 0.015608655989541852 0.037799517678321348 0 0.017040891855742066 0.044473873970257677 0 0.016964308062637767 0.044971514648694075 0 0.016578670186216976 0.044810370288131313 0 0.017468810029848708 0.044899090541489842 0 0.017040891855742066 0.044473873970257677 0 0.016964308062637767 0.044971514648694075 0 0.020396643481524576 0.034686119336831078 0 0.021423654654789837 0.034903236315069988 0 0.020649182705448531 0.033884425024240675 0 0.020396643481524576 0.034686119336831078 0 0.021423654654789837 0.034903236315069988 0 0.020884256348363751 0.035801384043407464 0 0.017966083235744522 0.037111467248856167 0 0.020414688490241119 0.038924575881856036 0 0.020488013008579796 0.041644110724918901 0 0.020634923421389333 0.040944689759115097 0 0.019500346700986243 0.042553955380121147 0 0.018214906719221068 0.041163068830482229 0 0.017708401780498238 0.041368781962940325 0 0.017708401780498238 0.041368781962940325 0 0.017966083235744522 0.037111467248856167 0 0.020488013008579796 0.041644110724918901 0 0.020741563105449078 0.041454643288490613 0 0.020634923421389333 0.040944689759115097 0 0.021423654654789837 0.034903236315069988 0 0.020649182705448531 0.033884425024240675 0 0.021153207665139815 0.033928667342147188 0 0.015847014038942175 0.034492954424591452 0 0.015325834675154321 0.034480525651993207 0 0.015212293788681401 0.033891440677865446 0 0.017966083235744522 0.037111467248856167 0 0.018104174363937423 0.033915203367090321 0 0.021153207665139815 0.033928667342147188 0 0.020795899926168409 0.033271656424683917 0 0.019645013579752308 0.028976105138376767 0 0.020649182705448531 0.033884425024240675 0 0.021153207665139815 0.033928667342147188 0 0.020795899926168409 0.033271656424683917 0 0.020649182705448531 0.033884425024240675 0 0.020795899926168409 0.033271656424683917 0 0.020469086717437551 0.03348867905640087 0 0.020170587011648044 0.03389434241779897 0 0.020649182705448531 0.033884425024240675 0 0.020469086717437551 0.03348867905640087 0 0.020284015643295 0.032986512699209131 0 0.020795899926168409 0.033271656424683917 0 0.020469086717437551 0.03348867905640087 0 0.018164956903584838 0.031093059914725572 0 0.020526437567175884 0.033117132710396006 0 0.016302986365518402 0.029865603777795884 0 0.020795899926168409 0.033271656424683917 0 0.019645013579752308 0.028976105138376767 0 0.018104174363937423 0.033915203367090321 0 0.016264561052744032 0.031020279304150186 0 0.016458795596975009 0.028847262249485094 0 0.016484947460265579 0.029180389544220347 0 0.01584911724169448 0.028944574989511009 0 0.016484947460265579 0.029180389544220347 0 0.016302986365518402 0.029865603777795884 0 0.019645013579752308 0.028976105138376767 0 0.016902581076788766 0.029948950983777856 0 0.016264561052744032 0.031020279304150186 0 0.016484947460265579 0.029180389544220347 0 0.01584911724169448 0.028944574989511009 0 0.015821906746906027 0.028806700615467883 0 0.01584911724169448 0.028944574989511009 0 0.015858404748225804 0.028684275444901444 0 0.014624928328077741 0.029656149084982215 0 0.016176919881421108 0.030579389732822974 0 0.016264561052744032 0.031020279304150186 0 0.012045414710004755 0.028665775414563128 0 0.015858404748225804 0.028684275444901444 0 0.014624928328077741 0.029656149084982215 0 0.013407695737270004 0.032766554762561628 0 0.016264561052744032 0.031020279304150186 0 0.016233216931107641 0.033925936671221332 0 0.015847014038942175 0.034492954424591452 0 0.015212293788681401 0.033891440677865446 0 0.011994828621925841 0.030680144423913883 0 0.014068259923767206 0.031390578725768552 0 0.014624928328077741 0.029656149084982215 0 0.016458795596975009 0.028847262249485094 0 0.014068259923767206 0.031390578725768552 0 0.014624928328077741 0.029656149084982215 0 0.016458795596975009 0.028847262249485094 0 0.017257614051666075 0.026855848918064987 0 0.018770371786691858 0.027155492936526613 0 0.016458795596975009 0.028847262249485094 0 0.01584911724169448 0.028944574989511009 0 0.014624928328077741 0.029656149084982215 0 0.016368649511237655 0.02895067660892604 0 0.016295046069749217 0.029286726438769704 0 0.022870034385359589 0.049924517538417881 0 0.021709084795300732 0.050584094811118259 0 0.021200734691496075 0.04953248036372189 0 0.021709084795300732 0.050584094811118259 0 0.021200734691496075 0.04953248036372189 0 0.020595504145628447 0.050631933914142842 0 0.021200734691496075 0.04953248036372189 0 0.019652653891895435 0.049522135534070554 0 0.020595504145628447 0.050631933914142842 0 0.019652653891895435 0.049522135534070554 0 0.019480708486992515 0.050435520465025127 0 0.020595504145628447 0.050631933914142842 0 0.019480708486992515 0.050435520465025127 0 0.020595504145628447 0.050631933914142842 0 0.019897137270829736 0.051093550572355713 0 0.019480708486992515 0.050435520465025127 0 0.019897137270829736 0.051093550572355713 0 0.018778565494207013 0.050964238669111123 0 0.020595504145628447 0.050631933914142842 0 0.020511705884621183 0.051521534317878072 0 0.021276387762747911 0.051408994328807925 0 0.020595504145628447 0.050631933914142842 0 0.019897137270829736 0.051093550572355713 0 0.020511705884621183 0.051521534317878072 0 0.019296750128887045 0.051519393562450388 0 0.019897137270829736 0.051093550572355713 0 0.018778565494207013 0.050964238669111123 0 0.019296750128887045 0.051519393562450388 0 0.020186847444081668 0.052595653090352634 0 0.018725298542572998 0.051982271072612315 0 0.020029096349948757 0.05170063382411659 0 0.019837909381321982 0.050989884185992179 0 0.019837909381321982 0.050989884185992179 0 0.018740606626520603 0.051284587397986109 0 0.019296750128887045 0.051519393562450388 0 0.019897137270829736 0.051093550572355713 0 0.020186847444081668 0.052595653090352634 0 0.020511705884621183 0.051521534317878072 0 0.020734998291143423 0.052131087373613827 0 0.020251608115965283 0.052328095935398784 0 0.019897137270829736 0.051093550572355713 0 0.020511705884621183 0.051521534317878072 0 0.020251608115965283 0.052328095935398784 0 0.020511705884621183 0.051521534317878072 0 0.020734998291143423 0.052131087373613827 0 0.021032051543044498 0.051923088396172122 0 0.020511705884621183 0.051521534317878072 0 0.021032051543044498 0.051923088396172122 0 0.021276387762747911 0.051408994328807925 0 0.020734998291143423 0.052131087373613827 0 0.021032051543044498 0.051923088396172122 0 0.021034417716292612 0.052301587701877705 0 0.021032051543044498 0.051923088396172122 0 0.021408525093973334 0.051934836380957757 0 0.021355212742318355 0.052260066592988673 0 0.021408525093973334 0.051934836380957757 0 0.021617219378622921 0.052172070287904361 0 0.021355212742318355 0.052260066592988673 0 0.021032051543044498 0.051923088396172122 0 0.021408525093973334 0.051934836380957757 0 0.021276387762747911 0.051408994328807925 0 0.021408525093973334 0.051934836380957757 0 0.021276387762747911 0.051408994328807925 0 0.021644909022159986 0.051682202942059677 0 0.021709084795300732 0.050584094811118259 0 0.020595504145628447 0.050631933914142842 0 0.021276387762747911 0.051408994328807925 0 0.021709084795300732 0.050584094811118259 0 0.021276387762747911 0.051408994328807925 0 0.021933093698225287 0.051338572329547867 0 0.022529511884572171 0.050918685758563099 0 0.021709084795300732 0.050584094811118259 0 0.021933093698225287 0.051338572329547867 0 0.021276387762747911 0.051408994328807925 0 0.021933093698225287 0.051338572329547867 0 0.021644909022159986 0.051682202942059677 0 0.022431497377377801 0.051602778182318655 0 0.021933093698225287 0.051338572329547867 0 0.022000828332006474 0.05185246159957816 0 0.021933093698225287 0.051338572329547867 0 0.021644909022159986 0.051682202942059677 0 0.022000828332006474 0.05185246159957816 0 0.021644909022159986 0.051682202942059677 0 0.021711459668508522 0.051972652016270375 0 0.022000828332006474 0.05185246159957816 0 0.021408525093973334 0.051934836380957757 0 0.021644909022159986 0.051682202942059677 0 0.021711459668508522 0.051972652016270375 0 0.021711459668508522 0.051972652016270375 0 0.022000828332006474 0.05185246159957816 0 0.02184043886489272 0.052156297376344647 0 0.021711459668508522 0.051972652016270375 0 0.02184043886489272 0.052156297376344647 0 0.021617219378622921 0.052172070287904361 0 0.021408525093973334 0.051934836380957757 0 0.021711459668508522 0.051972652016270375 0 0.021617219378622921 0.052172070287904361 0 0.022000828332006474 0.05185246159957816 0 0.022095683257971833 0.052191367432912923 0 0.02184043886489272 0.052156297376344647 0 0.022338410480383927 0.051963126403229629 0 0.022000828332006474 0.05185246159957816 0 0.022095683257971833 0.052191367432912923 0 0.018365680836234972 0.044142926347331669 0 0.020488480902621186 0.045085263214736604 0 0.0200270702496671 0.04352525255558623 0 0.022641674503232123 0.053229328620948542 0 0.021761935577895946 0.05247877694060811 0 0.021060001753634504 0.05263383020870422 0 0.022393051422470993 0.05247281198344729 0 0.022095683257971833 0.052191367432912923 0 0.021761935577895946 0.05247877694060811 0 0.022293294313569922 0.043848614118102147 0 0.020576547120219758 0.049252364959327818 0 0.022095683257971833 0.052191367432912923 0 0.02184043886489272 0.052156297376344647 0 0.021761935577895946 0.05247877694060811 0 0.02184043886489272 0.052156297376344647 0 0.021617219378622921 0.052172070287904361 0 0.021761935577895946 0.05247877694060811 0 0.021617219378622921 0.052172070287904361 0 0.021761935577895946 0.05247877694060811 0 0.021355212742318355 0.052260066592988673 0 0.021761935577895946 0.05247877694060811 0 0.021355212742318355 0.052260066592988673 0 0.021060001753634504 0.05263383020870422 0 0.020734998291143423 0.052131087373613827 0 0.021034417716292612 0.052301587701877705 0 0.021060001753634504 0.05263383020870422 0 0.021034417716292612 0.052301587701877705 0 0.021355212742318355 0.052260066592988673 0 0.021060001753634504 0.05263383020870422 0 0.021032051543044498 0.051923088396172122 0 0.021034417716292612 0.052301587701877705 0 0.021355212742318355 0.052260066592988673 0 0.020488480902621186 0.045085263214736604 0 0.0200270702496671 0.04352525255558623 0 0.021303118981277989 0.044188184168814405 0 0.020488013008579796 0.041644110724918901 0 0.0200270702496671 0.04352525255558623 0 0.021303118981277989 0.044188184168814405 0 0.018365680836234972 0.044142926347331669 0 0.0200270702496671 0.04352525255558623 0 0.019500346700986243 0.042553955380121147 0 0.020488013008579796 0.041644110724918901 0 0.0200270702496671 0.04352525255558623 0 0.019500346700986243 0.042553955380121147 0 0.017708401780498238 0.041368781962940325 0 0.019083145297394195 0.046973148981083519 0 0.017468810029848708 0.044899090541489842 0 0.016964308062637767 0.044971514648694075 0 0.016768856206975432 0.045702543159356263 0 0.016867129254115369 0.049383455343970956 0 0.019083145297394195 0.046973148981083519 0 0.020488013008579796 0.041644110724918901 0 0.020747491808530159 0.041458107759886766 0 0.021303118981277989 0.044188184168814405 0 0.016964308062637767 0.044971514648694075 0 0.016578670186216976 0.044810370288131313 0 0.016768856206975432 0.045702543159356263 0 0.018435564352103914 0.050093030224584063 0 0.018486462437230657 0.050344205320707935 0 0.01879879069158541 0.050068433655280971 0 0.020576547120219758 0.049252364959327818 0 0.019083145297394195 0.046973148981083519 0 0.020576547120219758 0.049252364959327818 0 0.019837909381321982 0.050989884185992179 0 0.01910728792555752 0.04924177369520269 0 0.019807753115273365 0.048464546367689168 0 0.020044388903993255 0.049648596775925556 0 0.020734998291143423 0.052131087373613827 0 0.021060001753634504 0.05263383020870422 0 0.020251608115965283 0.052328095935398784 0 0.019083145297394195 0.046973148981083519 0 0.019837909381321982 0.050989884185992179 0 0.018486462437230657 0.050344205320707935 0 0.01879879069158541 0.050068433655280971 0 0.018781878501373157 0.050481612520780934 0 0.018562982221061099 0.052014461669583074 0 0.018740606626520603 0.051284587397986109 0 0.017839730017677132 0.052194774871531679 0 0.018274346781534074 0.053096737745766384 0 0.018466131288288428 0.051682815600594102 0 0.017839730017677132 0.052194774871531679 0 0.018274346781534074 0.053096737745766384 0 0.017308467781575399 0.05285471400179767 0 0.018808325092567461 0.049662687987080747 0 0.018435564352103914 0.050093030224584063 0 0.01879879069158541 0.050068433655280971 0 0.016867129254115369 0.049383455343970956 0 0.018562982221061099 0.052014461669583074 0 0.018110827258691523 0.054528756539251391 0 0.018274346781534074 0.053096737745766384 0 0.016869569601148757 0.053915233987681201 0 0.018274346781534074 0.053096737745766384 0 0.016869569601148757 0.053915233987681201 0 0.017308467781575399 0.05285471400179767 0 0.016387016087453254 0.052631382197673632 0 0.017213260036206296 0.05206454813794488 0 0.016530614966899268 0.051270594019259215 0 0.016869569601148757 0.053915233987681201 0 0.016387016087453254 0.052631382197673632 0 0.017308467781575399 0.05285471400179767 0 0.017839730017677132 0.052194774871531679 0 0.017213260036206296 0.05206454813794488 0 0.017650562264050432 0.051796758593951775 0 0.017839730017677132 0.052194774871531679 0 0.017308467781575399 0.05285471400179767 0 0.017213260036206296 0.05206454813794488 0 0.016387016087453254 0.052631382197673632 0 0.017308467781575399 0.05285471400179767 0 0.017213260036206296 0.05206454813794488 0 0.016530614966899268 0.051270594019259215 0 0.017430499262806837 0.051391651547230709 0 0.017557369261556571 0.050520984182028196 0 0.017430499262806837 0.051391651547230709 0 0.018068283344357228 0.050911682935709961 0 0.017557369261556571 0.050520984182028196 0 0.017213260036206296 0.05206454813794488 0 0.016530614966899268 0.051270594019259215 0 0.017430499262806837 0.051391651547230709 0 0.017213260036206296 0.05206454813794488 0 0.017430499262806837 0.051391651547230709 0 0.017650562264050432 0.051796758593951775 0 0.017839730017677132 0.052194774871531679 0 0.018110450578051655 0.051523034189195828 0 0.018466131288288428 0.051682815600594102 0 0.017839730017677132 0.052194774871531679 0 0.017650562264050432 0.051796758593951775 0 0.018110450578051655 0.051523034189195828 0 0.017430499262806837 0.051391651547230709 0 0.017650562264050432 0.051796758593951775 0 0.018110450578051655 0.051523034189195828 0 0.018464101988482993 0.051317121394084259 0 0.018740606626520603 0.051284587397986109 0 0.018110450578051655 0.051523034189195828 0 0.018633869891193328 0.051755105572774282 0 0.018778565494207013 0.050964238669111123 0 0.019296750128887045 0.051519393562450388 0 0.018725298542572998 0.051982271072612315 0 0.018778565494207013 0.050964238669111123 0 0.018740606626520603 0.051284587397986109 0 0.018745110358948779 0.051249552476121903 0 0.017430499262806837 0.051391651547230709 0 0.018110450578051655 0.051523034189195828 0 0.018068283344357228 0.050911682935709961 0 0.018110450578051655 0.051523034189195828 0 0.018778565494207013 0.050964238669111123 0 0.018068283344357228 0.050911682935709961 0 0.018778565494207013 0.050964238669111123 0 0.018068283344357228 0.050911682935709961 0 0.018494485812517537 0.050019881216418101 0 0.018068283344357228 0.050911682935709961 0 0.018494485812517537 0.050019881216418101 0 0.017557369261556571 0.050520984182028196 0 0.018494485812517537 0.050019881216418101 0 0.016852898077986574 0.049547113433361073 0 0.01849666124246396 0.048875855963147509 0 0.019480708486992515 0.050435520465025127 0 0.018778565494207013 0.050964238669111123 0 0.018494485812517537 0.050019881216418101 0 0.019652653891895435 0.049522135534070554 0 0.019480708486992515 0.050435520465025127 0 0.018494485812517537 0.050019881216418101 0 0.019652653891895435 0.049522135534070554 0 0.018494485812517537 0.050019881216418101 0 0.01849666124246396 0.048875855963147509 0 0.018494485812517537 0.050019881216418101 0 0.016852898077986574 0.049547113433361073 0 0.017557369261556571 0.050520984182028196 0 0.016530614966899268 0.051270594019259215 0 0.016852898077986574 0.049547113433361073 0 0.017557369261556571 0.050520984182028196 0 0.016852898077986574 0.049547113433361073 0 0.01490268001923661 0.050526826304634662 0 0.014502794874099964 0.048436462890565732 0 0.016530614966899268 0.051270594019259215 0 0.016852898077986574 0.049547113433361073 0 0.01490268001923661 0.050526826304634662 0 0.01490268001923661 0.050526826304634662 0 0.012814137875096974 0.050071819193789217 0 0.014502794874099964 0.048436462890565732 0 0.01490268001923661 0.050526826304634662 0 0.015147160786755378 0.052057793510992677 0 0.0131813076491385 0.051655331307481102 0 0.01490268001923661 0.050526826304634662 0 0.0131813076491385 0.051655331307481102 0 0.012814137875096974 0.050071819193789217 0 0.016530614966899268 0.051270594019259215 0 0.01490268001923661 0.050526826304634662 0 0.015147160786755378 0.052057793510992677 0 0.016387016087453254 0.052631382197673632 0 0.015147160786755378 0.052057793510992677 0 0.015462345264679506 0.053290987037019705 0 0.016387016087453254 0.052631382197673632 0 0.016530614966899268 0.051270594019259215 0 0.015147160786755378 0.052057793510992677 0 0.016869569601148757 0.053915233987681201 0 0.015462345264679506 0.053290987037019705 0 0.0155204860700076 0.054339069117512157 0 0.016869569601148757 0.053915233987681201 0 0.016387016087453254 0.052631382197673632 0 0.015462345264679506 0.053290987037019705 0 0.015462345264679506 0.053290987037019705 0 0.0155204860700076 0.054339069117512157 0 0.014394056872858654 0.053830237850849297 0 0.014394056872858654 0.053830237850849297 0 0.014241135994070184 0.052828440304569936 0 0.013105711867059286 0.05304530621446478 0 0.014857647393931438 0.054848446233654806 0 0.0155204860700076 0.054339069117512157 0 0.014394056872858654 0.053830237850849297 0 0.015462345264679506 0.053290987037019705 0 0.014394056872858654 0.053830237850849297 0 0.014241135994070184 0.052828440304569936 0 0.015147160786755378 0.052057793510992677 0 0.015462345264679506 0.053290987037019705 0 0.014241135994070184 0.052828440304569936 0 0.015147160786755378 0.052057793510992677 0 0.014241135994070184 0.052828440304569936 0 0.0131813076491385 0.051655331307481102 0 0.012736964769190843 0.053170417987113319 0 0.011765283376694255 0.052180482725311436 0 0.0131813076491385 0.051655331307481102 0 0.014241135994070184 0.052828440304569936 0 0.012736964769190843 0.053170417987113319 0 0.0131813076491385 0.051655331307481102 0 0.014057807469656861 0.052864365467501367 0 0.01294381100997277 0.053053481425465947 0 0.013553800824477316 0.054706686044342777 0 0.014394056872858654 0.053830237850849297 0 0.013105711867059286 0.05304530621446478 0 0.013553800824477316 0.054706686044342777 0 0.013105711867059286 0.05304530621446478 0 0.011915422962431891 0.053283156905406574 0 0.013044885185482479 0.052699111297345738 0 0.011196617690477256 0.051668181271253562 0 0.01129167864017748 0.049573485630860829 0 0.011861359693297579 0.049600867315631944 0 0.011170190020358559 0.049004698544822159 0 0.010818318884797866 0.049622130540750438 0 0.01129167864017748 0.049573485630860829 0 0.011170190020358559 0.049004698544822159 0 0.011293293153592329 0.053468491736698862 0 0.011765283376694255 0.052180482725311436 0 0.0094128440628141619 0.051821699637903694 0 0.01294381100997277 0.053053481425465947 0 0.011196617690477256 0.051668181271253562 0 0.012736964769190843 0.053170417987113319 0 0.011293293153592329 0.053468491736698862 0 0.011765283376694255 0.052180482725311436 0 0.011109314820886559 0.050869930135969126 0 0.012685473836970567 0.050101177910972232 0 0.011765283376694255 0.052180482725311436 0 0.011147188702255933 0.050945751295882948 0 0.0094128440628141619 0.051821699637903694 0 0.011765283376694255 0.052180482725311436 0 0.011147188702255933 0.050945751295882948 0 0.0131813076491385 0.051655331307481102 0 0.011147188702255933 0.050945751295882948 0 0.0131813076491385 0.051655331307481102 0 0.012814137875096974 0.050071819193789217 0 0.011006319727444876 0.050727656316978981 0 0.012814137875096974 0.050071819193789217 0 0.01101179979448242 0.048769562903215317 0 0.01101179979448242 0.048769562903215317 0 0.01204305016950852 0.047558698480558693 0 0.0099589096202878091 0.047100168718501673 0 0.012814137875096974 0.050071819193789217 0 0.01101179979448242 0.048769562903215317 0 0.01204305016950852 0.047558698480558693 0 0.012814137875096974 0.050071819193789217 0 0.01204305016950852 0.047558698480558693 0 0.014502794874099964 0.048436462890565732 0 0.0120902464252194 0.047832397058829502 0 0.014527291065013524 0.048699759164364899 0 0.012164615100256938 0.048109011246418011 0 0.01340945624904032 0.047033501242395317 0 0.012035982845133717 0.046646923278286935 0 0.012164615100256938 0.048109011246418011 0 0.01340945624904032 0.047033501242395317 0 0.014514175344101982 0.04894677608965696 0 0.012164615100256938 0.048109011246418011 0 0.012035982845133717 0.046646923278286935 0 0.0099589096202878091 0.047100168718501673 0 0.0120902464252194 0.047832397058829502 0 0.010101943399728202 0.047142826680283204 0 0.012035982845133717 0.046646923278286935 0 0.011127652456586656 0.046004902777463309 0 0.0099589096202878091 0.047100168718501673 0 0.012035982845133717 0.046646923278286935 0 0.011127652456586656 0.046004902777463309 0 0.012711004594645036 0.045516851332190578 0 0.01311878822569491 0.045857661802304307 0 0.011075335029996195 0.045000131270862553 0 0.013492931973486368 0.046198056690140335 0 0.013385316310586313 0.044999932009576409 0 0.011074987564880037 0.045000031769642949 0 0.011127652456586656 0.046004902777463309 0 0.012711004594645036 0.045516851332190578 0 0.011073247125170873 0.04499904859646766 0 0.01340945624904032 0.047033501242395317 0 0.012035982845133717 0.046646923278286935 0 0.012711004594645036 0.045516851332190578 0 0.01340945624904032 0.047033501242395317 0 0.012711004594645036 0.045516851332190578 0 0.015267776724959549 0.046518149376810189 0 0.01311878822569491 0.045857661802304307 0 0.01559599138071102 0.04685832170099296 0 0.013492931973486368 0.046198056690140335 0 0.015695914492006007 0.044999879043914254 0 0.015907464184921342 0.047178487954961004 0 0.013492931973486368 0.046198056690140335 0 0.013385316310586313 0.044999932009576409 0 0.015695914492006007 0.044999879043914254 0 0.015695914492006007 0.044999879043914254 0 0.015907464184921342 0.047178487954961004 0 0.017285221850277761 0.046361455900713805 0 0.015267776724959549 0.046518149376810189 0 0.014514175344101982 0.04894677608965696 0 0.016114046151652479 0.048235759731781701 0 0.015267776724959549 0.046518149376810189 0 0.016114046151652479 0.048235759731781701 0 0.017840400211390196 0.047832971075389308 0 0.01340945624904032 0.047033501242395317 0 0.015267776724959549 0.046518149376810189 0 0.014514175344101982 0.04894677608965696 0 0.016699424806047729 0.049491091732390115 0 0.014527291065013524 0.048699759164364899 0 0.016852898077986574 0.049547113433361073 0 0.014514175344101982 0.04894677608965696 0 0.016114046151652479 0.048235759731781701 0 0.024427533989422323 0.044999557480444298 0 0.018006614387006428 0.044999810769465978 0 0.021414459055425591 0.046639872778323654 0 0.016852898077986574 0.049547113433361073 0 0.016114046151652479 0.048235759731781701 0 0.017840400211390196 0.047832971075389308 0 0.016852898077986574 0.049547113433361073 0 0.01849666124246396 0.048875855963147509 0 0.017840400211390196 0.047832971075389308 0 0.017840400211390196 0.047832971075389308 0 0.018657678245905057 0.046438195335912341 0 0.019697528073902942 0.047740500870250148 0 0.01849666124246396 0.048875855963147509 0 0.017840400211390196 0.047832971075389308 0 0.019697528073902942 0.047740500870250148 0 0.01559599138071102 0.04685832170099296 0 0.017721343489714558 0.04779889707448573 0 0.017840400211390196 0.047832971075389308 0 0.017285221850277761 0.046361455900713805 0 0.018657678245905057 0.046438195335912341 0 0.015907464184921342 0.047178487954961004 0 0.017840400211390196 0.047832971075389308 0 0.017285221850277761 0.046361455900713805 0 0.018006614387006428 0.044999810769465978 0 0.019242223726538665 0.046663114377606132 0 0.021414459055425591 0.046639872778323654 0 0.017285221850277761 0.046361455900713805 0 0.018005079542834698 0.044999884704894022 0 0.018657678245905057 0.046438195335912341 0 0.015695914492006007 0.044999879043914254 0 0.017285221850277761 0.046361455900713805 0 0.018005079542834698 0.044999884704894022 0 0.018006077126717816 0.045000267476080595 0 0.018956435339860439 0.046517629193177409 0 0.019242223726538665 0.046663114377606132 0 0.021414459055425591 0.046639872778323654 0 0.020427426809518538 0.048174536576800986 0 0.022801983382551096 0.04755461912109428 0 0.021414459055425591 0.046639872778323654 0 0.021714146014680705 0.04811494553159118 0 0.021414459055425591 0.046639872778323654 0 0.021714146014680705 0.04811494553159118 0 0.020427426809518538 0.048174536576800986 0 0.018956435339860439 0.046517629193177409 0 0.020080984189409314 0.047999101665428624 0 0.021119387498375504 0.049459654223513387 0 0.020080984189409314 0.047999101665428624 0 0.021200734691496075 0.04953248036372189 0 0.019652653891895435 0.049522135534070554 0 0.019697528073902942 0.047740500870250148 0 0.019652653891895435 0.049522135534070554 0 0.01849666124246396 0.048875855963147509 0 0.019697528073902942 0.047740500870250148 0 0.022740121879054703 0.0486098896911916 0 0.022870034385359589 0.049924517538417881 0 0.021200734691496075 0.04953248036372189 0 0.022740121879054703 0.0486098896911916 0 0.021200734691496075 0.04953248036372189 0 0.021714146014680705 0.04811494553159118 0 0.021200734691496075 0.04953248036372189 0 0.021714146014680705 0.04811494553159118 0 0.020427426809518538 0.048174536576800986 0 0.0013602300940016307 0.04956080246897656 0 0.0033179895994808347 0.04850038333816472 0 0.00081613534232824816 0.04834996642971618 0 0.0013602300940016307 0.04956080246897656 0 0.0033179895994808347 0.04850038333816472 0 0.0030801215989283218 0.050477919889548521 0 0.0033179895994808347 0.04850038333816472 0 0.0030801215989283218 0.050477919889548521 0 0.0054144035937512824 0.049640385505205456 0 0.0033179895994808347 0.04850038333816472 0 0.0054144035937512824 0.049640385505205456 0 0.004668766861818315 0.048159124864888964 0 0.0033179895994808347 0.04850038333816472 0 0.0036058654971578164 0.047869868367039797 0 0.004668766861818315 0.048159124864888964 0 0.0033179895994808347 0.04850038333816472 0 0.0029377401901986983 0.048121752300371301 0 0.0036058654971578164 0.047869868367039797 0 0.0034906610410410108 0.048375509635575575 0 0.00061174523956716062 0.047315432938556147 0 0.0033179895994808347 0.04850038333816472 0 -0.00024458731930882243 0.046020390121899089 0 0.00081613534232824816 0.04834996642971618 0 -0.00024458731930882243 0.046020390121899089 0 -0.0012406132005428631 0.049200700493876669 0 0.00081613534232824816 0.04834996642971618 0 0.00061174523956716062 0.047315432938556147 0 -0.0014760628501903133 0.048736091858886416 0 -0.0022380154797208857 0.046556697450394396 0 -0.0040725703696035658 0.048331918118232869 0 -0.0022512432021547174 0.047821112756572061 0 -0.0020973382436988491 0.046439416962761638 0 -0.0037983050758220779 0.048024027736043036 0 -0.00092443261193707316 0.046671334960989429 0 -0.0022512432021547174 0.047821112756572061 0 -0.0012406132005428631 0.049200700493876669 0 -0.00092443261193707316 0.046671334960989429 0 -0.0022512432021547174 0.047821112756572061 0 -0.0020973382436988491 0.046439416962761638 0 -0.0012406132005428631 0.049200700493876669 0 -0.002746471687554276 0.048730409471699945 0 -0.0035836496819507623 0.049930675258303275 0 -0.0022512432021547174 0.047821112756572061 0 -0.002746471687554276 0.048730409471699945 0 -0.0037983050758220779 0.048024027736043036 0 -0.0022512432021547174 0.047821112756572061 0 -0.0012406132005428631 0.049200700493876669 0 -0.002746471687554276 0.048730409471699945 0 0.0013602300940016307 0.04956080246897656 0 -0.0012406132005428631 0.049200700493876669 0 0.00081613534232824816 0.04834996642971618 0 0.0013602300940016307 0.04956080246897656 0 -0.0012406132005428631 0.049200700493876669 0 0.00071022330033817366 0.051369938824682847 0 -0.0012406132005428631 0.049200700493876669 0 -0.0021194237612003636 0.051348085161076425 0 0.00071022330033817366 0.051369938824682847 0 -0.0012406132005428631 0.049200700493876669 0 -0.0021194237612003636 0.051348085161076425 0 -0.0035836496819507623 0.049930675258303275 0 -0.002938668075460912 0.053181040472484176 0 -0.0021194237612003636 0.051348085161076425 0 -0.00042621847261599421 0.052260751949332433 0 -0.002938668075460912 0.053181040472484176 0 -0.0021194237612003636 0.051348085161076425 0 -0.0050481662840193 0.051262350706766484 0 -0.0021194237612003636 0.051348085161076425 0 -0.00042621847261599421 0.052260751949332433 0 0.00071022330033817366 0.051369938824682847 0 -0.00042621847261599421 0.052260751949332433 0 0.0011374621736203081 0.052359985274458322 0 0.00071022330033817366 0.051369938824682847 0 0.0025236413891245087 0.052912203824529297 0 0.0011374621736203081 0.052359985274458322 0 0.0022167270490365998 0.051758963788172366 0 0.0011374621736203081 0.052359985274458322 0 0.0022167270490365998 0.051758963788172366 0 0.00071022330033817366 0.051369938824682847 0 0.0013602300940016307 0.04956080246897656 0 0.00071022330033817366 0.051369938824682847 0 0.0030801215989283218 0.050477919889548521 0 0.0022167270490365998 0.051758963788172366 0 0.00071022330033817366 0.051369938824682847 0 0.0030801215989283218 0.050477919889548521 0 0.0030801215989283218 0.050477919889548521 0 0.004563543829196633 0.050838027635910533 0 0.0054144035937512824 0.049640385505205456 0 0.0022167270490365998 0.051758963788172366 0 0.0030801215989283218 0.050477919889548521 0 0.0034683420771792544 0.051553292499102898 0 0.0034683420771792544 0.051553292499102898 0 0.0050557091555642995 0.051887502199494367 0 0.004563543829196633 0.050838027635910533 0 0.0030801215989283218 0.050477919889548521 0 0.0034683420771792544 0.051553292499102898 0 0.004563543829196633 0.050838027635910533 0 0.0025236413891245087 0.052912203824529297 0 0.0034683420771792544 0.051553292499102898 0 0.0050557091555642995 0.051887502199494367 0 0.0036245767368622795 0.053080056895859887 0 0.0025236413891245087 0.052912203824529297 0 0.0051104264022653256 0.051552593325383186 0 0.0027353337186468208 0.052844400959521136 0 0.004960834254688992 0.051694748118587104 0 0.0025236413891245087 0.052912203824529297 0 0.0022167270490365998 0.051758963788172366 0 0.0034683420771792544 0.051553292499102898 0 0.0016469235523193847 0.049386863574027995 0 0.0049016067031422347 0.048170773964335396 0 0.0036245767368622795 0.053080056895859887 0 0.0051104264022653256 0.051552593325383186 0 0.0063924926978290737 0.05234281345776428 0 0.0051104264022653256 0.051552593325383186 0 0.0063924926978290737 0.05234281345776428 0 0.0075149480075110001 0.050315997625892755 0 0.0053842729441779084 0.0454009574901987 0 0.003506290588521871 0.044272252785931443 0 0.0067791194949502137 0.043729388125425345 0 0.0063924926978290737 0.05234281345776428 0 0.0075149480075110001 0.050315997625892755 0 0.0090237335232350481 0.051736585215979555 0 0.0049016067031422347 0.048170773964335396 0 0.0086862703936296352 0.049008845857532908 0 0.0066747582151103057 0.050945444443082771 0 0.0055072897286324186 0.050823278465360423 0 0.0054144035937512824 0.049640385505205456 0 0.004960834254688992 0.051694748118587104 0 0.0075356240590319845 0.05103834889348751 0 0.0050557091555642995 0.051887502199494367 0 0.0066747582151103057 0.050945444443082771 0 0.0055072897286324186 0.050823278465360423 0 0.0055072897286324186 0.050823278465360423 0 0.004563543829196633 0.050838027635910533 0 0.0054144035937512824 0.049640385505205456 0 0.0050557091555642995 0.051887502199494367 0 0.0055072897286324186 0.050823278465360423 0 0.004563543829196633 0.050838027635910533 0 0.011196617690477256 0.051668181271253562 0 0.0086862703936296352 0.049008845857532908 0 0.010818318884797866 0.049622130540750438 0 0.011170190020358559 0.049004698544822159 0 0.010313965441799628 0.049165168167400547 0 0.010339570131679661 0.047575902639555169 0 0.0086862703936296352 0.049008845857532908 0 0.003506290588521871 0.044272252785931443 0 0.0075059860010278038 0.043326750269381847 0 0.0067791194949502137 0.043729388125425345 0 0.0093870079340644657 0.045841877589981476 0 0.0075059860010278038 0.043326750269381847 0 0.0067791194949502137 0.043729388125425345 0 0.0075356240590319845 0.05103834889348751 0 0.0086862703936296352 0.049008845857532908 0 0.0075356240590319845 0.05103834889348751 0 0.0092054297111526084 0.051169654796173115 0 0.0081216983630058824 0.050695948374009425 0 0.0089239040957755332 0.051449654632365921 0 0.0092247555503195463 0.050141046271566958 0 0.011196617690477256 0.051668181271253562 0 0.0092054297111526084 0.051169654796173115 0 0.010386961895053566 0.051149270804325665 0 0.0089239040957755332 0.051449654632365921 0 0.0092247555503195463 0.050141046271566958 0 0.011109314820886559 0.050869930135969126 0 0.0092054297111526084 0.051169654796173115 0 0.011006319727444876 0.050727656316978981 0 0.0092625448064411406 0.051542630097598491 0 0.0089490445016544608 0.049984117700436551 0 0.0073686557578146661 0.051684708128300359 0 0.0089156847356171905 0.050906078035676788 0 0.0074110194329879246 0.04956820435072927 0 0.0092625448064411406 0.051542630097598491 0 0.0089490445016544608 0.049984117700436551 0 0.0074110194329879246 0.04956820435072927 0 0.0092054297111526084 0.051169654796173115 0 0.0074665148720265487 0.049686017141797441 0 0.0089490445016544608 0.049984117700436551 0 0.0074110194329879246 0.04956820435072927 0 0.0095669216975103853 0.048857248126373994 0 0.0074110194329879246 0.04956820435072927 0 0.0077445294028305927 0.048018457745774269 0 0.0095669216975103853 0.048857248126373994 0 0.011006319727444876 0.050727656316978981 0 0.01101179979448242 0.048769562903215317 0 0.0095669216975103853 0.048857248126373994 0 0.011006319727444876 0.050727656316978981 0 0.0089490445016544608 0.049984117700436551 0 0.0095669216975103853 0.048857248126373994 0 0.0073686557578146661 0.051684708128300359 0 0.0054144035937512824 0.049640385505205456 0 0.0074110194329879246 0.04956820435072927 0 0.0075356240590319845 0.05103834889348751 0 0.005315434225588952 0.049777836324485049 0 0.0074110194329879246 0.04956820435072927 0 0.0061949165637293123 0.048573474483200235 0 0.0077445294028305927 0.048018457745774269 0 0.0054144035937512824 0.049640385505205456 0 0.0074110194329879246 0.04956820435072927 0 0.0061949165637293123 0.048573474483200235 0 0.0054144035937512824 0.049640385505205456 0 0.0061949165637293123 0.048573474483200235 0 0.004668766861818315 0.048159124864888964 0 0.0061949165637293123 0.048573474483200235 0 0.0058473300962063228 0.047560504175783752 0 0.004668766861818315 0.048159124864888964 0 0.0061949165637293123 0.048573474483200235 0 0.0058473300962063228 0.047560504175783752 0 0.0077445294028305927 0.048018457745774269 0 0.0058473300962063228 0.047560504175783752 0 0.0077445294028305927 0.048018457745774269 0 0.0078238856225599437 0.046544098844024238 0 0.0058473300962063228 0.047560504175783752 0 0.006002452460229674 0.046315911930528572 0 0.0078238856225599437 0.046544098844024238 0 0.01101179979448242 0.048769562903215317 0 0.0095669216975103853 0.048857248126373994 0 0.0099589096202878091 0.047100168718501673 0 0.0077445294028305927 0.048018457745774269 0 0.0095669216975103853 0.048857248126373994 0 0.0099589096202878091 0.047100168718501673 0 0.0077445294028305927 0.048018457745774269 0 0.0099589096202878091 0.047100168718501673 0 0.0078238856225599437 0.046544098844024238 0 0.011127652456586656 0.046004902777463309 0 0.0099589096202878091 0.047100168718501673 0 0.0096503756731053918 0.045938801819708538 0 0.0099589096202878091 0.047100168718501673 0 0.0096503756731053918 0.045938801819708538 0 0.0078238856225599437 0.046544098844024238 0 0.0096503756731053918 0.045938801819708538 0 0.0087372691867965771 0.044999833060284836 0 0.0078238856225599437 0.046544098844024238 0 0.011127652456586656 0.046004902777463309 0 0.0096503756731053918 0.045938801819708538 0 0.011073247125170873 0.04499904859646766 0 0.0096503756731053918 0.045938801819708538 0 0.0087372691867965771 0.044999833060284836 0 0.011073247125170873 0.04499904859646766 0 0.006002452460229674 0.046315911930528572 0 0.0078238856225599437 0.046544098844024238 0 0.0070422601508260164 0.045778121713151702 0 0.0087372691867965771 0.044999833060284836 0 0.0070422601508260164 0.045778121713151702 0 0.0063997276602597531 0.044999051438531307 0 0.0087372691867965771 0.044999833060284836 0 0.0078238856225599437 0.046544098844024238 0 0.0070422601508260164 0.045778121713151702 0 0.006002452460229674 0.046315911930528572 0 0.0063997276602597531 0.044999051438531307 0 0.0046058726070214327 0.04589685959242798 0 0.006002452460229674 0.046315911930528572 0 0.0070422601508260164 0.045778121713151702 0 0.0063997276602597531 0.044999051438531307 0 0.0063991944941562996 0.045000293183708975 0 0.0045737619651161979 0.046310212045442153 0 0.0063996934400562394 0.044999993647119353 0 0.003733934522158055 0.044999990192607239 0 0.0044073810125819391 0.046706133036392594 0 0.0031451337220211855 0.045213344332936965 0 0.0027828945809464452 0.046849818753871175 0 0.003733934522158055 0.044999990192607239 0 0.0031731425157488688 0.045097884173960809 0 0.0044073810125819391 0.046706133036392594 0 0.0031731425157488688 0.045097884173960809 0 0.0044073810125819391 0.046706133036392594 0 0.0028248480384854713 0.0467477699777041 0 0.0045737619651161979 0.046310212045442153 0 0.0023885800419711548 0.047691707721970955 0 0.0044073810125819391 0.046706133036392594 0 0.00246045809253059 0.048374042928357584 0 0.0028248480384854713 0.0467477699777041 0 0.006002452460229674 0.046315911930528572 0 0.0046058726070214327 0.04589685959242798 0 0.0043868180628668322 0.047174573932477461 0 0.0058473300962063228 0.047560504175783752 0 0.006002452460229674 0.046315911930528572 0 0.0043868180628668322 0.047174573932477461 0 0.0046058726070214327 0.04589685959242798 0 0.0043868180628668322 0.047174573932477461 0 0.0030926553390084287 0.047041171011700099 0 0.0043868180628668322 0.047174573932477461 0 0.0036058654971578164 0.047869868367039797 0 0.0030926553390084287 0.047041171011700099 0 0.0058473300962063228 0.047560504175783752 0 0.0043868180628668322 0.047174573932477461 0 0.004668766861818315 0.048159124864888964 0 0.0043868180628668322 0.047174573932477461 0 0.0036058654971578164 0.047869868367039797 0 0.004668766861818315 0.048159124864888964 0 -0.0023972315549496189 0.045874092354254437 0 -0.0020973382436988491 0.046439416962761638 0 -0.0045009041329265448 0.047768611605123391 0 0.00060243873237191242 0.049928729576116493 0 0.00095476539339020637 0.048777744921812832 0 -6.7698412316953652e-05 0.048839925942627808 0 0.00061174523956716062 0.047315432938556147 0 -0.0013862827501421187 0.047690136779610634 0 -0.00092443261193707316 0.046671334960989429 0 -0.0023972315549496189 0.045874092354254437 0 -0.0020973382436988491 0.046439416962761638 0 0.0029377401901986983 0.048121752300371301 0 0.0036058654971578164 0.047869868367039797 0 0.0030926553390084287 0.047041171011700099 0 -0.0013862827501421187 0.047690136779610634 0 0.0023885800419711548 0.047691707721970955 0 0.00071918204520587514 0.048097989254791883 0 4.7632112229544221e-05 0.047732391085565685 0 0.00099238049539359242 0.046930467964889422 0 0.00061174523956716062 0.047315432938556147 0 0.0023885800419711548 0.047691707721970955 0 0.0023837773022838482 0.048411012996935704 0 0.0013365011844833569 0.048132032213378605 0 0.00095476539339020637 0.048777744921812832 0 0.0023837773022838482 0.048411012996935704 0 0.0013365011844833569 0.048132032213378605 0 0.0014282448495504386 0.04720972984404205 0 0.00060243873237191242 0.049928729576116493 0 0.0023837773022838482 0.048411012996935704 0 0.00095476539339020637 0.048777744921812832 0 0.0013365011844833569 0.048132032213378605 0 0.00057891863208263861 0.048128604743947 0 0.0014282448495504386 0.04720972984404205 0 0.0013365011844833569 0.048132032213378605 0 0.00095476539339020637 0.048777744921812832 0 0.00057891863208263861 0.048128604743947 0 0.00095476539339020637 0.048777744921812832 0 0.00057891863208263861 0.048128604743947 0 -6.7698412316953652e-05 0.048839925942627808 0 0.00057891863208263861 0.048128604743947 0 -6.7698412316953652e-05 0.048839925942627808 0 -0.00019925639966519607 0.048189071464519312 0 0.00057891863208263861 0.048128604743947 0 1.2972512607190092e-05 0.047385516630470033 0 -0.00019925639966519607 0.048189071464519312 0 0.00034783330036711353 0.046448229129896601 0 1.2972512607190092e-05 0.047385516630470033 0 0.0014282448495504386 0.04720972984404205 0 0.00057891863208263861 0.048128604743947 0 1.2972512607190092e-05 0.047385516630470033 0 0.0014282448495504386 0.04720972984404205 0 0.00034783330036711353 0.046448229129896601 0 0.0014282448495504386 0.04720972984404205 0 0.0017573249646144779 0.046104813548741463 0 0.0023885800419711548 0.047691707721970955 0 0.0027828945809464452 0.046849818753871175 0 0.0023837773022838482 0.048411012996935704 0 0.0014282448495504386 0.04720972984404205 0 0.00277307363379725 0.046760600332388005 0 0.0014282448495504386 0.04720972984404205 0 0.00277307363379725 0.046760600332388005 0 0.0017573249646144779 0.046104813548741463 0 0.0031731425157488688 0.045097884173960809 0 0.00277307363379725 0.046760600332388005 0 0.0017573249646144779 0.046104813548741463 0 0.0031731425157488688 0.045097884173960809 0 0.0017573249646144779 0.046104813548741463 0 0.0010681156622496101 0.044999985033500021 0 0.003733934522158055 0.044999990192607239 0 0.0031731425157488688 0.045097884173960809 0 0.0010681156622496101 0.044999985033500021 0 0.00034783330036711353 0.046448229129896601 0 0.0017573249646144779 0.046104813548741463 0 0.0010681156622496101 0.044999985033500021 0 0.00034783330036711353 0.046448229129896601 0 0.0010681156622496101 0.044999985033500021 0 -0.0015976526105698722 0.045000011872752585 0 0.00034783330036711353 0.046448229129896601 0 -0.0015976526105698722 0.045000011872752585 0 -0.0011119713168498981 0.046869414546738659 0 -0.0015976526105698722 0.045000011872752585 0 -0.0027638006134455186 0.046543580218524026 0 -0.0011119713168498981 0.046869414546738659 0 -0.0027638006134455186 0.046543580218524026 0 -0.0011119713168498981 0.046869414546738659 0 -0.0018119667074212398 0.047988739310121882 0 -0.0027638006134455186 0.046543580218524026 0 -0.0029862579287567091 0.047992903432431497 0 -0.0018119667074212398 0.047988739310121882 0 0.00034783330036711353 0.046448229129896601 0 1.2972512607190092e-05 0.047385516630470033 0 -0.0011119713168498981 0.046869414546738659 0 -0.0011119713168498981 0.046869414546738659 0 -0.00084657822359054523 0.047894932514171214 0 -0.0018119667074212398 0.047988739310121882 0 1.2972512607190092e-05 0.047385516630470033 0 -0.0011119713168498981 0.046869414546738659 0 -0.00084657822359054523 0.047894932514171214 0 -0.0042633750872333367 0.044999929555902964 0 -0.0056159653438307673 0.045728865453818282 0 -0.00480247763774359 0.047028624791045213 0 -0.0042633750872333367 0.044999929555902964 0 -0.0056159653438307673 0.045728865453818282 0 -0.006929855968629159 0.044999935440856294 0 -0.0015976526105698722 0.045000011872752585 0 -0.0027638006134455186 0.046543580218524026 0 -0.0042633750872333367 0.044999929555902964 0 -0.0027638006134455186 0.046543580218524026 0 -0.0042633750872333367 0.044999929555902964 0 -0.00480247763774359 0.047028624791045213 0 -0.0061117527622560836 0.046624984223895952 0 -0.0059911778414114764 0.047250387721293752 0 -0.0053052020132081951 0.04701735961218545 0 -0.0027638006134455186 0.046543580218524026 0 -0.00480247763774359 0.047028624791045213 0 -0.0029862579287567091 0.047992903432431497 0 -0.0054797712855233971 0.046796075969035268 0 -0.0041329139889820145 0.047482231229903665 0 -0.0061117527622560836 0.046624984223895952 0 -0.0059911778414114764 0.047250387721293752 0 -0.0067137275354011584 0.046650486303440368 0 -0.0059911778414114764 0.047250387721293752 0 -0.0066068941277828705 0.047861089639136191 0 -0.0070169100869136363 0.047395033272897756 0 -0.0059911778414114764 0.047250387721293752 0 -0.0066068941277828705 0.047861089639136191 0 -0.0056281496325821983 0.047855402478458556 0 -0.0059911778414114764 0.047250387721293752 0 -0.0053052020132081951 0.04701735961218545 0 -0.0056281496325821983 0.047855402478458556 0 -0.0067638634217432004 0.046736786655366791 0 -0.0060780606810462616 0.047524157729115363 0 -0.0072605670761768191 0.04790510084489235 0 -0.0067638634217432004 0.046736786655366791 0 -0.0060780606810462616 0.047524157729115363 0 -0.005132326793248921 0.047091671565139992 0 -0.0067638634217432004 0.046736786655366791 0 -0.0081246923573971459 0.047731567898781524 0 -0.0072605670761768191 0.04790510084489235 0 -0.006242643349778098 0.047313548893364414 0 -0.0081548337350681923 0.048007436247190817 0 -0.0066068941277828705 0.047861089639136191 0 -0.0056281496325821983 0.047855402478458556 0 -0.007150187935426316 0.048786912416391569 0 -0.0067638634217432004 0.046736786655366791 0 -0.0081246923573971459 0.047731567898781524 0 -0.0091429495892328162 0.047216308022130234 0 -0.0011850659191530771 0.048958647151160911 0 -0.00071126301709185111 0.048466484520119757 0 -0.0011387317792205445 0.048327422611905237 0 -0.0048863053232884096 0.046850815710958171 0 -0.0048257123079570516 0.046823523318957602 0 -0.0048900621264490332 0.046960906315002007 0 -0.0011850659191530771 0.048958647151160911 0 -6.7698412316953652e-05 0.048839925942627808 0 -0.00071126301709185111 0.048466484520119757 0 -6.7698412316953652e-05 0.048839925942627808 0 -0.00071126301709185111 0.048466484520119757 0 -0.00019925639966519607 0.048189071464519312 0 1.2972512607190092e-05 0.047385516630470033 0 -0.00019925639966519607 0.048189071464519312 0 -0.00084657822359054523 0.047894932514171214 0 -0.00071126301709185111 0.048466484520119757 0 -0.00019925639966519607 0.048189071464519312 0 -0.00084657822359054523 0.047894932514171214 0 -0.0011850659191530771 0.048958647151160911 0 -0.0011387317792205445 0.048327422611905237 0 -0.0018119667074212398 0.047988739310121882 0 -0.00084657822359054523 0.047894932514171214 0 -0.0011387317792205445 0.048327422611905237 0 -0.0018119667074212398 0.047988739310121882 0 -0.00071126301709185111 0.048466484520119757 0 -0.00084657822359054523 0.047894932514171214 0 -0.0011387317792205445 0.048327422611905237 0 -0.0053052020132081951 0.04701735961218545 0 -0.0056281496325821983 0.047855402478458556 0 -0.0048863053232884096 0.046850815710958171 0 -0.0041329139889820145 0.047482231229903665 0 -0.0030007241480277821 0.04800754552368295 0 -0.0029862579287567091 0.047992903432431497 0 -0.0011850659191530771 0.048958647151160911 0 -0.0018119667074212398 0.047988739310121882 0 -0.0053052020132081951 0.04701735961218545 0 -0.0048863053232884096 0.046850815710958171 0 -0.0048257123079570516 0.046823523318957602 0 -0.006242643349778098 0.047313548893364414 0 -0.0050029389265130227 0.04689369570969816 0 -0.0067638634217432004 0.046736786655366791 0 -0.0048863053232884096 0.046850815710958171 0 -0.005132326793248921 0.047091671565139992 0 -0.0048863053232884096 0.046850815710958171 0 -0.005132326793248921 0.047091671565139992 0 -0.0048900621264490332 0.046960906315002007 0 -0.0060780606810462616 0.047524157729115363 0 -0.005132326793248921 0.047091671565139992 0 -0.0051767581234843617 0.047450062180777498 0 -0.005132326793248921 0.047091671565139992 0 -0.0051767581234843617 0.047450062180777498 0 -0.0048657742911829126 0.047314838614872338 0 -0.0051767581234843617 0.047450062180777498 0 -0.0048657742911829126 0.047314838614872338 0 -0.0048316500603218758 0.047563853846600251 0 -0.0013862827501421187 0.047690136779610634 0 -0.0030007241480277821 0.04800754552368295 0 -0.0039672829000655368 0.047233603566341757 0 -0.0045418361570682513 0.047369832461541181 0 -0.0045009041329265448 0.047768611605123391 0 0.00060243873237191242 0.049928729576116493 0 -0.0011850659191530771 0.048958647151160911 0 -6.7698412316953652e-05 0.048839925942627808 0 -0.0039672829000655368 0.047233603566341757 0 -0.0048257123079570516 0.046823523318957602 0 -0.0046815264938921252 0.047117091218956623 0 -0.0039672829000655368 0.047233603566341757 0 -0.0046815264938921252 0.047117091218956623 0 -0.0045418361570682513 0.047369832461541181 0 -0.0048657742911829126 0.047314838614872338 0 -0.0045418361570682513 0.047369832461541181 0 -0.0048316500603218758 0.047563853846600251 0 -0.0048657742911829126 0.047314838614872338 0 -0.0046815264938921252 0.047117091218956623 0 -0.0045418361570682513 0.047369832461541181 0 -0.005132326793248921 0.047091671565139992 0 -0.0046815264938921252 0.047117091218956623 0 -0.0048900621264490332 0.046960906315002007 0 -0.005132326793248921 0.047091671565139992 0 -0.0048657742911829126 0.047314838614872338 0 -0.0046815264938921252 0.047117091218956623 0 -0.0048257123079570516 0.046823523318957602 0 -0.0046815264938921252 0.047117091218956623 0 -0.0048900621264490332 0.046960906315002007 0 -0.0013862827501421187 0.047690136779610634 0 -0.0047437718148407425 0.047633663447654358 0 -0.0020973382436988491 0.046439416962761638 0 -0.0045009041329265448 0.047768611605123391 0 -0.0044247472538047269 0.048732948652705062 0 -0.0045009041329265448 0.047768611605123391 0 -0.0048316500603218758 0.047563853846600251 0 -0.0052502443087796028 0.047924467759322117 0 -0.0045418361570682513 0.047369832461541181 0 -0.0045009041329265448 0.047768611605123391 0 -0.0048316500603218758 0.047563853846600251 0 -0.0045009041329265448 0.047768611605123391 0 -0.0044247472538047269 0.048732948652705062 0 -0.0052502443087796028 0.047924467759322117 0 -0.0037983050758220779 0.048024027736043036 0 -0.0035836496819507623 0.049930675258303275 0 -0.005602050814345237 0.049636041144183872 0 -0.002746471687554276 0.048730409471699945 0 -0.0037983050758220779 0.048024027736043036 0 -0.0035836496819507623 0.049930675258303275 0 -0.0044247472538047269 0.048732948652705062 0 -0.0056545101820740344 0.048525256478788713 0 -0.0056898748518592352 0.049827816701205334 0 -0.0040725703696035658 0.048331918118232869 0 -0.0056550154687767746 0.049751213439615513 0 -0.0056545101820740344 0.048525256478788713 0 -0.0066126749689547617 0.048678258886836433 0 -0.0056898748518592352 0.049827816701205334 0 -0.0044247472538047269 0.048732948652705062 0 -0.0056545101820740344 0.048525256478788713 0 -0.0052502443087796028 0.047924467759322117 0 -0.0051767581234843617 0.047450062180777498 0 -0.0048316500603218758 0.047563853846600251 0 -0.0052502443087796028 0.047924467759322117 0 -0.0060780606810462616 0.047524157729115363 0 -0.0056545101820740344 0.048525256478788713 0 -0.0052502443087796028 0.047924467759322117 0 -0.0060780606810462616 0.047524157729115363 0 -0.0051767581234843617 0.047450062180777498 0 -0.0052502443087796028 0.047924467759322117 0 -0.0060780606810462616 0.047524157729115363 0 -0.0056545101820740344 0.048525256478788713 0 -0.0066126749689547617 0.048678258886836433 0 -0.0060780606810462616 0.047524157729115363 0 -0.0072605670761768191 0.04790510084489235 0 -0.0066126749689547617 0.048678258886836433 0 -0.0072605670761768191 0.04790510084489235 0 -0.0080720284933483624 0.048694287100496912 0 -0.0066126749689547617 0.048678258886836433 0 -0.0081246923573971459 0.047731567898781524 0 -0.0072605670761768191 0.04790510084489235 0 -0.0080720284933483624 0.048694287100496912 0 -0.0080720284933483624 0.048694287100496912 0 -0.0070786801410162616 0.049500441828489707 0 -0.0085977362362287379 0.049621816006331115 0 -0.0080720284933483624 0.048694287100496912 0 -0.0070786801410162616 0.049500441828489707 0 -0.0066126749689547617 0.048678258886836433 0 -0.0070786801410162616 0.049500441828489707 0 -0.0066126749689547617 0.048678258886836433 0 -0.0056898748518592352 0.049827816701205334 0 -0.0070786801410162616 0.049500441828489707 0 -0.0068124261251826584 0.050823344352672897 0 -0.0056898748518592352 0.049827816701205334 0 -0.0067315552082312068 0.050760634983480706 0 -0.0056550154687767746 0.049751213439615513 0 -0.007460247989695714 0.050321114547785158 0 -0.0079592766001603411 0.050733456182884856 0 -0.0085977362362287379 0.049621816006331115 0 -0.0070786801410162616 0.049500441828489707 0 -0.007460247989695714 0.050321114547785158 0 -0.0085977362362287379 0.049621816006331115 0 -0.0070786801410162616 0.049500441828489707 0 -0.007460247989695714 0.050321114547785158 0 -0.0068124261251826584 0.050823344352672897 0 -0.0084995784075857072 0.050613342467606355 0 -0.0094485891134602571 0.049443539710574018 0 -0.0072897449093866865 0.050983905866719643 0 -0.0079592766001603411 0.050733456182884856 0 -0.0073970382401157596 0.051549447950279575 0 -0.007460247989695714 0.050321114547785158 0 -0.0072897449093866865 0.050983905866719643 0 -0.0079592766001603411 0.050733456182884856 0 -0.007460247989695714 0.050321114547785158 0 -0.0072897449093866865 0.050983905866719643 0 -0.0068124261251826584 0.050823344352672897 0 -0.0072897449093866865 0.050983905866719643 0 -0.0068124261251826584 0.050823344352672897 0 -0.0068692150422564715 0.051362636264736167 0 -0.0068124261251826584 0.050823344352672897 0 -0.0050481662840193 0.051262350706766484 0 -0.005602050814345237 0.049636041144183872 0 -0.0068124261251826584 0.050823344352672897 0 -0.0050481662840193 0.051262350706766484 0 -0.0062809974451534384 0.051566733010062725 0 -0.0021194237612003636 0.051348085161076425 0 -0.0050481662840193 0.051262350706766484 0 -0.0035836496819507623 0.049930675258303275 0 -0.0050481662840193 0.051262350706766484 0 -0.0035836496819507623 0.049930675258303275 0 -0.005602050814345237 0.049636041144183872 0 -0.010945224478670891 0.047946205407874178 0 -0.010733556051252275 0.048327698926997856 0 -0.010677102278819862 0.047813200994411019 0 -0.010945224478670891 0.047946205407874178 0 -0.010733556051252275 0.048327698926997856 0 -0.010814118161527733 0.048672905860395792 0 -0.010733556051252275 0.048327698926997856 0 -0.010511843146411499 0.04806593352590692 0 -0.010606622941289445 0.048421956448813502 0 -0.010511843146411499 0.04806593352590692 0 -0.010606622941289445 0.048421956448813502 0 -0.01033674794782829 0.048245442286915942 0 -0.010511843146411499 0.04806593352590692 0 -0.01033674794782829 0.048245442286915942 0 -0.010201373600032468 0.047816266810259814 0 -0.010511843146411499 0.04806593352590692 0 -0.010419571038202367 0.04765973546425481 0 -0.010201373600032468 0.047816266810259814 0 -0.010511843146411499 0.04806593352590692 0 -0.010677102278819862 0.047813200994411019 0 -0.010419571038202367 0.04765973546425481 0 -0.010733556051252275 0.048327698926997856 0 -0.010511843146411499 0.04806593352590692 0 -0.010677102278819862 0.047813200994411019 0 -0.010677102278819862 0.047813200994411019 0 -0.010550467117980045 0.047357380294602833 0 -0.010419571038202367 0.04765973546425481 0 -0.010677102278819862 0.047813200994411019 0 -0.010550467117980045 0.047357380294602833 0 -0.010923806371222309 0.047388159192940378 0 -0.010550467117980045 0.047357380294602833 0 -0.010419571038202367 0.04765973546425481 0 -0.010174551830542569 0.04729976623707579 0 -0.010419571038202367 0.04765973546425481 0 -0.010201373600032468 0.047816266810259814 0 -0.010174551830542569 0.04729976623707579 0 -0.010550467117980045 0.047357380294602833 0 -0.01035797586097612 0.046921796177508454 0 -0.010174551830542569 0.04729976623707579 0 -0.01035797586097612 0.046921796177508454 0 -0.010174551830542569 0.04729976623707579 0 -0.010061308527029173 0.046832683055078414 0 -0.010550467117980045 0.047357380294602833 0 -0.01035797586097612 0.046921796177508454 0 -0.010730587934091922 0.047024506435446929 0 -0.010730587934091922 0.047024506435446929 0 -0.010923806371222309 0.047388159192940378 0 -0.011250979802092618 0.046725382599013578 0 -0.010550467117980045 0.047357380294602833 0 -0.010730587934091922 0.047024506435446929 0 -0.010923806371222309 0.047388159192940378 0 -0.010945224478670891 0.047946205407874178 0 -0.010677102278819862 0.047813200994411019 0 -0.010923806371222309 0.047388159192940378 0 -0.010945224478670891 0.047946205407874178 0 -0.010923806371222309 0.047388159192940378 0 -0.011418263284652039 0.047338752981936065 0 -0.010923806371222309 0.047388159192940378 0 -0.011418263284652039 0.047338752981936065 0 -0.011250979802092618 0.046725382599013578 0 -0.012201304575055961 0.047584143945748232 0 -0.012361542652003262 0.046522398481026815 0 -0.011789096260192939 0.046883409071038225 0 -0.011418263284652039 0.047338752981936065 0 -0.011789096260192939 0.046883409071038225 0 -0.011250979802092618 0.046725382599013578 0 -0.010945224478670891 0.047946205407874178 0 -0.011418263284652039 0.047338752981936065 0 -0.012201304575055961 0.047584143945748232 0 -0.011418263284652039 0.047338752981936065 0 -0.012201304575055961 0.047584143945748232 0 -0.011789096260192939 0.046883409071038225 0 -0.0098319357559195006 0.049796390475644346 0 -0.009300268274889412 0.049839290181919252 0 -0.0090994820145903661 0.050638639430417159 0 -0.01134769704557979 0.048407625940683499 0 -0.0094485891134602571 0.049443539710574018 0 -0.0098319357559195006 0.049796390475644346 0 -0.010004428470847294 0.048556810155374636 0 -0.0094749710413009249 0.048927207214454087 0 -0.0084995784075857072 0.050613342467606355 0 -0.0090643109549333814 0.049142351005034349 0 -0.0098319357559195006 0.049796390475644346 0 -0.009300268274889412 0.049839290181919252 0 -0.0094749710413009249 0.048927207214454087 0 -0.01134769704557979 0.048407625940683499 0 -0.010725048026761674 0.04879373534536588 0 -0.010945224478670891 0.047946205407874178 0 -0.012201304575055961 0.047584143945748232 0 -0.010814118161527733 0.048672905860395792 0 -0.0098319357559195006 0.049796390475644346 0 -0.010004428470847294 0.048556810155374636 0 -0.010814118161527733 0.048672905860395792 0 -0.010004428470847294 0.048556810155374636 0 -0.010790829815831094 0.048142216800863794 0 -0.010814118161527733 0.048672905860395792 0 -0.010004428470847294 0.048556810155374636 0 -0.0094749710413009249 0.048927207214454087 0 -0.0094156569624717443 0.04809892379112532 0 -0.0080720284933483624 0.048694287100496912 0 -0.0085977362362287379 0.049621816006331115 0 -0.0094156569624717443 0.04809892379112532 0 -0.0090643109549333814 0.049142351005034349 0 -0.0093717950967426734 0.048181971696538588 0 -0.0081246923573971459 0.047731567898781524 0 -0.0080720284933483624 0.048694287100496912 0 -0.0094156569624717443 0.04809892379112532 0 -0.0081246923573971459 0.047731567898781524 0 -0.0094156569624717443 0.04809892379112532 0 -0.0091429495892328162 0.047216308022130234 0 -0.010004428470847294 0.048556810155374636 0 -0.0094156569624717443 0.04809892379112532 0 -0.010790829815831094 0.048142216800863794 0 -0.0094156569624717443 0.04809892379112532 0 -0.010790829815831094 0.048142216800863794 0 -0.0091429495892328162 0.047216308022130234 0 -0.0099397620325021967 0.048697372185168793 0 -0.0081548337350681923 0.048007436247190817 0 -0.010733556051252275 0.048327698926997856 0 -0.010814118161527733 0.048672905860395792 0 -0.010746069403798603 0.048534512412559495 0 -0.010790829815831094 0.048142216800863794 0 -0.010814118161527733 0.048672905860395792 0 -0.010746069403798603 0.048534512412559495 0 -0.010733556051252275 0.048327698926997856 0 -0.010606622941289445 0.048421956448813502 0 -0.010746069403798603 0.048534512412559495 0 -0.010746069403798603 0.048534512412559495 0 -0.01056058879660283 0.048637951997077822 0 -0.010524707605074604 0.048962082791184879 0 -0.01044425297548272 0.048529877390594486 0 -0.010606622941289445 0.048421956448813502 0 -0.01056058879660283 0.048637951997077822 0 -0.01044425297548272 0.048529877390594486 0 -0.010606622941289445 0.048421956448813502 0 -0.01033674794782829 0.048245442286915942 0 -0.010606622941289445 0.048421956448813502 0 -0.010746069403798603 0.048534512412559495 0 -0.01056058879660283 0.048637951997077822 0 -0.01044425297548272 0.048529877390594486 0 -0.01056058879660283 0.048637951997077822 0 -0.010419377885763343 0.048743350271895837 0 -0.010790829815831094 0.048142216800863794 0 -0.010746069403798603 0.048534512412559495 0 -0.010524707605074604 0.048962082791184879 0 -0.0099397620325021967 0.048697372185168793 0 -0.010445198209086664 0.048927122155986193 0 -0.0092356220471180289 0.049307007641778394 0 -0.010520860944917101 0.048829167824992629 0 -0.010524707605074604 0.048962082791184879 0 -0.010520860944917101 0.048829167824992629 0 -0.010228559244668485 0.04851944955883964 0 -0.011579440364901225 0.048063104583154208 0 -0.0092356220471180289 0.049307007641778394 0 -0.010520860944917101 0.048829167824992629 0 -0.010228559244668485 0.04851944955883964 0 -0.0092356220471180289 0.049307007641778394 0 -0.0092412676035511093 0.048164799505545725 0 -0.0083328927289149732 0.048374621300235753 0 -0.0092356220471180289 0.049307007641778394 0 -0.010228559244668485 0.04851944955883964 0 -0.0092412676035511093 0.048164799505545725 0 -0.0092412676035511093 0.048164799505545725 0 -0.0083183543322631302 0.047486450568118906 0 -0.010129953057284251 0.047028477802183687 0 -0.010228559244668485 0.04851944955883964 0 -0.010129953057284251 0.047028477802183687 0 -0.011579440364901225 0.048063104583154208 0 -0.010228559244668485 0.04851944955883964 0 -0.0092412676035511093 0.048164799505545725 0 -0.010129953057284251 0.047028477802183687 0 -0.0066068941277828705 0.047861089639136191 0 -0.007150187935426316 0.048786912416391569 0 -0.0074977895685319198 0.048072031880908778 0 -0.007150187935426316 0.048786912416391569 0 -0.0074977895685319198 0.048072031880908778 0 -0.0083328927289149732 0.048374621300235753 0 -0.0092356220471180289 0.049307007641778394 0 -0.007150187935426316 0.048786912416391569 0 -0.0083328927289149732 0.048374621300235753 0 -0.0092412676035511093 0.048164799505545725 0 -0.0083328927289149732 0.048374621300235753 0 -0.0083183543322631302 0.047486450568118906 0 -0.0074977895685319198 0.048072031880908778 0 -0.0083328927289149732 0.048374621300235753 0 -0.0083183543322631302 0.047486450568118906 0 -0.0074977895685319198 0.048072031880908778 0 -0.0083183543322631302 0.047486450568118906 0 -0.0070169100869136363 0.047395033272897756 0 -0.0083183543322631302 0.047486450568118906 0 -0.0070169100869136363 0.047395033272897756 0 -0.0074007983692455257 0.04676694038325753 0 -0.0059911778414114764 0.047250387721293752 0 -0.0070169100869136363 0.047395033272897756 0 -0.0067137275354011584 0.046650486303440368 0 -0.0066068941277828705 0.047861089639136191 0 -0.0074977895685319198 0.048072031880908778 0 -0.0070169100869136363 0.047395033272897756 0 -0.0061117527622560836 0.046624984223895952 0 -0.0067137275354011584 0.046650486303440368 0 -0.0068209132864664509 0.045954337596043518 0 -0.0054797712855233971 0.046796075969035268 0 -0.0067462492865929743 0.046025388281010944 0 -0.0070169100869136363 0.047395033272897756 0 -0.0067137275354011584 0.046650486303440368 0 -0.0074007983692455257 0.04676694038325753 0 -0.0067137275354011584 0.046650486303440368 0 -0.0074007983692455257 0.04676694038325753 0 -0.0068209132864664509 0.045954337596043518 0 -0.0083183543322631302 0.047486450568118906 0 -0.0074007983692455257 0.04676694038325753 0 -0.008238993902228502 0.046274097583387373 0 -0.0074007983692455257 0.04676694038325753 0 -0.008238993902228502 0.046274097583387373 0 -0.0068209132864664509 0.045954337596043518 0 -0.008238993902228502 0.046274097583387373 0 -0.0068209132864664509 0.045954337596043518 0 -0.006929855968629159 0.044999935440856294 0 -0.008238993902228502 0.046274097583387373 0 -0.006929855968629159 0.044999935440856294 0 -0.0095948861719673973 0.044999836758436267 0 -0.0056159653438307673 0.045728865453818282 0 -0.00480247763774359 0.047028624791045213 0 -0.0068209132864664509 0.045954337596043518 0 -0.0056159653438307673 0.045728865453818282 0 -0.0068209132864664509 0.045954337596043518 0 -0.006929855968629159 0.044999935440856294 0 -0.0083183543322631302 0.047486450568118906 0 -0.008238993902228502 0.046274097583387373 0 -0.010129953057284251 0.047028477802183687 0 -0.008238993902228502 0.046274097583387373 0 -0.010129953057284251 0.047028477802183687 0 -0.0095948861719673973 0.044999836758436267 0 -0.010129953057284251 0.047028477802183687 0 -0.0095948861719673973 0.044999836758436267 0 -0.012260516557425724 0.044999823188112416 0 -0.010129953057284251 0.047028477802183687 0 -0.013006388708711816 0.046559503598230995 0 -0.011579440364901225 0.048063104583154208 0 -0.010129953057284251 0.047028477802183687 0 -0.012260516557425724 0.044999823188112416 0 -0.013006388708711816 0.046559503598230995 0 -0.012260516557425724 0.044999823188112416 0 -0.013006388708711816 0.046559503598230995 0 -0.014926444266936846 0.044999806335390864 0 -0.015244419943909652 0.046460669048503787 0 -0.016528277363829447 0.04772384157215806 0 -0.017592297670360395 0.044999893664627054 0 -0.013006388708711816 0.046559503598230995 0 -0.014926444266936846 0.044999806335390864 0 -0.015244419943909652 0.046460669048503787 0 -0.014926444266936846 0.044999806335390864 0 -0.015244419943909652 0.046460669048503787 0 -0.017592297670360395 0.044999893664627054 0 -0.015244419943909652 0.046460669048503787 0 -0.014110374563347884 0.047818845511819169 0 -0.016528277363829447 0.04772384157215806 0 -0.013006388708711816 0.046559503598230995 0 -0.015244419943909652 0.046460669048503787 0 -0.014110374563347884 0.047818845511819169 0 -0.014110374563347884 0.047818845511819169 0 -0.016528277363829447 0.04772384157215806 0 -0.015053145030527699 0.048864286145984696 0 -0.014110374563347884 0.047818845511819169 0 -0.015053145030527699 0.048864286145984696 0 -0.013416480302659805 0.049212236749226541 0 -0.016528277363829447 0.04772384157215806 0 -0.016318358346472082 0.049431956671937963 0 -0.015053145030527699 0.048864286145984696 0 -0.016318358346472082 0.049431956671937963 0 -0.014509397043278995 0.050038347502933345 0 -0.01563416630219501 0.05108821749219928 0 -0.015053145030527699 0.048864286145984696 0 -0.014509397043278995 0.050038347502933345 0 -0.013416480302659805 0.049212236749226541 0 -0.016318358346472082 0.049431956671937963 0 -0.015053145030527699 0.048864286145984696 0 -0.014509397043278995 0.050038347502933345 0 -0.014509397043278995 0.050038347502933345 0 -0.013416480302659805 0.049212236749226541 0 -0.013511927350515174 0.050568397122930472 0 -0.013416480302659805 0.049212236749226541 0 -0.012449052643854078 0.050280143156286088 0 -0.013511927350515174 0.050568397122930472 0 -0.010520860944917101 0.048829167824992629 0 -0.011579440364901225 0.048063104583154208 0 -0.010733508301366013 0.04887722928882314 0 -0.013416480302659805 0.049212236749226541 0 -0.011579440364901225 0.048063104583154208 0 -0.012449052643854078 0.050280143156286088 0 -0.011534727547096528 0.048026705427554238 0 -0.011525100663350619 0.049661336825224153 0 -0.013006388708711816 0.046559503598230995 0 -0.014110374563347884 0.047818845511819169 0 -0.011579440364901225 0.048063104583154208 0 -0.014110374563347884 0.047818845511819169 0 -0.013416480302659805 0.049212236749226541 0 -0.011579440364901225 0.048063104583154208 0 -0.021319267077297199 0.04677840261145795 0 -0.018500100258238835 0.046833353336155369 0 -0.019740505546934826 0.04850254216965471 0 -0.021319267077297199 0.04677840261145795 0 -0.020258055283158629 0.044999907347652829 0 -0.018500100258238835 0.046833353336155369 0 -0.024990800991539899 0.044132474035437852 0 -0.024975759943641106 0.043417630219363582 0 -0.024179968010285924 0.044299111615006596 0 -0.024990800991539899 0.044132474035437852 0 -0.022928090246512451 0.044999422176166891 0 -0.024179968010285924 0.044299111615006596 0 -0.023120665662011666 0.045400397142050311 0 -0.022924217626882633 0.044999960602919192 0 -0.021319267077297199 0.04677840261145795 0 -0.020258055283158629 0.044999907347652829 0 -0.022923837571581861 0.044999990184926522 0 -0.016528277363829447 0.04772384157215806 0 -0.018500100258238835 0.046833353336155369 0 -0.017592297670360395 0.044999893664627054 0 -0.020258055283158629 0.044999907347652829 0 -0.018500100258238835 0.046833353336155369 0 -0.017592297670360395 0.044999893664627054 0 -0.016528277363829447 0.04772384157215806 0 -0.018500100258238835 0.046833353336155369 0 -0.017822867745537704 0.048667662111048046 0 -0.016528277363829447 0.04772384157215806 0 -0.016318358346472082 0.049431956671937963 0 -0.017822867745537704 0.048667662111048046 0 -0.016318358346472082 0.049431956671937963 0 -0.017822867745537704 0.048667662111048046 0 -0.018210865265522552 0.05023747522099542 0 -0.017822867745537704 0.048667662111048046 0 -0.019740505546934826 0.04850254216965471 0 -0.018210865265522552 0.05023747522099542 0 -0.022409891806064206 0.04596018548608595 0 -0.021504207861653007 0.046961570470954006 0 -0.024977386057305116 0.043496857772303651 0 -0.025113536120466268 0.04336496738687174 0 -0.024646319440838713 0.04355395292861642 0 -0.018500100258238835 0.046833353336155369 0 -0.017822867745537704 0.048667662111048046 0 -0.019740505546934826 0.04850254216965471 0 -0.023120665662011666 0.045400397142050311 0 -0.022409891806064206 0.04596018548608595 0 -0.024990800991539899 0.044132474035437852 0 -0.025113536120466268 0.04336496738687174 0 -0.024975759943641106 0.043417630219363582 0 -0.025113536120466268 0.04336496738687174 0 -0.025071190105158115 0.04337074018733935 0 -0.024975759943641106 0.043417630219363582 0 -0.024977386057305116 0.043496857772303651 0 -0.025113536120466268 0.04336496738687174 0 -0.025071190105158115 0.04337074018733935 0 -0.026123991935012053 0.042386408519437813 0 -0.024917914194176195 0.043027763116024909 0 -0.025071190105158115 0.04337074018733935 0 -0.024975759943641106 0.043417630219363582 0 -0.024817084231598188 0.043040113543923245 0 -0.027119838003669849 0.03870160393017115 0 -0.027386502644868149 0.039811708296408836 0 -0.025706102545285145 0.040079032426443527 0 -0.027411096136603325 0.04136031147977514 0 -0.027386502644868149 0.039811708296408836 0 -0.025706102545285145 0.040079032426443527 0 -0.026123991935012053 0.042386408519437813 0 -0.027310279452037897 0.041942307977956388 0 -0.027411096136603325 0.04136031147977514 0 -0.028056079705743357 0.040015406974467205 0 -0.029118997266441356 0.039991283258197105 0 -0.024977386057305116 0.043496857772303651 0 -0.025071190105158115 0.04337074018733935 0 -0.024934775004486383 0.043785124987938566 0 -0.027411096136603325 0.04136031147977514 0 -0.027386502644868149 0.039811708296408836 0 -0.028056079705743357 0.040015406974467205 0 -0.028056079705743357 0.040015406974467205 0 -0.028292079587050007 0.038967991365595159 0 -0.029118997266441356 0.039991283258197105 0 -0.027119838003669849 0.03870160393017115 0 -0.028292079587050007 0.038967991365595159 0 -0.027855610233282115 0.037944745609828974 0 -0.027119838003669849 0.03870160393017115 0 -0.027386502644868149 0.039811708296408836 0 -0.028292079587050007 0.038967991365595159 0 -0.027386502644868149 0.039811708296408836 0 -0.028056079705743357 0.040015406974467205 0 -0.028292079587050007 0.038967991365595159 0 -0.029350694940678063 0.038717444030116517 0 -0.029118997266441356 0.039991283258197105 0 -0.030748511198795663 0.03887025930244626 0 -0.028292079587050007 0.038967991365595159 0 -0.029350694940678063 0.038717444030116517 0 -0.029118997266441356 0.039991283258197105 0 -0.028292079587050007 0.038967991365595159 0 -0.029350694940678063 0.038717444030116517 0 -0.028676139945016676 0.038067783946752975 0 -0.024977386057305116 0.043496857772303651 0 -0.024934775004486383 0.043785124987938566 0 -0.024646319440838713 0.04355395292861642 0 -0.021504207861653007 0.046961570470954006 0 -0.019793819061531853 0.047668045938771546 0 -0.024934775004486383 0.043785124987938566 0 -0.024646319440838713 0.04355395292861642 0 -0.024204846213218632 0.044324912982403097 0 -0.018210865265522552 0.05023747522099542 0 -0.01563416630219501 0.05108821749219928 0 -0.016673427684132359 0.052048569998541738 0 -0.027310279452037897 0.041942307977956388 0 -0.025820998752982736 0.040862404177717145 0 -0.024646319440838713 0.04355395292861642 0 -0.024204846213218632 0.044324912982403097 0 -0.02405893552815877 0.044205449035899513 0 -0.025820998752982736 0.040862404177717145 0 -0.019793819061531853 0.047668045938771546 0 -0.027255199676710053 0.035118137391570846 0 -0.027283850043059395 0.035538901865438996 0 -0.027787433412946563 0.03553663572273013 0 -0.029350694940678063 0.038717444030116517 0 -0.030748511198795663 0.03887025930244626 0 -0.029430455752149198 0.037478018786941868 0 -0.025820998752982736 0.040862404177717145 0 -0.028940736822967678 0.036029335356294857 0 -0.027283850043059395 0.035538901865438996 0 -0.027362034880888276 0.035857307422016024 0 -0.027787433412946563 0.03553663572273013 0 -0.027866871989624457 0.035848210260267042 0 -0.027787433412946563 0.03553663572273013 0 -0.028048043930233066 0.035915758724555671 0 -0.027362034880888276 0.035857307422016024 0 -0.027866871989624457 0.035848210260267042 0 -0.027787433412946563 0.03553663572273013 0 -0.028940736822967678 0.036029335356294857 0 -0.02798232515020432 0.036092839975093403 0 -0.029430455752149198 0.037478018786941868 0 -0.028676139945016676 0.038067783946752975 0 -0.028227992444400978 0.037051024987953235 0 -0.029350694940678063 0.038717444030116517 0 -0.029430455752149198 0.037478018786941868 0 -0.028676139945016676 0.038067783946752975 0 -0.028292079587050007 0.038967991365595159 0 -0.028676139945016676 0.038067783946752975 0 -0.027855610233282115 0.037944745609828974 0 -0.027855610233282115 0.037944745609828974 0 -0.028227992444400978 0.037051024987953235 0 -0.027308755338944654 0.037019788240614512 0 -0.028676139945016676 0.038067783946752975 0 -0.027855610233282115 0.037944745609828974 0 -0.028227992444400978 0.037051024987953235 0 -0.029430455752149198 0.037478018786941868 0 -0.028227992444400978 0.037051024987953235 0 -0.028046159303347955 0.036172961596131238 0 -0.028227992444400978 0.037051024987953235 0 -0.027952303393761358 0.036411206385667423 0 -0.028046159303347955 0.036172961596131238 0 -0.028227992444400978 0.037051024987953235 0 -0.027952303393761358 0.036411206385667423 0 -0.027308755338944654 0.037019788240614512 0 -0.027952303393761358 0.036411206385667423 0 -0.027308755338944654 0.037019788240614512 0 -0.026155108341938595 0.035928481428246395 0 -0.027308755338944654 0.037019788240614512 0 -0.026516724348489822 0.037077551155374665 0 -0.026155108341938595 0.035928481428246395 0 -0.027308755338944654 0.037019788240614512 0 -0.026516724348489822 0.037077551155374665 0 -0.027003309634260259 0.037758242778523868 0 -0.026516724348489822 0.037077551155374665 0 -0.027003309634260259 0.037758242778523868 0 -0.025875064372361697 0.03796753225940791 0 -0.027119838003669849 0.03870160393017115 0 -0.027003309634260259 0.037758242778523868 0 -0.025875064372361697 0.03796753225940791 0 -0.027855610233282115 0.037944745609828974 0 -0.027308755338944654 0.037019788240614512 0 -0.027003309634260259 0.037758242778523868 0 -0.027119838003669849 0.03870160393017115 0 -0.027855610233282115 0.037944745609828974 0 -0.027003309634260259 0.037758242778523868 0 -0.013046544629954143 0.051893488519275277 0 -0.01419186585814731 0.051151603047871051 0 -0.014289253145422053 0.052016873812313007 0 -0.013046544629954143 0.051893488519275277 0 -0.013511927350515174 0.050568397122930472 0 -0.01419186585814731 0.051151603047871051 0 -0.0097169138322309757 0.048527007569409683 0 -0.010200303753584881 0.048514436980273412 0 -0.0099381882409677776 0.048049979846886609 0 -0.0097169138322309757 0.048527007569409683 0 -0.010200303753584881 0.048514436980273412 0 -0.010356757894791952 0.048884864832398567 0 -0.01044425297548272 0.048529877390594486 0 -0.010200303753584881 0.048514436980273412 0 -0.010419377885763343 0.048743350271895837 0 -0.01044425297548272 0.048529877390594486 0 -0.010200303753584881 0.048514436980273412 0 -0.01033674794782829 0.048245442286915942 0 -0.010419377885763343 0.048743350271895837 0 -0.010356757894791952 0.048884864832398567 0 -0.010524707605074604 0.048962082791184879 0 -0.010200303753584881 0.048514436980273412 0 -0.010419377885763343 0.048743350271895837 0 -0.010356757894791952 0.048884864832398567 0 -0.01056058879660283 0.048637951997077822 0 -0.010419377885763343 0.048743350271895837 0 -0.010524707605074604 0.048962082791184879 0 -0.012444667289794396 0.049481475490448082 0 -0.010254514862960083 0.048318939232996592 0 -0.010242023897309546 0.048903181491669015 0 -0.010356757894791952 0.048884864832398567 0 -0.010733508301366013 0.04887722928882314 0 -0.010356757894791952 0.048884864832398567 0 -0.010524707605074604 0.048962082791184879 0 -0.010733508301366013 0.04887722928882314 0 -0.012444667289794396 0.049481475490448082 0 -0.011525100663350619 0.049661336825224153 0 -0.010520860944917101 0.048829167824992629 0 -0.010524707605074604 0.048962082791184879 0 -0.010733508301366013 0.04887722928882314 0 -0.013046544629954143 0.051893488519275277 0 -0.012449052643854078 0.050280143156286088 0 -0.013511927350515174 0.050568397122930472 0 -0.014509397043278995 0.050038347502933345 0 -0.01419186585814731 0.051151603047871051 0 -0.015204252488690752 0.050761766482452175 0 -0.014509397043278995 0.050038347502933345 0 -0.013511927350515174 0.050568397122930472 0 -0.01419186585814731 0.051151603047871051 0 -0.014619989907202724 0.05012861830636612 0 -0.015551456362774437 0.050848862037383806 0 -0.016318358346472082 0.049431956671937963 0 -0.018210865265522552 0.05023747522099542 0 -0.01563416630219501 0.05108821749219928 0 -0.02188730122794454 0.04355224038653964 0 -0.021650491088350775 0.043327415560111153 0 -0.020978058241578921 0.044111959490614409 0 -0.025820998752982736 0.040862404177717145 0 -0.020873091896439312 0.043418884091175086 0 -0.015551456362774437 0.050848862037383806 0 -0.019793819061531853 0.047668045938771546 0 -0.015204252488690752 0.050761766482452175 0 -0.015967164433904151 0.051468848028471875 0 -0.014964864000706448 0.051564375534507371 0 -0.015967164433904151 0.051468848028471875 0 -0.014964864000706448 0.051564375534507371 0 -0.015165290775836943 0.05241274888546138 0 -0.019793819061531853 0.047668045938771546 0 -0.020873091896439312 0.043418884091175086 0 -0.01419186585814731 0.051151603047871051 0 -0.014964864000706448 0.051564375534507371 0 -0.014289253145422053 0.052016873812313007 0 -0.01419186585814731 0.051151603047871051 0 -0.015204252488690752 0.050761766482452175 0 -0.014964864000706448 0.051564375534507371 0 -0.014964864000706448 0.051564375534507371 0 -0.014289253145422053 0.052016873812313007 0 -0.015165290775836943 0.05241274888546138 0 -0.026812856846007437 0.035379472471190394 0 -0.026964906993777054 0.035698993652307803 0 -0.02650797848948655 0.035716325451858016 0 -0.014289253145422053 0.052016873812313007 0 -0.014183683685637601 0.05301877210896265 0 -0.015165290775836943 0.05241274888546138 0 -0.01881591612522239 0.04332317210466937 0 -0.0206793563952864 0.042151602410574439 0 -0.019263691170888466 0.043835993588044436 0 -0.020873091896439312 0.043418884091175086 0 -0.019516971846431721 0.039964670634633624 0 -0.016008875784061391 0.046006909985927977 0 -0.020873091896439312 0.043418884091175086 0 -0.016008875784061391 0.046006909985927977 0 -0.015445244052997825 0.046099287288124631 0 -0.027283850043059395 0.035538901865438996 0 -0.026812856846007437 0.035379472471190394 0 -0.026964906993777054 0.035698993652307803 0 -0.027255199676710053 0.035118137391570846 0 -0.027283850043059395 0.035538901865438996 0 -0.026812856846007437 0.035379472471190394 0 -0.027362034880888276 0.035857307422016024 0 -0.026964906993777054 0.035698993652307803 0 -0.026844412908481542 0.03599619585370583 0 -0.027283850043059395 0.035538901865438996 0 -0.027362034880888276 0.035857307422016024 0 -0.026964906993777054 0.035698993652307803 0 -0.018598362496175837 0.037650758991506987 0 -0.017858961939858094 0.038516898143364786 0 -0.018585402536342124 0.038716690828422669 0 -0.026964906993777054 0.035698993652307803 0 -0.02650797848948655 0.035716325451858016 0 -0.026844412908481542 0.03599619585370583 0 -0.018598362496175837 0.037650758991506987 0 -0.018585402536342124 0.038716690828422669 0 -0.019284591161786976 0.038401709539330579 0 -0.013696101403508765 0.045310151756592497 0 -0.013323951838848618 0.044869063928159043 0 -0.014013497342167582 0.045109949361791829 0 -0.016008875784061391 0.046006909985927977 0 -0.019516971846431721 0.039964670634633624 0 -0.019516971846431721 0.039964670634633624 0 -0.023279362443647193 0.037433763004564476 0 -0.019516971846431721 0.039964670634633624 0 -0.013025568319094549 0.0437464784987854 0 -0.013323951838848618 0.044869063928159043 0 -0.014013497342167582 0.045109949361791829 0 -0.014594538231239575 0.043296351170265375 0 -0.012123104475070701 0.046424154334563185 0 -0.013025568319094549 0.0437464784987854 0 -0.014013497342167582 0.045109949361791829 0 -0.014997777511550049 0.045323704573980279 0 -0.014594538231239575 0.043296351170265375 0 -0.0095004813436666662 0.047135568469768872 0 -0.0093428808128907265 0.047693264360179469 0 -0.0090571179580352257 0.046794809048748269 0 -0.0095004813436666662 0.047135568469768872 0 -0.0094944718436264959 0.046711218256643809 0 -0.0090571179580352257 0.046794809048748269 0 -0.0095004813436666662 0.047135568469768872 0 -0.0093428808128907265 0.047693264360179469 0 -0.0098157608713930148 0.047484900601514141 0 -0.013046544629954143 0.051893488519275277 0 -0.014289253145422053 0.052016873812313007 0 -0.014183683685637601 0.05301877210896265 0 -0.012444667289794396 0.049481475490448082 0 -0.016008875784061391 0.046006909985927977 0 -0.01536705350468886 0.047407079699337357 0 -0.01367802519808916 0.045326609312174831 0 -0.014997777511550049 0.045323704573980279 0 -0.01367802519808916 0.045326609312174831 0 -0.014013497342167582 0.045109949361791829 0 -0.014997777511550049 0.045323704573980279 0 -0.012444667289794396 0.049481475490448082 0 -0.012123104475070701 0.046424154334563185 0 -0.0097169138322309757 0.048527007569409683 0 -0.0093428808128907265 0.047693264360179469 0 -0.0099381882409677776 0.048049979846886609 0 -0.010200303753584881 0.048514436980273412 0 -0.01033674794782829 0.048245442286915942 0 -0.0099381882409677776 0.048049979846886609 0 -0.01033674794782829 0.048245442286915942 0 -0.0099381882409677776 0.048049979846886609 0 -0.010201373600032468 0.047816266810259814 0 -0.0093428808128907265 0.047693264360179469 0 -0.0099381882409677776 0.048049979846886609 0 -0.0098157608713930148 0.047484900601514141 0 -0.0099381882409677776 0.048049979846886609 0 -0.010201373600032468 0.047816266810259814 0 -0.0098157608713930148 0.047484900601514141 0 -0.010201373600032468 0.047816266810259814 0 -0.010174551830542569 0.04729976623707579 0 -0.0098157608713930148 0.047484900601514141 0 -0.0095004813436666662 0.047135568469768872 0 -0.0097936751346616238 0.046985039862119167 0 -0.0094944718436264959 0.046711218256643809 0 -0.0095004813436666662 0.047135568469768872 0 -0.0098157608713930148 0.047484900601514141 0 -0.0097936751346616238 0.046985039862119167 0 -0.010174551830542569 0.04729976623707579 0 -0.0098157608713930148 0.047484900601514141 0 -0.0097936751346616238 0.046985039862119167 0 -0.010174551830542569 0.04729976623707579 0 -0.0097936751346616238 0.046985039862119167 0 -0.010061308527029173 0.046832683055078414 0 -0.010061308527029173 0.046832683055078414 0 -0.0097872924831450686 0.046516651594404414 0 -0.010191351904710199 0.046419779731969181 0 -0.0097936751346616238 0.046985039862119167 0 -0.010061308527029173 0.046832683055078414 0 -0.0097872924831450686 0.046516651594404414 0 -0.0097936751346616238 0.046985039862119167 0 -0.0097872924831450686 0.046516651594404414 0 -0.0094944718436264959 0.046711218256643809 0 -0.0097872924831450686 0.046516651594404414 0 -0.009432906230769025 0.04620222689226347 0 -0.0099402293512401273 0.046082355680654323 0 -0.0097872924831450686 0.046516651594404414 0 -0.0094944718436264959 0.046711218256643809 0 -0.009432906230769025 0.04620222689226347 0 -0.0097872924831450686 0.046516651594404414 0 -0.0099402293512401273 0.046082355680654323 0 -0.010191351904710199 0.046419779731969181 0 -0.0099402293512401273 0.046082355680654323 0 -0.0099338575634780064 0.045470318725935835 0 -0.010390795347557347 0.045914721617248348 0 -0.0099338575634780064 0.045470318725935835 0 -0.0097117667306688815 0.045197946761195998 0 -0.010651632739073135 0.045098335815484919 0 -0.0094571088249843002 0.046052562079423681 0 -0.010003800060495508 0.045349312970120494 0 -0.0099750586120934178 0.045058258006547752 0 -0.0099474065526682105 0.045306924656563802 0 -0.0099338575634780064 0.045470318725935835 0 -0.009432906230769025 0.04620222689226347 0 -0.0099402293512401273 0.046082355680654323 0 -0.0099338575634780064 0.045470318725935835 0 -0.0099750586120934178 0.045058258006547752 0 -0.0099474065526682105 0.045306924656563802 0 -0.010131649595093732 0.045324343998537332 0 -0.0099516502514204967 0.043788386124707895 0 -0.010525979803324552 0.042980800752289272 0 -0.0099474065526682105 0.045306924656563802 0 -0.0099338575634780064 0.045470318725935835 0 -0.0097117667306688815 0.045197946761195998 0 -0.0099474065526682105 0.045306924656563802 0 -0.0098796441579337077 0.04528793378986911 0 -0.0097117667306688815 0.045197946761195998 0 -0.010342437670438331 0.035364183946812233 0 -0.010909410008607809 0.035226003690785851 0 -0.010712623742160079 0.03556942613655701 0 -0.010342437670438331 0.035364183946812233 0 -0.010394348654685515 0.034914332980522045 0 -0.010909410008607809 0.035226003690785851 0 -0.013999159269941858 0.029836156384688017 0 -0.014316035172625278 0.029256525356453365 0 -0.013513504576013085 0.029878672252205467 0 -0.012672191349383174 0.025600201038802211 0 -0.014079443270404073 0.025459114384612402 0 -0.013999159269941858 0.029836156384688017 0 -0.014720931329840441 0.026668400228726609 0 -0.013999159269941858 0.029836156384688017 0 -0.011019790197992483 0.02738317725937698 0 -0.014720931329840441 0.026668400228726609 0 -0.011019790197992483 0.02738317725937698 0 -0.010394348654685515 0.034914332980522045 0 -0.010909410008607809 0.035226003690785851 0 -0.011351957197864805 0.034834372335477627 0 -0.010525979803324552 0.042980800752289272 0 -0.0089237569962411882 0.029748664196209706 0 -0.010909410008607809 0.035226003690785851 0 -0.011148410051561586 0.035800514101694776 0 -0.011351957197864805 0.034834372335477627 0 -0.010909410008607809 0.035226003690785851 0 -0.011148410051561586 0.035800514101694776 0 -0.010712623742160079 0.03556942613655701 0 -0.010221323342079007 0.045281794825291752 0 -0.01072412020915969 0.045214964473068948 0 -0.010427296024439391 0.045038709492381465 0 -0.011148410051561586 0.035800514101694776 0 -0.010712623742160079 0.03556942613655701 0 -0.010449736801264793 0.035884855096809068 0 -0.010525979803324552 0.042980800752289272 0 -0.015037071591642996 0.037315247723653897 0 -0.018579246780433663 0.027365576330308772 0 -0.018578223895568589 0.027398782018914457 0 -0.018594766609180299 0.027472308074627444 0 -0.013999159269941858 0.029836156384688017 0 -0.015037071591642996 0.037315247723653897 0 -0.010342437670438331 0.035364183946812233 0 -0.010712623742160079 0.03556942613655701 0 -0.010449736801264793 0.035884855096809068 0 -0.015037071591642996 0.037315247723653897 0 -0.013025568319094549 0.0437464784987854 0 -0.018043459288681452 0.039464935251980061 0 -0.017858961939858094 0.038516898143364786 0 -0.018585402536342124 0.038716690828422669 0 -0.01072412020915969 0.045214964473068948 0 -0.010427296024439391 0.045038709492381465 0 -0.01057457004994905 0.04435863899723002 0 -0.010221323342079007 0.045281794825291752 0 -0.010427296024439391 0.045038709492381465 0 -0.010328292368509625 0.044722028616533543 0 -0.010427296024439391 0.045038709492381465 0 -0.010328292368509625 0.044722028616533543 0 -0.01057457004994905 0.04435863899723002 0 -0.010525979803324552 0.042980800752289272 0 -0.010148912105703347 0.045251518924765359 0 -0.0099750586120934178 0.045058258006547752 0 -0.010131649595093732 0.045324343998537332 0 -0.010328292368509625 0.044722028616533543 0 -0.0094571088249843002 0.046052562079423681 0 -0.013025568319094549 0.0437464784987854 0 -0.0094944718436264959 0.046711218256643809 0 -0.009432906230769025 0.04620222689226347 0 -0.0090571179580352257 0.046794809048748269 0 -0.0099750586120934178 0.045058258006547752 0 -0.010328292368509625 0.044722028616533543 0 -0.01057457004994905 0.04435863899723002 0 -0.018585402536342124 0.038716690828422669 0 -0.019284591161786976 0.038401709539330579 0 -0.019013023656433363 0.039318854006533129 0 -0.018043459288681452 0.039464935251980061 0 -0.018585402536342124 0.038716690828422669 0 -0.019013023656433363 0.039318854006533129 0 -0.018437161519930731 0.027367135110967875 0 -0.01837656526492587 0.027511497393598837 0 -0.018392080256080641 0.027443141400241223 0 -0.019284591161786976 0.038401709539330579 0 -0.019992761175271774 0.039158378667082432 0 -0.019013023656433363 0.039318854006533129 0 -0.027362034880888276 0.035857307422016024 0 -0.026844412908481542 0.03599619585370583 0 -0.027163155912903907 0.036287581105501648 0 -0.02341898330071714 0.034677327479843763 0 -0.018711005981663476 0.033519477329835852 0 -0.023279362443647193 0.037433763004564476 0 -0.02341898330071714 0.034677327479843763 0 -0.01837656526492587 0.027511497393598837 0 -0.018208750384553468 0.027073801772382337 0 -0.017344232064216262 0.026569994644468201 0 -0.01837656526492587 0.027511497393598837 0 -0.018376636145418863 0.027317949604872552 0 -0.018208750384553468 0.027073801772382337 0 -0.01837656526492587 0.027511497393598837 0 -0.018376636145418863 0.027317949604872552 0 -0.018392080256080641 0.027443141400241223 0 -0.015037071591642996 0.037315247723653897 0 -0.018711005981663476 0.033519477329835852 0 -0.014720931329840441 0.026668400228726609 0 -0.020187711368014866 0.027107071729514671 0 -0.018591365432881694 0.027283927159226447 0 -0.018376636145418863 0.027317949604872552 0 -0.018392080256080641 0.027443141400241223 0 -0.018578223895568589 0.027398782018914457 0 -0.018594766609180299 0.027472308074627444 0 -0.018392080256080641 0.027443141400241223 0 -0.018591365432881694 0.027283927159226447 0 -0.018376636145418863 0.027317949604872552 0 -0.018208750384553468 0.027073801772382337 0 -0.018587316784782534 0.027364031952168393 0 -0.018578223895568589 0.027398782018914457 0 -0.018392080256080641 0.027443141400241223 0 -0.018587316784782534 0.027364031952168393 0 -0.018591365432881694 0.027283927159226447 0 -0.018392080256080641 0.027443141400241223 0 -0.02006894636727197 0.026903057990752998 0 -0.018904234388036043 0.026140247858435734 0 -0.019804387156166302 0.024926787245252064 0 -0.0082432578388915122 0.025417816932297142 0 -0.0085059580414132401 0.025389808757385422 0 -0.007479194698062114 0.021847626322509531 0 -0.02006894636727197 0.026903057990752998 0 -0.018208750384553468 0.027073801772382337 0 -0.018904234388036043 0.026140247858435734 0 -0.014720931329840441 0.026668400228726609 0 -0.01356768376624577 0.023253107183878477 0 -0.018208750384553468 0.027073801772382337 0 -0.018085199883810785 0.026282056636960149 0 -0.017344232064216262 0.026569994644468201 0 -0.018208750384553468 0.027073801772382337 0 -0.018904234388036043 0.026140247858435734 0 -0.018085199883810785 0.026282056636960149 0 -0.018904234388036043 0.026140247858435734 0 -0.018085199883810785 0.026282056636960149 0 -0.018409210809449052 0.025304978640216167 0 -0.018409210809449052 0.025304978640216167 0 -0.019804387156166302 0.024926787245252064 0 -0.018464060298745474 0.023698471877126114 0 -0.018409210809449052 0.025304978640216167 0 -0.017411911191777096 0.02441107659826218 0 -0.018464060298745474 0.023698471877126114 0 -0.018085199883810785 0.026282056636960149 0 -0.018409210809449052 0.025304978640216167 0 -0.017547905721235893 0.02551485532046207 0 -0.018409210809449052 0.025304978640216167 0 -0.017547905721235893 0.02551485532046207 0 -0.017411911191777096 0.02441107659826218 0 -0.018904234388036043 0.026140247858435734 0 -0.018409210809449052 0.025304978640216167 0 -0.019804387156166302 0.024926787245252064 0 -0.0085059580414132401 0.025389808757385422 0 -0.007479194698062114 0.021847626322509531 0 -0.0088356666135745721 0.021819253111847826 0 -0.0080591524324899327 0.021444936966320171 0 -0.010022068917491581 0.020949935822049421 0 -0.0086372470776837715 0.02297163016042918 0 -0.007479194698062114 0.021847626322509531 0 -0.0088356666135745721 0.021819253111847826 0 -0.0080696276117917468 0.020094815925927496 0 -0.010022068917491581 0.020949935822049421 0 -0.0093132365461712861 0.024538729939754766 0 -0.0086372470776837715 0.02297163016042918 0 -0.0089237569962411882 0.029748664196209706 0 -0.010542481718834242 0.033224174477298613 0 -0.0091227306245448992 0.018493169680086179 0 -0.0086551952389236127 0.020503289388400261 0 -0.0097385646270475718 0.019488966411723836 0 -0.0086551952389236127 0.020503289388400261 0 -0.010652600906268125 0.020151438999803921 0 -0.0097385646270475718 0.019488966411723836 0 -0.0097185613436775661 0.01810349009046619 0 -0.0089237569962411882 0.029748664196209706 0 -0.0076239120733426428 0.024713161771763702 0 -0.0093132365461712861 0.024538729939754766 0 -0.0086372470776837715 0.02297163016042918 0 -0.0076239120733426428 0.024713161771763702 0 -0.0080591524324899327 0.021444936966320171 0 -0.0086372470776837715 0.02297163016042918 0 -0.011019790197992483 0.02738317725937698 0 -0.0081259341131442835 0.021184419069204641 0 -0.011019790197992483 0.02738317725937698 0 -0.0089237569962411882 0.029748664196209706 0 -0.027297555832435559 0.034689542697377784 0 -0.027033832192785871 0.035261894739135942 0 -0.026206851192115847 0.034816250994063415 0 -0.027297555832435559 0.034689542697377784 0 -0.027033832192785871 0.035261894739135942 0 -0.027856110693313271 0.035123568112161996 0 -0.027033832192785871 0.035261894739135942 0 -0.027795189114334436 0.035526230248957423 0 -0.027856110693313271 0.035123568112161996 0 -0.027857267111301966 0.036389789641013012 0 -0.02640630790882386 0.036009727914605889 0 -0.027033832192785871 0.035261894739135942 0 -0.027409583735945847 0.035973290867261219 0 -0.028046159303347955 0.036172961596131238 0 -0.027033832192785871 0.035261894739135942 0 -0.027409583735945847 0.035973290867261219 0 -0.026613139358877953 0.036061073735341315 0 -0.027952303393761358 0.036411206385667423 0 -0.027409583735945847 0.035973290867261219 0 -0.026613139358877953 0.036061073735341315 0 -0.027109007890513733 0.035269108485395037 0 -0.02798232515020432 0.036092839975093403 0 -0.027033832192785871 0.035261894739135942 0 -0.027795189114334436 0.035526230248957423 0 -0.028048043930233066 0.035915758724555671 0 -0.027866871989624457 0.035848210260267042 0 -0.028048043930233066 0.035915758724555671 0 -0.028152336461728503 0.03579683349551302 0 -0.027952303393761358 0.036411206385667423 0 -0.027409583735945847 0.035973290867261219 0 -0.028046159303347955 0.036172961596131238 0 -0.027795189114334436 0.035526230248957423 0 -0.028048043930233066 0.035915758724555671 0 -0.028152336461728503 0.03579683349551302 0 -0.027795189114334436 0.035526230248957423 0 -0.028152336461728503 0.03579683349551302 0 -0.027856110693313271 0.035123568112161996 0 -0.028152336461728503 0.03579683349551302 0 -0.027856110693313271 0.035123568112161996 0 -0.02863922243358864 0.034902887063486446 0 -0.027297555832435559 0.034689542697377784 0 -0.027856110693313271 0.035123568112161996 0 -0.027988815088316101 0.034380451236977902 0 -0.027856110693313271 0.035123568112161996 0 -0.02863922243358864 0.034902887063486446 0 -0.027988815088316101 0.034380451236977902 0 -0.02863922243358864 0.034902887063486446 0 -0.028574506443372866 0.034049281534523093 0 -0.027988815088316101 0.034380451236977902 0 -0.02863922243358864 0.034902887063486446 0 -0.029304149181224582 0.035557219958180938 0 -0.029413005714394834 0.034289008122221416 0 -0.02863922243358864 0.034902887063486446 0 -0.029413005714394834 0.034289008122221416 0 -0.028574506443372866 0.034049281534523093 0 -0.027866871989624457 0.035848210260267042 0 -0.028152336461728503 0.03579683349551302 0 -0.027671060307717585 0.036157544849740923 0 -0.0278629832913336 0.035873982985940286 0 -0.029356780162876253 0.035727993377306075 0 -0.028152336461728503 0.03579683349551302 0 -0.02863922243358864 0.034902887063486446 0 -0.029304149181224582 0.035557219958180938 0 -0.027362034880888276 0.035857307422016024 0 -0.027163155912903907 0.036287581105501648 0 -0.027671060307717585 0.036157544849740923 0 -0.02341898330071714 0.034677327479843763 0 -0.029356780162876253 0.035727993377306075 0 -0.027362034880888276 0.035857307422016024 0 -0.027866871989624457 0.035848210260267042 0 -0.027671060307717585 0.036157544849740923 0 -0.01837656526492587 0.027511497393598837 0 -0.019623306051645254 0.028767118479860871 0 -0.020211689311315988 0.028475144785785309 0 -0.030218307117329677 0.035387945868912848 0 -0.029304149181224582 0.035557219958180938 0 -0.029413005714394834 0.034289008122221416 0 -0.018391972603790486 0.027507497740251938 0 -0.018343931714116954 0.02753737385587857 0 -0.02341898330071714 0.034677327479843763 0 -0.024762621498177775 0.030893517828475554 0 -0.018437161519930731 0.027367135110967875 0 -0.01837656526492587 0.027511497393598837 0 -0.020211689311315988 0.028475144785785309 0 -0.019623306051645254 0.028767118479860871 0 -0.020310920544980501 0.029110588161340045 0 -0.020499013808654529 0.029949733839411453 0 -0.018343931714116954 0.02753737385587857 0 -0.019643434046604541 0.027522906317130832 0 -0.019623306051645254 0.028767118479860871 0 -0.020211689311315988 0.028475144785785309 0 -0.020310920544980501 0.029110588161340045 0 -0.018085199883810785 0.026282056636960149 0 -0.017344232064216262 0.026569994644468201 0 -0.017547905721235893 0.02551485532046207 0 -0.017344232064216262 0.026569994644468201 0 -0.017547905721235893 0.02551485532046207 0 -0.016503111887662639 0.024941139434258758 0 -0.017547905721235893 0.02551485532046207 0 -0.016503111887662639 0.024941139434258758 0 -0.017411911191777096 0.02441107659826218 0 -0.02035618666048164 0.029837439621356918 0 -0.019643434046604541 0.027522906317130832 0 -0.020310920544980501 0.029110588161340045 0 -0.020587954584307157 0.029798652233264437 0 -0.021348969136978937 0.029556391778597726 0 -0.020587954584307157 0.029798652233264437 0 -0.021348969136978937 0.029556391778597726 0 -0.021345579276612715 0.030141069660269339 0 -0.029413005714394834 0.034289008122221416 0 -0.028540817665637749 0.032976259977449657 0 -0.028574506443372866 0.034049281534523093 0 -0.024762621498177775 0.030893517828475554 0 -0.02495309278126126 0.031356200844609328 0 -0.020211689311315988 0.028475144785785309 0 -0.020310920544980501 0.029110588161340045 0 -0.021348969136978937 0.029556391778597726 0 -0.028574506443372866 0.034049281534523093 0 -0.027988815088316101 0.034380451236977902 0 -0.028072708745592482 0.033509951829596075 0 -0.027988815088316101 0.034380451236977902 0 -0.028072708745592482 0.033509951829596075 0 -0.027352560020862435 0.033854617073793218 0 -0.028540817665637749 0.032976259977449657 0 -0.028574506443372866 0.034049281534523093 0 -0.028072708745592482 0.033509951829596075 0 -0.028072708745592482 0.033509951829596075 0 -0.027855618770076244 0.03250304359323801 0 -0.027352560020862435 0.033854617073793218 0 -0.021348969136978937 0.029556391778597726 0 -0.022113425925866893 0.030329809970477389 0 -0.021345579276612715 0.030141069660269339 0 -0.028540817665637749 0.032976259977449657 0 -0.028072708745592482 0.033509951829596075 0 -0.027855618770076244 0.03250304359323801 0 -0.028540817665637749 0.032976259977449657 0 -0.027855618770076244 0.03250304359323801 0 -0.027865209236671927 0.032383117822046885 0 -0.02495309278126126 0.031356200844609328 0 -0.025076181584451601 0.031403780129170888 0 -0.027855618770076244 0.03250304359323801 0 -0.02850343473310897 0.032207218078661601 0 -0.02896245808949436 0.031083451121655347 0 -0.027855618770076244 0.03250304359323801 0 -0.027352560020862435 0.033854617073793218 0 -0.02639410096018099 0.033554378947140667 0 -0.02789172126514922 0.032424964220181623 0 -0.027745467944524402 0.032333637490693921 0 -0.027297555832435559 0.034689542697377784 0 -0.027352560020862435 0.033854617073793218 0 -0.026206851192115847 0.034816250994063415 0 -0.027297555832435559 0.034689542697377784 0 -0.027988815088316101 0.034380451236977902 0 -0.027352560020862435 0.033854617073793218 0 -0.025462324229355553 0.032127242921479837 0 -0.025076181584451601 0.031403780129170888 0 -0.022947986466696983 0.031067199554942686 0 -0.022113425925866893 0.030329809970477389 0 -0.022378045188914692 0.031308136767903991 0 -0.028680291221485382 0.033378463523070175 0 -0.02850343473310897 0.032207218078661601 0 -0.027865209236671927 0.032383117822046885 0 -0.027855618770076244 0.03250304359323801 0 -0.02850343473310897 0.032207218078661601 0 -0.027865209236671927 0.032383117822046885 0 -0.022113425925866893 0.030329809970477389 0 -0.021389156708024149 0.030797840713730002 0 -0.021345579276612715 0.030141069660269339 0 -0.020531978178990395 0.026106073616041725 0 -0.020578780380018476 0.025745362445566387 0 -0.020295631052200329 0.025499302955078563 0 -0.021795754913626755 0.031041052164746726 0 -0.021389156708024149 0.030797840713730002 0 -0.021868180129698985 0.031273520806918448 0 -0.021133836535370799 0.028516884777107385 0 -0.020851756262018718 0.028989757773606181 0 -0.022113425925866893 0.030329809970477389 0 -0.021795754913626755 0.031041052164746726 0 -0.022378045188914692 0.031308136767903991 0 -0.022113425925866893 0.030329809970477389 0 -0.021795754913626755 0.031041052164746726 0 -0.021389156708024149 0.030797840713730002 0 -0.016405351502790339 0.023329218605057399 0 -0.016797637108759086 0.023130475292131511 0 -0.016307394305397866 0.021967435580732841 0 -0.020768534993224085 0.026043891898235264 0 -0.020531978178990395 0.026106073616041725 0 -0.020578780380018476 0.025745362445566387 0 -0.019643434046604541 0.027522906317130832 0 -0.0185620614816134 0.024604893981657831 0 -0.019643434046604541 0.027522906317130832 0 -0.021133836535370799 0.028516884777107385 0 -0.020818425179771921 0.026783600253353426 0 -0.020768534993224085 0.026043891898235264 0 -0.020531978178990395 0.026106073616041725 0 -0.020587954584307157 0.029798652233264437 0 -0.021389156708024149 0.030797840713730002 0 -0.021345579276612715 0.030141069660269339 0 -0.016503111887662639 0.024941139434258758 0 -0.016405351502790339 0.023329218605057399 0 -0.017411911191777096 0.02441107659826218 0 -0.016405351502790339 0.023329218605057399 0 -0.017411911191777096 0.02441107659826218 0 -0.016797637108759086 0.023130475292131511 0 -0.017430950216791325 0.024467774416042636 0 -0.016193266360484286 0.022293914089401439 0 -0.017411911191777096 0.02441107659826218 0 -0.017469986990485669 0.022797725366838443 0 -0.016163283405303597 0.022222208865764093 0 -0.017469986990485669 0.022797725366838443 0 -0.016163283405303597 0.022222208865764093 0 -0.017102243135088551 0.021589456973265423 0 -0.016163283405303597 0.022222208865764093 0 -0.017102243135088551 0.021589456973265423 0 -0.016451733599761223 0.020571896388090389 0 -0.016163283405303597 0.022222208865764093 0 -0.016451733599761223 0.020571896388090389 0 -0.015076297398740779 0.019933104788639869 0 -0.017102243135088551 0.021589456973265423 0 -0.016451733599761223 0.020571896388090389 0 -0.017667202571286938 0.020485987897496515 0 -0.016451733599761223 0.020571896388090389 0 -0.016049989359668584 0.019356060458484418 0 -0.015076297398740779 0.019933104788639869 0 -0.016451733599761223 0.020571896388090389 0 -0.017136741187768239 0.019065803892598522 0 -0.017667202571286938 0.020485987897496515 0 -0.015944741074549528 0.018366434899297755 0 -0.016049989359668584 0.019356060458484418 0 -0.015537854903162604 0.019089176485038689 0 -0.017136741187768239 0.019065803892598522 0 -0.015944741074549528 0.018366434899297755 0 -0.016523309570626477 0.017491473887511891 0 -0.017136741187768239 0.019065803892598522 0 -0.015944741074549528 0.018366434899297755 0 -0.016049989359668584 0.019356060458484418 0 -0.016451733599761223 0.020571896388090389 0 -0.017136741187768239 0.019065803892598522 0 -0.016049989359668584 0.019356060458484418 0 -0.016049989359668584 0.019356060458484418 0 -0.015537854903162604 0.019089176485038689 0 -0.015076297398740779 0.019933104788639869 0 -0.015077102007129866 0.018705609059784495 0 -0.014923382066852687 0.018664668355956898 0 -0.015076297398740779 0.019933104788639869 0 -0.015537854903162604 0.019089176485038689 0 -0.015077102007129866 0.018705609059784495 0 -0.015076297398740779 0.019933104788639869 0 -0.020564223088025049 0.025085938679143931 0 -0.020694417868994057 0.02538602327004004 0 -0.020295631052200329 0.025499302955078563 0 -0.017726410878742181 0.019750647755050681 0 -0.017677052019901177 0.022439493742295806 0 -0.015944741074549528 0.018366434899297755 0 -0.015537854903162604 0.019089176485038689 0 -0.015077102007129866 0.018705609059784495 0 -0.017478467199802214 0.019676256878261297 0 -0.017726410878742181 0.019750647755050681 0 -0.015077102007129866 0.018705609059784495 0 -0.014924329943483238 0.01866400711440443 0 -0.014739347852144207 0.017104845991562357 0 -0.019535361586864104 0.019323998588436482 0 -0.020294384080243765 0.019529341991927025 0 -0.019528955248666425 0.017427434541760739 0 -0.019944272414606279 0.021556911528477867 0 -0.017726410878742181 0.019750647755050681 0 -0.019944272414606279 0.021556911528477867 0 -0.017677052019901177 0.022439493742295806 0 -0.017986096578211111 0.020840284072023499 0 -0.018347705504985774 0.020938728999510294 0 -0.018449661758688531 0.021904301918954004 0 -0.0185620614816134 0.024604893981657831 0 -0.017677052019901177 0.022439493742295806 0 -0.016193266360484286 0.022293914089401439 0 -0.017677052019901177 0.022439493742295806 0 -0.020694417868994057 0.02538602327004004 0 -0.020578780380018476 0.025745362445566387 0 -0.020295631052200329 0.025499302955078563 0 -0.020768534993224085 0.026043891898235264 0 -0.020694417868994057 0.02538602327004004 0 -0.020578780380018476 0.025745362445566387 0 -0.021795754913626755 0.031041052164746726 0 -0.021868180129698985 0.031273520806918448 0 -0.02190521984511315 0.031263964988737313 0 -0.021795754913626755 0.031041052164746726 0 -0.022236895772354378 0.031935972397525055 0 -0.022378045188914692 0.031308136767903991 0 -0.021801531281764229 0.031033518865926143 0 -0.022050898441371595 0.031791949300346102 0 -0.020564223088025049 0.025085938679143931 0 -0.020295631052200329 0.025499302955078563 0 -0.020088475694053042 0.024960573033102441 0 -0.020851756262018718 0.028989757773606181 0 -0.02340481652153209 0.024293795339804126 0 -0.021868180129698985 0.031273520806918448 0 -0.02190521984511315 0.031263964988737313 0 -0.021955613928523555 0.031105729577248383 0 -0.019944272414606279 0.021556911528477867 0 -0.02340481652153209 0.024293795339804126 0 -0.021923896892202775 0.031127550502064925 0 -0.02190521984511315 0.031263964988737313 0 -0.021955613928523555 0.031105729577248383 0 -0.022698263849341326 0.032827898002060728 0 -0.022236895772354378 0.031935972397525055 0 -0.023036300792564472 0.032114216404996579 0 -0.024485817897673602 0.029889893788633416 0 -0.022050898441371595 0.031791949300346102 0 -0.022236895772354378 0.031935972397525055 0 -0.022652817677760572 0.031603887802813431 0 -0.023036300792564472 0.032114216404996579 0 -0.022947986466696983 0.031067199554942686 0 -0.022652817677760572 0.031603887802813431 0 -0.023036300792564472 0.032114216404996579 0 -0.022236895772354378 0.031935972397525055 0 -0.022378045188914692 0.031308136767903991 0 -0.022652817677760572 0.031603887802813431 0 -0.022947986466696983 0.031067199554942686 0 -0.022378045188914692 0.031308136767903991 0 -0.022652817677760572 0.031603887802813431 0 -0.0085315973687016423 0.018460968808713285 0 -0.010582467388351393 0.017762575459728654 0 -0.0090055122678896829 0.015890808710592143 0 -0.010022068917491581 0.020949935822049421 0 -0.0085315973687016423 0.018460968808713285 0 -0.010582467388351393 0.017762575459728654 0 -0.0091227306245448992 0.018493169680086179 0 -0.0095803728739643889 0.016655091852094041 0 -0.010226260508481114 0.017763417422157354 0 -0.0097185613436775661 0.01810349009046619 0 -0.010022437969663154 0.017595450531829412 0 -0.0088356666135745721 0.021819253111847826 0 -0.0089954239741514494 0.018625527656311154 0 -0.0080696276117917468 0.020094815925927496 0 -0.0080591524324899327 0.021444936966320171 0 -0.010022068917491581 0.020949935822049421 0 -0.0085315973687016423 0.018460968808713285 0 -0.0081259341131442835 0.021184419069204641 0 -0.0087912241544657842 0.018644319432755112 0 -0.019804387156166302 0.024926787245252064 0 -0.018464060298745474 0.023698471877126114 0 -0.019499476052714258 0.022541843294111359 0 -0.01356768376624577 0.023253107183878477 0 -0.013215600129219955 0.020630597981115321 0 -0.007479194698062114 0.021847626322509531 0 -0.0080696276117917468 0.020094815925927496 0 -0.0069083684959973003 0.018650717067125944 0 -0.017411911191777096 0.02441107659826218 0 -0.017469986990485669 0.022797725366838443 0 -0.018464060298745474 0.023698471877126114 0 -0.018464060298745474 0.023698471877126114 0 -0.018062881683181552 0.021852190733188292 0 -0.019499476052714258 0.022541843294111359 0 -0.017469986990485669 0.022797725366838443 0 -0.018464060298745474 0.023698471877126114 0 -0.018062881683181552 0.021852190733188292 0 -0.018062881683181552 0.021852190733188292 0 -0.019499476052714258 0.022541843294111359 0 -0.019025938226032196 0.019848011531661627 0 -0.017469986990485669 0.022797725366838443 0 -0.017102243135088551 0.021589456973265423 0 -0.018062881683181552 0.021852190733188292 0 -0.0089954239741514494 0.018625527656311154 0 -0.0080696276117917468 0.020094815925927496 0 -0.0069083684959973003 0.018650717067125944 0 -0.0089954239741514494 0.018625527656311154 0 -0.0069083684959973003 0.018650717067125944 0 -0.0078666576322703307 0.017126146009461725 0 -0.013215600129219955 0.020630597981115321 0 -0.012763647188245766 0.017885804254247462 0 -0.0065167818772733166 0.015953667437531838 0 -0.0078666576322703307 0.017126146009461725 0 -0.0090055122678896829 0.015890808710592143 0 -0.0069083684959973003 0.018650717067125944 0 -0.0065167818772733166 0.015953667437531838 0 -0.0078666576322703307 0.017126146009461725 0 -0.017136741187768239 0.019065803892598522 0 -0.019025938226032196 0.019848011531661627 0 -0.017667202571286938 0.020485987897496515 0 -0.018062881683181552 0.021852190733188292 0 -0.019025938226032196 0.019848011531661627 0 -0.017667202571286938 0.020485987897496515 0 -0.017102243135088551 0.021589456973265423 0 -0.018062881683181552 0.021852190733188292 0 -0.017667202571286938 0.020485987897496515 0 -0.012763647188245766 0.017885804254247462 0 -0.01227686875352893 0.015449884956770367 0 -0.017136741187768239 0.019065803892598522 0 -0.019025938226032196 0.019848011531661627 0 -0.018467372840498961 0.017139285554418775 0 -0.0065167818772733166 0.015953667437531838 0 -0.0082581059851702474 0.014287968200069306 0 -0.0061062632165697506 0.013585549907774929 0 -0.0065167818772733166 0.015953667437531838 0 -0.0090055122678896829 0.015890808710592143 0 -0.0082581059851702474 0.014287968200069306 0 -0.0090055122678896829 0.015890808710592143 0 -0.0096177009570061912 0.014568180801316576 0 -0.0082581059851702474 0.014287968200069306 0 -0.0089954239741514494 0.018625527656311154 0 -0.0078666576322703307 0.017126146009461725 0 -0.0090055122678896829 0.015890808710592143 0 -0.0087912241544657842 0.018644319432755112 0 -0.0089974831140551426 0.016022054637156696 0 -0.010582467388351393 0.017762575459728654 0 -0.0090055122678896829 0.015890808710592143 0 -0.010980786264897837 0.015002296672447986 0 -0.0090055122678896829 0.015890808710592143 0 -0.0096177009570061912 0.014568180801316576 0 -0.010980786264897837 0.015002296672447986 0 -0.010111201142494969 0.014710566869151835 0 -0.011858094008955248 0.014650782935893551 0 -0.011198926252999309 0.013797790780188774 0 -0.010111201142494969 0.014710566869151835 0 -0.011858094008955248 0.014650782935893551 0 -0.011421651905820632 0.015774746048258261 0 -0.0095803728739643889 0.016655091852094041 0 -0.010111201142494969 0.014710566869151835 0 -0.010725626915411767 0.016725354228457407 0 -0.010022437969663154 0.017595450531829412 0 -0.01057092581011107 0.014771181697812625 0 -0.010111201142494969 0.014710566869151835 0 -0.011421651905820632 0.015774746048258261 0 -0.010725626915411767 0.016725354228457407 0 -0.0095803728739643889 0.016655091852094041 0 -0.010725626915411767 0.016725354228457407 0 -0.010226260508481114 0.017763417422157354 0 -0.010725626915411767 0.016725354228457407 0 -0.01128653668278669 0.018010117483711806 0 -0.011934146159473661 0.017019763606930409 0 -0.011421651905820632 0.015774746048258261 0 -0.010725626915411767 0.016725354228457407 0 -0.011934146159473661 0.017019763606930409 0 -0.01128653668278669 0.018010117483711806 0 -0.010226260508481114 0.017763417422157354 0 -0.010497056513603956 0.018814894715249424 0 -0.010725626915411767 0.016725354228457407 0 -0.01128653668278669 0.018010117483711806 0 -0.010226260508481114 0.017763417422157354 0 -0.0091227306245448992 0.018493169680086179 0 -0.010226260508481114 0.017763417422157354 0 -0.010497056513603956 0.018814894715249424 0 -0.01128653668278669 0.018010117483711806 0 -0.012940752889037866 0.018220684496324892 0 -0.011934146159473661 0.017019763606930409 0 -0.012940752889037866 0.018220684496324892 0 -0.011934146159473661 0.017019763606930409 0 -0.012857662309336076 0.016583516384610975 0 -0.012940752889037866 0.018220684496324892 0 -0.012857662309336076 0.016583516384610975 0 -0.013740504755359208 0.017015435473805844 0 -0.012857662309336076 0.016583516384610975 0 -0.013513187855583593 0.015602041671986745 0 -0.012505481225609056 0.01552775953754699 0 -0.012857662309336076 0.016583516384610975 0 -0.013513187855583593 0.015602041671986745 0 -0.013740504755359208 0.017015435473805844 0 -0.011421651905820632 0.015774746048258261 0 -0.011934146159473661 0.017019763606930409 0 -0.012505481225609056 0.01552775953754699 0 -0.011934146159473661 0.017019763606930409 0 -0.012857662309336076 0.016583516384610975 0 -0.012505481225609056 0.01552775953754699 0 -0.011858094008955248 0.014650782935893551 0 -0.011421651905820632 0.015774746048258261 0 -0.012505481225609056 0.01552775953754699 0 -0.011858094008955248 0.014650782935893551 0 -0.012505481225609056 0.01552775953754699 0 -0.013085772420107986 0.014522342179535854 0 -0.013513187855583593 0.015602041671986745 0 -0.012505481225609056 0.01552775953754699 0 -0.013085772420107986 0.014522342179535854 0 -0.013513187855583593 0.015602041671986745 0 -0.013085772420107986 0.014522342179535854 0 -0.014331896658990885 0.014033087794094252 0 -0.014937496711313428 0.014530344966980694 0 -0.014476757304019115 0.015474433901532374 0 -0.014331896658990885 0.014033087794094252 0 -0.013513187855583593 0.015602041671986745 0 -0.014476757304019115 0.015474433901532374 0 -0.014331896658990885 0.014033087794094252 0 -0.014937496711313428 0.014530344966980694 0 -0.015612909592887787 0.014615716627677439 0 -0.015335646953419888 0.015721380892884895 0 -0.014937496711313428 0.014530344966980694 0 -0.014476757304019115 0.015474433901532374 0 -0.015335646953419888 0.015721380892884895 0 -0.014476757304019115 0.015474433901532374 0 -0.013740504755359208 0.017015435473805844 0 -0.014630721311510773 0.016789936464140832 0 -0.014476757304019115 0.015474433901532374 0 -0.015335646953419888 0.015721380892884895 0 -0.014630721311510773 0.016789936464140832 0 -0.013513187855583593 0.015602041671986745 0 -0.014476757304019115 0.015474433901532374 0 -0.013740504755359208 0.017015435473805844 0 -0.014974058865967674 0.018549285518209498 0 -0.014979592262003341 0.016549136665070921 0 -0.016475769498468757 0.015463531233333647 0 -0.016206971405199836 0.014488260984591087 0 -0.016697215783279609 0.014040701996418973 0 -0.01311650648765556 0.021358372309385188 0 -0.013525886172103988 0.021097243378183177 0 -0.013301891711465313 0.021764133532858873 0 -0.015919312993516101 0.015085797547264645 0 -0.015612909592887787 0.014615716627677439 0 -0.015335646953419888 0.015721380892884895 0 -0.016475769498468757 0.015463531233333647 0 -0.015919312993516101 0.015085797547264645 0 -0.015335646953419888 0.015721380892884895 0 -0.015919312993516101 0.015085797547264645 0 -0.015612909592887787 0.014615716627677439 0 -0.016206971405199836 0.014488260984591087 0 -0.016475769498468757 0.015463531233333647 0 -0.015919312993516101 0.015085797547264645 0 -0.016206971405199836 0.014488260984591087 0 -0.016475769498468757 0.015463531233333647 0 -0.015335646953419888 0.015721380892884895 0 -0.01573847935032684 0.0171750890852111 0 -0.015335646953419888 0.015721380892884895 0 -0.01573847935032684 0.0171750890852111 0 -0.014630721311510773 0.016789936464140832 0 -0.012642593307342137 0.020527215675248154 0 -0.013525886172103988 0.021097243378183177 0 -0.013763457498789652 0.020136619464635127 0 -0.014974058865967674 0.018549285518209498 0 -0.014717552341621263 0.018513070754249 0 -0.012642593307342137 0.020527215675248154 0 -0.01311650648765556 0.021358372309385188 0 -0.013525886172103988 0.021097243378183177 0 -0.012642593307342137 0.020527215675248154 0 -0.013763457498789652 0.020136619464635127 0 -0.013073206578477783 0.019438522836844514 0 -0.01573847935032684 0.0171750890852111 0 -0.014570594574894994 0.0178692437372177 0 -0.014630721311510773 0.016789936464140832 0 -0.01573847935032684 0.0171750890852111 0 -0.014570594574894994 0.0178692437372177 0 -0.014197235286964534 0.018687805548908969 0 -0.014570594574894994 0.0178692437372177 0 -0.014197235286964534 0.018687805548908969 0 -0.014160465396222531 0.018438490818408523 0 -0.013763457498789652 0.020136619464635127 0 -0.014197235286964534 0.018687805548908969 0 -0.013073206578477783 0.019438522836844514 0 -0.014717552341621263 0.018513070754249 0 -0.01432889617309875 0.018625514151701605 0 -0.013740504755359208 0.017015435473805844 0 -0.014630721311510773 0.016789936464140832 0 -0.01414807820287416 0.017643303213909511 0 -0.014570594574894994 0.0178692437372177 0 -0.014630721311510773 0.016789936464140832 0 -0.01414807820287416 0.017643303213909511 0 -0.01414807820287416 0.017643303213909511 0 -0.013726564594729171 0.018222327948452414 0 -0.014160465396222531 0.018438490818408523 0 -0.014570594574894994 0.0178692437372177 0 -0.01414807820287416 0.017643303213909511 0 -0.014160465396222531 0.018438490818408523 0 -0.013740504755359208 0.017015435473805844 0 -0.01414807820287416 0.017643303213909511 0 -0.013726564594729171 0.018222327948452414 0 -0.012940752889037866 0.018220684496324892 0 -0.013740504755359208 0.017015435473805844 0 -0.013726564594729171 0.018222327948452414 0 -0.012940752889037866 0.018220684496324892 0 -0.013726564594729171 0.018222327948452414 0 -0.013672349722478742 0.019169593245308581 0 -0.013726564594729171 0.018222327948452414 0 -0.014160465396222531 0.018438490818408523 0 -0.013672349722478742 0.019169593245308581 0 -0.014160465396222531 0.018438490818408523 0 -0.013672349722478742 0.019169593245308581 0 -0.013958480172641046 0.018578749231918223 0 -0.0068177659881172139 0.051468104186563224 0 -0.0071168542353320713 0.051508334048436279 0 -0.0068634809014300737 0.051388152011852928 0 -0.011323224504760464 0.039076463500643546 0 -0.010110538587123527 0.034543703689573831 0 -0.0068177659881172139 0.051468104186563224 0 -0.0070755454104643994 0.051301311200509396 0 -0.0071168542353320713 0.051508334048436279 0 -0.011323224504760464 0.039076463500643546 0 -0.010032253715711094 0.049524323514806082 0 -0.013545813407203849 0.044673907030130501 0 -0.013356073714721037 0.045580167486406718 0 -0.012808819575023505 0.04538951201540202 0 -0.0070755454104643994 0.051301311200509396 0 -0.0071168542353320713 0.051508334048436279 0 -0.007351977178848724 0.051082590652333185 0 -0.012859525371571675 0.018183226101197724 0 -0.014197235286964534 0.018687805548908969 0 -0.013958480172641046 0.018578749231918223 0 -0.012859525371571675 0.018183226101197724 0 -0.014197235286964534 0.018687805548908969 0 -0.013073206578477783 0.019438522836844514 0 -0.014197235286964534 0.018687805548908969 0 -0.014160465396222531 0.018438490818408523 0 -0.013958480172641046 0.018578749231918223 0 -0.0068634809014300737 0.051388152011852928 0 -0.0065164676910897824 0.051051768713580255 0 -0.0064944872652831671 0.051468696278586273 0 -0.0068177659881172139 0.051468104186563224 0 -0.0068634809014300737 0.051388152011852928 0 -0.0064944872652831671 0.051468696278586273 0 -0.0064780210529015517 0.051442972234595777 0 -0.0068634809014300737 0.051388152011852928 0 -0.0065164676910897824 0.051051768713580255 0 -0.01010857516409909 0.035058934381905195 0 -0.010110538587123527 0.034543703689573831 0 -0.0060683378390711199 0.049584367438953642 0 -0.0065164676910897824 0.051051768713580255 0 -0.0060823349548198387 0.0518131706189442 0 -0.0065164676910897824 0.051051768713580255 0 -0.0060823349548198387 0.0518131706189442 0 -0.0064944872652831671 0.051468696278586273 0 -0.0060823349548198387 0.0518131706189442 0 -0.0064944872652831671 0.051468696278586273 0 -0.0065382712093755213 0.051660650186923979 0 -0.0050481662840193 0.051262350706766484 0 -0.0060823349548198387 0.0518131706189442 0 -0.0062809974451534384 0.051566733010062725 0 -0.0060823349548198387 0.0518131706189442 0 -0.0065382712093755213 0.051660650186923979 0 -0.0062809974451534384 0.051566733010062725 0 -0.002938668075460912 0.053181040472484176 0 -0.0050481662840193 0.051262350706766484 0 -0.0060823349548198387 0.0518131706189442 0 -0.0043164251472488663 0.051333556366882714 0 -0.0057916373391176702 0.051735475621452913 0 -0.0070881163270763211 0.050955084972361189 0 -0.007351977178848724 0.051082590652333185 0 -0.0075627148451969202 0.050375532890505746 0 -0.013356073714721037 0.045580167486406718 0 -0.013146694259756921 0.046453174569291204 0 -0.012789344241504578 0.045954407029960898 0 -0.010032253715711094 0.049524323514806082 0 -0.0094485891134602571 0.049443539710574018 0 -0.0067506259581747276 0.051651828283774279 0 -0.0094485891134602571 0.049443539710574018 0 -0.013356073714721037 0.045580167486406718 0 -0.012789344241504578 0.045954407029960898 0 -0.012808819575023505 0.04538951201540202 0 -0.0070755454104643994 0.051301311200509396 0 -0.0070881163270763211 0.050955084972361189 0 -0.007351977178848724 0.051082590652333185 0 -0.0068177659881172139 0.051468104186563224 0 -0.0070755454104643994 0.051301311200509396 0 -0.0070881163270763211 0.050955084972361189 0 -0.0068177659881172139 0.051468104186563224 0 -0.0068158820404466067 0.051751553837939973 0 -0.0065382712093755213 0.051660650186923979 0 -0.0069305285534901661 0.051347475138018815 0 -0.0067506259581747276 0.051651828283774279 0 -0.0068177659881172139 0.051468104186563224 0 -0.0064944872652831671 0.051468696278586273 0 -0.0065382712093755213 0.051660650186923979 0 -0.0068158820404466067 0.051751553837939973 0 -0.0065382712093755213 0.051660650186923979 0 -0.0067235545046412373 0.051629214290855249 0 -0.0067235545046412373 0.051629214290855249 0 -0.0062809974451534384 0.051566733010062725 0 -0.0068692150422564715 0.051362636264736167 0 -0.0068124261251826584 0.050823344352672897 0 -0.0062809974451534384 0.051566733010062725 0 -0.0068692150422564715 0.051362636264736167 0 -0.0065382712093755213 0.051660650186923979 0 -0.0067235545046412373 0.051629214290855249 0 -0.0062809974451534384 0.051566733010062725 0 -0.0068158820404466067 0.051751553837939973 0 -0.0067235545046412373 0.051629214290855249 0 -0.0073970382401157596 0.051549447950279575 0 -0.0072897449093866865 0.050983905866719643 0 -0.0068692150422564715 0.051362636264736167 0 -0.0073970382401157596 0.051549447950279575 0 -0.0067235545046412373 0.051629214290855249 0 -0.0068692150422564715 0.051362636264736167 0 -0.0073970382401157596 0.051549447950279575 0 -0.012201304575055961 0.047584143945748232 0 -0.013146694259756921 0.046453174569291204 0 -0.012361542652003262 0.046522398481026815 0 -0.013146694259756921 0.046453174569291204 0 -0.012361542652003262 0.046522398481026815 0 -0.012789344241504578 0.045954407029960898 0 -0.012789344241504578 0.045954407029960898 0 -0.012241799206722739 0.045794794551739203 0 -0.012808819575023505 0.04538951201540202 0 -0.012241799206722739 0.045794794551739203 0 -0.012808819575023505 0.04538951201540202 0 -0.012041443836305179 0.044878781626230289 0 -0.012361542652003262 0.046522398481026815 0 -0.012789344241504578 0.045954407029960898 0 -0.012241799206722739 0.045794794551739203 0 -0.012241799206722739 0.045794794551739203 0 -0.011521541520486222 0.045609838729180265 0 -0.012041443836305179 0.044878781626230289 0 -0.012241799206722739 0.045794794551739203 0 -0.011521541520486222 0.045609838729180265 0 -0.011752625346284854 0.046271392473750651 0 -0.012361542652003262 0.046522398481026815 0 -0.012241799206722739 0.045794794551739203 0 -0.011752625346284854 0.046271392473750651 0 -0.012361542652003262 0.046522398481026815 0 -0.011752625346284854 0.046271392473750651 0 -0.011789096260192939 0.046883409071038225 0 -0.011752625346284854 0.046271392473750651 0 -0.011789096260192939 0.046883409071038225 0 -0.011250979802092618 0.046725382599013578 0 -0.011752625346284854 0.046271392473750651 0 -0.011250979802092618 0.046725382599013578 0 -0.010958929383252561 0.046002101208654694 0 -0.010730587934091922 0.047024506435446929 0 -0.011250979802092618 0.046725382599013578 0 -0.010643571596336443 0.046504088001661358 0 -0.011250979802092618 0.046725382599013578 0 -0.010643571596336443 0.046504088001661358 0 -0.010958929383252561 0.046002101208654694 0 -0.01035797586097612 0.046921796177508454 0 -0.010061308527029173 0.046832683055078414 0 -0.010191351904710199 0.046419779731969181 0 -0.01035797586097612 0.046921796177508454 0 -0.010643571596336443 0.046504088001661358 0 -0.010191351904710199 0.046419779731969181 0 -0.01035797586097612 0.046921796177508454 0 -0.010730587934091922 0.047024506435446929 0 -0.010643571596336443 0.046504088001661358 0 -0.010643571596336443 0.046504088001661358 0 -0.010390795347557347 0.045914721617248348 0 -0.010958929383252561 0.046002101208654694 0 -0.010643571596336443 0.046504088001661358 0 -0.010191351904710199 0.046419779731969181 0 -0.010390795347557347 0.045914721617248348 0 -0.0099402293512401273 0.046082355680654323 0 -0.010191351904710199 0.046419779731969181 0 -0.010390795347557347 0.045914721617248348 0 -0.0099338575634780064 0.045470318725935835 0 -0.010390795347557347 0.045914721617248348 0 -0.010651632739073135 0.045098335815484919 0 -0.010390795347557347 0.045914721617248348 0 -0.010958929383252561 0.046002101208654694 0 -0.010651632739073135 0.045098335815484919 0 -0.011521541520486222 0.045609838729180265 0 -0.011752625346284854 0.046271392473750651 0 -0.010958929383252561 0.046002101208654694 0 -0.011521541520486222 0.045609838729180265 0 -0.010958929383252561 0.046002101208654694 0 -0.010651632739073135 0.045098335815484919 0 -0.011521541520486222 0.045609838729180265 0 -0.010651632739073135 0.045098335815484919 0 -0.012041443836305179 0.044878781626230289 0 -0.010542481718834242 0.033224174477298613 0 -0.01277585145851368 0.03115010308530609 0 -0.010652600906268125 0.020151438999803921 0 -0.011581520790676559 0.019079141939678749 0 -0.012377970324775903 0.019669477315226967 0 -0.010652600906268125 0.020151438999803921 0 -0.0097385646270475718 0.019488966411723836 0 -0.010497056513603956 0.018814894715249424 0 -0.0091227306245448992 0.018493169680086179 0 -0.0097385646270475718 0.019488966411723836 0 -0.010497056513603956 0.018814894715249424 0 -0.010652600906268125 0.020151438999803921 0 -0.010497056513603956 0.018814894715249424 0 -0.011581520790676559 0.019079141939678749 0 -0.01128653668278669 0.018010117483711806 0 -0.010497056513603956 0.018814894715249424 0 -0.011581520790676559 0.019079141939678749 0 -0.01128653668278669 0.018010117483711806 0 -0.012940752889037866 0.018220684496324892 0 -0.011581520790676559 0.019079141939678749 0 -0.012940752889037866 0.018220684496324892 0 -0.011581520790676559 0.019079141939678749 0 -0.012377970324775903 0.019669477315226967 0 -0.012940752889037866 0.018220684496324892 0 -0.013672349722478742 0.019169593245308581 0 -0.012377970324775903 0.019669477315226967 0 -0.013545813407203849 0.044673907030130501 0 -0.012808819575023505 0.04538951201540202 0 -0.012041443836305179 0.044878781626230289 0 -0.011323224504760464 0.039076463500643546 0 -0.01277585145851368 0.03115010308530609 0 -0.04737789480726079 0.036604882074488844 0 -0.044999919238952343 0.036480835211317661 0 -0.046334713625019577 0.034883082322875854 0 -0.044999919238952343 0.036480835211317661 0 -0.044999856293517604 0.034291145491610192 0 -0.046334713625019577 0.034883082322875854 0 -0.044999856293517604 0.034291145491610192 0 -0.046334713625019577 0.034883082322875854 0 -0.046223733006312197 0.033311738717257879 0 -0.046334713625019577 0.034883082322875854 0 -0.048535683609321568 0.033660867797774364 0 -0.046223733006312197 0.033311738717257879 0 -0.04737789480726079 0.036604882074488844 0 -0.046334713625019577 0.034883082322875854 0 -0.048535683609321568 0.033660867797774364 0 -0.044110234273184112 0.034499593741943169 0 -0.047659986344453148 0.031138069629060596 0 -0.045253931105982532 0.028821875924340167 0 -0.045195913712851997 0.028967807491724909 0 -0.045527393134094561 0.029060666222772879 0 -0.037830455320331538 0.043036911884252467 0 -0.037390202756979019 0.045103209724563713 0 -0.037971636080222283 0.044067118372572163 0 -0.044110234273184112 0.034499593741943169 0 -0.043842262586716002 0.042539889751378769 0 -0.049211013451544286 0.036588387863762249 0 -0.050777450361451433 0.035815844066490347 0 -0.048535683609321568 0.033660867797774364 0 -0.049211013451544286 0.036588387863762249 0 -0.050777450361451433 0.035815844066490347 0 -0.050386282260091113 0.038292364458568588 0 -0.04737789480726079 0.036604882074488844 0 -0.049211013451544286 0.036588387863762249 0 -0.048535683609321568 0.033660867797774364 0 -0.04737789480726079 0.036604882074488844 0 -0.046972148406763461 0.039570264520518594 0 -0.048932817489125646 0.039314421556790782 0 -0.04737789480726079 0.036604882074488844 0 -0.049211013451544286 0.036588387863762249 0 -0.048932817489125646 0.039314421556790782 0 -0.049211013451544286 0.036588387863762249 0 -0.050386282260091113 0.038292364458568588 0 -0.048932817489125646 0.039314421556790782 0 -0.037390202756979019 0.045103209724563713 0 -0.03824016923393915 0.044948143957422582 0 -0.037971636080222283 0.044067118372572163 0 -0.037390202756979019 0.045103209724563713 0 -0.037971921881849502 0.045752543589116221 0 -0.03824016923393915 0.044948143957422582 0 -0.050386282260091113 0.038292364458568588 0 -0.049729263021565447 0.041369847059100323 0 -0.048932817489125646 0.039314421556790782 0 -0.037390202756979019 0.045103209724563713 0 -0.037096930020045042 0.046728787791461501 0 -0.037971921881849502 0.045752543589116221 0 -0.043842262586716002 0.042539889751378769 0 -0.041513812277258338 0.043960415132559792 0 -0.041513812277258338 0.043960415132559792 0 -0.036996314012845727 0.046957558361678468 0 -0.038106848400317313 0.046395630349996768 0 -0.038073280986132593 0.046245579185314856 0 -0.037971921881849502 0.045752543589116221 0 -0.038106848400317313 0.046395630349996768 0 -0.03800397977113 0.046416924388162598 0 -0.038073280986132593 0.046245579185314856 0 -0.046972148406763461 0.039570264520518594 0 -0.048106476360333987 0.041293111226799413 0 -0.04684085833948147 0.04280542970370052 0 -0.047296153606844693 0.03873596255684774 0 -0.046330443900346782 0.04193032395988764 0 -0.046972148406763461 0.039570264520518594 0 -0.048932817489125646 0.039314421556790782 0 -0.048106476360333987 0.041293111226799413 0 -0.049729263021565447 0.041369847059100323 0 -0.048932817489125646 0.039314421556790782 0 -0.048106476360333987 0.041293111226799413 0 -0.047510728458899934 0.038139238228371126 0 -0.046313657509234989 0.039184166499431648 0 -0.0476113280972216 0.039758234572879463 0 -0.047510728458899934 0.038139238228371126 0 -0.046313657509234989 0.039184166499431648 0 -0.046268149746892022 0.037808920316343718 0 -0.047315924615079365 0.036896265625403976 0 -0.047296153606844693 0.03873596255684774 0 -0.04737789480726079 0.036604882074488844 0 -0.047510728458899934 0.038139238228371126 0 -0.046268149746892022 0.037808920316343718 0 -0.044999919238952343 0.036480835211317661 0 -0.046268149746892022 0.037808920316343718 0 -0.044999920163616966 0.038669847527840806 0 -0.04737789480726079 0.036604882074488844 0 -0.044999919238952343 0.036480835211317661 0 -0.046268149746892022 0.037808920316343718 0 -0.046462266781180504 0.039271907205415665 0 -0.04500029820895976 0.038670275779556999 0 -0.046313657509234989 0.039184166499431648 0 -0.046268149746892022 0.037808920316343718 0 -0.044999920163616966 0.038669847527840806 0 -0.044999951474607058 0.038670318427542677 0 -0.046364436724022157 0.040962967274261457 0 -0.044999959552331659 0.043988204634996773 0 -0.046449438146560655 0.039338949582530369 0 -0.044999951474607058 0.038670318427542677 0 -0.046364436724022157 0.040962967274261457 0 -0.046449438146560655 0.039338949582530369 0 -0.047166628703368227 0.040386464693141853 0 -0.046364436724022157 0.040962967274261457 0 -0.047166628703368227 0.040386464693141853 0 -0.046364436724022157 0.040962967274261457 0 -0.047929612636610316 0.040887310308694837 0 -0.046449438146560655 0.039338949582530369 0 -0.047166628703368227 0.040386464693141853 0 -0.047881135269717767 0.040003211530820058 0 -0.046462266781180504 0.039271907205415665 0 -0.046330443900346782 0.04193032395988764 0 -0.047166628703368227 0.040386464693141853 0 -0.047929612636610316 0.040887310308694837 0 -0.047881135269717767 0.040003211530820058 0 -0.046364436724022157 0.040962967274261457 0 -0.046515408824880429 0.042426404602217742 0 -0.047929612636610316 0.040887310308694837 0 -0.043626046095380407 0.046534310035986348 0 -0.042223807251411852 0.046156579352204269 0 -0.042366939187686685 0.047846293582491775 0 -0.045252517473290704 0.044204916963087024 0 -0.044213021800978095 0.045443642435927772 0 -0.043626046095380407 0.046534310035986348 0 -0.043569726142099002 0.045225631720039489 0 -0.044998500901918814 0.043995174037458798 0 -0.045252517473290704 0.044204916963087024 0 -0.044916299970864874 0.0442059947819353 0 -0.046364436724022157 0.040962967274261457 0 -0.046515408824880429 0.042426404602217742 0 -0.044999959552331659 0.043988204634996773 0 -0.043569726142099002 0.045225631720039489 0 -0.044999856516242255 0.044996569024713315 0 -0.041742946870236532 0.044999880673703641 0 -0.043626046095380407 0.046534310035986348 0 -0.043569726142099002 0.045225631720039489 0 -0.042223807251411852 0.046156579352204269 0 -0.043569726142099002 0.045225631720039489 0 -0.041742946870236532 0.044999880673703641 0 -0.042223807251411852 0.046156579352204269 0 -0.043569726142099002 0.045225631720039489 0 -0.044998500901918814 0.043995174037458798 0 -0.044999856516242255 0.044996569024713315 0 -0.039777074371768813 0.044999961477477604 0 -0.040150609018478653 0.046726445474725292 0 -0.038373413003521525 0.046656074728460631 0 -0.039777074371768813 0.044999961477477604 0 -0.041740994571118961 0.044999999639610641 0 -0.040150609018478653 0.046726445474725292 0 -0.041740994571118961 0.044999999639610641 0 -0.041814945657219132 0.047071640951005606 0 -0.040150609018478653 0.046726445474725292 0 -0.041807434342937787 0.044829544697670802 0 -0.041857881483098602 0.047198255987089974 0 -0.041814945657219132 0.047071640951005606 0 -0.040150609018478653 0.046726445474725292 0 -0.040808645984112261 0.048260062410406021 0 -0.040808645984112261 0.048260062410406021 0 -0.041369566143584613 0.049581562358640904 0 -0.039187645927016367 0.048712944610058651 0 -0.040150609018478653 0.046726445474725292 0 -0.040808645984112261 0.048260062410406021 0 -0.039187645927016367 0.048712944610058651 0 -0.041814945657219132 0.047071640951005606 0 -0.040808645984112261 0.048260062410406021 0 -0.041926056173687311 0.048984520845818322 0 -0.041857881483098602 0.047198255987089974 0 -0.044213021800978095 0.045443642435927772 0 -0.040808645984112261 0.048260062410406021 0 -0.041926056173687311 0.048984520845818322 0 -0.041369566143584613 0.049581562358640904 0 -0.044737840092317537 0.044514825555208644 0 -0.04524096594358322 0.043970151248277231 0 -0.044694140016747111 0.043728061754498553 0 -0.044213021800978095 0.045443642435927772 0 -0.046330443900346782 0.04193032395988764 0 -0.044213021800978095 0.045443642435927772 0 -0.043166775489646973 0.044962708696077179 0 -0.043166775489646973 0.044962708696077179 0 -0.046330443900346782 0.04193032395988764 0 -0.049729263021565447 0.041369847059100323 0 -0.048106476360333987 0.041293111226799413 0 -0.047938680587435833 0.043359560850599749 0 -0.041513812277258338 0.043960415132559792 0 -0.043166775489646973 0.044962708696077179 0 -0.048106476360333987 0.041293111226799413 0 -0.047938680587435833 0.043359560850599749 0 -0.04684085833948147 0.04280542970370052 0 -0.038624264458273168 0.04615098420231286 0 -0.038097989017365726 0.046278915929725203 0 -0.037887964584452344 0.045986802316120616 0 -0.043166775489646973 0.044962708696077179 0 -0.037974016334574381 0.047635944343184251 0 -0.038624264458273168 0.04615098420231286 0 -0.038097989017365726 0.046278915929725203 0 -0.038095734512181852 0.04635697933434469 0 -0.038106848400317313 0.046395630349996768 0 -0.038624264458273168 0.04615098420231286 0 -0.038095734512181852 0.04635697933434469 0 -0.038106848400317313 0.046395630349996768 0 -0.038095734512181852 0.04635697933434469 0 -0.03800397977113 0.046416924388162598 0 -0.038097989017365726 0.046278915929725203 0 -0.038095734512181852 0.04635697933434469 0 -0.03800397977113 0.046416924388162598 0 -0.038097989017365726 0.046278915929725203 0 -0.03800397977113 0.046416924388162598 0 -0.037701516125469348 0.046678143397671679 0 -0.037701516125469348 0.046678143397671679 0 -0.036669230322517302 0.046747762855156395 0 -0.037887964584452344 0.045986802316120616 0 -0.03800397977113 0.046416924388162598 0 -0.037701516125469348 0.046678143397671679 0 -0.038073280986132593 0.046245579185314856 0 -0.037701516125469348 0.046678143397671679 0 -0.036669230322517302 0.046747762855156395 0 -0.037091834830963073 0.047616217111033324 0 -0.038097989017365726 0.046278915929725203 0 -0.037701516125469348 0.046678143397671679 0 -0.037887964584452344 0.045986802316120616 0 -0.036669230322517302 0.046747762855156395 0 -0.03549857233246078 0.046771872997289153 0 -0.035737792364739528 0.048250519788750099 0 -0.036669230322517302 0.046747762855156395 0 -0.035924734152113266 0.045448972909620453 0 -0.037887964584452344 0.045986802316120616 0 -0.036669230322517302 0.046747762855156395 0 -0.035924734152113266 0.045448972909620453 0 -0.03549857233246078 0.046771872997289153 0 -0.036566581998521419 0.046628534930232293 0 -0.037974016334574381 0.047635944343184251 0 -0.036969490821295595 0.047815699299544948 0 -0.038373413003521525 0.046656074728460631 0 -0.035760870455012 0.044999960625294814 0 -0.040150609018478653 0.046726445474725292 0 -0.039187645927016367 0.048712944610058651 0 -0.038373413003521525 0.046656074728460631 0 -0.036969490821295595 0.047815699299544948 0 -0.039187645927016367 0.048712944610058651 0 -0.038373413003521525 0.046656074728460631 0 -0.039777074371768813 0.044999961477477604 0 -0.038373413003521525 0.046656074728460631 0 -0.035760870455012 0.044999960625294814 0 -0.035760870455012 0.044999960625294814 0 -0.034741713709663724 0.046888255303100368 0 -0.032519600108863768 0.045948756034921288 0 -0.036969490821295595 0.047815699299544948 0 -0.035760870455012 0.044999960625294814 0 -0.034741713709663724 0.046888255303100368 0 -0.035924734152113266 0.045448972909620453 0 -0.033843648570002417 0.045135357405608222 0 -0.03458038676146697 0.046209091890676249 0 -0.036566581998521419 0.046628534930232293 0 -0.034294568280925489 0.046029300083375385 0 -0.033843648570002417 0.045135357405608222 0 -0.033192362489776819 0.046434918000785058 0 -0.032782149424216103 0.045667986543251632 0 -0.033192362489776819 0.046434918000785058 0 -0.03458038676146697 0.046209091890676249 0 -0.03449740336986002 0.04722086216429907 0 -0.033843648570002417 0.045135357405608222 0 -0.033192362489776819 0.046434918000785058 0 -0.03458038676146697 0.046209091890676249 0 -0.035924734152113266 0.045448972909620453 0 -0.03458038676146697 0.046209091890676249 0 -0.03549857233246078 0.046771872997289153 0 -0.03549857233246078 0.046771872997289153 0 -0.03449740336986002 0.04722086216429907 0 -0.035737792364739528 0.048250519788750099 0 -0.03458038676146697 0.046209091890676249 0 -0.03549857233246078 0.046771872997289153 0 -0.03449740336986002 0.04722086216429907 0 -0.031746812135117687 0.046326267725630095 0 -0.031583854983913355 0.046137722719552111 0 -0.03171739320237775 0.046249538245365596 0 -0.03239371330009426 0.046271428983589498 0 -0.033063487193467987 0.047076304408361087 0 -0.031583854983913355 0.046137722719552111 0 -0.031688303148383903 0.046134880241628221 0 -0.03164188907270634 0.045904248324398822 0 -0.031583854983913355 0.046137722719552111 0 -0.03171739320237775 0.046249538245365596 0 -0.031688303148383903 0.046134880241628221 0 -0.03171739320237775 0.046249538245365596 0 -0.031688303148383903 0.046134880241628221 0 -0.031744929832404088 0.046237827511207384 0 -0.03164188907270634 0.045904248324398822 0 -0.031661617127018732 0.04593686879375572 0 -0.031304997160826069 0.045860996871751276 0 -0.03162782162320401 0.045900963571032391 0 -0.031340454266503809 0.045749005548589114 0 -0.031688303148383903 0.046134880241628221 0 -0.03164188907270634 0.045904248324398822 0 -0.031720980422105978 0.046241935984133412 0 -0.033252671618143284 0.038118290594561184 0 -0.031682651300417843 0.039036299946019648 0 -0.034652137331725265 0.03099105846680561 0 -0.034023499904297219 0.032106205134270926 0 -0.0321605056112442 0.031742179114607957 0 -0.031661617127018732 0.04593686879375572 0 -0.031219344585234982 0.046148728515954161 0 -0.031304997160826069 0.045860996871751276 0 -0.034652137331725265 0.03099105846680561 0 -0.034023499904297219 0.032106205134270926 0 -0.034983596172183426 0.031950937378814173 0 -0.034023499904297219 0.032106205134270926 0 -0.034983596172183426 0.031950937378814173 0 -0.034813923496882081 0.032842726839777153 0 -0.034023499904297219 0.032106205134270926 0 -0.033465435823062543 0.033005068791238795 0 -0.0321605056112442 0.031742179114607957 0 -0.034652137331725265 0.03099105846680561 0 -0.035863988436097304 0.031699435307424362 0 -0.036867138728200154 0.030337912583673049 0 -0.036697415450917162 0.032565819755235911 0 -0.035863988436097304 0.031699435307424362 0 -0.037152976590572713 0.03190802416842671 0 -0.036697415450917162 0.032565819755235911 0 -0.035807132627178211 0.032544850386101394 0 -0.035863988436097304 0.031699435307424362 0 -0.035807132627178211 0.032544850386101394 0 -0.034983596172183426 0.031950937378814173 0 -0.034813923496882081 0.032842726839777153 0 -0.035807132627178211 0.032544850386101394 0 -0.034983596172183426 0.031950937378814173 0 -0.035863988436097304 0.031699435307424362 0 -0.034652137331725265 0.03099105846680561 0 -0.034983596172183426 0.031950937378814173 0 -0.035863988436097304 0.031699435307424362 0 -0.035863988436097304 0.031699435307424362 0 -0.036867138728200154 0.030337912583673049 0 -0.037152976590572713 0.03190802416842671 0 -0.033252671618143284 0.038118290594561184 0 -0.034974569934089622 0.043759733874185032 0 -0.03164188907270634 0.045904248324398822 0 -0.031661617127018732 0.04593686879375572 0 -0.031545569049180266 0.045914956482578692 0 -0.031583854983913355 0.046137722719552111 0 -0.03164188907270634 0.045904248324398822 0 -0.031545569049180266 0.045914956482578692 0 -0.033063487193467987 0.047076304408361087 0 -0.034974569934089622 0.043759733874185032 0 -0.034974569934089622 0.043759733874185032 0 -0.036860966618217084 0.047821601719519276 0 -0.036467201079465529 0.04788917653025377 0 -0.0372358342278084 0.04795221445477011 0 -0.037108446265686629 0.048461400324641371 0 -0.036669230322517302 0.046747762855156395 0 -0.035737792364739528 0.048250519788750099 0 -0.037091834830963073 0.047616217111033324 0 -0.036467201079465529 0.04788917653025377 0 -0.037091834830963073 0.047616217111033324 0 -0.0372358342278084 0.04795221445477011 0 -0.037855839006366458 0.046296563108171637 0 -0.037684080251482517 0.048027212969612494 0 -0.037701516125469348 0.046678143397671679 0 -0.038073280986132593 0.046245579185314856 0 -0.038542433906638252 0.046094595821291245 0 -0.037701516125469348 0.046678143397671679 0 -0.037091834830963073 0.047616217111033324 0 -0.0372358342278084 0.04795221445477011 0 -0.038073280986132593 0.046245579185314856 0 -0.038542433906638252 0.046094595821291245 0 -0.038348536595797435 0.045612679932986538 0 -0.038073280986132593 0.046245579185314856 0 -0.037971921881849502 0.045752543589116221 0 -0.038348536595797435 0.045612679932986538 0 -0.037684080251482517 0.048027212969612494 0 -0.038346708029548905 0.040273420630046609 0 -0.038542433906638252 0.046094595821291245 0 -0.038348536595797435 0.045612679932986538 0 -0.03908559606814746 0.044686198596301664 0 -0.037971921881849502 0.045752543589116221 0 -0.038348536595797435 0.045612679932986538 0 -0.03824016923393915 0.044948143957422582 0 -0.038348536595797435 0.045612679932986538 0 -0.03908559606814746 0.044686198596301664 0 -0.03824016923393915 0.044948143957422582 0 -0.038346708029548905 0.040273420630046609 0 -0.040580803733762952 0.037979909378863475 0 -0.03908559606814746 0.044686198596301664 0 -0.038353971339825557 0.044404130842984238 0 -0.038447990822321844 0.043895004336645387 0 -0.03908559606814746 0.044686198596301664 0 -0.03824016923393915 0.044948143957422582 0 -0.038353971339825557 0.044404130842984238 0 -0.03824016923393915 0.044948143957422582 0 -0.038353971339825557 0.044404130842984238 0 -0.037971636080222283 0.044067118372572163 0 -0.036867138728200154 0.030337912583673049 0 -0.038690220434500773 0.032243226095840974 0 -0.037152976590572713 0.03190802416842671 0 -0.034974569934089622 0.043759733874185032 0 -0.038346708029548905 0.040273420630046609 0 -0.038690220434500773 0.032243226095840974 0 -0.037152976590572713 0.03190802416842671 0 -0.037602305937792367 0.03269530907572693 0 -0.036697415450917162 0.032565819755235911 0 -0.037152976590572713 0.03190802416842671 0 -0.037602305937792367 0.03269530907572693 0 -0.038396334240224192 0.033560479945746333 0 -0.037302266286778719 0.033621409441386946 0 -0.035889532666560635 0.034600841441375645 0 -0.042129028268559743 0.029534724031669089 0 -0.038877660508050027 0.028724406610503551 0 -0.036697415450917162 0.032565819755235911 0 -0.037602305937792367 0.03269530907572693 0 -0.037302266286778719 0.033621409441386946 0 -0.037602305937792367 0.03269530907572693 0 -0.038396334240224192 0.033560479945746333 0 -0.037302266286778719 0.033621409441386946 0 -0.038690220434500773 0.032243226095840974 0 -0.037602305937792367 0.03269530907572693 0 -0.038396334240224192 0.033560479945746333 0 -0.037830455320331538 0.043036911884252467 0 -0.037971636080222283 0.044067118372572163 0 -0.038587498811027514 0.043788673803311404 0 -0.044110234273184112 0.034499593741943169 0 -0.040580803733762952 0.037979909378863475 0 -0.038353971339825557 0.044404130842984238 0 -0.037971636080222283 0.044067118372572163 0 -0.038447990822321844 0.043895004336645387 0 -0.037931377331962952 0.040622799548693467 0 -0.040580803733762952 0.037979909378863475 0 -0.042129028268559743 0.029534724031669089 0 -0.040580803733762952 0.037979909378863475 0 -0.040551069540944992 0.03795429239304763 0 -0.041242139982409803 0.034325255200267885 0 -0.038292729842236792 0.035614904262653409 0 -0.038346708029548905 0.040273420630046609 0 -0.042129028268559743 0.029534724031669089 0 -0.044898271019904096 0.029368332950131189 0 -0.044762017588154866 0.029456961231284919 0 -0.044822393054009577 0.029254955648830645 0 -0.044682160192438612 0.029355413999710565 0 -0.044762017588154866 0.029456961231284919 0 -0.044822393054009577 0.029254955648830645 0 -0.044110234273184112 0.034499593741943169 0 -0.045236730481763208 0.028036437725473821 0 -0.044898271019904096 0.029368332950131189 0 -0.044822393054009577 0.029254955648830645 0 -0.044890658051217808 0.02905400483335685 0 -0.044682160192438612 0.029355413999710565 0 -0.044815480046336967 0.029110410802879478 0 -0.044822393054009577 0.029254955648830645 0 -0.044815480046336967 0.029110410802879478 0 -0.044822393054009577 0.029254955648830645 0 -0.044890658051217808 0.02905400483335685 0 -0.044283450445814679 0.022460167460486968 0 -0.043343539129788944 0.023513321953359673 0 -0.043973296299248218 0.024512911466031621 0 -0.044283450445814679 0.022460167460486968 0 -0.043343539129788944 0.023513321953359673 0 -0.042101679367084484 0.023241410569674281 0 -0.042129028268559743 0.029534724031669089 0 -0.044778382467233403 0.025976429285103471 0 -0.043343539129788944 0.023513321953359673 0 -0.04272544427972827 0.023799284043846233 0 -0.043105926810372092 0.024381621226386659 0 -0.043343539129788944 0.023513321953359673 0 -0.043105926810372092 0.024381621226386659 0 -0.043973296299248218 0.024512911466031621 0 -0.04272544427972827 0.023799284043846233 0 -0.042308890506119155 0.024425032000787494 0 -0.043105926810372092 0.024381621226386659 0 -0.04272544427972827 0.023799284043846233 0 -0.042175436489602709 0.023858863019559359 0 -0.042308890506119155 0.024425032000787494 0 -0.043343539129788944 0.023513321953359673 0 -0.04272544427972827 0.023799284043846233 0 -0.042101679367084484 0.023241410569674281 0 -0.04272544427972827 0.023799284043846233 0 -0.042101679367084484 0.023241410569674281 0 -0.042175436489602709 0.023858863019559359 0 -0.042101679367084484 0.023241410569674281 0 -0.042175436489602709 0.023858863019559359 0 -0.041550437306260811 0.02398303252815677 0 -0.041550437306260811 0.02398303252815677 0 -0.04149383828972196 0.024639282033711771 0 -0.042308890506119155 0.024425032000787494 0 -0.042175436489602709 0.023858863019559359 0 -0.041550437306260811 0.02398303252815677 0 -0.042308890506119155 0.024425032000787494 0 -0.038877660508050027 0.028724406610503551 0 -0.03654400954953093 0.029776146416473605 0 -0.042101679367084484 0.023241410569674281 0 -0.041550437306260811 0.02398303252815677 0 -0.039434903163869849 0.024002052075463427 0 -0.035889532666560635 0.034600841441375645 0 -0.034087234703792407 0.034948593490110785 0 -0.03613247555246353 0.034237940825567949 0 -0.032937392529821238 0.035723560745893432 0 -0.034651018683723459 0.034260597287199275 0 -0.03613247555246353 0.034237940825567949 0 -0.033531494567304553 0.035298351189265685 0 -0.035964762133587888 0.034318756756419981 0 -0.035889532666560635 0.034600841441375645 0 -0.034087234703792407 0.034948593490110785 0 -0.033695285139225858 0.035444642164258224 0 -0.041550437306260811 0.02398303252815677 0 -0.039434903163869849 0.024002052075463427 0 -0.04081520002109542 0.024388552482298778 0 -0.032937392529821238 0.035723560745893432 0 -0.032989938083298899 0.034596169859381597 0 -0.033783698526578039 0.034364465788191259 0 -0.032937392529821238 0.035723560745893432 0 -0.034651018683723459 0.034260597287199275 0 -0.033783698526578039 0.034364465788191259 0 -0.034651018683723459 0.034260597287199275 0 -0.034285821285581719 0.033662321587564464 0 -0.033783698526578039 0.034364465788191259 0 -0.034651018683723459 0.034260597287199275 0 -0.034285821285581719 0.033662321587564464 0 -0.035194712853399278 0.033692643942296832 0 -0.033425372335938286 0.033891363596921284 0 -0.033465435823062543 0.033005068791238795 0 -0.032372704591974444 0.033913555360284599 0 -0.032989938083298899 0.034596169859381597 0 -0.033425372335938286 0.033891363596921284 0 -0.032372704591974444 0.033913555360284599 0 -0.032989938083298899 0.034596169859381597 0 -0.033783698526578039 0.034364465788191259 0 -0.033425372335938286 0.033891363596921284 0 -0.034285821285581719 0.033662321587564464 0 -0.033783698526578039 0.034364465788191259 0 -0.033425372335938286 0.033891363596921284 0 -0.034285821285581719 0.033662321587564464 0 -0.033425372335938286 0.033891363596921284 0 -0.033465435823062543 0.033005068791238795 0 -0.034285821285581719 0.033662321587564464 0 -0.033465435823062543 0.033005068791238795 0 -0.034813923496882081 0.032842726839777153 0 -0.034023499904297219 0.032106205134270926 0 -0.033465435823062543 0.033005068791238795 0 -0.034813923496882081 0.032842726839777153 0 -0.034285821285581719 0.033662321587564464 0 -0.034813923496882081 0.032842726839777153 0 -0.035194712853399278 0.033692643942296832 0 -0.035807132627178211 0.032544850386101394 0 -0.034813923496882081 0.032842726839777153 0 -0.03561949426500674 0.033209870001045388 0 -0.034813923496882081 0.032842726839777153 0 -0.03561949426500674 0.033209870001045388 0 -0.035194712853399278 0.033692643942296832 0 -0.036697415450917162 0.032565819755235911 0 -0.037302266286778719 0.033621409441386946 0 -0.0363304773678612 0.033249928924618852 0 -0.036697415450917162 0.032565819755235911 0 -0.035807132627178211 0.032544850386101394 0 -0.0363304773678612 0.033249928924618852 0 -0.035807132627178211 0.032544850386101394 0 -0.03561949426500674 0.033209870001045388 0 -0.0363304773678612 0.033249928924618852 0 -0.03561949426500674 0.033209870001045388 0 -0.0363304773678612 0.033249928924618852 0 -0.035915577165706737 0.033725725313504047 0 -0.037302266286778719 0.033621409441386946 0 -0.035889532666560635 0.034600841441375645 0 -0.036663075536438161 0.033837728885680846 0 -0.036663075536438161 0.033837728885680846 0 -0.03613247555246353 0.034237940825567949 0 -0.035915577165706737 0.033725725313504047 0 -0.0363304773678612 0.033249928924618852 0 -0.036663075536438161 0.033837728885680846 0 -0.035915577165706737 0.033725725313504047 0 -0.035889532666560635 0.034600841441375645 0 -0.036663075536438161 0.033837728885680846 0 -0.03613247555246353 0.034237940825567949 0 -0.037302266286778719 0.033621409441386946 0 -0.0363304773678612 0.033249928924618852 0 -0.036663075536438161 0.033837728885680846 0 -0.034651018683723459 0.034260597287199275 0 -0.03613247555246353 0.034237940825567949 0 -0.035538766842578492 0.033969822358806426 0 -0.03613247555246353 0.034237940825567949 0 -0.035538766842578492 0.033969822358806426 0 -0.035915577165706737 0.033725725313504047 0 -0.034651018683723459 0.034260597287199275 0 -0.035538766842578492 0.033969822358806426 0 -0.035194712853399278 0.033692643942296832 0 -0.03561949426500674 0.033209870001045388 0 -0.035194712853399278 0.033692643942296832 0 -0.035915577165706737 0.033725725313504047 0 -0.035538766842578492 0.033969822358806426 0 -0.035194712853399278 0.033692643942296832 0 -0.035915577165706737 0.033725725313504047 0 -0.03042509474114212 0.033609770342425398 0 -0.029992853601951669 0.034158756800501143 0 -0.029785903449653994 0.03356112247297826 0 -0.03042509474114212 0.033609770342425398 0 -0.030683691358346265 0.03421964398576624 0 -0.029992853601951669 0.034158756800501143 0 -0.03042509474114212 0.033609770342425398 0 -0.030683691358346265 0.03421964398576624 0 -0.031266691238275947 0.033617030681318813 0 -0.029992853601951669 0.034158756800501143 0 -0.030046261564309253 0.034851608858275707 0 -0.029538638926313667 0.034563821811510513 0 -0.030683691358346265 0.03421964398576624 0 -0.029992853601951669 0.034158756800501143 0 -0.030046261564309253 0.034851608858275707 0 -0.029492392896357064 0.034129940301499725 0 -0.028951469351215182 0.034577975801013329 0 -0.029538638926313667 0.034563821811510513 0 -0.029992853601951669 0.034158756800501143 0 -0.029492392896357064 0.034129940301499725 0 -0.029538638926313667 0.034563821811510513 0 -0.029492392896357064 0.034129940301499725 0 -0.029206047301583566 0.033780754568988547 0 -0.028951469351215182 0.034577975801013329 0 -0.029492392896357064 0.034129940301499725 0 -0.029206047301583566 0.033780754568988547 0 -0.029785903449653994 0.03356112247297826 0 -0.029992853601951669 0.034158756800501143 0 -0.029492392896357064 0.034129940301499725 0 -0.029785903449653994 0.03356112247297826 0 -0.029206047301583566 0.033780754568988547 0 -0.029631939118109192 0.032724221794400397 0 -0.028365167685535337 0.033979534060676442 0 -0.029206047301583566 0.033780754568988547 0 -0.029785903449653994 0.03356112247297826 0 -0.029631939118109192 0.032724221794400397 0 -0.029785903449653994 0.03356112247297826 0 -0.029631939118109192 0.032724221794400397 0 -0.030009357757858277 0.033051058260442759 0 -0.029615522882675733 0.032678789442121089 0 -0.030009357757858277 0.033051058260442759 0 -0.030787754526044438 0.032957847005734425 0 -0.029589316009210335 0.038461701991074487 0 -0.028814324205574733 0.036833487737897345 0 -0.03042509474114212 0.033609770342425398 0 -0.029785903449653994 0.03356112247297826 0 -0.030009357757858277 0.033051058260442759 0 -0.03042509474114212 0.033609770342425398 0 -0.030009357757858277 0.033051058260442759 0 -0.030787754526044438 0.032957847005734425 0 -0.030787754526044438 0.032957847005734425 0 -0.032009068272838455 0.03304797875219747 0 -0.031266691238275947 0.033617030681318813 0 -0.03042509474114212 0.033609770342425398 0 -0.030787754526044438 0.032957847005734425 0 -0.031266691238275947 0.033617030681318813 0 -0.033465435823062543 0.033005068791238795 0 -0.032009068272838455 0.03304797875219747 0 -0.032372704591974444 0.033913555360284599 0 -0.032009068272838455 0.03304797875219747 0 -0.032372704591974444 0.033913555360284599 0 -0.031266691238275947 0.033617030681318813 0 -0.032372704591974444 0.033913555360284599 0 -0.031388847799745281 0.03422794713209884 0 -0.03175032326663213 0.034684454189899426 0 -0.032372704591974444 0.033913555360284599 0 -0.03175032326663213 0.034684454189899426 0 -0.032353385204262723 0.034858936618366268 0 -0.032989938083298899 0.034596169859381597 0 -0.032372704591974444 0.033913555360284599 0 -0.032353385204262723 0.034858936618366268 0 -0.032372704591974444 0.033913555360284599 0 -0.031266691238275947 0.033617030681318813 0 -0.031388847799745281 0.03422794713209884 0 -0.030683691358346265 0.03421964398576624 0 -0.031266691238275947 0.033617030681318813 0 -0.031388847799745281 0.03422794713209884 0 -0.030683691358346265 0.03421964398576624 0 -0.031388847799745281 0.03422794713209884 0 -0.030873769945861575 0.034824707091845486 0 -0.032937392529821238 0.035723560745893432 0 -0.030722368854569009 0.035970236084566988 0 -0.029645125784702759 0.036704358769219216 0 -0.034087234703792407 0.034948593490110785 0 -0.033695285139225858 0.035444642164258224 0 -0.031279529249856913 0.035911292766660809 0 -0.032937392529821238 0.035723560745893432 0 -0.031750278914059564 0.035422790422055775 0 -0.030722368854569009 0.035970236084566988 0 -0.033531494567304553 0.035298351189265685 0 -0.030435381780439238 0.036324419639180081 0 -0.030873769945861575 0.034824707091845486 0 -0.03175032326663213 0.034684454189899426 0 -0.031087309523571499 0.035273372836563129 0 -0.031388847799745281 0.03422794713209884 0 -0.030873769945861575 0.034824707091845486 0 -0.03175032326663213 0.034684454189899426 0 -0.03175032326663213 0.034684454189899426 0 -0.031750278914059564 0.035422790422055775 0 -0.031087309523571499 0.035273372836563129 0 -0.030873769945861575 0.034824707091845486 0 -0.031087309523571499 0.035273372836563129 0 -0.030358706461394731 0.035444357331692003 0 -0.032937392529821238 0.035723560745893432 0 -0.032989938083298899 0.034596169859381597 0 -0.032353385204262723 0.034858936618366268 0 -0.032937392529821238 0.035723560745893432 0 -0.031750278914059564 0.035422790422055775 0 -0.032353385204262723 0.034858936618366268 0 -0.03175032326663213 0.034684454189899426 0 -0.031750278914059564 0.035422790422055775 0 -0.032353385204262723 0.034858936618366268 0 -0.031750278914059564 0.035422790422055775 0 -0.031087309523571499 0.035273372836563129 0 -0.030722368854569009 0.035970236084566988 0 -0.030722368854569009 0.035970236084566988 0 -0.029715256093902246 0.035935031916518284 0 -0.029645125784702759 0.036704358769219216 0 -0.030722368854569009 0.035970236084566988 0 -0.029715256093902246 0.035935031916518284 0 -0.030358706461394731 0.035444357331692003 0 -0.029715256093902246 0.035935031916518284 0 -0.030358706461394731 0.035444357331692003 0 -0.029698219900860568 0.035429714941104307 0 -0.031087309523571499 0.035273372836563129 0 -0.030722368854569009 0.035970236084566988 0 -0.030358706461394731 0.035444357331692003 0 -0.030873769945861575 0.034824707091845486 0 -0.030358706461394731 0.035444357331692003 0 -0.030046261564309253 0.034851608858275707 0 -0.030358706461394731 0.035444357331692003 0 -0.030046261564309253 0.034851608858275707 0 -0.029698219900860568 0.035429714941104307 0 -0.030683691358346265 0.03421964398576624 0 -0.030873769945861575 0.034824707091845486 0 -0.030046261564309253 0.034851608858275707 0 -0.028951469351215182 0.034577975801013329 0 -0.029453257047950123 0.035027481536060424 0 -0.028962598655174972 0.035192702373120194 0 -0.028951469351215182 0.034577975801013329 0 -0.029538638926313667 0.034563821811510513 0 -0.029453257047950123 0.035027481536060424 0 -0.030046261564309253 0.034851608858275707 0 -0.029538638926313667 0.034563821811510513 0 -0.029453257047950123 0.035027481536060424 0 -0.029698219900860568 0.035429714941104307 0 -0.029453257047950123 0.035027481536060424 0 -0.028962598655174972 0.035192702373120194 0 -0.030046261564309253 0.034851608858275707 0 -0.029698219900860568 0.035429714941104307 0 -0.029453257047950123 0.035027481536060424 0 -0.029715256093902246 0.035935031916518284 0 -0.028962598655174972 0.035192702373120194 0 -0.028988387571452286 0.036320501840369522 0 -0.029715256093902246 0.035935031916518284 0 -0.029698219900860568 0.035429714941104307 0 -0.028962598655174972 0.035192702373120194 0 -0.029715256093902246 0.035935031916518284 0 -0.028988387571452286 0.036320501840369522 0 -0.029645125784702759 0.036704358769219216 0 -0.028988387571452286 0.036320501840369522 0 -0.026297493714373465 0.035781767506262566 0 -0.026864877930026676 0.033682203405544751 0 -0.028962598655174972 0.035192702373120194 0 -0.028988387571452286 0.036320501840369522 0 -0.027244698784577442 0.033695128381912381 0 -0.029122554664742676 0.035414181190379784 0 -0.02559809183844455 0.036165706437872522 0 -0.028988387571452286 0.036320501840369522 0 -0.026297493714373465 0.035781767506262566 0 -0.028069795607474232 0.036530969195182485 0 -0.028951469351215182 0.034577975801013329 0 -0.028962598655174972 0.035192702373120194 0 -0.028365167685535337 0.033979534060676442 0 -0.026297493714373465 0.035781767506262566 0 -0.026864877930026676 0.033682203405544751 0 -0.023657846634557462 0.035936873196218612 0 -0.026297493714373465 0.035781767506262566 0 -0.023657846634557462 0.035936873196218612 0 -0.024825375265786095 0.036189519700300363 0 -0.020675998515645555 0.037492629598086372 0 -0.020152189202726753 0.037076172770789388 0 -0.023657846634557462 0.035936873196218612 0 -0.020675998515645555 0.037492629598086372 0 -0.022446081860930972 0.037886919717707628 0 -0.023657846634557462 0.035936873196218612 0 -0.020675998515645555 0.037492629598086372 0 -0.020674436457004074 0.037807771626635532 0 -0.022446081860930972 0.037886919717707628 0 -0.02559809183844455 0.036165706437872522 0 -0.022856308110136246 0.035726363173770329 0 -0.020675998515645555 0.037492629598086372 0 -0.02065706218658777 0.037875220939976841 0 -0.020152189202726753 0.037076172770789388 0 -0.023017592278718173 0.038858222467373929 0 -0.023205442024963243 0.039303054396118822 0 -0.026487708465546343 0.040315286146020007 0 -0.027318729422300771 0.039979610035989786 0 -0.027057953203177883 0.040347959497202927 0 -0.029631939118109192 0.032724221794400397 0 -0.028365167685535337 0.033979534060676442 0 -0.027244698784577442 0.033695128381912381 0 -0.029589316009210335 0.038461701991074487 0 -0.02559809183844455 0.036165706437872522 0 -0.028962598655174972 0.035192702373120194 0 -0.028365167685535337 0.033979534060676442 0 -0.027244698784577442 0.033695128381912381 0 -0.029206047301583566 0.033780754568988547 0 -0.028951469351215182 0.034577975801013329 0 -0.028365167685535337 0.033979534060676442 0 -0.027489692633609068 0.040246213762926454 0 -0.027318729422300771 0.039979610035989786 0 -0.027057953203177883 0.040347959497202927 0 -0.023205442024963243 0.039303054396118822 0 -0.02559809183844455 0.036165706437872522 0 -0.026487708465546343 0.040315286146020007 0 -0.027057953203177883 0.040347959497202927 0 -0.026952223080280873 0.040802934947397194 0 -0.027489692633609068 0.040246213762926454 0 -0.026952223080280873 0.040802934947397194 0 -0.027430968001090565 0.04129732082515733 0 -0.027489692633609068 0.040246213762926454 0 -0.027057953203177883 0.040347959497202927 0 -0.026952223080280873 0.040802934947397194 0 -0.023205442024963243 0.039303054396118822 0 -0.025437738399777421 0.043333413302077864 0 -0.022125980344672898 0.0415744614395442 0 -0.022591348121935081 0.042390768383674934 0 -0.022067681584931841 0.042470074137564394 0 -0.023205442024963243 0.039303054396118822 0 -0.021987643226011495 0.041102835504933447 0 -0.020674436457004074 0.037807771626635532 0 -0.021880712965667064 0.039837640495214072 0 -0.022446081860930972 0.037886919717707628 0 -0.022591348121935081 0.042390768383674934 0 -0.022067681584931841 0.042470074137564394 0 -0.022562582492826364 0.042965235100085909 0 -0.025437738399777421 0.043333413302077864 0 -0.022243704426381461 0.042850123991473803 0 -0.025437738399777421 0.043333413302077864 0 -0.026232671643564964 0.044327998052920689 0 -0.029780931429492261 0.045710743795401763 0 -0.030170407502847985 0.045627257071832981 0 -0.029802247462510104 0.045138147641570814 0 -0.03019541735106682 0.046066087820652774 0 -0.030170407502847985 0.045627257071832981 0 -0.030397988036216482 0.045809250755089084 0 -0.029172548373633349 0.043900979932953166 0 -0.025437738399777421 0.043333413302077864 0 -0.03019541735106682 0.046066087820652774 0 -0.029780931429492261 0.045710743795401763 0 -0.030170407502847985 0.045627257071832981 0 -0.030170407502847985 0.045627257071832981 0 -0.030558041129146677 0.04558233612066398 0 -0.030236813241272621 0.045274409918400392 0 -0.030558041129146677 0.04558233612066398 0 -0.030571884931428771 0.045263059406726619 0 -0.030812855602546985 0.045377753559244179 0 -0.030558041129146677 0.04558233612066398 0 -0.030933015609840131 0.045669672421153863 0 -0.030812855602546985 0.045377753559244179 0 -0.030632562335031255 0.045951614921782118 0 -0.030944089689054245 0.045996971872880911 0 -0.030933015609840131 0.045669672421153863 0 -0.030558041129146677 0.04558233612066398 0 -0.030632562335031255 0.045951614921782118 0 -0.030933015609840131 0.045669672421153863 0 -0.030170407502847985 0.045627257071832981 0 -0.030558041129146677 0.04558233612066398 0 -0.030397988036216482 0.045809250755089084 0 -0.030558041129146677 0.04558233612066398 0 -0.030397988036216482 0.045809250755089084 0 -0.030632562335031255 0.045951614921782118 0 -0.030588300349977698 0.0463842633031483 0 -0.03019541735106682 0.046066087820652774 0 -0.030632562335031255 0.045951614921782118 0 -0.03019541735106682 0.046066087820652774 0 -0.030397988036216482 0.045809250755089084 0 -0.030632562335031255 0.045951614921782118 0 -0.030588300349977698 0.0463842633031483 0 -0.030632562335031255 0.045951614921782118 0 -0.030944089689054245 0.045996971872880911 0 -0.029589316009210335 0.038461701991074487 0 -0.029172548373633349 0.043900979932953166 0 -0.029615522882675733 0.032678789442121089 0 -0.030787754526044438 0.032957847005734425 0 -0.0321605056112442 0.031742179114607957 0 -0.030588300349977698 0.0463842633031483 0 -0.031219344585234982 0.046148728515954161 0 -0.030944089689054245 0.045996971872880911 0 -0.029589316009210335 0.038461701991074487 0 -0.031682651300417843 0.039036299946019648 0 -0.033465435823062543 0.033005068791238795 0 -0.032009068272838455 0.03304797875219747 0 -0.0321605056112442 0.031742179114607957 0 -0.030787754526044438 0.032957847005734425 0 -0.032009068272838455 0.03304797875219747 0 -0.0321605056112442 0.031742179114607957 0 -0.031219344585234982 0.046148728515954161 0 -0.030944089689054245 0.045996971872880911 0 -0.031304997160826069 0.045860996871751276 0 -0.03164188907270634 0.045904248324398822 0 -0.031304997160826069 0.045860996871751276 0 -0.031145149709646075 0.045363227721041691 0 -0.030944089689054245 0.045996971872880911 0 -0.031304997160826069 0.045860996871751276 0 -0.030933015609840131 0.045669672421153863 0 -0.031304997160826069 0.045860996871751276 0 -0.030933015609840131 0.045669672421153863 0 -0.031145149709646075 0.045363227721041691 0 -0.030933015609840131 0.045669672421153863 0 -0.031145149709646075 0.045363227721041691 0 -0.030812855602546985 0.045377753559244179 0 -0.031604618631358758 0.046234197625178206 0 -0.031522024849987056 0.046289212634603109 0 -0.031744929832404088 0.046237827511207384 0 -0.031720980422105978 0.046241935984133412 0 -0.031456443357969745 0.045989364136130487 0 -0.031744929832404088 0.046237827511207384 0 -0.031252767499719947 0.046581684476390349 0 -0.031615208887126968 0.046347877239797698 0 -0.031688303148383903 0.046134880241628221 0 -0.031744929832404088 0.046237827511207384 0 -0.031720980422105978 0.046241935984133412 0 -0.03171739320237775 0.046249538245365596 0 -0.031744929832404088 0.046237827511207384 0 -0.031615208887126968 0.046347877239797698 0 -0.031145149709646075 0.045363227721041691 0 -0.030812855602546985 0.045377753559244179 0 -0.030504741761010749 0.044925909770741193 0 -0.031340454266503809 0.045749005548589114 0 -0.03127888230936661 0.04566436167441653 0 -0.031720980422105978 0.046241935984133412 0 -0.031357526150157806 0.04609484663818228 0 -0.031456443357969745 0.045989364136130487 0 -0.030558041129146677 0.04558233612066398 0 -0.030571884931428771 0.045263059406726619 0 -0.030236813241272621 0.045274409918400392 0 -0.030571884931428771 0.045263059406726619 0 -0.030402007654034544 0.045128267419724241 0 -0.030236813241272621 0.045274409918400392 0 -0.030571884931428771 0.045263059406726619 0 -0.030812855602546985 0.045377753559244179 0 -0.030504741761010749 0.044925909770741193 0 -0.030402007654034544 0.045128267419724241 0 -0.030504741761010749 0.044925909770741193 0 -0.030217948218392115 0.045072220381170765 0 -0.030571884931428771 0.045263059406726619 0 -0.030402007654034544 0.045128267419724241 0 -0.030504741761010749 0.044925909770741193 0 -0.031252767499719947 0.046581684476390349 0 -0.031615208887126968 0.046347877239797698 0 -0.0315100892496765 0.04627462470220272 0 -0.0309927440916891 0.046308571121648587 0 -0.0315100892496765 0.04627462470220272 0 -0.031244992035573911 0.046090778616407646 0 -0.031252767499719947 0.046581684476390349 0 -0.0309927440916891 0.046308571121648587 0 -0.0315100892496765 0.04627462470220272 0 -0.031746812135117687 0.046326267725630095 0 -0.0315100892496765 0.04627462470220272 0 -0.031698071235321319 0.045822918199072742 0 -0.031746812135117687 0.046326267725630095 0 -0.031615208887126968 0.046347877239797698 0 -0.0315100892496765 0.04627462470220272 0 -0.03239371330009426 0.046271428983589498 0 -0.031752344301043393 0.045829122171030412 0 -0.031746812135117687 0.046326267725630095 0 -0.03171739320237775 0.046249538245365596 0 -0.031615208887126968 0.046347877239797698 0 -0.034294568280925489 0.046029300083375385 0 -0.032189518006304964 0.045502492464414998 0 -0.033843648570002417 0.045135357405608222 0 -0.032782149424216103 0.045667986543251632 0 -0.031765302691880153 0.045038224502195363 0 -0.033192362489776819 0.046434918000785058 0 -0.032782149424216103 0.045667986543251632 0 -0.031698071235321319 0.045822918199072742 0 -0.035760870455012 0.044999960625294814 0 -0.032519600108863768 0.045948756034921288 0 -0.030297815045219788 0.044999997128587217 0 -0.032782149424216103 0.045667986543251632 0 -0.031698071235321319 0.045822918199072742 0 -0.031765302691880153 0.045038224502195363 0 -0.031698071235321319 0.045822918199072742 0 -0.031244992035573911 0.046090778616407646 0 -0.030939347740473147 0.045688190432270029 0 -0.0315100892496765 0.04627462470220272 0 -0.031698071235321319 0.045822918199072742 0 -0.031244992035573911 0.046090778616407646 0 -0.0309927440916891 0.046308571121648587 0 -0.031244992035573911 0.046090778616407646 0 -0.030673095345541704 0.04611290577647606 0 -0.031244992035573911 0.046090778616407646 0 -0.030939347740473147 0.045688190432270029 0 -0.030673095345541704 0.04611290577647606 0 -0.031698071235321319 0.045822918199072742 0 -0.030939347740473147 0.045688190432270029 0 -0.031765302691880153 0.045038224502195363 0 -0.030939347740473147 0.045688190432270029 0 -0.031765302691880153 0.045038224502195363 0 -0.030297486157923159 0.044999179177628489 0 -0.032189518006304964 0.045502492464414998 0 -0.030298226339769117 0.045000071804353635 0 -0.02995755192643593 0.045997575015495375 0 -0.027840523339795357 0.044999962388648201 0 -0.0277737056997523 0.046059343267627811 0 -0.030297486157923159 0.044999179177628489 0 -0.02995755192643593 0.045997575015495375 0 -0.027840523339795357 0.044999962388648201 0 -0.030939347740473147 0.045688190432270029 0 -0.030297486157923159 0.044999179177628489 0 -0.02995755192643593 0.045997575015495375 0 -0.02995755192643593 0.045997575015495375 0 -0.030673095345541704 0.04611290577647606 0 -0.030214689822077472 0.046434855212738518 0 -0.030939347740473147 0.045688190432270029 0 -0.02995755192643593 0.045997575015495375 0 -0.030673095345541704 0.04611290577647606 0 -0.030004822584482432 0.046407334872928745 0 -0.029406201066519942 0.046173488385646194 0 -0.026406867715047504 0.04520239293900654 0 -0.027916275104840235 0.045678699931913022 0 -0.024917471075915319 0.044376920752460004 0 -0.029406201066519942 0.046173488385646194 0 -0.025249628146956433 0.045226563138494408 0 -0.02995755192643593 0.045997575015495375 0 -0.029850701934179668 0.047815951804698789 0 -0.027251603045221229 0.046826644456023817 0 -0.02995755192643593 0.045997575015495375 0 -0.027251603045221229 0.046826644456023817 0 -0.0277737056997523 0.046059343267627811 0 -0.022715790709535708 0.043437571391218101 0 -0.022631077131808609 0.04351612826840185 0 -0.022663273660930301 0.043350271829773315 0 -0.024028912436009141 0.044063854791856198 0 -0.028265678853435425 0.044738132668123175 0 -0.022702527709229783 0.043628973324443286 0 -0.022715790709535708 0.043437571391218101 0 -0.022631077131808609 0.04351612826840185 0 -0.026406867715047504 0.04520239293900654 0 -0.027916275104840235 0.045678699931913022 0 -0.027896915408045151 0.046028482623510586 0 -0.022702527709229783 0.043628973324443286 0 -0.022715790709535708 0.043437571391218101 0 -0.022798102970443546 0.043450785221734359 0 -0.031357526150157806 0.04609484663818228 0 -0.031456443357969745 0.045989364136130487 0 -0.030680010128378874 0.04572275205532695 0 -0.030504741761010749 0.044925909770741193 0 -0.029823599937548757 0.044531429636977565 0 -0.030100348115242336 0.044907488513873384 0 -0.031252767499719947 0.046581684476390349 0 -0.0309927440916891 0.046308571121648587 0 -0.030214689822077472 0.046434855212738518 0 -0.03127888230936661 0.04566436167441653 0 -0.028265678853435425 0.044738132668123175 0 -0.031456443357969745 0.045989364136130487 0 -0.030685346916503986 0.045607773633614644 0 -0.030680010128378874 0.04572275205532695 0 -0.028265678853435425 0.044738132668123175 0 -0.026232671643564964 0.044327998052920689 0 -0.031522024849987056 0.046289212634603109 0 -0.029406201066519942 0.046173488385646194 0 -0.0309927440916891 0.046308571121648587 0 -0.030673095345541704 0.04611290577647606 0 -0.030214689822077472 0.046434855212738518 0 -0.029406201066519942 0.046173488385646194 0 -0.028265678853435425 0.044738132668123175 0 -0.029823599937548757 0.044531429636977565 0 -0.030100348115242336 0.044907488513873384 0 -0.029802247462510104 0.045138147641570814 0 -0.030504741761010749 0.044925909770741193 0 -0.030100348115242336 0.044907488513873384 0 -0.030217948218392115 0.045072220381170765 0 -0.030100348115242336 0.044907488513873384 0 -0.030217948218392115 0.045072220381170765 0 -0.029802247462510104 0.045138147641570814 0 -0.030217948218392115 0.045072220381170765 0 -0.029802247462510104 0.045138147641570814 0 -0.030236813241272621 0.045274409918400392 0 -0.030170407502847985 0.045627257071832981 0 -0.029802247462510104 0.045138147641570814 0 -0.030236813241272621 0.045274409918400392 0 -0.030402007654034544 0.045128267419724241 0 -0.030217948218392115 0.045072220381170765 0 -0.030236813241272621 0.045274409918400392 0 -0.022715790709535708 0.043437571391218101 0 -0.022768950211639903 0.043313251257381558 0 -0.022798102970443546 0.043450785221734359 0 -0.022694734172508568 0.043238260824857759 0 -0.022663273660930301 0.043350271829773315 0 -0.022768950211639903 0.043313251257381558 0 -0.022715790709535708 0.043437571391218101 0 -0.022663273660930301 0.043350271829773315 0 -0.022768950211639903 0.043313251257381558 0 -0.022591348121935081 0.042390768383674934 0 -0.022562582492826364 0.042965235100085909 0 -0.022947853265946463 0.043125208690586628 0 -0.022768950211639903 0.043313251257381558 0 -0.022798102970443546 0.043450785221734359 0 -0.022968632814436733 0.043366518365914458 0 -0.022562582492826364 0.042965235100085909 0 -0.022947853265946463 0.043125208690586628 0 -0.022968632814436733 0.043366518365914458 0 -0.022243704426381461 0.042850123991473803 0 -0.023087383963168735 0.043485205039553027 0 -0.022543103231119882 0.041689363265850002 0 -0.023444466091286142 0.041014631633224038 0 -0.022861658670467841 0.040269087836230399 0 -0.023444466091286142 0.041014631633224038 0 -0.023488771288804357 0.042271377305340828 0 -0.024255103508475651 0.041407180845771406 0 -0.022543103231119882 0.041689363265850002 0 -0.023444466091286142 0.041014631633224038 0 -0.023488771288804357 0.042271377305340828 0 -0.02280503883852621 0.042451373847981796 0 -0.02326008171533317 0.043494068602456581 0 -0.023271602958840593 0.043569258947443575 0 -0.022968632814436733 0.043366518365914458 0 -0.02287231149302146 0.043577181059664162 0 -0.022543103231119882 0.041689363265850002 0 -0.023488771288804357 0.042271377305340828 0 -0.023271602958840593 0.043569258947443575 0 -0.022947853265946463 0.043125208690586628 0 -0.023271602958840593 0.043569258947443575 0 -0.022968632814436733 0.043366518365914458 0 -0.022798102970443546 0.043450785221734359 0 -0.022968632814436733 0.043366518365914458 0 -0.02287231149302146 0.043577181059664162 0 -0.022702527709229783 0.043628973324443286 0 -0.022798102970443546 0.043450785221734359 0 -0.02287231149302146 0.043577181059664162 0 -0.022702527709229783 0.043628973324443286 0 -0.02287231149302146 0.043577181059664162 0 -0.02283209175105743 0.043895464157024333 0 -0.024028912436009141 0.044063854791856198 0 -0.025249628146956433 0.045226563138494408 0 -0.023271602958840593 0.043569258947443575 0 -0.02287231149302146 0.043577181059664162 0 -0.02283209175105743 0.043895464157024333 0 -0.027251603045221229 0.046826644456023817 0 -0.027108099981428876 0.046770052489545688 0 -0.0277737056997523 0.046059343267627811 0 -0.025249628146956433 0.045226563138494408 0 -0.025113252383329836 0.045242480139175381 0 -0.023271602958840593 0.043569258947443575 0 -0.02283209175105743 0.043895464157024333 0 -0.02286627377478774 0.043928555164040733 0 -0.025113252383329836 0.045242480139175381 0 -0.024442663121862419 0.045289024894942721 0 -0.023271602958840593 0.043569258947443575 0 -0.02286627377478774 0.043928555164040733 0 -0.023299353571298191 0.04441252918820731 0 -0.027108099981428876 0.046770052489545688 0 -0.025583995020913936 0.046172394985001614 0 -0.026736820799509026 0.045763076455348856 0 -0.025380454537722055 0.044999595074770846 0 -0.027840523339795357 0.044999962388648201 0 -0.026736820799509026 0.045763076455348856 0 -0.025583995020913936 0.046172394985001614 0 -0.025380454537722055 0.044999595074770846 0 -0.026736820799509026 0.045763076455348856 0 -0.027840523339795357 0.044999962388648201 0 -0.0277737056997523 0.046059343267627811 0 -0.026736820799509026 0.045763076455348856 0 -0.027108099981428876 0.046770052489545688 0 -0.0277737056997523 0.046059343267627811 0 -0.026736820799509026 0.045763076455348856 0 -0.022928090246512451 0.044999422176166891 0 -0.023810544030935535 0.045140413582781758 0 -0.024179968010285924 0.044299111615006596 0 -0.025380454537722055 0.044999595074770846 0 -0.022928090246512451 0.044999422176166891 0 -0.023810544030935535 0.045140413582781758 0 -0.024442663121862419 0.045289024894942721 0 -0.023920332551292754 0.045155055505410081 0 -0.023299353571298191 0.04441252918820731 0 -0.023810544030935535 0.045140413582781758 0 -0.023874475742556404 0.044149528559957393 0 -0.025583995020913936 0.046172394985001614 0 -0.025380454537722055 0.044999595074770846 0 -0.023810544030935535 0.045140413582781758 0 -0.023271602958840593 0.043569258947443575 0 -0.023299353571298191 0.04441252918820731 0 -0.023874475742556404 0.044149528559957393 0 -0.023874475742556404 0.044149528559957393 0 -0.024179968010285924 0.044299111615006596 0 -0.024817084231598188 0.043040113543923245 0 -0.023810544030935535 0.045140413582781758 0 -0.023874475742556404 0.044149528559957393 0 -0.024179968010285924 0.044299111615006596 0 -0.024975759943641106 0.043417630219363582 0 -0.024179968010285924 0.044299111615006596 0 -0.024817084231598188 0.043040113543923245 0 -0.023488771288804357 0.042271377305340828 0 -0.023271602958840593 0.043569258947443575 0 -0.024817084231598188 0.043040113543923245 0 -0.023271602958840593 0.043569258947443575 0 -0.023874475742556404 0.044149528559957393 0 -0.024817084231598188 0.043040113543923245 0 -0.023488771288804357 0.042271377305340828 0 -0.024817084231598188 0.043040113543923245 0 -0.024255103508475651 0.041407180845771406 0 -0.027411096136603325 0.04136031147977514 0 -0.024817084231598188 0.043040113543923245 0 -0.025706102545285145 0.040079032426443527 0 -0.024817084231598188 0.043040113543923245 0 -0.024255103508475651 0.041407180845771406 0 -0.025706102545285145 0.040079032426443527 0 -0.025706102545285145 0.040079032426443527 0 -0.024710770942981738 0.038919589083728022 0 -0.025875064372361697 0.03796753225940791 0 -0.027119838003669849 0.03870160393017115 0 -0.025706102545285145 0.040079032426443527 0 -0.025875064372361697 0.03796753225940791 0 -0.024710770942981738 0.038919589083728022 0 -0.024316539668099268 0.040223637638648814 0 -0.02358862706290701 0.039707459541358084 0 -0.025706102545285145 0.040079032426443527 0 -0.024710770942981738 0.038919589083728022 0 -0.024316539668099268 0.040223637638648814 0 -0.024255103508475651 0.041407180845771406 0 -0.025706102545285145 0.040079032426443527 0 -0.024316539668099268 0.040223637638648814 0 -0.023444466091286142 0.041014631633224038 0 -0.024255103508475651 0.041407180845771406 0 -0.024316539668099268 0.040223637638648814 0 -0.023444466091286142 0.041014631633224038 0 -0.024316539668099268 0.040223637638648814 0 -0.02358862706290701 0.039707459541358084 0 -0.023444466091286142 0.041014631633224038 0 -0.02358862706290701 0.039707459541358084 0 -0.022861658670467841 0.040269087836230399 0 -0.02358862706290701 0.039707459541358084 0 -0.022861658670467841 0.040269087836230399 0 -0.022866749759457291 0.039056764872126781 0 -0.021880712965667064 0.039837640495214072 0 -0.022543103231119882 0.041689363265850002 0 -0.022861658670467841 0.040269087836230399 0 -0.021987643226011495 0.041102835504933447 0 -0.02280503883852621 0.042451373847981796 0 -0.021880712965667064 0.039837640495214072 0 -0.022861658670467841 0.040269087836230399 0 -0.022866749759457291 0.039056764872126781 0 -0.021880712965667064 0.039837640495214072 0 -0.022866749759457291 0.039056764872126781 0 -0.022446081860930972 0.037886919717707628 0 -0.022866749759457291 0.039056764872126781 0 -0.023890057215688043 0.037796991853335571 0 -0.022446081860930972 0.037886919717707628 0 -0.024710770942981738 0.038919589083728022 0 -0.02358862706290701 0.039707459541358084 0 -0.023890057215688043 0.037796991853335571 0 -0.02358862706290701 0.039707459541358084 0 -0.022866749759457291 0.039056764872126781 0 -0.023890057215688043 0.037796991853335571 0 -0.023890057215688043 0.037796991853335571 0 -0.023657846634557462 0.035936873196218612 0 -0.024257449417320699 0.036352279874728534 0 -0.023890057215688043 0.037796991853335571 0 -0.024257449417320699 0.036352279874728534 0 -0.024994358835289804 0.037049396517027183 0 -0.023890057215688043 0.037796991853335571 0 -0.022446081860930972 0.037886919717707628 0 -0.023657846634557462 0.035936873196218612 0 -0.023657846634557462 0.035936873196218612 0 -0.024227797919258161 0.036027432034607697 0 -0.024825375265786095 0.036189519700300363 0 -0.023657846634557462 0.035936873196218612 0 -0.024257449417320699 0.036352279874728534 0 -0.024227797919258161 0.036027432034607697 0 -0.025721918858446682 0.036699671647862912 0 -0.024994358835289804 0.037049396517027183 0 -0.024636339803497553 0.035689906355567132 0 -0.024257449417320699 0.036352279874728534 0 -0.024994358835289804 0.037049396517027183 0 -0.024636339803497553 0.035689906355567132 0 -0.026516724348489822 0.037077551155374665 0 -0.025721918858446682 0.036699671647862912 0 -0.026155108341938595 0.035928481428246395 0 -0.025721918858446682 0.036699671647862912 0 -0.025875064372361697 0.03796753225940791 0 -0.024994358835289804 0.037049396517027183 0 -0.026516724348489822 0.037077551155374665 0 -0.025721918858446682 0.036699671647862912 0 -0.025875064372361697 0.03796753225940791 0 -0.024710770942981738 0.038919589083728022 0 -0.025875064372361697 0.03796753225940791 0 -0.024994358835289804 0.037049396517027183 0 -0.024710770942981738 0.038919589083728022 0 -0.023890057215688043 0.037796991853335571 0 -0.024994358835289804 0.037049396517027183 0 -0.026206851192115847 0.034816250994063415 0 -0.025106925375896667 0.035383217418074542 0 -0.025374529571139309 0.034491307597145963 0 -0.026206851192115847 0.034816250994063415 0 -0.0253910494667898 0.035840146869307019 0 -0.025106925375896667 0.035383217418074542 0 -0.026206851192115847 0.034816250994063415 0 -0.026313395752612448 0.035479094982704878 0 -0.0253910494667898 0.035840146869307019 0 -0.027033832192785871 0.035261894739135942 0 -0.026206851192115847 0.034816250994063415 0 -0.026313395752612448 0.035479094982704878 0 -0.02640630790882386 0.036009727914605889 0 -0.025024422251692574 0.035792109518938936 0 -0.025721918858446682 0.036699671647862912 0 -0.026155108341938595 0.035928481428246395 0 -0.024636339803497553 0.035689906355567132 0 -0.026313395752612448 0.035479094982704878 0 -0.026613139358877953 0.036061073735341315 0 -0.0253910494667898 0.035840146869307019 0 -0.027033832192785871 0.035261894739135942 0 -0.026313395752612448 0.035479094982704878 0 -0.026613139358877953 0.036061073735341315 0 -0.025024422251692574 0.035792109518938936 0 -0.024539939752444777 0.035911848461043783 0 -0.024636339803497553 0.035689906355567132 0 -0.024227797919258161 0.036027432034607697 0 -0.024510726819914359 0.035974498195017149 0 -0.024257449417320699 0.036352279874728534 0 -0.024636339803497553 0.035689906355567132 0 -0.024227797919258161 0.036027432034607697 0 -0.024227797919258161 0.036027432034607697 0 -0.024510726819914359 0.035974498195017149 0 -0.024825375265786095 0.036189519700300363 0 -0.02468534272340437 0.036134248144275717 0 -0.024510726819914359 0.035974498195017149 0 -0.024825375265786095 0.036189519700300363 0 -0.028167156678682411 0.032595534633834161 0 -0.029937009503354619 0.032352637024913568 0 -0.02468534272340437 0.036134248144275717 0 -0.024549602924279081 0.035541909722934681 0 -0.024870982449194716 0.036428499214501475 0 -0.03200851702818832 0.029517982927339863 0 -0.032744107797621019 0.029764959459277023 0 -0.033324404483383432 0.028997126366433174 0 -0.02468534272340437 0.036134248144275717 0 -0.024510726819914359 0.035974498195017149 0 -0.024549602924279081 0.035541909722934681 0 -0.024510726819914359 0.035974498195017149 0 -0.024549602924279081 0.035541909722934681 0 -0.025106925375896667 0.035383217418074542 0 -0.024549602924279081 0.035541909722934681 0 -0.025106925375896667 0.035383217418074542 0 -0.025374529571139309 0.034491307597145963 0 -0.0253910494667898 0.035840146869307019 0 -0.024510726819914359 0.035974498195017149 0 -0.025106925375896667 0.035383217418074542 0 -0.028167156678682411 0.032595534633834161 0 -0.028002746958897387 0.032316378771796703 0 -0.030758447689162 0.031048406909113539 0 -0.031667551115626198 0.030672430424129208 0 -0.030500490322309715 0.030160618893325636 0 -0.03200851702818832 0.029517982927339863 0 -0.031667551115626198 0.030672430424129208 0 -0.030500490322309715 0.030160618893325636 0 -0.03200851702818832 0.029517982927339863 0 -0.032432390482468133 0.03005624436892107 0 -0.031667551115626198 0.030672430424129208 0 -0.032432390482468133 0.03005624436892107 0 -0.031667551115626198 0.030672430424129208 0 -0.033206503641101739 0.030491017912221096 0 -0.03200851702818832 0.029517982927339863 0 -0.032432390482468133 0.03005624436892107 0 -0.032744107797621019 0.029764959459277023 0 -0.032432390482468133 0.03005624436892107 0 -0.032744107797621019 0.029764959459277023 0 -0.033206503641101739 0.030491017912221096 0 -0.031667551115626198 0.030672430424129208 0 -0.031814379336344331 0.031651889125111798 0 -0.033206503641101739 0.030491017912221096 0 -0.031814379336344331 0.031651889125111798 0 -0.033264773907634111 0.031973214837802737 0 -0.033206503641101739 0.030491017912221096 0 -0.030758447689162 0.031048406909113539 0 -0.031667551115626198 0.030672430424129208 0 -0.031814379336344331 0.031651889125111798 0 -0.030758447689162 0.031048406909113539 0 -0.030282022983299836 0.031894233229219325 0 -0.031814379336344331 0.031651889125111798 0 -0.030758447689162 0.031048406909113539 0 -0.02896245808949436 0.031083451121655347 0 -0.030282022983299836 0.031894233229219325 0 -0.030758447689162 0.031048406909113539 0 -0.030500490322309715 0.030160618893325636 0 -0.02896245808949436 0.031083451121655347 0 -0.028002746958897387 0.032316378771796703 0 -0.027745467944524402 0.032333637490693921 0 -0.026206851192115847 0.034816250994063415 0 -0.025374529571139309 0.034491307597145963 0 -0.02639410096018099 0.033554378947140667 0 -0.027352560020862435 0.033854617073793218 0 -0.026206851192115847 0.034816250994063415 0 -0.02639410096018099 0.033554378947140667 0 -0.02850343473310897 0.032207218078661601 0 -0.02896245808949436 0.031083451121655347 0 -0.029355779222454009 0.03254377203271145 0 -0.02896245808949436 0.031083451121655347 0 -0.029355779222454009 0.03254377203271145 0 -0.030282022983299836 0.031894233229219325 0 -0.028680291221485382 0.033378463523070175 0 -0.02850343473310897 0.032207218078661601 0 -0.029355779222454009 0.03254377203271145 0 -0.029355779222454009 0.03254377203271145 0 -0.030282022983299836 0.031894233229219325 0 -0.030396471347384938 0.032730176467543656 0 -0.030282022983299836 0.031894233229219325 0 -0.030396471347384938 0.032730176467543656 0 -0.031148447165348491 0.032448356849428941 0 -0.029355779222454009 0.03254377203271145 0 -0.030396471347384938 0.032730176467543656 0 -0.029737011375237366 0.033273538737755681 0 -0.030396471347384938 0.032730176467543656 0 -0.030507425879856487 0.033295521970258521 0 -0.030779687993335112 0.032958334611408478 0 -0.030396471347384938 0.032730176467543656 0 -0.029737011375237366 0.033273538737755681 0 -0.030507425879856487 0.033295521970258521 0 -0.028680291221485382 0.033378463523070175 0 -0.029355779222454009 0.03254377203271145 0 -0.029737011375237366 0.033273538737755681 0 -0.025462324229355553 0.032127242921479837 0 -0.029188435568712989 0.033109380631588227 0 -0.022947986466696983 0.031067199554942686 0 -0.023860214989243927 0.032011635312757782 0 -0.023036300792564472 0.032114216404996579 0 -0.028680291221485382 0.033378463523070175 0 -0.029737011375237366 0.033273538737755681 0 -0.02970112588847533 0.034542375805528415 0 -0.029188435568712989 0.033109380631588227 0 -0.031577404763609818 0.033439393632412918 0 -0.029737011375237366 0.033273538737755681 0 -0.030507425879856487 0.033295521970258521 0 -0.02970112588847533 0.034542375805528415 0 -0.031406493813946904 0.033057007503127088 0 -0.031217574649845939 0.033002540261039097 0 -0.031207513573832352 0.033115091124656409 0 -0.031406493813946904 0.033057007503127088 0 -0.031207513573832352 0.033115091124656409 0 -0.031145466396121774 0.033283985356517984 0 -0.030507425879856487 0.033295521970258521 0 -0.02970112588847533 0.034542375805528415 0 -0.031145466396121774 0.033283985356517984 0 -0.031406493813946904 0.033057007503127088 0 -0.031197595866949149 0.03287433593340322 0 -0.031217574649845939 0.033002540261039097 0 -0.030875519204428478 0.032427669111921423 0 -0.031197595866949149 0.03287433593340322 0 -0.030867073321505314 0.032866273632351901 0 -0.029188435568712989 0.033109380631588227 0 -0.031588745050472461 0.033019010517099288 0 -0.022698263849341326 0.032827898002060728 0 -0.023860214989243927 0.032011635312757782 0 -0.023036300792564472 0.032114216404996579 0 -0.030875519204428478 0.032427669111921423 0 -0.030513132819746751 0.032740117331356025 0 -0.030687076823592275 0.0328174843534993 0 -0.030875519204428478 0.032427669111921423 0 -0.030687076823592275 0.0328174843534993 0 -0.030867073321505314 0.032866273632351901 0 -0.030342199897543831 0.032739958502390983 0 -0.030875519204428478 0.032427669111921423 0 -0.030513132819746751 0.032740117331356025 0 -0.024485817897673602 0.029889893788633416 0 -0.029188435568712989 0.033109380631588227 0 -0.031196531435421802 0.032993950152482798 0 -0.03116412725909928 0.03309499126994972 0 -0.031220963619639441 0.032995131935329644 0 -0.031196531435421802 0.032993950152482798 0 -0.031181349438592708 0.033049969941471025 0 -0.03116412725909928 0.03309499126994972 0 -0.031196531435421802 0.032993950152482798 0 -0.031220963619639441 0.032995131935329644 0 -0.031221453910658396 0.032962873742523616 0 -0.031196531435421802 0.032993950152482798 0 -0.031195414317096225 0.032964764093281661 0 -0.031212122604485904 0.032946476842941337 0 -0.031197595866949149 0.03287433593340322 0 -0.031195414317096225 0.032964764093281661 0 -0.031217574649845939 0.033002540261039097 0 -0.031197595866949149 0.03287433593340322 0 -0.031195414317096225 0.032964764093281661 0 -0.031212122604485904 0.032946476842941337 0 -0.031195414317096225 0.032964764093281661 0 -0.031217574649845939 0.033002540261039097 0 -0.031181349438592708 0.033049969941471025 0 -0.031196531435421802 0.032993950152482798 0 -0.031195414317096225 0.032964764093281661 0 -0.031181349438592708 0.033049969941471025 0 -0.031181349438592708 0.033049969941471025 0 -0.031207513573832352 0.033115091124656409 0 -0.031161609117985274 0.033168180868862508 0 -0.031217574649845939 0.033002540261039097 0 -0.031181349438592708 0.033049969941471025 0 -0.031207513573832352 0.033115091124656409 0 -0.031207513573832352 0.033115091124656409 0 -0.031161609117985274 0.033168180868862508 0 -0.031145466396121774 0.033283985356517984 0 -0.031161609117985274 0.033168180868862508 0 -0.03116412725909928 0.03309499126994972 0 -0.031156629850612474 0.033217231266983248 0 -0.031181349438592708 0.033049969941471025 0 -0.031161609117985274 0.033168180868862508 0 -0.03116412725909928 0.03309499126994972 0 -0.032878307751707088 0.034699037257437004 0 -0.032411200470399859 0.032926528264689559 0 -0.034300992736042743 0.03341956165292273 0 -0.032078308955352589 0.033899891908756682 0 -0.031198021868933695 0.03325947000801463 0 -0.032878307751707088 0.034699037257437004 0 -0.032411200470399859 0.032926528264689559 0 -0.031156629850612474 0.033217231266983248 0 -0.032411200470399859 0.032926528264689559 0 -0.031156629850612474 0.033217231266983248 0 -0.031148447165348491 0.032448356849428941 0 -0.030507425879856487 0.033295521970258521 0 -0.031145466396121774 0.033283985356517984 0 -0.031156629850612474 0.033217231266983248 0 -0.031161609117985274 0.033168180868862508 0 -0.031145466396121774 0.033283985356517984 0 -0.031156629850612474 0.033217231266983248 0 -0.031156629850612474 0.033217231266983248 0 -0.030779687993335112 0.032958334611408478 0 -0.031148447165348491 0.032448356849428941 0 -0.030507425879856487 0.033295521970258521 0 -0.031156629850612474 0.033217231266983248 0 -0.030779687993335112 0.032958334611408478 0 -0.030282022983299836 0.031894233229219325 0 -0.031814379336344331 0.031651889125111798 0 -0.031148447165348491 0.032448356849428941 0 -0.032411200470399859 0.032926528264689559 0 -0.031814379336344331 0.031651889125111798 0 -0.031148447165348491 0.032448356849428941 0 -0.030396471347384938 0.032730176467543656 0 -0.030779687993335112 0.032958334611408478 0 -0.031148447165348491 0.032448356849428941 0 -0.032411200470399859 0.032926528264689559 0 -0.031814379336344331 0.031651889125111798 0 -0.033264773907634111 0.031973214837802737 0 -0.033264773907634111 0.031973214837802737 0 -0.035095824849116788 0.031010215306705408 0 -0.035771923073535918 0.032392172256093636 0 -0.035095824849116788 0.031010215306705408 0 -0.035771923073535918 0.032392172256093636 0 -0.036768618942536621 0.031182847889074789 0 -0.035771923073535918 0.032392172256093636 0 -0.036712799502205296 0.033795189968201897 0 -0.034300992736042743 0.03341956165292273 0 -0.032411200470399859 0.032926528264689559 0 -0.033264773907634111 0.031973214837802737 0 -0.034300992736042743 0.03341956165292273 0 -0.033264773907634111 0.031973214837802737 0 -0.035771923073535918 0.032392172256093636 0 -0.034300992736042743 0.03341956165292273 0 -0.032078308955352589 0.033899891908756682 0 -0.032908929444021351 0.034727057502358313 0 -0.032878307751707088 0.034699037257437004 0 -0.03526858184564325 0.034836858164838044 0 -0.035045851281949328 0.036378877695993475 0 -0.032878307751707088 0.034699037257437004 0 -0.034300992736042743 0.03341956165292273 0 -0.03526858184564325 0.034836858164838044 0 -0.036712799502205296 0.033795189968201897 0 -0.034300992736042743 0.03341956165292273 0 -0.03526858184564325 0.034836858164838044 0 -0.036712799502205296 0.033795189968201897 0 -0.03526858184564325 0.034836858164838044 0 -0.036894729315898975 0.035978813127018464 0 -0.036805707199786451 0.033703907310536539 0 -0.037431172352505267 0.035847586167675284 0 -0.032908929444021351 0.034727057502358313 0 -0.036243328373675457 0.034484588810397142 0 -0.031307128753100474 0.03296087840947063 0 -0.031545301936053552 0.033033132876912827 0 -0.031278507553848818 0.033014671251586303 0 -0.035045851281949328 0.036378877695993475 0 -0.036894729315898975 0.035978813127018464 0 -0.037191538555561697 0.037982922544474135 0 -0.03526858184564325 0.034836858164838044 0 -0.035045851281949328 0.036378877695993475 0 -0.036894729315898975 0.035978813127018464 0 -0.031307128753100474 0.03296087840947063 0 -0.031220963619639441 0.032995131935329644 0 -0.031278507553848818 0.033014671251586303 0 -0.03116412725909928 0.03309499126994972 0 -0.031307128753100474 0.03296087840947063 0 -0.031220963619639441 0.032995131935329644 0 -0.03914856332621211 0.035230713029504868 0 -0.04032489284603219 0.034646282354492547 0 -0.040188195050497838 0.03555074675182146 0 -0.03914856332621211 0.035230713029504868 0 -0.040188195050497838 0.03555074675182146 0 -0.039768500692506863 0.035611860896093465 0 -0.03914856332621211 0.035230713029504868 0 -0.037804478989312197 0.034944253414944407 0 -0.038130476425480453 0.034266373454551621 0 -0.037431172352505267 0.035847586167675284 0 -0.036243328373675457 0.034484588810397142 0 -0.03914856332621211 0.035230713029504868 0 -0.037804478989312197 0.034944253414944407 0 -0.03846689123105549 0.035699198582419323 0 -0.036712799502205296 0.033795189968201897 0 -0.037804478989312197 0.034944253414944407 0 -0.038130476425480453 0.034266373454551621 0 -0.03914856332621211 0.035230713029504868 0 -0.038130476425480453 0.034266373454551621 0 -0.039317421549613894 0.034009016160045057 0 -0.03914856332621211 0.035230713029504868 0 -0.039317421549613894 0.034009016160045057 0 -0.04032489284603219 0.034646282354492547 0 -0.038130476425480453 0.034266373454551621 0 -0.039317421549613894 0.034009016160045057 0 -0.0382495933352675 0.032803773496525697 0 -0.039475427523910846 0.032968209288398505 0 -0.0382495933352675 0.032803773496525697 0 -0.039793890849293037 0.031837175894117081 0 -0.039317421549613894 0.034009016160045057 0 -0.039475427523910846 0.032968209288398505 0 -0.040542603742372015 0.0331576920981786 0 -0.039317421549613894 0.034009016160045057 0 -0.039475427523910846 0.032968209288398505 0 -0.0382495933352675 0.032803773496525697 0 -0.035771923073535918 0.032392172256093636 0 -0.036712799502205296 0.033795189968201897 0 -0.0382495933352675 0.032803773496525697 0 -0.036712799502205296 0.033795189968201897 0 -0.038130476425480453 0.034266373454551621 0 -0.0382495933352675 0.032803773496525697 0 -0.0382495933352675 0.032803773496525697 0 -0.036768618942536621 0.031182847889074789 0 -0.038514220736994058 0.031045561365988621 0 -0.035771923073535918 0.032392172256093636 0 -0.0382495933352675 0.032803773496525697 0 -0.036768618942536621 0.031182847889074789 0 -0.0382495933352675 0.032803773496525697 0 -0.039793890849293037 0.031837175894117081 0 -0.038514220736994058 0.031045561365988621 0 -0.039793890849293037 0.031837175894117081 0 -0.038514220736994058 0.031045561365988621 0 -0.039828326200637219 0.030450267798494204 0 -0.038514220736994058 0.031045561365988621 0 -0.039828326200637219 0.030450267798494204 0 -0.038770160158676799 0.029896554543502509 0 -0.038514220736994058 0.031045561365988621 0 -0.038770160158676799 0.029896554543502509 0 -0.037414944291754744 0.029825066974524091 0 -0.038770160158676799 0.029896554543502509 0 -0.039728912758993373 0.029200024080018736 0 -0.038382203287335909 0.028748411372105626 0 -0.038770160158676799 0.029896554543502509 0 -0.038382203287335909 0.028748411372105626 0 -0.037414944291754744 0.029825066974524091 0 -0.039828326200637219 0.030450267798494204 0 -0.038770160158676799 0.029896554543502509 0 -0.039728912758993373 0.029200024080018736 0 -0.039728912758993373 0.029200024080018736 0 -0.038382203287335909 0.028748411372105626 0 -0.039570181980738632 0.028088269068506651 0 -0.038382203287335909 0.028748411372105626 0 -0.039570181980738632 0.028088269068506651 0 -0.03820874677070301 0.027312663995173795 0 -0.038382203287335909 0.028748411372105626 0 -0.036613286038576234 0.028213282181416728 0 -0.037414944291754744 0.029825066974524091 0 -0.036613286038576234 0.028213282181416728 0 -0.037414944291754744 0.029825066974524091 0 -0.035682410738404662 0.029596612269636533 0 -0.038382203287335909 0.028748411372105626 0 -0.036613286038576234 0.028213282181416728 0 -0.03820874677070301 0.027312663995173795 0 -0.036768618942536621 0.031182847889074789 0 -0.038514220736994058 0.031045561365988621 0 -0.037414944291754744 0.029825066974524091 0 -0.036768618942536621 0.031182847889074789 0 -0.037414944291754744 0.029825066974524091 0 -0.035682410738404662 0.029596612269636533 0 -0.035095824849116788 0.031010215306705408 0 -0.035682410738404662 0.029596612269636533 0 -0.033541110353889236 0.029136866179445432 0 -0.035095824849116788 0.031010215306705408 0 -0.036768618942536621 0.031182847889074789 0 -0.035682410738404662 0.029596612269636533 0 -0.033107629578982112 0.0323231727246815 0 -0.03383824012253342 0.02874494792767579 0 -0.033264773907634111 0.031973214837802737 0 -0.035095824849116788 0.031010215306705408 0 -0.033541110353889236 0.029136866179445432 0 -0.03383824012253342 0.02874494792767579 0 -0.029937009503354619 0.032352637024913568 0 -0.032744107797621019 0.029764959459277023 0 -0.033206503641101739 0.030491017912221096 0 -0.033324404483383432 0.028997126366433174 0 -0.033541110353889236 0.029136866179445432 0 -0.034729483752396435 0.028140548193376868 0 -0.033334387155191041 0.026682309879891661 0 -0.036613286038576234 0.028213282181416728 0 -0.034729483752396435 0.028140548193376868 0 -0.035422952383240461 0.027170769044581013 0 -0.035682410738404662 0.029596612269636533 0 -0.033541110353889236 0.029136866179445432 0 -0.034729483752396435 0.028140548193376868 0 -0.036613286038576234 0.028213282181416728 0 -0.035682410738404662 0.029596612269636533 0 -0.034729483752396435 0.028140548193376868 0 -0.034729483752396435 0.028140548193376868 0 -0.035422952383240461 0.027170769044581013 0 -0.033334387155191041 0.026682309879891661 0 -0.035737450885275905 0.026363538237262181 0 -0.033334387155191041 0.026682309879891661 0 -0.036141933000669257 0.025294683685171238 0 -0.035422952383240461 0.027170769044581013 0 -0.035737450885275905 0.026363538237262181 0 -0.033334387155191041 0.026682309879891661 0 -0.026297493714373465 0.035781767506262566 0 -0.026982835925044892 0.038078641152567844 0 -0.02758445726846508 0.037277640651189221 0 -0.026297493714373465 0.035781767506262566 0 -0.024870982449194716 0.036428499214501475 0 -0.024825375265786095 0.036189519700300363 0 -0.02527447734095184 0.037831015473411889 0 -0.029937009503354619 0.032352637024913568 0 -0.02468534272340437 0.036134248144275717 0 -0.024870982449194716 0.036428499214501475 0 -0.024825375265786095 0.036189519700300363 0 -0.029937009503354619 0.032352637024913568 0 -0.033416897840174736 0.031022794065897578 0 -0.027767700260026479 0.037239088835329899 0 -0.030435381780439238 0.036324419639180081 0 -0.02758445726846508 0.037277640651189221 0 -0.030574219576860923 0.036775784654646329 0 -0.031279529249856913 0.035911292766660809 0 -0.026297493714373465 0.035781767506262566 0 -0.02758445726846508 0.037277640651189221 0 -0.028069795607474232 0.036530969195182485 0 -0.026982835925044892 0.038078641152567844 0 -0.02758445726846508 0.037277640651189221 0 -0.030574219576860923 0.036775784654646329 0 -0.02758445726846508 0.037277640651189221 0 -0.028069795607474232 0.036530969195182485 0 -0.029645125784702759 0.036704358769219216 0 -0.03654400954953093 0.029776146416473605 0 -0.033416897840174736 0.031022794065897578 0 -0.033695285139225858 0.035444642164258224 0 -0.030574219576860923 0.036775784654646329 0 -0.031279529249856913 0.035911292766660809 0 -0.028988387571452286 0.036320501840369522 0 -0.028069795607474232 0.036530969195182485 0 -0.029645125784702759 0.036704358769219216 0 -0.035737450885275905 0.026363538237262181 0 -0.036141933000669257 0.025294683685171238 0 -0.036933539037194089 0.025929854161744037 0 -0.036141933000669257 0.025294683685171238 0 -0.036933539037194089 0.025929854161744037 0 -0.037936814459966439 0.025315143797732829 0 -0.036933539037194089 0.025929854161744037 0 -0.037936814459966439 0.025315143797732829 0 -0.037767221700381784 0.02603156437285898 0 -0.039434903163869849 0.024002052075463427 0 -0.038999846901310996 0.025099453604578562 0 -0.037936814459966439 0.025315143797732829 0 -0.039434903163869849 0.024002052075463427 0 -0.036141933000669257 0.025294683685171238 0 -0.037936814459966439 0.025315143797732829 0 -0.039587138019142314 0.024718288696632944 0 -0.038999846901310996 0.025099453604578562 0 -0.040009058830852429 0.025322531324322026 0 -0.039434903163869849 0.024002052075463427 0 -0.039587138019142314 0.024718288696632944 0 -0.038999846901310996 0.025099453604578562 0 -0.039434903163869849 0.024002052075463427 0 -0.039587138019142314 0.024718288696632944 0 -0.040141414354186479 0.02468610681611895 0 -0.038999846901310996 0.025099453604578562 0 -0.039374341178162818 0.02578458184733164 0 -0.040009058830852429 0.025322531324322026 0 -0.038999846901310996 0.025099453604578562 0 -0.039374341178162818 0.02578458184733164 0 -0.038553704858888892 0.025718436045001264 0 -0.038999846901310996 0.025099453604578562 0 -0.037936814459966439 0.025315143797732829 0 -0.038553704858888892 0.025718436045001264 0 -0.037936814459966439 0.025315143797732829 0 -0.038553704858888892 0.025718436045001264 0 -0.037767221700381784 0.02603156437285898 0 -0.038670722569484506 0.026341097480570105 0 -0.03820874677070301 0.027312663995173795 0 -0.037767221700381784 0.02603156437285898 0 -0.038553704858888892 0.025718436045001264 0 -0.038670722569484506 0.026341097480570105 0 -0.037767221700381784 0.02603156437285898 0 -0.039374341178162818 0.02578458184733164 0 -0.039579557360913342 0.026910424976690658 0 -0.040128817380729806 0.026224505818464406 0 -0.039374341178162818 0.02578458184733164 0 -0.038670722569484506 0.026341097480570105 0 -0.039579557360913342 0.026910424976690658 0 -0.039374341178162818 0.02578458184733164 0 -0.038553704858888892 0.025718436045001264 0 -0.038670722569484506 0.026341097480570105 0 -0.039570181980738632 0.028088269068506651 0 -0.039579557360913342 0.026910424976690658 0 -0.03820874677070301 0.027312663995173795 0 -0.038670722569484506 0.026341097480570105 0 -0.039579557360913342 0.026910424976690658 0 -0.03820874677070301 0.027312663995173795 0 -0.036613286038576234 0.028213282181416728 0 -0.03820874677070301 0.027312663995173795 0 -0.036922929221746878 0.0267651756677162 0 -0.036613286038576234 0.028213282181416728 0 -0.035422952383240461 0.027170769044581013 0 -0.036922929221746878 0.0267651756677162 0 -0.035422952383240461 0.027170769044581013 0 -0.035737450885275905 0.026363538237262181 0 -0.036922929221746878 0.0267651756677162 0 -0.035737450885275905 0.026363538237262181 0 -0.036933539037194089 0.025929854161744037 0 -0.036922929221746878 0.0267651756677162 0 -0.03820874677070301 0.027312663995173795 0 -0.036922929221746878 0.0267651756677162 0 -0.037767221700381784 0.02603156437285898 0 -0.036933539037194089 0.025929854161744037 0 -0.036922929221746878 0.0267651756677162 0 -0.037767221700381784 0.02603156437285898 0 -0.042086540520170378 0.026355872110413289 0 -0.043033409925687452 0.025460553521888703 0 -0.043835932948049536 0.02684526833543523 0 -0.042086540520170378 0.026355872110413289 0 -0.043835932948049536 0.02684526833543523 0 -0.041918641674033655 0.02778716233266465 0 -0.042086540520170378 0.026355872110413289 0 -0.040873436446909078 0.026866954696291946 0 -0.041918641674033655 0.02778716233266465 0 -0.039579557360913342 0.026910424976690658 0 -0.040873436446909078 0.026866954696291946 0 -0.040649908312073116 0.027763868287686625 0 -0.040873436446909078 0.026866954696291946 0 -0.040128817380729806 0.026224505818464406 0 -0.040985579585785019 0.025864844788365586 0 -0.039579557360913342 0.026910424976690658 0 -0.040873436446909078 0.026866954696291946 0 -0.040128817380729806 0.026224505818464406 0 -0.042086540520170378 0.026355872110413289 0 -0.040873436446909078 0.026866954696291946 0 -0.040985579585785019 0.025864844788365586 0 -0.040985579585785019 0.025864844788365586 0 -0.040897769439691263 0.025051976735969771 0 -0.04185911262429267 0.025368024932769895 0 -0.040128817380729806 0.026224505818464406 0 -0.040985579585785019 0.025864844788365586 0 -0.040009058830852429 0.025322531324322026 0 -0.040985579585785019 0.025864844788365586 0 -0.040009058830852429 0.025322531324322026 0 -0.040897769439691263 0.025051976735969771 0 -0.039374341178162818 0.02578458184733164 0 -0.040128817380729806 0.026224505818464406 0 -0.040009058830852429 0.025322531324322026 0 -0.039434903163869849 0.024002052075463427 0 -0.040141414354186479 0.02468610681611895 0 -0.04081520002109542 0.024388552482298778 0 -0.040009058830852429 0.025322531324322026 0 -0.040141414354186479 0.02468610681611895 0 -0.040897769439691263 0.025051976735969771 0 -0.039587138019142314 0.024718288696632944 0 -0.040009058830852429 0.025322531324322026 0 -0.040141414354186479 0.02468610681611895 0 -0.040141414354186479 0.02468610681611895 0 -0.040897769439691263 0.025051976735969771 0 -0.04081520002109542 0.024388552482298778 0 -0.040897769439691263 0.025051976735969771 0 -0.04149383828972196 0.024639282033711771 0 -0.04185911262429267 0.025368024932769895 0 -0.040897769439691263 0.025051976735969771 0 -0.04081520002109542 0.024388552482298778 0 -0.04149383828972196 0.024639282033711771 0 -0.041550437306260811 0.02398303252815677 0 -0.04081520002109542 0.024388552482298778 0 -0.04149383828972196 0.024639282033711771 0 -0.04149383828972196 0.024639282033711771 0 -0.04185911262429267 0.025368024932769895 0 -0.042308890506119155 0.024425032000787494 0 -0.042086540520170378 0.026355872110413289 0 -0.040985579585785019 0.025864844788365586 0 -0.04185911262429267 0.025368024932769895 0 -0.042086540520170378 0.026355872110413289 0 -0.04185911262429267 0.025368024932769895 0 -0.043033409925687452 0.025460553521888703 0 -0.043033409925687452 0.025460553521888703 0 -0.042308890506119155 0.024425032000787494 0 -0.043105926810372092 0.024381621226386659 0 -0.04185911262429267 0.025368024932769895 0 -0.043033409925687452 0.025460553521888703 0 -0.042308890506119155 0.024425032000787494 0 -0.043033409925687452 0.025460553521888703 0 -0.043973296299248218 0.024512911466031621 0 -0.043835932948049536 0.02684526833543523 0 -0.044778382467233403 0.025976429285103471 0 -0.044175862497183874 0.028253579664966368 0 -0.044890658051217808 0.02905400483335685 0 -0.044960268809331932 0.029114978163755124 0 -0.044664657262177228 0.029143634966160813 0 -0.043033409925687452 0.025460553521888703 0 -0.043105926810372092 0.024381621226386659 0 -0.043973296299248218 0.024512911466031621 0 -0.045236730481763208 0.028036437725473821 0 -0.04487196946889898 0.029497627412877814 0 -0.045195913712851997 0.028967807491724909 0 -0.044960268809331932 0.029114978163755124 0 -0.0453363607789058 0.029098956345839828 0 -0.044815480046336967 0.029110410802879478 0 -0.044890658051217808 0.02905400483335685 0 -0.044960268809331932 0.029114978163755124 0 -0.044960268809331932 0.029114978163755124 0 -0.045039014327964179 0.029348716624725362 0 -0.0453363607789058 0.029098956345839828 0 -0.044960268809331932 0.029114978163755124 0 -0.044664657262177228 0.029143634966160813 0 -0.045039014327964179 0.029348716624725362 0 -0.044664657262177228 0.029143634966160813 0 -0.044725118121694191 0.029386505177749316 0 -0.043979240230733643 0.029430988206097738 0 -0.044175862497183874 0.028253579664966368 0 -0.044004143161987343 0.029327491011418547 0 -0.044725118121694191 0.029386505177749316 0 -0.045039014327964179 0.029348716624725362 0 -0.044915069877120149 0.029681494587683412 0 -0.044664657262177228 0.029143634966160813 0 -0.044725118121694191 0.029386505177749316 0 -0.045039014327964179 0.029348716624725362 0 -0.044915069877120149 0.029681494587683412 0 -0.044682696958347076 0.029713443055276286 0 -0.045115212087550399 0.02962502354346799 0 -0.044725118121694191 0.029386505177749316 0 -0.044915069877120149 0.029681494587683412 0 -0.044682696958347076 0.029713443055276286 0 -0.044725118121694191 0.029386505177749316 0 -0.043979240230733643 0.029430988206097738 0 -0.044682696958347076 0.029713443055276286 0 -0.044682696958347076 0.029713443055276286 0 -0.04413221518787077 0.030179649676237961 0 -0.045115212087550399 0.02962502354346799 0 -0.043979240230733643 0.029430988206097738 0 -0.044682696958347076 0.029713443055276286 0 -0.04413221518787077 0.030179649676237961 0 -0.04413221518787077 0.030179649676237961 0 -0.042645026964531034 0.029856940980007515 0 -0.042641231852345432 0.031272734356170617 0 -0.043979240230733643 0.029430988206097738 0 -0.04413221518787077 0.030179649676237961 0 -0.042645026964531034 0.029856940980007515 0 -0.042645026964531034 0.029856940980007515 0 -0.042568063046981304 0.028767906679350294 0 -0.041165160942764033 0.029757952326342905 0 -0.043979240230733643 0.029430988206097738 0 -0.042645026964531034 0.029856940980007515 0 -0.042568063046981304 0.028767906679350294 0 -0.043835932948049536 0.02684526833543523 0 -0.042568063046981304 0.028767906679350294 0 -0.041918641674033655 0.02778716233266465 0 -0.043835932948049536 0.02684526833543523 0 -0.043979240230733643 0.029430988206097738 0 -0.042568063046981304 0.028767906679350294 0 -0.042568063046981304 0.028767906679350294 0 -0.041918641674033655 0.02778716233266465 0 -0.040854219124367958 0.028646279877003179 0 -0.039570181980738632 0.028088269068506651 0 -0.040649908312073116 0.027763868287686625 0 -0.040854219124367958 0.028646279877003179 0 -0.039570181980738632 0.028088269068506651 0 -0.039579557360913342 0.026910424976690658 0 -0.040649908312073116 0.027763868287686625 0 -0.040873436446909078 0.026866954696291946 0 -0.041918641674033655 0.02778716233266465 0 -0.040649908312073116 0.027763868287686625 0 -0.041918641674033655 0.02778716233266465 0 -0.040649908312073116 0.027763868287686625 0 -0.040854219124367958 0.028646279877003179 0 -0.039728912758993373 0.029200024080018736 0 -0.039570181980738632 0.028088269068506651 0 -0.040854219124367958 0.028646279877003179 0 -0.039828326200637219 0.030450267798494204 0 -0.039728912758993373 0.029200024080018736 0 -0.041165160942764033 0.029757952326342905 0 -0.039728912758993373 0.029200024080018736 0 -0.040854219124367958 0.028646279877003179 0 -0.041165160942764033 0.029757952326342905 0 -0.042568063046981304 0.028767906679350294 0 -0.040854219124367958 0.028646279877003179 0 -0.041165160942764033 0.029757952326342905 0 -0.042645026964531034 0.029856940980007515 0 -0.041165160942764033 0.029757952326342905 0 -0.041256464350839454 0.030907692330243663 0 -0.039828326200637219 0.030450267798494204 0 -0.041165160942764033 0.029757952326342905 0 -0.041256464350839454 0.030907692330243663 0 -0.039793890849293037 0.031837175894117081 0 -0.039828326200637219 0.030450267798494204 0 -0.041256464350839454 0.030907692330243663 0 -0.039793890849293037 0.031837175894117081 0 -0.041256464350839454 0.030907692330243663 0 -0.041669100463612913 0.03210870054305371 0 -0.042641231852345432 0.031272734356170617 0 -0.041669100463612913 0.03210870054305371 0 -0.043456433621917354 0.033002633694626908 0 -0.042645026964531034 0.029856940980007515 0 -0.041256464350839454 0.030907692330243663 0 -0.042641231852345432 0.031272734356170617 0 -0.041256464350839454 0.030907692330243663 0 -0.042641231852345432 0.031272734356170617 0 -0.041669100463612913 0.03210870054305371 0 -0.041835221729181409 0.033131286284407167 0 -0.041695939948255087 0.034098304772837436 0 -0.043456433621917354 0.033002633694626908 0 -0.041669100463612913 0.03210870054305371 0 -0.041835221729181409 0.033131286284407167 0 -0.043456433621917354 0.033002633694626908 0 -0.039793890849293037 0.031837175894117081 0 -0.041669100463612913 0.03210870054305371 0 -0.040542603742372015 0.0331576920981786 0 -0.039475427523910846 0.032968209288398505 0 -0.039793890849293037 0.031837175894117081 0 -0.040542603742372015 0.0331576920981786 0 -0.041669100463612913 0.03210870054305371 0 -0.041835221729181409 0.033131286284407167 0 -0.040542603742372015 0.0331576920981786 0 -0.041835221729181409 0.033131286284407167 0 -0.040542603742372015 0.0331576920981786 0 -0.041695939948255087 0.034098304772837436 0 -0.040542603742372015 0.0331576920981786 0 -0.04032489284603219 0.034646282354492547 0 -0.041695939948255087 0.034098304772837436 0 -0.039317421549613894 0.034009016160045057 0 -0.040542603742372015 0.0331576920981786 0 -0.04032489284603219 0.034646282354492547 0 -0.041695939948255087 0.034098304772837436 0 -0.042428103147742625 0.034645621110936602 0 -0.043456433621917354 0.033002633694626908 0 -0.041695939948255087 0.034098304772837436 0 -0.042428103147742625 0.034645621110936602 0 -0.041444428251304656 0.035573600196213383 0 -0.042428103147742625 0.034645621110936602 0 -0.041444428251304656 0.035573600196213383 0 -0.042483359390642905 0.035573006177312232 0 -0.04032489284603219 0.034646282354492547 0 -0.041444428251304656 0.035573600196213383 0 -0.040188195050497838 0.03555074675182146 0 -0.04032489284603219 0.034646282354492547 0 -0.041695939948255087 0.034098304772837436 0 -0.041444428251304656 0.035573600196213383 0 -0.046274312135005179 0.024049750217563674 0 -0.046307384091077368 0.025195780586113974 0 -0.046957530370867452 0.023402395966903786 0 -0.046307384091077368 0.025195780586113974 0 -0.047134771467478603 0.025552469806959886 0 -0.046957530370867452 0.023402395966903786 0 -0.046274312135005179 0.024049750217563674 0 -0.046307384091077368 0.025195780586113974 0 -0.044427570046076774 0.0273416675150676 0 -0.042483359390642905 0.035573006177312232 0 -0.043212445081159463 0.034765272920539908 0 -0.042945674771223234 0.036127906997160224 0 -0.045104166248250074 0.030180823331772216 0 -0.045304006465853544 0.029523402928246692 0 -0.042428103147742625 0.034645621110936602 0 -0.042483359390642905 0.035573006177312232 0 -0.043212445081159463 0.034765272920539908 0 -0.045104166248250074 0.030180823331772216 0 -0.04483170578656781 0.03064061068260774 0 -0.042428103147742625 0.034645621110936602 0 -0.043212445081159463 0.034765272920539908 0 -0.043456433621917354 0.033002633694626908 0 -0.047134771467478603 0.025552469806959886 0 -0.045783960187426573 0.02685381160343599 0 -0.046341917753976954 0.02868505971623329 0 -0.046307384091077368 0.025195780586113974 0 -0.045783960187426573 0.02685381160343599 0 -0.044427570046076774 0.0273416675150676 0 -0.046307384091077368 0.025195780586113974 0 -0.047134771467478603 0.025552469806959886 0 -0.045783960187426573 0.02685381160343599 0 -0.045196788256141096 0.027072158181185826 0 -0.045961777501559477 0.026574228161605307 0 -0.045783960187426573 0.02685381160343599 0 -0.045245482664258797 0.028688726635299221 0 -0.044444378135277879 0.027649823685532659 0 -0.045783960187426573 0.02685381160343599 0 -0.045245482664258797 0.028688726635299221 0 -0.046341917753976954 0.02868505971623329 0 -0.045245482664258797 0.028688726635299221 0 -0.046341917753976954 0.02868505971623329 0 -0.045115212087550399 0.02962502354346799 0 -0.044225633878801587 0.030033353321686999 0 -0.04483170578656781 0.03064061068260774 0 -0.04413221518787077 0.030179649676237961 0 -0.046341917753976954 0.02868505971623329 0 -0.045115212087550399 0.02962502354346799 0 -0.04413221518787077 0.030179649676237961 0 -0.042641231852345432 0.031272734356170617 0 -0.043456433621917354 0.033002633694626908 0 -0.045245482664258797 0.028688726635299221 0 -0.045115212087550399 0.02962502354346799 0 -0.044600791205506134 0.029439036718322639 0 -0.044915069877120149 0.029681494587683412 0 -0.045115212087550399 0.02962502354346799 0 -0.044600791205506134 0.029439036718322639 0 -0.046549952111031898 0.028190921063604078 0 -0.046017895961608143 0.028478002888874851 0 -0.046240579790236956 0.028919875475745694 0 -0.046549952111031898 0.028190921063604078 0 -0.046017895961608143 0.028478002888874851 0 -0.046096953301043748 0.027698820864523448 0 -0.046017895961608143 0.028478002888874851 0 -0.046096953301043748 0.027698820864523448 0 -0.045612954887562764 0.02775999019741995 0 -0.046549952111031898 0.028190921063604078 0 -0.046096953301043748 0.027698820864523448 0 -0.046689631059391064 0.02745374934841302 0 -0.046583214645555808 0.02620863490813485 0 -0.045961777501559477 0.026574228161605307 0 -0.045524638324561058 0.028965489378860648 0 -0.045961777501559477 0.026574228161605307 0 -0.045245482664258797 0.028688726635299221 0 -0.044600791205506134 0.029439036718322639 0 -0.044444378135277879 0.027649823685532659 0 -0.046786093586791269 0.024874229876698222 0 -0.046891822901991544 0.024193675223912834 0 -0.046762605496331502 0.024282254977913628 0 -0.046891822901991544 0.024193675223912834 0 -0.046762605496331502 0.024282254977913628 0 -0.046682377131852033 0.023969513437240825 0 -0.046786093586791269 0.024874229876698222 0 -0.046762605496331502 0.024282254977913628 0 -0.046614168497409326 0.024205042824301647 0 -0.046786093586791269 0.024874229876698222 0 -0.046614168497409326 0.024205042824301647 0 -0.046269820232686817 0.02454658575123941 0 -0.046762605496331502 0.024282254977913628 0 -0.046614168497409326 0.024205042824301647 0 -0.046682377131852033 0.023969513437240825 0 -0.046614168497409326 0.024205042824301647 0 -0.046439613603743678 0.023542928865785174 0 -0.046682377131852033 0.023969513437240825 0 -0.046439613603743678 0.023542928865785174 0 -0.046682377131852033 0.023969513437240825 0 -0.046513401086353427 0.023437623147270964 0 -0.046134173724919361 0.023912044121662677 0 -0.045961777501559477 0.026574228161605307 0 -0.046274312135005179 0.024049750217563674 0 -0.046682377131852033 0.023969513437240825 0 -0.046513401086353427 0.023437623147270964 0 -0.046274312135005179 0.024049750217563674 0 -0.046891822901991544 0.024193675223912834 0 -0.046682377131852033 0.023969513437240825 0 -0.045824385938886304 0.023734362962405674 0 -0.044999749700355154 0.023021305750351662 0 -0.046033217399429789 0.022864825741376153 0 -0.046439613603743678 0.023542928865785174 0 -0.045824385938886304 0.023734362962405674 0 -0.046033217399429789 0.022864825741376153 0 -0.046614168497409326 0.024205042824301647 0 -0.046439613603743678 0.023542928865785174 0 -0.046269820232686817 0.02454658575123941 0 -0.046439613603743678 0.023542928865785174 0 -0.045824385938886304 0.023734362962405674 0 -0.046269820232686817 0.02454658575123941 0 -0.045824385938886304 0.023734362962405674 0 -0.044999749700355154 0.023021305750351662 0 -0.044999775670220676 0.025193169092111722 0 -0.045824385938886304 0.023734362962405674 0 -0.046269820232686817 0.02454658575123941 0 -0.044999775670220676 0.025193169092111722 0 -0.044999775670220676 0.025193169092111722 0 -0.046184163153887882 0.026004098427251873 0 -0.044999747566957869 0.027364854953924645 0 -0.046269820232686817 0.02454658575123941 0 -0.044999775670220676 0.025193169092111722 0 -0.046184163153887882 0.026004098427251873 0 -0.046583214645555808 0.02620863490813485 0 -0.045762225985176784 0.026908778843136378 0 -0.046786093586791269 0.024874229876698222 0 -0.046269820232686817 0.02454658575123941 0 -0.046184163153887882 0.026004098427251873 0 -0.046017895961608143 0.028478002888874851 0 -0.045612954887562764 0.02775999019741995 0 -0.045681015347884581 0.02890606900095791 0 -0.045762225985176784 0.026908778843136378 0 -0.045000026804926908 0.027365825917650868 0 -0.045612954887562764 0.02775999019741995 0 -0.044999271716584334 0.027370687612374101 0 -0.045681015347884581 0.02890606900095791 0 -0.045681015347884581 0.02890606900095791 0 -0.045809410170749569 0.029143201020702458 0 -0.045663777582051493 0.029539009857531641 0 -0.045000009710490424 0.029906907273903653 0 -0.045681015347884581 0.02890606900095791 0 -0.045663777582051493 0.029539009857531641 0 -0.044999271716584334 0.027370687612374101 0 -0.045000009710490424 0.029906907273903653 0 -0.045681015347884581 0.02890606900095791 0 -0.045000271511246401 0.029911999759374516 0 -0.046065815374756285 0.03067606630631807 0 -0.046017895961608143 0.028478002888874851 0 -0.045681015347884581 0.02890606900095791 0 -0.045809410170749569 0.029143201020702458 0 -0.046017895961608143 0.028478002888874851 0 -0.046240579790236956 0.028919875475745694 0 -0.045809410170749569 0.029143201020702458 0 -0.045524638324561058 0.028965489378860648 0 -0.045644171789126525 0.029181796396293081 0 -0.044915069877120149 0.029681494587683412 0 -0.044600791205506134 0.029439036718322639 0 -0.04505974042643756 0.029652074588140998 0 -0.045039014327964179 0.029348716624725362 0 -0.04505974042643756 0.029652074588140998 0 -0.045578901185005717 0.029320861904311765 0 -0.045644171789126525 0.029181796396293081 0 -0.045603908561145982 0.029282985733149903 0 -0.045039014327964179 0.029348716624725362 0 -0.044915069877120149 0.029681494587683412 0 -0.04505974042643756 0.029652074588140998 0 -0.046240579790236956 0.028919875475745694 0 -0.045809410170749569 0.029143201020702458 0 -0.045578901185005717 0.029320861904311765 0 -0.045578901185005717 0.029320861904311765 0 -0.045527393134094561 0.029060666222772879 0 -0.045663777582051493 0.029539009857531641 0 -0.045809410170749569 0.029143201020702458 0 -0.045578901185005717 0.029320861904311765 0 -0.045663777582051493 0.029539009857531641 0 -0.045039014327964179 0.029348716624725362 0 -0.045578901185005717 0.029320861904311765 0 -0.0453363607789058 0.029098956345839828 0 -0.045578901185005717 0.029320861904311765 0 -0.0453363607789058 0.029098956345839828 0 -0.045527393134094561 0.029060666222772879 0 -0.045195913712851997 0.028967807491724909 0 -0.0453363607789058 0.029098956345839828 0 -0.045527393134094561 0.029060666222772879 0 -0.047659986344453148 0.031138069629060596 0 -0.046065815374756285 0.03067606630631807 0 -0.048535683609321568 0.033660867797774364 0 -0.046223733006312197 0.033311738717257879 0 -0.046750240113962713 0.031818072983166946 0 -0.044999856293517604 0.034291145491610192 0 -0.046223733006312197 0.033311738717257879 0 -0.04499992979534153 0.032101529700477895 0 -0.046223733006312197 0.033311738717257879 0 -0.04499992979534153 0.032101529700477895 0 -0.046750240113962713 0.031818072983166946 0 -0.045000018379155848 0.029912037152084941 0 -0.04499992979534153 0.032101529700477895 0 -0.046750240113962713 0.031818072983166946 0 -0.044992200631825699 0.014303430644760645 0 -0.044446567409201568 0.01503637954760432 0 -0.046211583412144451 0.016067153484606349 0 -0.043823002727499373 0.014292193405097204 0 -0.044368099103950405 0.01428549875644977 0 -0.044998468705780961 0.014293034409858216 0 -0.043885130303296091 0.014270138357541451 0 -0.044225393245525303 0.01319201014755989 0 -0.044992200631825699 0.014303430644760645 0 -0.044446567409201568 0.01503637954760432 0 -0.043885130303296091 0.014270138357541451 0 -0.044999991613833848 0.012409480253140034 0 -0.04519690984790075 0.012339398645578469 0 -0.044999974916961907 0.014498445300243488 0 -0.046774571963417069 0.013952308555498021 0 -0.04519690984790075 0.012339398645578469 0 -0.044999974916961907 0.014498445300243488 0 -0.045507886852966327 0.014548467086318219 0 -0.044753419818520143 0.012631511350468002 0 -0.044446567409201568 0.01503637954760432 0 -0.043885130303296091 0.014270138357541451 0 -0.043067729963286019 0.013612430708151805 0 -0.045183733925586382 0.012343264285298592 0 -0.046623292664701776 0.011679635047415402 0 -0.045707147180060269 0.010473610513852472 0 -0.045183733925586382 0.012343264285298592 0 -0.044999662035249195 0.012139272036487191 0 -0.045707147180060269 0.010473610513852472 0 -0.043885130303296091 0.014270138357541451 0 -0.043067729963286019 0.013612430708151805 0 -0.044225393245525303 0.01319201014755989 0 -0.044753419818520143 0.012631511350468002 0 -0.045065747678335148 0.011640657319883707 0 -0.044999640929464346 0.012410126210530467 0 -0.044753419818520143 0.012631511350468002 0 -0.044999999520968087 0.012409448415545423 0 -0.04519866808831062 0.012337084322171203 0 -0.044999999684685377 0.012139848552872661 0 -0.044753419818520143 0.012631511350468002 0 -0.044999073117103536 0.012141211156230449 0 -0.045065747678335148 0.011640657319883707 0 -0.045646998791805456 0.010725689897077688 0 -0.045962552774041363 0.010398080498344594 0 -0.046172580977196093 0.010019721103623551 0 -0.045707147180060269 0.010473610513852472 0 -0.045065747678335148 0.011640657319883707 0 -0.045413979783867478 0.010742319175807695 0 -0.045962552774041363 0.010398080498344594 0 -0.046559994769387353 0.0099500572251636915 0 -0.046172580977196093 0.010019721103623551 0 -0.044246573129583931 0.011544613443555464 0 -0.044317753423404944 0.011566947484436266 0 -0.044349757707306675 0.011509402130921312 0 -0.043823002727499373 0.014292193405097204 0 -0.045065747678335148 0.011640657319883707 0 -0.044298780083557802 0.011639466347497416 0 -0.044246573129583931 0.011544613443555464 0 -0.044317753423404944 0.011566947484436266 0 -0.044317753423404944 0.011566947484436266 0 -0.044367700466602725 0.011525192755109754 0 -0.044417056916519711 0.011648432631675885 0 -0.044349757707306675 0.011509402130921312 0 -0.044367700466602725 0.011525192755109754 0 -0.044365573744672537 0.011517729877540491 0 -0.044317753423404944 0.011566947484436266 0 -0.044349757707306675 0.011509402130921312 0 -0.044367700466602725 0.011525192755109754 0 -0.044367700466602725 0.011525192755109754 0 -0.044342846036572472 0.011497246617717232 0 -0.044365573744672537 0.011517729877540491 0 -0.044182884659910444 0.011217955671268086 0 -0.042953631750195287 0.013604882074748763 0 -0.044367700466602725 0.011525192755109754 0 -0.044342846036572472 0.011497246617717232 0 -0.044349063768472169 0.011478941731367501 0 -0.04431680499045753 0.011486395804430127 0 -0.044291576528507383 0.011491385276266888 0 -0.044365573744672537 0.011517729877540491 0 -0.044342846036572472 0.011497246617717232 0 -0.04431680499045753 0.011486395804430127 0 -0.044365573744672537 0.011517729877540491 0 -0.044342846036572472 0.011497246617717232 0 -0.044310381506438734 0.011463808677421222 0 -0.04431680499045753 0.011486395804430127 0 -0.042953631750195287 0.013604882074748763 0 -0.042526274189055198 0.013093109407290702 0 -0.044342846036572472 0.011497246617717232 0 -0.044349063768472169 0.011478941731367501 0 -0.044310381506438734 0.011463808677421222 0 -0.039702844593821361 0.01486801177045338 0 -0.04035589295418137 0.016120414870119927 0 -0.040944734629697513 0.014895715671178972 0 -0.042953631750195287 0.013604882074748763 0 -0.042129347052836476 0.016587275612939937 0 -0.04035589295418137 0.016120414870119927 0 -0.041405326990038481 0.015877538154350307 0 -0.040944734629697513 0.014895715671178972 0 -0.044298780083557802 0.011639466347497416 0 -0.044317753423404944 0.011566947484436266 0 -0.044417056916519711 0.011648432631675885 0 -0.041497706374567886 0.01559359981767656 0 -0.043127515126794073 0.015641773817212733 0 -0.042722157778096674 0.017382309796702314 0 -0.043823002727499373 0.014292193405097204 0 -0.042953631750195287 0.013604882074748763 0 -0.044446567409201568 0.01503637954760432 0 -0.046211583412144451 0.016067153484606349 0 -0.045860389428670649 0.016518823939704309 0 -0.043823002727499373 0.014292193405097204 0 -0.044473920591594614 0.016534333109007957 0 -0.042722157778096674 0.017382309796702314 0 -0.043826781576966158 0.016931856967131918 0 -0.044530545123718561 0.018253449769851968 0 -0.043127515126794073 0.015641773817212733 0 -0.042722157778096674 0.017382309796702314 0 -0.043826781576966158 0.016931856967131918 0 -0.04035589295418137 0.016120414870119927 0 -0.040992695987421113 0.017242836461850947 0 -0.04102385198510914 0.017418600050279554 0 -0.042129347052836476 0.016587275612939937 0 -0.0404011551872673 0.019494505426768144 0 -0.042722157778096674 0.017382309796702314 0 -0.043973178023980389 0.019218563109419638 0 -0.044530545123718561 0.018253449769851968 0 -0.045860389428670649 0.016518823939704309 0 -0.047470203175108444 0.017930072429904791 0 -0.047331727967148129 0.018070938607517299 0 -0.047319446713131132 0.015778072952939402 0 -0.046509263194883875 0.019971628181594994 0 -0.044473920591594614 0.016534333109007957 0 -0.044740863392822607 0.020406691179935189 0 -0.044740863392822607 0.020406691179935189 0 -0.039339711803666119 0.022626340981502558 0 -0.048330641690859606 0.01556591289374447 0 -0.048051508174248081 0.017037007209202402 0 -0.049864197798841478 0.017157383022479981 0 -0.046211583412144451 0.016067153484606349 0 -0.045860389428670649 0.016518823939704309 0 -0.047470203175108444 0.017930072429904791 0 -0.048330641690859606 0.01556591289374447 0 -0.046657807969907809 0.015903641368111919 0 -0.048051508174248081 0.017037007209202402 0 -0.045507886852966327 0.014548467086318219 0 -0.047319446713131132 0.015778072952939402 0 -0.046774571963417069 0.013952308555498021 0 -0.048330641690859606 0.01556591289374447 0 -0.046657807969907809 0.015903641368111919 0 -0.046774571963417069 0.013952308555498021 0 -0.046657807969907809 0.015903641368111919 0 -0.044999974916961907 0.014498445300243488 0 -0.046657807969907809 0.015903641368111919 0 -0.044999974916961907 0.014498445300243488 0 -0.04499997924308681 0.016587425275657403 0 -0.046657807969907809 0.015903641368111919 0 -0.04499997924308681 0.016587425275657403 0 -0.046770701049964794 0.017762406847323112 0 -0.04499997924308681 0.016587425275657403 0 -0.046770701049964794 0.017762406847323112 0 -0.044999970548030906 0.018676297034682109 0 -0.046657807969907809 0.015903641368111919 0 -0.046770701049964794 0.017762406847323112 0 -0.048051508174248081 0.017037007209202402 0 -0.046770701049964794 0.017762406847323112 0 -0.047403695288413157 0.019663774578855712 0 -0.044999970548030906 0.018676297034682109 0 -0.046770701049964794 0.017762406847323112 0 -0.047403695288413157 0.019663774578855712 0 -0.048638065442936813 0.018405693089922383 0 -0.046650492758406201 0.021972656670270967 0 -0.045000887437401778 0.018675123026513817 0 -0.044999728758363312 0.018675715114888414 0 -0.044999894995650526 0.020850359801685633 0 -0.045959156705007137 0.021577728813679822 0 -0.047592193270368184 0.019973997751980856 0 -0.044999728758363312 0.018675715114888414 0 -0.045959156705007137 0.021577728813679822 0 -0.046650492758406201 0.021972656670270967 0 -0.046219645823739497 0.02134843107404507 0 -0.046240155487244687 0.022189452193758948 0 -0.045959156705007137 0.021577728813679822 0 -0.0463325530336023 0.022660699078988836 0 -0.046439613603743678 0.023542928865785174 0 -0.046033217399429789 0.022864825741376153 0 -0.0463325530336023 0.022660699078988836 0 -0.045959156705007137 0.021577728813679822 0 -0.046033217399429789 0.022864825741376153 0 -0.0463325530336023 0.022660699078988836 0 -0.044999749700355154 0.023021305750351662 0 -0.045959156705007137 0.021577728813679822 0 -0.046033217399429789 0.022864825741376153 0 -0.044999749700355154 0.023021305750351662 0 -0.044999894995650526 0.020850359801685633 0 -0.045959156705007137 0.021577728813679822 0 -0.046274312135005179 0.024049750217563674 0 -0.046513401086353427 0.023437623147270964 0 -0.04645116221431015 0.022905013782049278 0 -0.046439613603743678 0.023542928865785174 0 -0.046513401086353427 0.023437623147270964 0 -0.0463325530336023 0.022660699078988836 0 -0.046513401086353427 0.023437623147270964 0 -0.0463325530336023 0.022660699078988836 0 -0.04645116221431015 0.022905013782049278 0 -0.046240155487244687 0.022189452193758948 0 -0.0463325530336023 0.022660699078988836 0 -0.04645116221431015 0.022905013782049278 0 -0.046650492758406201 0.021972656670270967 0 -0.046409138510112788 0.024097701482535455 0 -0.046219130279153822 0.025990714060429274 0 -0.046387024211475857 0.025366247827639351 0 -0.0470619977299837 0.025736072516433634 0 -0.046219130279153822 0.025990714060429274 0 -0.046387024211475857 0.025366247827639351 0 -0.045816395989290347 0.024999000478209386 0 -0.046387024211475857 0.025366247827639351 0 -0.045816395989290347 0.024999000478209386 0 -0.046360377451207184 0.024933917857719614 0 -0.046360377451207184 0.024933917857719614 0 -0.0467483940150532 0.024824431423185359 0 -0.046638377399132867 0.025145430326027438 0 -0.046387024211475857 0.025366247827639351 0 -0.046360377451207184 0.024933917857719614 0 -0.046638377399132867 0.025145430326027438 0 -0.045274898543240516 0.025540620641645386 0 -0.046219130279153822 0.025990714060429274 0 -0.045816395989290347 0.024999000478209386 0 -0.046650492758406201 0.021972656670270967 0 -0.047277224708570945 0.021781394115204133 0 -0.046770701049964794 0.017762406847323112 0 -0.048638065442936813 0.018405693089922383 0 -0.048051508174248081 0.017037007209202402 0 -0.048638065442936813 0.018405693089922383 0 -0.048051508174248081 0.017037007209202402 0 -0.049864197798841478 0.017157383022479981 0 -0.046360377451207184 0.024933917857719614 0 -0.046367876440682736 0.024416621377185935 0 -0.0467483940150532 0.024824431423185359 0 -0.045816395989290347 0.024999000478209386 0 -0.046360377451207184 0.024933917857719614 0 -0.046367876440682736 0.024416621377185935 0 -0.047277224708570945 0.021781394115204133 0 -0.046509263194883875 0.019971628181594994 0 -0.046509263194883875 0.019971628181594994 0 -0.044649014822962928 0.025528980185932134 0 -0.044740863392822607 0.020406691179935189 0 -0.044649014822962928 0.025528980185932134 0 -0.04411007384318133 0.021061104692147104 0 -0.043666109264775745 0.021509830983497531 0 -0.046248292351996456 0.024109905707832856 0 -0.044740863392822607 0.020406691179935189 0 -0.046509263194883875 0.019971628181594994 0 -0.037214677406467139 0.030439881142672667 0 -0.039339711803666119 0.022626340981502558 0 -0.043082203936665425 0.029588220223647013 0 -0.039339711803666119 0.022626340981502558 0 -0.042458937918389422 0.026183996281952265 0 -0.043404123315447934 0.02711552475112098 0 -0.042530239165325882 0.021861852856962315 0 -0.040707062699379286 0.023715953634677978 0 -0.042458937918389422 0.026183996281952265 0 -0.042530239165325882 0.021861852856962315 0 -0.040741329398527745 0.029467486269864531 0 -0.038863122057611971 0.029836507211909825 0 -0.038016188464826031 0.02444543030428812 0 -0.035036220344896458 0.031514093334949402 0 -0.036690233781151833 0.0305089384691563 0 -0.031656981429002293 0.025516790327705981 0 -0.044649014822962928 0.025528980185932134 0 -0.043082203936665425 0.029588220223647013 0 -0.036690233781151833 0.0305089384691563 0 -0.038521745476631772 0.031278286073120269 0 -0.037360470683901956 0.02603262234685003 0 -0.041336762135927345 0.013090342987443007 0 -0.042333973435061317 0.010529078810893528 0 -0.040936594762109771 0.010207028477357806 0 -0.037891409882125915 0.025252998869136112 0 -0.039102946206851064 0.017586021176162595 0 -0.035036220344896458 0.031514093334949402 0 -0.036690233781151833 0.0305089384691563 0 -0.0368638859549065 0.03204949319927515 0 -0.038221773636071495 0.027657644814151054 0 -0.037891409882125915 0.025252998869136112 0 -0.036690233781151833 0.0305089384691563 0 -0.037620735397838841 0.031254652068335054 0 -0.0368638859549065 0.03204949319927515 0 -0.037891409882125915 0.025252998869136112 0 -0.038240185005260538 0.027497826979733051 0 -0.040741329398527745 0.029467486269864531 0 -0.038863122057611971 0.029836507211909825 0 -0.043448397825837787 0.034457721814094872 0 -0.043082203936665425 0.029588220223647013 0 -0.041447105540525594 0.035671352944253991 0 -0.035036220344896458 0.031514093334949402 0 -0.0368638859549065 0.03204949319927515 0 -0.037498662536743103 0.034868275626404523 0 -0.037214677406467139 0.030439881142672667 0 -0.041447105540525594 0.035671352944253991 0 -0.0368638859549065 0.03204949319927515 0 -0.037712170497217638 0.032983035012840285 0 -0.037498662536743103 0.034868275626404523 0 -0.037690899593437362 0.031963531750362525 0 -0.0368638859549065 0.03204949319927515 0 -0.037712170497217638 0.032983035012840285 0 -0.037620735397838841 0.031254652068335054 0 -0.037690899593437362 0.031963531750362525 0 -0.0368638859549065 0.03204949319927515 0 -0.043082203936665425 0.029588220223647013 0 -0.045088523007896585 0.031605177742856101 0 -0.042888274393999642 0.036436431690838378 0 -0.04284609209484793 0.036436692107995321 0 -0.042641705465000894 0.036500178252226019 0 -0.046638377399132867 0.025145430326027438 0 -0.046919300063936215 0.025010161305555997 0 -0.0470619977299837 0.025736072516433634 0 -0.046387024211475857 0.025366247827639351 0 -0.046638377399132867 0.025145430326027438 0 -0.0470619977299837 0.025736072516433634 0 -0.0467483940150532 0.024824431423185359 0 -0.046638377399132867 0.025145430326027438 0 -0.046919300063936215 0.025010161305555997 0 -0.046219130279153822 0.025990714060429274 0 -0.0470619977299837 0.025736072516433634 0 -0.047200508563825266 0.02646367775537084 0 -0.045088523007896585 0.031605177742856101 0 -0.045304006465853544 0.029523402928246692 0 -0.046409138510112788 0.024097701482535455 0 -0.045304006465853544 0.029523402928246692 0 -0.04284609209484793 0.036436692107995321 0 -0.042641705465000894 0.036500178252226019 0 -0.042754024863752418 0.036338558127858127 0 -0.04284609209484793 0.036436692107995321 0 -0.042754024863752418 0.036338558127858127 0 -0.042966151937143184 0.036182671956482233 0 -0.041447105540525594 0.035671352944253991 0 -0.042420615989008544 0.036765368707087187 0 -0.042641705465000894 0.036500178252226019 0 -0.042754024863752418 0.036338558127858127 0 -0.042240303573319142 0.036409588674527968 0 -0.042754024863752418 0.036338558127858127 0 -0.042945674771223234 0.036127906997160224 0 -0.042966151937143184 0.036182671956482233 0 -0.043212445081159463 0.034765272920539908 0 -0.042945674771223234 0.036127906997160224 0 -0.043153700801502819 0.036208869943544678 0 -0.042754024863752418 0.036338558127858127 0 -0.042945674771223234 0.036127906997160224 0 -0.042495198652855753 0.036127313883499101 0 -0.045014357140242413 0.030677163292352348 0 -0.045304006465853544 0.029523402928246692 0 -0.042754024863752418 0.036338558127858127 0 -0.042495198652855753 0.036127313883499101 0 -0.042240303573319142 0.036409588674527968 0 -0.042483359390642905 0.035573006177312232 0 -0.042945674771223234 0.036127906997160224 0 -0.042495198652855753 0.036127313883499101 0 -0.046274312135005179 0.024049750217563674 0 -0.04645116221431015 0.022905013782049278 0 -0.046957530370867452 0.023402395966903786 0 -0.040188195050497838 0.03555074675182146 0 -0.039652946844594361 0.035578331593792964 0 -0.039808539309969478 0.035560597174193284 0 -0.040188195050497838 0.03555074675182146 0 -0.039808539309969478 0.035560597174193284 0 -0.039768500692506863 0.035611860896093465 0 -0.039652946844594361 0.035578331593792964 0 -0.039808539309969478 0.035560597174193284 0 -0.039652011384573103 0.035331265622300011 0 -0.040186144016089692 0.035611802051686632 0 -0.040193709011325886 0.035879257807047649 0 -0.040188195050497838 0.03555074675182146 0 -0.039652946844594361 0.035578331593792964 0 -0.039191313718795716 0.035734065290293784 0 -0.041444428251304656 0.035573600196213383 0 -0.040188195050497838 0.03555074675182146 0 -0.041668440030813082 0.036362413863616494 0 -0.041444428251304656 0.035573600196213383 0 -0.042083693590036247 0.036032025808228715 0 -0.041668440030813082 0.036362413863616494 0 -0.041444428251304656 0.035573600196213383 0 -0.042483359390642905 0.035573006177312232 0 -0.042083693590036247 0.036032025808228715 0 -0.042483359390642905 0.035573006177312232 0 -0.042495198652855753 0.036127313883499101 0 -0.042083693590036247 0.036032025808228715 0 -0.042083693590036247 0.036032025808228715 0 -0.042240303573319142 0.036409588674527968 0 -0.041668440030813082 0.036362413863616494 0 -0.042495198652855753 0.036127313883499101 0 -0.042083693590036247 0.036032025808228715 0 -0.042240303573319142 0.036409588674527968 0 -0.039652946844594361 0.035578331593792964 0 -0.039191313718795716 0.035734065290293784 0 -0.039367233059504125 0.035281677667260695 0 -0.039191313718795716 0.035734065290293784 0 -0.039367233059504125 0.035281677667260695 0 -0.038878018645496594 0.034842223264900239 0 -0.039367233059504125 0.035281677667260695 0 -0.038878018645496594 0.034842223264900239 0 -0.039408258433906926 0.034897904498359049 0 -0.04268458430667596 0.036931391194405715 0 -0.042240303573319142 0.036409588674527968 0 -0.041668440030813082 0.036362413863616494 0 -0.037498662536743103 0.034868275626404523 0 -0.039191313718795716 0.035734065290293784 0 -0.038878018645496594 0.034842223264900239 0 -0.041447105540525594 0.035671352944253991 0 -0.040193709011325886 0.035879257807047649 0 -0.037498662536743103 0.034868275626404523 0 -0.038426784426571277 0.03435517192300893 0 -0.038878018645496594 0.034842223264900239 0 -0.037498662536743103 0.034868275626404523 0 -0.038426784426571277 0.03435517192300893 0 -0.038284130433182052 0.033609397765717135 0 -0.038878018645496594 0.034842223264900239 0 -0.039337809428761514 0.034420365651851331 0 -0.039408258433906926 0.034897904498359049 0 -0.038426784426571277 0.03435517192300893 0 -0.038878018645496594 0.034842223264900239 0 -0.03897186865799708 0.034098307504700595 0 -0.038878018645496594 0.034842223264900239 0 -0.039337809428761514 0.034420365651851331 0 -0.03897186865799708 0.034098307504700595 0 -0.039337809428761514 0.034420365651851331 0 -0.039631885435036672 0.034343936955468592 0 -0.03956679179301871 0.034659401974009699 0 -0.039337809428761514 0.034420365651851331 0 -0.039631885435036672 0.034343936955468592 0 -0.039293793544690862 0.033914904847574867 0 -0.039631885435036672 0.034343936955468592 0 -0.03956679179301871 0.034659401974009699 0 -0.039818820978266237 0.034929724027308665 0 -0.03956679179301871 0.034659401974009699 0 -0.039640975122968054 0.03503932870638958 0 -0.039818820978266237 0.034929724027308665 0 -0.039337809428761514 0.034420365651851331 0 -0.03956679179301871 0.034659401974009699 0 -0.039408258433906926 0.034897904498359049 0 -0.03956679179301871 0.034659401974009699 0 -0.039408258433906926 0.034897904498359049 0 -0.039640975122968054 0.03503932870638958 0 -0.039367233059504125 0.035281677667260695 0 -0.039408258433906926 0.034897904498359049 0 -0.039522132990052639 0.035139784816829327 0 -0.039408258433906926 0.034897904498359049 0 -0.039522132990052639 0.035139784816829327 0 -0.039640975122968054 0.03503932870638958 0 -0.039522132990052639 0.035139784816829327 0 -0.039640975122968054 0.03503932870638958 0 -0.039652011384573103 0.035331265622300011 0 -0.039640975122968054 0.03503932870638958 0 -0.039652011384573103 0.035331265622300011 0 -0.039792732643250735 0.035218335934103999 0 -0.039652946844594361 0.035578331593792964 0 -0.039367233059504125 0.035281677667260695 0 -0.039652011384573103 0.035331265622300011 0 -0.039367233059504125 0.035281677667260695 0 -0.039522132990052639 0.035139784816829327 0 -0.039652011384573103 0.035331265622300011 0 -0.039808539309969478 0.035560597174193284 0 -0.039857328943685183 0.03540942958774735 0 -0.039780402127940831 0.035595920821985927 0 -0.039652011384573103 0.035331265622300011 0 -0.039782357896411741 0.03538728273897767 0 -0.039792732643250735 0.035218335934103999 0 -0.039808539309969478 0.035560597174193284 0 -0.039857328943685183 0.03540942958774735 0 -0.039782357896411741 0.03538728273897767 0 -0.039808539309969478 0.035560597174193284 0 -0.039652011384573103 0.035331265622300011 0 -0.039782357896411741 0.03538728273897767 0 -0.039857328943685183 0.03540942958774735 0 -0.039782357896411741 0.03538728273897767 0 -0.039792732643250735 0.035218335934103999 0 -0.039857328943685183 0.03540942958774735 0 -0.039792732643250735 0.035218335934103999 0 -0.039909352722281612 0.03523307504655096 0 -0.039857328943685183 0.03540942958774735 0 -0.039909352722281612 0.03523307504655096 0 -0.039952327631316224 0.035346074987717108 0 -0.039631885435036672 0.034343936955468592 0 -0.039818820978266237 0.034929724027308665 0 -0.040088914938713985 0.035220018919702861 0 -0.039909352722281612 0.03523307504655096 0 -0.040088914938713985 0.035220018919702861 0 -0.039952327631316224 0.035346074987717108 0 -0.039909352722281612 0.03523307504655096 0 -0.039818820978266237 0.034929724027308665 0 -0.040088914938713985 0.035220018919702861 0 -0.039792732643250735 0.035218335934103999 0 -0.039909352722281612 0.03523307504655096 0 -0.039818820978266237 0.034929724027308665 0 -0.039640975122968054 0.03503932870638958 0 -0.039792732643250735 0.035218335934103999 0 -0.039818820978266237 0.034929724027308665 0 -0.043075094296431048 0.023588259805649946 0 -0.043087904288231456 0.026868458803861441 0 -0.039631885435036672 0.034343936955468592 0 -0.03949093449605625 0.033173607904699698 0 -0.040088914938713985 0.035220018919702861 0 -0.040073499241132161 0.033155463210869485 0 -0.03949093449605625 0.033173607904699698 0 -0.041389458954122368 0.034530447152395102 0 -0.039836148158104566 0.033762725883048857 0 -0.0400372450468304 0.033307814033323148 0 -0.039631885435036672 0.034343936955468592 0 -0.039293793544690862 0.033914904847574867 0 -0.03949093449605625 0.033173607904699698 0 -0.037601687637284775 0.031531977380944438 0 -0.040073499241132161 0.033155463210869485 0 -0.03949093449605625 0.033173607904699698 0 -0.037601687637284775 0.031531977380944438 0 -0.03949093449605625 0.033173607904699698 0 -0.038343396452277793 0.032630065175275474 0 -0.037891409882125915 0.025252998869136112 0 -0.043075094296431048 0.023588259805649946 0 -0.037712170497217638 0.032983035012840285 0 -0.037498662536743103 0.034868275626404523 0 -0.038284130433182052 0.033609397765717135 0 -0.037712170497217638 0.032983035012840285 0 -0.038284130433182052 0.033609397765717135 0 -0.038343396452277793 0.032630065175275474 0 -0.038426784426571277 0.03435517192300893 0 -0.038284130433182052 0.033609397765717135 0 -0.03897186865799708 0.034098307504700595 0 -0.038284130433182052 0.033609397765717135 0 -0.03888469146355282 0.033457305073612796 0 -0.038343396452277793 0.032630065175275474 0 -0.03888469146355282 0.033457305073612796 0 -0.03897186865799708 0.034098307504700595 0 -0.039293793544690862 0.033914904847574867 0 -0.038284130433182052 0.033609397765717135 0 -0.03888469146355282 0.033457305073612796 0 -0.03897186865799708 0.034098307504700595 0 -0.039337809428761514 0.034420365651851331 0 -0.03897186865799708 0.034098307504700595 0 -0.039293793544690862 0.033914904847574867 0 -0.03888469146355282 0.033457305073612796 0 -0.039293793544690862 0.033914904847574867 0 -0.03949093449605625 0.033173607904699698 0 -0.03888469146355282 0.033457305073612796 0 -0.03949093449605625 0.033173607904699698 0 -0.038343396452277793 0.032630065175275474 0 -0.037601687637284775 0.031531977380944438 0 -0.037690899593437362 0.031963531750362525 0 -0.038343396452277793 0.032630065175275474 0 -0.037690899593437362 0.031963531750362525 0 -0.037712170497217638 0.032983035012840285 0 -0.038343396452277793 0.032630065175275474 0 -0.041336762135927345 0.013090342987443007 0 -0.043483533116837655 0.01217683384621427 0 -0.042333973435061317 0.010529078810893528 0 -0.041336762135927345 0.013090342987443007 0 -0.044949612676874931 0.014785118190212852 0 -0.043483533116837655 0.01217683384621427 0 -0.043483533116837655 0.01217683384621427 0 -0.044336271112592529 0.010207962903367339 0 -0.042333973435061317 0.010529078810893528 0 -0.044949612676874931 0.014785118190212852 0 -0.045352964290675576 0.011935011074955119 0 -0.04761970323254059 0.012730928591548596 0 -0.044949612676874931 0.014785118190212852 0 -0.043483533116837655 0.01217683384621427 0 -0.045352964290675576 0.011935011074955119 0 -0.043483533116837655 0.01217683384621427 0 -0.045352964290675576 0.011935011074955119 0 -0.044336271112592529 0.010207962903367339 0 -0.045352964290675576 0.011935011074955119 0 -0.047119906155179615 0.010095001552279888 0 -0.04761970323254059 0.012730928591548596 0 -0.044336271112592529 0.010207962903367339 0 -0.045241066260375336 0.0081928151873245977 0 -0.047119906155179615 0.010095001552279888 0 -0.045241066260375336 0.0081928151873245977 0 -0.04733957556280894 0.0071469235649259336 0 -0.047119906155179615 0.010095001552279888 0 -0.045352964290675576 0.011935011074955119 0 -0.044336271112592529 0.010207962903367339 0 -0.047119906155179615 0.010095001552279888 0 -0.044336271112592529 0.010207962903367339 0 -0.045241066260375336 0.0081928151873245977 0 -0.043498499637031472 0.0085223159593585066 0 -0.045241066260375336 0.0081928151873245977 0 -0.045271749278726264 0.0060330344510427392 0 -0.04733957556280894 0.0071469235649259336 0 -0.045241066260375336 0.0081928151873245977 0 -0.045271749278726264 0.0060330344510427392 0 -0.043952699553342599 0.0070502719585523437 0 -0.045271749278726264 0.0060330344510427392 0 -0.043843877754532433 0.0056091591511818178 0 -0.04493351269931662 0.0044812303162955836 0 -0.045271749278726264 0.0060330344510427392 0 -0.043843877754532433 0.0056091591511818178 0 -0.043952699553342599 0.0070502719585523437 0 -0.045271749278726264 0.0060330344510427392 0 -0.046626675870415864 0.0047497839892668356 0 -0.04733957556280894 0.0071469235649259336 0 -0.043843877754532433 0.0056091591511818178 0 -0.041853692164378654 0.0069472932574558034 0 -0.043266900426599766 0.0039496954771064694 0 -0.043843877754532433 0.0056091591511818178 0 -0.043952699553342599 0.0070502719585523437 0 -0.041853692164378654 0.0069472932574558034 0 -0.043952699553342599 0.0070502719585523437 0 -0.041853692164378654 0.0069472932574558034 0 -0.043498499637031472 0.0085223159593585066 0 -0.045241066260375336 0.0081928151873245977 0 -0.043952699553342599 0.0070502719585523437 0 -0.043498499637031472 0.0085223159593585066 0 -0.041853692164378654 0.0069472932574558034 0 -0.043498499637031472 0.0085223159593585066 0 -0.042333973435061317 0.010529078810893528 0 -0.041812541102995947 0.0077882096530275426 0 -0.04228419171029564 0.010306328405598362 0 -0.044336271112592529 0.010207962903367339 0 -0.043498499637031472 0.0085223159593585066 0 -0.042333973435061317 0.010529078810893528 0 -0.037360470683901956 0.02603262234685003 0 -0.031656981429002293 0.025516790327705981 0 -0.036172458380466344 0.020839328796466116 0 -0.036690233781151833 0.0305089384691563 0 -0.037360470683901956 0.02603262234685003 0 -0.031656981429002293 0.025516790327705981 0 -0.041784039081407064 0.0086170971780746841 0 -0.042333973435061317 0.010529078810893528 0 -0.040936594762109771 0.010207028477357806 0 -0.039102946206851064 0.017586021176162595 0 -0.038646399778623573 0.01516128667036948 0 -0.041160011596498736 0.017671223490173651 0 -0.040992695987421113 0.017242836461850947 0 -0.042529463213146712 0.016244301890573739 0 -0.043973178023980389 0.019218563109419638 0 -0.044666416968539603 0.018508959510806611 0 -0.044530545123718561 0.018253449769851968 0 -0.041160011596498736 0.017671223490173651 0 -0.040992695987421113 0.017242836461850947 0 -0.041026176558633165 0.017419883485466674 0 -0.040379204962532333 0.019161684118788637 0 -0.0404011551872673 0.019494505426768144 0 -0.039339711803666119 0.022626340981502558 0 -0.0404011551872673 0.019494505426768144 0 -0.039339711803666119 0.022626340981502558 0 -0.038646399778623573 0.01516128667036948 0 -0.04035589295418137 0.016120414870119927 0 -0.040992695987421113 0.017242836461850947 0 -0.041405326990038481 0.015877538154350307 0 -0.040992695987421113 0.017242836461850947 0 -0.041405326990038481 0.015877538154350307 0 -0.042529463213146712 0.016244301890573739 0 -0.041784039081407064 0.0086170971780746841 0 -0.040936594762109771 0.010207028477357806 0 -0.040626651382795906 0.0083796518190309942 0 -0.041812541102995947 0.0077882096530275426 0 -0.042149078262025533 0.0056396201105716158 0 -0.041784039081407064 0.0086170971780746841 0 -0.040626651382795906 0.0083796518190309942 0 -0.040870519232681438 0.0075368907248530769 0 -0.041784039081407064 0.0086170971780746841 0 -0.040870519232681438 0.0075368907248530769 0 -0.041458502697193311 0.0069815046493017004 0 -0.041853692164378654 0.0069472932574558034 0 -0.041444969605287166 0.003692326384626422 0 -0.041824465867138338 0.0037002178933771292 0 -0.038646399778623573 0.01516128667036948 0 -0.043058657984170516 0.010107399028865729 0 -0.040626651382795906 0.0083796518190309942 0 -0.040870519232681438 0.0075368907248530769 0 -0.040331289581229453 0.0069701103659681662 0 -0.040870519232681438 0.0075368907248530769 0 -0.040331289581229453 0.0069701103659681662 0 -0.041458502697193311 0.0069815046493017004 0 -0.043058657984170516 0.010107399028865729 0 -0.042149078262025533 0.0056396201105716158 0 -0.042149078262025533 0.0056396201105716158 0 -0.045263479722277268 0.0053229536122648214 0 -0.044426293801680457 0.0072337349296973906 0 -0.043570956010913202 0.0072011854835612264 0 -0.043713764134222059 0.0079813399340393585 0 -0.041453208132286076 0.0036928344049987948 0 -0.041124886619271016 0.0016631602063631504 0 -0.041824465867138338 0.0037002178933771292 0 -0.042149078262025533 0.0056396201105716158 0 -0.042064162064216495 0.0055446985727940438 0 -0.041405326990038481 0.015877538154350307 0 -0.042529463213146712 0.016244301890573739 0 -0.04221411485182347 0.014906196378256544 0 -0.041405326990038481 0.015877538154350307 0 -0.04221411485182347 0.014906196378256544 0 -0.040944734629697513 0.014895715671178972 0 -0.043058657984170516 0.010107399028865729 0 -0.042526274189055198 0.013093109407290702 0 -0.044267623716759054 0.011447180024116809 0 -0.044310381506438734 0.011463808677421222 0 -0.04431680499045753 0.011486395804430127 0 -0.044267623716759054 0.011447180024116809 0 -0.04431680499045753 0.011486395804430127 0 -0.044291576528507383 0.011491385276266888 0 -0.043058657984170516 0.010107399028865729 0 -0.045570165024987307 0.008905220029111479 0 -0.044426293801680457 0.0072337349296973906 0 -0.044712234605890459 0.0083543013400626115 0 -0.043713764134222059 0.0079813399340393585 0 -0.045570165024987307 0.008905220029111479 0 -0.045263479722277268 0.0053229536122648214 0 -0.048427511766809712 0.0038253295123240301 0 -0.047678768966976537 0.0040514769439637492 0 -0.047879483506029878 0.0046812481618241711 0 -0.045263479722277268 0.0053229536122648214 0 -0.045359793034935154 0.0030999555608240683 0 -0.048427511766809712 0.0038253295123240301 0 -0.047586331392719165 0.0035163884140244563 0 -0.047678768966976537 0.0040514769439637492 0 -0.041124886619271016 0.0016631602063631504 0 -0.043553743964752235 0.0024974690651679292 0 -0.042439440260638034 0.0029482546423760703 0 -0.047586331392719165 0.0035163884140244563 0 -0.047678768966976537 0.0040514769439637492 0 -0.046976399614822736 0.0038296942108958232 0 -0.047086599390562284 0.0042474392766272996 0 -0.046553483839406037 0.0037343124604047686 0 -0.046356299809108679 0.0043130442636657249 0 -0.047678768966976537 0.0040514769439637492 0 -0.047086599390562284 0.0042474392766272996 0 -0.046976399614822736 0.0038296942108958232 0 -0.046553483839406037 0.0037343124604047686 0 -0.046976399614822736 0.0038296942108958232 0 -0.046261813676578195 0.0035568270157766368 0 -0.047086599390562284 0.0042474392766272996 0 -0.046553483839406037 0.0037343124604047686 0 -0.046976399614822736 0.0038296942108958232 0 -0.047586331392719165 0.0035163884140244563 0 -0.046976399614822736 0.0038296942108958232 0 -0.046261813676578195 0.0035568270157766368 0 -0.045359793034935154 0.0030999555608240683 0 -0.046271771218376244 0.0034586958668047143 0 -0.043553743964752235 0.0024974690651679292 0 -0.046261813676578195 0.0035568270157766368 0 -0.04493351269931662 0.0044812303162955836 0 -0.046553483839406037 0.0037343124604047686 0 -0.046261813676578195 0.0035568270157766368 0 -0.046581845349081698 0.0038094973125772577 0 -0.046261813676578195 0.0035568270157766368 0 -0.046626675870415864 0.0047497839892668356 0 -0.046581845349081698 0.0038094973125772577 0 -0.046261813676578195 0.0035568270157766368 0 -0.046626675870415864 0.0047497839892668356 0 -0.04493351269931662 0.0044812303162955836 0 -0.045271749278726264 0.0060330344510427392 0 -0.046626675870415864 0.0047497839892668356 0 -0.04493351269931662 0.0044812303162955836 0 -0.043843877754532433 0.0056091591511818178 0 -0.04493351269931662 0.0044812303162955836 0 -0.043266900426599766 0.0039496954771064694 0 -0.041853692164378654 0.0069472932574558034 0 -0.043266900426599766 0.0039496954771064694 0 -0.041824465867138338 0.0037002178933771292 0 -0.043553743964752235 0.0024974690651679292 0 -0.043266900426599766 0.0039496954771064694 0 -0.042439440260638034 0.0029482546423760703 0 -0.043266900426599766 0.0039496954771064694 0 -0.042439440260638034 0.0029482546423760703 0 -0.041824465867138338 0.0037002178933771292 0 -0.041124886619271016 0.0016631602063631504 0 -0.042439440260638034 0.0029482546423760703 0 -0.041824465867138338 0.0037002178933771292 0 -0.043553743964752235 0.0024974690651679292 0 -0.04493351269931662 0.0044812303162955836 0 -0.043266900426599766 0.0039496954771064694 0 -0.044801270043053933 0.0058897112020824573 0 -0.041163347109544147 0.005968824526081478 0 -0.045133299615613839 0.0030476826467004396 0 -0.046104781299595964 0.0020878986516400851 0 -0.043701882719923757 0.0022176313347427304 0 -0.045133299615613839 0.0030476826467004396 0 -0.046104781299595964 0.0020878986516400851 0 -0.046349198837180139 0.0035346155410107254 0 -0.046626675870415864 0.0047497839892668356 0 -0.046982925311324759 0.0041978772955330304 0 -0.046581845349081698 0.0038094973125772577 0 -0.047715000833026114 0.0047189507797858977 0 -0.044801270043053933 0.0058897112020824573 0 -0.046553483839406037 0.0037343124604047686 0 -0.046581845349081698 0.0038094973125772577 0 -0.046349198837180139 0.0035346155410107254 0 -0.046982925311324759 0.0041978772955330304 0 -0.046581845349081698 0.0038094973125772577 0 -0.046349198837180139 0.0035346155410107254 0 -0.044801270043053933 0.0058897112020824573 0 -0.0460993971836509 0.0028949922769572886 0 -0.046349198837180139 0.0035346155410107254 0 -0.045343244289844813 0.0039645031153501343 0 -0.046356299809108679 0.0043130442636657249 0 -0.046553483839406037 0.0037343124604047686 0 -0.046349198837180139 0.0035346155410107254 0 -0.046356299809108679 0.0043130442636657249 0 -0.045133299615613839 0.0030476826467004396 0 -0.046349198837180139 0.0035346155410107254 0 -0.045343244289844813 0.0039645031153501343 0 -0.045133299615613839 0.0030476826467004396 0 -0.045343244289844813 0.0039645031153501343 0 -0.044275936815996328 0.0033630451350600676 0 -0.045343244289844813 0.0039645031153501343 0 -0.044275936815996328 0.0033630451350600676 0 -0.044100321726168616 0.0044448511583904367 0 -0.04327069715593352 0.003566976021095976 0 -0.044275936815996328 0.0033630451350600676 0 -0.044100321726168616 0.0044448511583904367 0 -0.04327069715593352 0.003566976021095976 0 -0.042899880526858211 0.0043152752855684026 0 -0.044100321726168616 0.0044448511583904367 0 -0.04327069715593352 0.003566976021095976 0 -0.044275936815996328 0.0033630451350600676 0 -0.043567211611189802 0.0029336999066205817 0 -0.04327069715593352 0.003566976021095976 0 -0.042139805200824068 0.0038403563194325013 0 -0.042899880526858211 0.0043152752855684026 0 -0.04327069715593352 0.003566976021095976 0 -0.042139805200824068 0.0038403563194325013 0 -0.041951544408173821 0.0030627806477400241 0 -0.043008055689077028 0.0024123499774631836 0 -0.040740178393772614 0.0040641605551338328 0 -0.041163347109544147 0.005968824526081478 0 -0.040740178393772614 0.0040641605551338328 0 -0.042950923863371203 0.0024792269711150436 0 -0.043701882719923757 0.0022176313347427304 0 -0.041434686962818094 0.0023905992367136484 0 -0.039588095480916199 0.0092892095143478504 0 -0.039370094632883643 0.0091849166419413833 0 -0.039302948785501259 0.009287916715726945 0 -0.041951544408173821 0.0030627806477400241 0 -0.042950923863371203 0.0024792269711150436 0 -0.041436928791676632 0.0023292676994679682 0 -0.04327069715593352 0.003566976021095976 0 -0.041951544408173821 0.0030627806477400241 0 -0.042950923863371203 0.0024792269711150436 0 -0.045133299615613839 0.0030476826467004396 0 -0.044275936815996328 0.0033630451350600676 0 -0.043701882719923757 0.0022176313347427304 0 -0.044275936815996328 0.0033630451350600676 0 -0.043567211611189802 0.0029336999066205817 0 -0.043701882719923757 0.0022176313347427304 0 -0.04327069715593352 0.003566976021095976 0 -0.042950923863371203 0.0024792269711150436 0 -0.043567211611189802 0.0029336999066205817 0 -0.042950923863371203 0.0024792269711150436 0 -0.043567211611189802 0.0029336999066205817 0 -0.043701882719923757 0.0022176313347427304 0 -0.039588095480916199 0.0092892095143478504 0 -0.039474704477507207 0.0090985796998773703 0 -0.039677700053164934 0.009160158272238518 0 -0.039588095480916199 0.0092892095143478504 0 -0.039370094632883643 0.0091849166419413833 0 -0.039474704477507207 0.0090985796998773703 0 -0.039370094632883643 0.0091849166419413833 0 -0.039474704477507207 0.0090985796998773703 0 -0.03922650390595913 0.0091322631967381048 0 -0.039474704477507207 0.0090985796998773703 0 -0.039642084795146658 0.0090588614054273441 0 -0.039677700053164934 0.009160158272238518 0 -0.039474704477507207 0.0090985796998773703 0 -0.039642084795146658 0.0090588614054273441 0 -0.039496994839564252 0.0089111865514637911 0 -0.039642084795146658 0.0090588614054273441 0 -0.03980966306262633 0.0091080631441562438 0 -0.039751585445133512 0.0089883612958804853 0 -0.039642084795146658 0.0090588614054273441 0 -0.03980966306262633 0.0091080631441562438 0 -0.039677700053164934 0.009160158272238518 0 -0.044809430919760383 0.0089571469217002517 0 -0.045232214751434567 0.010137111519253842 0 -0.039875074467011253 0.0092572292628825235 0 -0.03980966306262633 0.0091080631441562438 0 -0.039677700053164934 0.009160158272238518 0 -0.039875074467011253 0.0092572292628825235 0 -0.039588095480916199 0.0092892095143478504 0 -0.039677700053164934 0.009160158272238518 0 -0.04929075093002383 0.004566316761448681 0 -0.049807853862817497 0.0083437888937391621 0 -0.04733957556280894 0.0071469235649259336 0 -0.044801270043053933 0.0058897112020824573 0 -0.044809430919760383 0.0089571469217002517 0 -0.046626675870415864 0.0047497839892668356 0 -0.04929075093002383 0.004566316761448681 0 -0.04733957556280894 0.0071469235649259336 0 -0.049807853862817497 0.0083437888937391621 0 -0.04733957556280894 0.0071469235649259336 0 -0.047119906155179615 0.010095001552279888 0 -0.049807853862817497 0.0083437888937391621 0 -0.047119906155179615 0.010095001552279888 0 -0.050248890395630345 0.011941748944008871 0 -0.047119906155179615 0.010095001552279888 0 -0.04761970323254059 0.012730928591548596 0 -0.050248890395630345 0.011941748944008871 0 -0.04761970323254059 0.012730928591548596 0 -0.050248890395630345 0.011941748944008871 0 -0.049285268082936796 0.01365294154781173 0 -0.045232214751434567 0.010137111519253842 0 -0.039821954775963529 0.014294914009965734 0 -0.033083600378601863 0.012203382183004157 0 -0.033088006838442027 0.012196989592370835 0 -0.03305116702543192 0.012085201398335669 0 -0.039751585445133512 0.0089883612958804853 0 -0.039707608417506854 0.0088779459963749252 0 -0.039496994839564252 0.0089111865514637911 0 -0.050248890395630345 0.011941748944008871 0 -0.050691381543666689 0.01546482512162935 0 -0.049285268082936796 0.01365294154781173 0 -0.050691381543666689 0.01546482512162935 0 -0.049285268082936796 0.01365294154781173 0 -0.049477191099235714 0.014948763056736982 0 -0.049981952638006061 0.01580234591514635 0 -0.050691381543666689 0.01546482512162935 0 -0.049477191099235714 0.014948763056736982 0 -0.041267783271328032 0.01731449821892983 0 -0.039082775250512493 0.016731043815303819 0 -0.039318429104979541 0.018220119630582027 0 -0.04411566585218004 0.017534815252664995 0 -0.039821954775963529 0.014294914009965734 0 -0.04411566585218004 0.017534815252664995 0 -0.037557821423211263 0.017868646406297411 0 -0.037557821423211263 0.017868646406297411 0 -0.039821954775963529 0.014294914009965734 0 -0.044949612676874931 0.014785118190212852 0 -0.04761970323254059 0.012730928591548596 0 -0.048329619533890908 0.015366925093318762 0 -0.040073499241132161 0.033155463210869485 0 -0.041389458954122368 0.034530447152395102 0 -0.042400917071332672 0.034014544649045374 0 -0.044949612676874931 0.014785118190212852 0 -0.048329619533890908 0.015366925093318762 0 -0.048639067602825846 0.016417666315016427 0 -0.04761970323254059 0.012730928591548596 0 -0.049285268082936796 0.01365294154781173 0 -0.048329619533890908 0.015366925093318762 0 -0.049285268082936796 0.01365294154781173 0 -0.048329619533890908 0.015366925093318762 0 -0.049477191099235714 0.014948763056736982 0 -0.049981952638006061 0.01580234591514635 0 -0.048329619533890908 0.015366925093318762 0 -0.049477191099235714 0.014948763056736982 0 -0.04411566585218004 0.017534815252664995 0 -0.048825531172165947 0.016860522226211268 0 -0.049812476605043114 0.015846215082246318 0 -0.048329619533890908 0.015366925093318762 0 -0.048639067602825846 0.016417666315016427 0 -0.04411566585218004 0.017534815252664995 0 -0.043087904288231456 0.026868458803861441 0 -0.0400372450468304 0.033307814033323148 0 -0.043087904288231456 0.026868458803861441 0 -0.038760921869577393 0.031850896426811375 0 -0.038593268862595599 0.032055110320819404 0 -0.037790842389130073 0.031655946147097422 0 -0.038760921869577393 0.031850896426811375 0 -0.039094739099154993 0.031821257555665915 0 -0.038593268862595599 0.032055110320819404 0 -0.038760921869577393 0.031850896426811375 0 -0.038427160898441934 0.031360725811304641 0 -0.037938994011210932 0.031768631494055809 0 -0.040088914938713985 0.035220018919702861 0 -0.039952327631316224 0.035346074987717108 0 -0.039780402127940831 0.035595920821985927 0 -0.040088914938713985 0.035220018919702861 0 -0.039780402127940831 0.035595920821985927 0 -0.039392212071325469 0.035859441230725597 0 -0.0400372450468304 0.033307814033323148 0 -0.038922629954793363 0.033599687133220008 0 -0.038760921869577393 0.031850896426811375 0 -0.039094739099154993 0.031821257555665915 0 -0.038427160898441934 0.031360725811304641 0 -0.039857328943685183 0.03540942958774735 0 -0.039952327631316224 0.035346074987717108 0 -0.039780402127940831 0.035595920821985927 0 -0.039545147817589776 0.031880077474713282 0 -0.035330984122535304 0.029365516953603215 0 -0.043087904288231456 0.026868458803861441 0 -0.035330984122535304 0.029365516953603215 0 -0.040915463850818644 0.025415541990320634 0 -0.043572608908984248 0.024184587803475224 0 -0.038787212902430361 0.022163440792387284 0 -0.040915463850818644 0.025415541990320634 0 -0.039279042408655714 0.024981494141225538 0 -0.038787212902430361 0.022163440792387284 0 -0.037557821423211263 0.017868646406297411 0 -0.035330984122535304 0.029365516953603215 0 -0.035330984122535304 0.029365516953603215 0 -0.036243328373675457 0.034484588810397142 0 -0.038922629954793363 0.033599687133220008 0 -0.036243328373675457 0.034484588810397142 0 -0.038427160898441934 0.031360725811304641 0 -0.037938994011210932 0.031768631494055809 0 -0.037802999736573868 0.030920373771512463 0 -0.03914856332621211 0.035230713029504868 0 -0.039392212071325469 0.035859441230725597 0 -0.03846689123105549 0.035699198582419323 0 -0.03914856332621211 0.035230713029504868 0 -0.039392212071325469 0.035859441230725597 0 -0.039768500692506863 0.035611860896093465 0 -0.039808539309969478 0.035560597174193284 0 -0.039780402127940831 0.035595920821985927 0 -0.039768500692506863 0.035611860896093465 0 -0.039780402127940831 0.035595920821985927 0 -0.039392212071325469 0.035859441230725597 0 -0.039768500692506863 0.035611860896093465 0 -0.03083403025214106 0.033212307665196804 0 -0.031427547195942297 0.03296360984603644 0 -0.031385225093619226 0.032849123972967874 0 -0.03133273715651963 0.032918572825515018 0 -0.031221453910658396 0.032962873742523616 0 -0.031278507553848818 0.033014671251586303 0 -0.031349508438776943 0.033117222282747202 0 -0.031221453910658396 0.032962873742523616 0 -0.031220963619639441 0.032995131935329644 0 -0.031278507553848818 0.033014671251586303 0 -0.031221453910658396 0.032962873742523616 0 -0.031545301936053552 0.033033132876912827 0 -0.031278507553848818 0.033014671251586303 0 -0.031349508438776943 0.033117222282747202 0 -0.031600869291957649 0.033193214154179196 0 -0.031545301936053552 0.033033132876912827 0 -0.031349508438776943 0.033117222282747202 0 -0.035330984122535304 0.029365516953603215 0 -0.03083403025214106 0.033212307665196804 0 -0.037557821423211263 0.017868646406297411 0 -0.032451492829203406 0.016701817237716011 0 -0.03179766599663042 0.032896048996682178 0 -0.031385225093619226 0.032849123972967874 0 -0.03133273715651963 0.032918572825515018 0 -0.035541589801818083 0.022594091106947486 0 -0.033330191939660192 0.022364233433852868 0 -0.033391765326390675 0.02269570913521466 0 -0.035330984122535304 0.029365516953603215 0 -0.031835723731371009 0.027965181514836353 0 -0.035665188271723297 0.023276031211572894 0 -0.035541589801818083 0.022594091106947486 0 -0.033391765326390675 0.02269570913521466 0 -0.033330191939660192 0.022364233433852868 0 -0.033391765326390675 0.02269570913521466 0 -0.031295663759525659 0.022150399770704609 0 -0.031835723731371009 0.027965181514836353 0 -0.032184468721595312 0.022684911480716712 0 -0.032451492829203406 0.016701817237716011 0 -0.032184468721595312 0.022684911480716712 0 -0.033019557986007531 0.012229737480151198 0 -0.03305116702543192 0.012085201398335669 0 -0.033110020104695742 0.012024582361182486 0 -0.033083600378601863 0.012203382183004157 0 -0.033019557986007531 0.012229737480151198 0 -0.03305116702543192 0.012085201398335669 0 -0.039821954775963529 0.014294914009965734 0 -0.036031155855191323 0.010068608719931219 0 -0.039642084795146658 0.0090588614054273441 0 -0.039751585445133512 0.0089883612958804853 0 -0.039496994839564252 0.0089111865514637911 0 -0.039474704477507207 0.0090985796998773703 0 -0.039496994839564252 0.0089111865514637911 0 -0.039264077415991347 0.0089835836606642367 0 -0.03305116702543192 0.012085201398335669 0 -0.033142003857194367 0.011951905852786791 0 -0.033110020104695742 0.012024582361182486 0 -0.036031155855191323 0.010068608719931219 0 -0.034741861577215018 0.010428075820000327 0 -0.033088538302118845 0.011480600254379495 0 -0.033375003321112887 0.011757489061670384 0 -0.033110020104695742 0.012024582361182486 0 -0.034741861577215018 0.010428075820000327 0 -0.033035596305507529 0.012476610197150304 0 -0.034741861577215018 0.010428075820000327 0 -0.032888902145356266 0.011254124458782416 0 -0.033697487950222788 0.011448261936835439 0 -0.033375003321112887 0.011757489061670384 0 -0.033450643922581694 0.011158971878321893 0 -0.033088538302118845 0.011480600254379495 0 -0.033375003321112887 0.011757489061670384 0 -0.033450643922581694 0.011158971878321893 0 -0.033697487950222788 0.011448261936835439 0 -0.033375003321112887 0.011757489061670384 0 -0.033648648388907944 0.011912965843679136 0 -0.033375003321112887 0.011757489061670384 0 -0.033648648388907944 0.011912965843679136 0 -0.033482775449187374 0.012210302459639777 0 -0.033648648388907944 0.011912965843679136 0 -0.033482775449187374 0.012210302459639777 0 -0.033862519656418351 0.012230466692174638 0 -0.033375003321112887 0.011757489061670384 0 -0.033482775449187374 0.012210302459639777 0 -0.033110020104695742 0.012024582361182486 0 -0.033019557986007531 0.012229737480151198 0 -0.033110020104695742 0.012024582361182486 0 -0.03326448360322036 0.012490408018178011 0 -0.033482775449187374 0.012210302459639777 0 -0.033110020104695742 0.012024582361182486 0 -0.03326448360322036 0.012490408018178011 0 -0.03133273715651963 0.032918572825515018 0 -0.031225715842723732 0.032948755346569943 0 -0.031221453910658396 0.032962873742523616 0 -0.032184468721595312 0.022684911480716712 0 -0.033472622550220349 0.017317880352925336 0 -0.033482775449187374 0.012210302459639777 0 -0.03326448360322036 0.012490408018178011 0 -0.033874691786411948 0.012698200373836155 0 -0.032656778974395416 0.023119807395198682 0 -0.031806256709569478 0.02290961452421611 0 -0.031807635757702866 0.023040833597438404 0 -0.031197595866949149 0.03287433593340322 0 -0.031212122604485904 0.032946476842941337 0 -0.031129002171783205 0.033009708431851296 0 -0.032184468721595312 0.022684911480716712 0 -0.03161517728300671 0.028621562979466584 0 -0.031225715842723732 0.032948755346569943 0 -0.031212122604485904 0.032946476842941337 0 -0.031129002171783205 0.033009708431851296 0 -0.031225715842723732 0.032948755346569943 0 -0.031212122604485904 0.032946476842941337 0 -0.031221453910658396 0.032962873742523616 0 -0.031196531435421802 0.032993950152482798 0 -0.031212122604485904 0.032946476842941337 0 -0.031221453910658396 0.032962873742523616 0 -0.030523865696733148 0.032921316496938975 0 -0.030867073321505314 0.032866273632351901 0 -0.031129002171783205 0.033009708431851296 0 -0.030333280360310046 0.027529598797262942 0 -0.03161517728300671 0.028621562979466584 0 -0.030828763658083937 0.022945647133227925 0 -0.030840586840881472 0.022671528850971612 0 -0.031806256709569478 0.02290961452421611 0 -0.030158617215000634 0.01854583774149721 0 -0.033472622550220349 0.017317880352925336 0 -0.030158617215000634 0.01854583774149721 0 -0.030333280360310046 0.027529598797262942 0 -0.030523865696733148 0.032921316496938975 0 -0.030687076823592275 0.0328174843534993 0 -0.030867073321505314 0.032866273632351901 0 -0.030280738969891082 0.031931773019768066 0 -0.030333280360310046 0.027529598797262942 0 -0.030513132819746751 0.032740117331356025 0 -0.030523865696733148 0.032921316496938975 0 -0.030687076823592275 0.0328174843534993 0 -0.031197595866949149 0.03287433593340322 0 -0.030867073321505314 0.032866273632351901 0 -0.031129002171783205 0.033009708431851296 0 -0.030828763658083937 0.022945647133227925 0 -0.031806256709569478 0.02290961452421611 0 -0.031807635757702866 0.023040833597438404 0 -0.033874691786411948 0.012698200373836155 0 -0.034122446063623274 0.012352360139751418 0 -0.034272407912799979 0.012581195796278408 0 -0.033874691786411948 0.012698200373836155 0 -0.034122446063623274 0.012352360139751418 0 -0.033862519656418351 0.012230466692174638 0 -0.033482775449187374 0.012210302459639777 0 -0.033874691786411948 0.012698200373836155 0 -0.033862519656418351 0.012230466692174638 0 -0.034122446063623274 0.012352360139751418 0 -0.034272407912799979 0.012581195796278408 0 -0.034411864585047962 0.012451953747541256 0 -0.034568377701574296 0.012848384702587399 0 -0.033874691786411948 0.012698200373836155 0 -0.034272407912799979 0.012581195796278408 0 -0.034122446063623274 0.012352360139751418 0 -0.034411864585047962 0.012451953747541256 0 -0.034280854120422567 0.012056095717110214 0 -0.034272407912799979 0.012581195796278408 0 -0.034403664077790337 0.012559157560637628 0 -0.034411864585047962 0.012451953747541256 0 -0.034568377701574296 0.012848384702587399 0 -0.034272407912799979 0.012581195796278408 0 -0.034403664077790337 0.012559157560637628 0 -0.030158617215000634 0.01854583774149721 0 -0.02704880777478464 0.01500748815373127 0 -0.034568377701574296 0.012848384702587399 0 -0.034403664077790337 0.012559157560637628 0 -0.034405509750767775 0.012454687682321506 0 -0.030924940973401649 0.016542362888704719 0 -0.02983641336892056 0.014387427515782597 0 -0.031001817808252605 0.015012552296363994 0 -0.030158617215000634 0.01854583774149721 0 -0.032947996623365942 0.012871579716271292 0 -0.032947996623365942 0.012871579716271292 0 -0.031284833950335732 0.012673643324836706 0 -0.031284833950335732 0.012673643324836706 0 -0.02704880777478464 0.01500748815373127 0 -0.02983641336892056 0.014387427515782597 0 -0.029825085769613052 0.012656405442556567 0 -0.031001817808252605 0.015012552296363994 0 -0.033106470824957886 0.012749967133114192 0 -0.032947996623365942 0.012871579716271292 0 -0.034473755948570751 0.012171150733055467 0 -0.034421634115198795 0.012016405855825788 0 -0.034585559418765045 0.011406229238290155 0 -0.031284833950335732 0.012673643324836706 0 -0.030825308976815322 0.010385900590362427 0 -0.027180915919295154 0.012859464394522459 0 -0.028173696353731032 0.014838787808724531 0 -0.02835606683560277 0.011131091280321708 0 -0.027180915919295154 0.012859464394522459 0 -0.027134853388318378 0.0097671492350471911 0 -0.02835606683560277 0.011131091280321708 0 -0.032947996623365942 0.012871579716271292 0 -0.034159521760877429 0.012278604881531844 0 -0.034472215731227815 0.012504797176965813 0 -0.034483441505224859 0.012159925981479429 0 -0.034280854120422567 0.012056095717110214 0 -0.031284833950335732 0.012673643324836706 0 -0.032068756381366609 0.012848525692321918 0 -0.034483441505224859 0.012159925981479429 0 -0.034280854120422567 0.012056095717110214 0 -0.034421634115198795 0.012016405855825788 0 -0.034280854120422567 0.012056095717110214 0 -0.034421634115198795 0.012016405855825788 0 -0.034289973232731794 0.011744341747836652 0 -0.033648648388907944 0.011912965843679136 0 -0.033862519656418351 0.012230466692174638 0 -0.033982253444461027 0.011961862467911363 0 -0.034280854120422567 0.012056095717110214 0 -0.034060518240174344 0.012151802366720093 0 -0.033982253444461027 0.011961862467911363 0 -0.034122446063623274 0.012352360139751418 0 -0.034280854120422567 0.012056095717110214 0 -0.034060518240174344 0.012151802366720093 0 -0.034122446063623274 0.012352360139751418 0 -0.033862519656418351 0.012230466692174638 0 -0.034060518240174344 0.012151802366720093 0 -0.033862519656418351 0.012230466692174638 0 -0.034060518240174344 0.012151802366720093 0 -0.033982253444461027 0.011961862467911363 0 -0.034280854120422567 0.012056095717110214 0 -0.033982253444461027 0.011961862467911363 0 -0.034289973232731794 0.011744341747836652 0 -0.033982253444461027 0.011961862467911363 0 -0.033974040664475631 0.011629247325448176 0 -0.034289973232731794 0.011744341747836652 0 -0.033648648388907944 0.011912965843679136 0 -0.033982253444461027 0.011961862467911363 0 -0.033974040664475631 0.011629247325448176 0 -0.033697487950222788 0.011448261936835439 0 -0.033648648388907944 0.011912965843679136 0 -0.033974040664475631 0.011629247325448176 0 -0.033974040664475631 0.011629247325448176 0 -0.034289973232731794 0.011744341747836652 0 -0.034171399419611954 0.011158145351880507 0 -0.033697487950222788 0.011448261936835439 0 -0.033974040664475631 0.011629247325448176 0 -0.034171399419611954 0.011158145351880507 0 -0.027134853388318378 0.0097671492350471911 0 -0.02835606683560277 0.011131091280321708 0 -0.028553118575943125 0.0073353451629736607 0 -0.034421634115198795 0.012016405855825788 0 -0.034289973232731794 0.011744341747836652 0 -0.034585559418765045 0.011406229238290155 0 -0.034289973232731794 0.011744341747836652 0 -0.034585559418765045 0.011406229238290155 0 -0.034171399419611954 0.011158145351880507 0 -0.034585559418765045 0.011406229238290155 0 -0.034692495304787796 0.010387696965451611 0 -0.034171399419611954 0.011158145351880507 0 -0.030825308976815322 0.010385900590362427 0 -0.030950406649989919 0.0092816028091029252 0 -0.027134853388318378 0.0097671492350471911 0 -0.027076652643806768 0.0065933595187008358 0 -0.028553118575943125 0.0073353451629736607 0 -0.030950406649989919 0.0092816028091029252 0 -0.029839588779179971 0.0022439717656092648 0 -0.027076652643806768 0.0065933595187008358 0 -0.027856526331996822 0.0051524077195050158 0 -0.027031316261963596 0.0032994346716170042 0 -0.027076652643806768 0.0065933595187008358 0 -0.027856526331996822 0.0051524077195050158 0 -0.028553118575943125 0.0073353451629736607 0 -0.034692495304787796 0.010387696965451611 0 -0.034040762626345797 0.0098568274736394856 0 -0.03469200686045102 0.0091439266256283045 0 -0.034692495304787796 0.010387696965451611 0 -0.034040762626345797 0.0098568274736394856 0 -0.033871388696069232 0.010690196696636003 0 -0.034040762626345797 0.0098568274736394856 0 -0.033252663571712825 0.0099311850512632943 0 -0.033681090820477586 0.0091110749317464129 0 -0.034040762626345797 0.0098568274736394856 0 -0.033871388696069232 0.010690196696636003 0 -0.033252663571712825 0.0099311850512632943 0 -0.033697487950222788 0.011448261936835439 0 -0.033871388696069232 0.010690196696636003 0 -0.034171399419611954 0.011158145351880507 0 -0.034692495304787796 0.010387696965451611 0 -0.033871388696069232 0.010690196696636003 0 -0.034171399419611954 0.011158145351880507 0 -0.033942608314845003 0.010694095637383846 0 -0.032888902145356266 0.011254124458782416 0 -0.033871388696069232 0.010690196696636003 0 -0.032999472943323435 0.011046513105049125 0 -0.033252663571712825 0.0099311850512632943 0 -0.032999472943323435 0.011046513105049125 0 -0.032423505268958597 0.010268732405459439 0 -0.033252663571712825 0.0099311850512632943 0 -0.033697487950222788 0.011448261936835439 0 -0.033871388696069232 0.010690196696636003 0 -0.033450643922581694 0.011158971878321893 0 -0.032189704037852943 0.011421348502915683 0 -0.032999472943323435 0.011046513105049125 0 -0.032423505268958597 0.010268732405459439 0 -0.039474704477507207 0.0090985796998773703 0 -0.039264077415991347 0.0089835836606642367 0 -0.03922650390595913 0.0091322631967381048 0 -0.034741861577215018 0.010428075820000327 0 -0.035964573333439706 0.010473044094504546 0 -0.039370094632883643 0.0091849166419413833 0 -0.03922650390595913 0.0091322631967381048 0 -0.039302948785501259 0.009287916715726945 0 -0.035964573333439706 0.010473044094504546 0 -0.033356571933104623 0.0042944190930587533 0 -0.032423505268958597 0.010268732405459439 0 -0.033252663571712825 0.0099311850512632943 0 -0.032671301568063423 0.0090545768097150588 0 -0.033356571933104623 0.0042944190930587533 0 -0.030413437561953773 0.0020449020858336595 0 -0.033252663571712825 0.0099311850512632943 0 -0.032671301568063423 0.0090545768097150588 0 -0.033681090820477586 0.0091110749317464129 0 -0.028672634114382763 -0.0047925008129057504 0 -0.028226270794359066 -0.0047063630533134386 0 -0.027776760364776429 -0.004888949323358446 0 -0.028672634114382763 -0.0047925008129057504 0 -0.028653665688689739 -0.0047035203010608092 0 -0.028226270794359066 -0.0047063630533134386 0 -0.033873978804730677 0.00038788590334037367 0 -0.028647068259902413 -0.0019040463358854459 0 -0.033356571933104623 0.0042944190930587533 0 -0.033873978804730677 0.00038788590334037367 0 -0.03922650390595913 0.0091322631967381048 0 -0.039168252232338677 0.0092682665827158763 0 -0.039302948785501259 0.009287916715726945 0 -0.033356571933104623 0.0042944190930587533 0 -0.040740178393772614 0.0040641605551338328 0 -0.033873978804730677 0.00038788590334037367 0 -0.040740178393772614 0.0040641605551338328 0 -0.040312112711960404 0.0024203944043339684 0 -0.041436928791676632 0.0023292676994679682 0 -0.041097704381767609 0.0027920084832597438 0 -0.032992513118439239 0.0025681721225740044 0 -0.032728078926829565 0.0036953682162691776 0 -0.040749303449934882 0.0029289684318039933 0 -0.040312112711960404 0.0024203944043339684 0 -0.041097704381767609 0.0027920084832597438 0 -0.040987064628978435 0.0034149488255921278 0 -0.041951544408173821 0.0030627806477400241 0 -0.041436928791676632 0.0023292676994679682 0 -0.041097704381767609 0.0027920084832597438 0 -0.040987064628978435 0.0034149488255921278 0 -0.03994382961490963 0.0040095810620098911 0 -0.041242759954755667 0.004536109260181543 0 -0.042139805200824068 0.0038403563194325013 0 -0.041951544408173821 0.0030627806477400241 0 -0.040987064628978435 0.0034149488255921278 0 -0.041951544408173821 0.0030627806477400241 0 -0.041097704381767609 0.0027920084832597438 0 -0.040987064628978435 0.0034149488255921278 0 -0.042139805200824068 0.0038403563194325013 0 -0.040987064628978435 0.0034149488255921278 0 -0.041242759954755667 0.004536109260181543 0 -0.028571960091506379 -0.0047206347265512363 0 -0.028226270794359066 -0.0047063630533134386 0 -0.028343997380739394 -0.003982566609659721 0 -0.033873978804730677 0.00038788590334037367 0 -0.034311437749656032 -0.00019297511591986815 0 -0.028226270794359066 -0.0047063630533134386 0 -0.028343997380739394 -0.003982566609659721 0 -0.027875599182053911 -0.0044528955927032312 0 -0.040312112711960404 0.0024203944043339684 0 -0.040987064628978435 0.0034149488255921278 0 -0.03994382961490963 0.0040095810620098911 0 -0.028343997380739394 -0.003982566609659721 0 -0.027875599182053911 -0.0044528955927032312 0 -0.027630301483443375 -0.0041541178364645015 0 -0.028343997380739394 -0.003982566609659721 0 -0.027630301483443375 -0.0041541178364645015 0 -0.02779642678130485 -0.0036785787163123346 0 -0.027875599182053911 -0.0044528955927032312 0 -0.027630301483443375 -0.0041541178364645015 0 -0.027379414076106029 -0.0045727728964885502 0 -0.027630301483443375 -0.0041541178364645015 0 -0.027113742792230142 -0.0042754100567044609 0 -0.027379414076106029 -0.0045727728964885502 0 -0.027630301483443375 -0.0041541178364645015 0 -0.027113742792230142 -0.0042754100567044609 0 -0.027244321945718138 -0.0039321929547714808 0 -0.027113742792230142 -0.0042754100567044609 0 -0.026959883903591376 -0.0046749408666824695 0 -0.026359026936419606 -0.004073571461035764 0 -0.027113742792230142 -0.0042754100567044609 0 -0.027244321945718138 -0.0039321929547714808 0 -0.026359026936419606 -0.004073571461035764 0 -0.027113742792230142 -0.0042754100567044609 0 -0.026959883903591376 -0.0046749408666824695 0 -0.027379414076106029 -0.0045727728964885502 0 -0.026959883903591376 -0.0046749408666824695 0 -0.026969598353046798 -0.0049223817401711587 0 -0.027379414076106029 -0.0045727728964885502 0 -0.028897661371821422 -0.0031733833162889704 0 -0.029839588779179971 0.0022439717656092648 0 -0.029839588779179971 0.0022439717656092648 0 -0.025608622819159394 -7.3145129073857456e-05 0 -0.027856526331996822 0.0051524077195050158 0 -0.027031316261963596 0.0032994346716170042 0 -0.028756387258265001 0.0033726616999846786 0 -0.026959883903591376 -0.0046749408666824695 0 -0.026956855810928319 -0.0048809682531450798 0 -0.026533124656166168 -0.0049027071578859709 0 -0.026969598353046798 -0.0049223817401711587 0 -0.027776760364776429 -0.004888949323358446 0 -0.027379414076106029 -0.0045727728964885502 0 -0.029839588779179971 0.0022439717656092648 0 -0.030413437561953773 0.0020449020858336595 0 -0.034040762626345797 0.0098568274736394856 0 -0.03469200686045102 0.0091439266256283045 0 -0.033681090820477586 0.0091110749317464129 0 -0.028226270794359066 -0.0047063630533134386 0 -0.027875599182053911 -0.0044528955927032312 0 -0.027776760364776429 -0.004888949323358446 0 -0.027875599182053911 -0.0044528955927032312 0 -0.027776760364776429 -0.004888949323358446 0 -0.027379414076106029 -0.0045727728964885502 0 -0.028015156255900731 -0.0034093359514846188 0 -0.027402959495755753 -0.0026752191936119055 0 -0.028063666513945384 -0.0034423056518187015 0 -0.028165767055573689 -0.0031457602940901199 0 -0.027867958445652288 -0.0030525966078869715 0 -0.028063666513945384 -0.0034423056518187015 0 -0.027278013853432748 -0.0034823708406841055 0 -0.028768029134085351 -0.0035427150906238774 0 -0.028063666513945384 -0.0034423056518187015 0 -0.026732155938176159 -0.0028505852616963591 0 -0.027278013853432748 -0.0034823708406841055 0 -0.028063666513945384 -0.0034423056518187015 0 -0.028235864485053577 -0.0033379909176755279 0 -0.028768029134085351 -0.0035427150906238774 0 -0.028677657491517669 -0.0024049555017792404 0 -0.030425820975779058 -0.0017436905423300138 0 -0.028235864485053577 -0.0033379909176755279 0 -0.028360641033206117 -0.0032619444051495759 0 -0.028165767055573689 -0.0031457602940901199 0 -0.028063666513945384 -0.0034423056518187015 0 -0.028235864485053577 -0.0033379909176755279 0 -0.028165767055573689 -0.0031457602940901199 0 -0.028235864485053577 -0.0033379909176755279 0 -0.028360641033206117 -0.0032619444051495759 0 -0.02856696131274546 -0.0033712433804227834 0 -0.028235864485053577 -0.0033379909176755279 0 -0.028532092375250707 -0.0034333450842412329 0 -0.02856696131274546 -0.0033712433804227834 0 -0.028360641033206117 -0.0032619444051495759 0 -0.02856696131274546 -0.0033712433804227834 0 -0.02863752793599441 -0.0030964402450616578 0 -0.026732155938176159 -0.0028505852616963591 0 -0.027278013853432748 -0.0034823708406841055 0 -0.025972449952640784 -0.0028787331077030822 0 -0.028063666513945384 -0.0034423056518187015 0 -0.026732155938176159 -0.0028505852616963591 0 -0.026927054147649343 -0.0022305572801972116 0 -0.027278013853432748 -0.0034823708406841055 0 -0.026359026936419606 -0.004073571461035764 0 -0.025972449952640784 -0.0028787331077030822 0 -0.027278013853432748 -0.0034823708406841055 0 -0.027244321945718138 -0.0039321929547714808 0 -0.026359026936419606 -0.004073571461035764 0 -0.025902164515998499 -0.0041901338285186595 0 -0.031973904852118387 0.00040163080056195309 0 -0.027630301483443375 -0.0041541178364645015 0 -0.027244321945718138 -0.0039321929547714808 0 -0.02779642678130485 -0.0036785787163123346 0 -0.027278013853432748 -0.0034823708406841055 0 -0.027244321945718138 -0.0039321929547714808 0 -0.02779642678130485 -0.0036785787163123346 0 -0.027278013853432748 -0.0034823708406841055 0 -0.02779642678130485 -0.0036785787163123346 0 -0.028148450785053993 -0.0031819237643965839 0 -0.03994382961490963 0.0040095810620098911 0 -0.040479841532772287 0.0050937896218052068 0 -0.039532086365545158 0.0055920961573581512 0 -0.028343997380739394 -0.003982566609659721 0 -0.02779642678130485 -0.0036785787163123346 0 -0.028148450785053993 -0.0031819237643965839 0 -0.034311437749656032 -0.00019297511591986815 0 -0.031973904852118387 0.00040163080056195309 0 -0.03994382961490963 0.0040095810620098911 0 -0.040479841532772287 0.0050937896218052068 0 -0.041242759954755667 0.004536109260181543 0 -0.040479841532772287 0.0050937896218052068 0 -0.041242759954755667 0.004536109260181543 0 -0.04113160246777741 0.0052424699043240215 0 -0.040479841532772287 0.0050937896218052068 0 -0.04113160246777741 0.0052424699043240215 0 -0.041022700746537986 0.0059396801778728026 0 -0.041242759954755667 0.004536109260181543 0 -0.041775797218528518 0.0053964885844945921 0 -0.042179421179785986 0.0046571086397024179 0 -0.041242759954755667 0.004536109260181543 0 -0.04113160246777741 0.0052424699043240215 0 -0.041775797218528518 0.0053964885844945921 0 -0.031762725130449372 -0.001578347767314597 0 -0.037608377476393215 0.0013268040351454441 0 -0.034931433256426239 0.00032855146523725368 0 -0.034848278209262736 0.00082693608740784562 0 -0.03806731205640828 0.0010346401943536682 0 -0.039163106574472431 0.0034528850922050098 0 -0.037608377476393215 0.0013268040351454441 0 -0.041775797218528518 0.0053964885844945921 0 -0.041022700746537986 0.0059396801778728026 0 -0.042349436124899865 0.0061910786725926405 0 -0.04113160246777741 0.0052424699043240215 0 -0.041775797218528518 0.0053964885844945921 0 -0.041022700746537986 0.0059396801778728026 0 -0.039163106574472431 0.0034528850922050098 0 -0.031973904852118387 0.00040163080056195309 0 -0.029865372768740735 -0.0038002996023701278 0 -0.028667158217451819 -0.0037621970405955977 0 -0.02927282481352465 -0.0033940334872843356 0 -0.040479841532772287 0.0050937896218052068 0 -0.041022700746537986 0.0059396801778728026 0 -0.039532086365545158 0.0055920961573581512 0 -0.034931433256426239 0.00032855146523725368 0 -0.034848278209262736 0.00082693608740784562 0 -0.031742557413787231 -0.00041726039261325335 0 -0.031762725130449372 -0.001578347767314597 0 -0.030425820975779058 -0.0017436905423300138 0 -0.034848278209262736 0.00082693608740784562 0 -0.031520512522958816 0.00051109293439607342 0 -0.031742557413787231 -0.00041726039261325335 0 -0.028235864485053577 -0.0033379909176755279 0 -0.028681787556900082 -0.0032482247499589405 0 -0.028768029134085351 -0.0035427150906238774 0 -0.030425820975779058 -0.0017436905423300138 0 -0.031973904852118387 0.00040163080056195309 0 -0.028667158217451819 -0.0037621970405955977 0 -0.02927282481352465 -0.0033940334872843356 0 -0.02856696131274546 -0.0033712433804227834 0 -0.02927282481352465 -0.0033940334872843356 0 -0.02856696131274546 -0.0033712433804227834 0 -0.02863752793599441 -0.0030964402450616578 0 -0.030425820975779058 -0.0017436905423300138 0 -0.030097659521340813 -0.0026329123566344479 0 -0.02863752793599441 -0.0030964402450616578 0 -0.029328240113281796 -0.0026989306945922084 0 -0.028462520724300767 -0.0026689138132218898 0 -0.02927282481352465 -0.0033940334872843356 0 -0.02863752793599441 -0.0030964402450616578 0 -0.029328240113281796 -0.0026989306945922084 0 -0.02927282481352465 -0.0033940334872843356 0 -0.029328240113281796 -0.0026989306945922084 0 -0.029937837560008659 -0.0029726880423404057 0 -0.029865372768740735 -0.0038002996023701278 0 -0.029937837560008659 -0.0029726880423404057 0 -0.030744431367336161 -0.003041839587774175 0 -0.029865372768740735 -0.0038002996023701278 0 -0.02927282481352465 -0.0033940334872843356 0 -0.029937837560008659 -0.0029726880423404057 0 -0.029328240113281796 -0.0026989306945922084 0 -0.029937837560008659 -0.0029726880423404057 0 -0.030199922094785885 -0.0022779493843774557 0 -0.029937837560008659 -0.0029726880423404057 0 -0.030199922094785885 -0.0022779493843774557 0 -0.030744431367336161 -0.003041839587774175 0 -0.030199922094785885 -0.0022779493843774557 0 -0.029846461948091898 -0.0016230326547847054 0 -0.030811521056466052 -0.0015397139902364888 0 -0.029328240113281796 -0.0026989306945922084 0 -0.030199922094785885 -0.0022779493843774557 0 -0.029211380846549981 -0.002049073635128457 0 -0.030199922094785885 -0.0022779493843774557 0 -0.029211380846549981 -0.002049073635128457 0 -0.029846461948091898 -0.0016230326547847054 0 -0.029328240113281796 -0.0026989306945922084 0 -0.029211380846549981 -0.002049073635128457 0 -0.028462520724300767 -0.0026689138132218898 0 -0.029211380846549981 -0.002049073635128457 0 -0.028462520724300767 -0.0026689138132218898 0 -0.028227908622445428 -0.0018178878246747536 0 -0.028462520724300767 -0.0026689138132218898 0 -0.027898680796751094 -0.002445405620690554 0 -0.028227908622445428 -0.0018178878246747536 0 -0.028462520724300767 -0.0026689138132218898 0 -0.027867958445652288 -0.0030525966078869715 0 -0.027898680796751094 -0.002445405620690554 0 -0.028462520724300767 -0.0026689138132218898 0 -0.028165767055573689 -0.0031457602940901199 0 -0.027867958445652288 -0.0030525966078869715 0 -0.02863752793599441 -0.0030964402450616578 0 -0.028462520724300767 -0.0026689138132218898 0 -0.028165767055573689 -0.0031457602940901199 0 -0.028360641033206117 -0.0032619444051495759 0 -0.02863752793599441 -0.0030964402450616578 0 -0.028165767055573689 -0.0031457602940901199 0 -0.027402959495755753 -0.0026752191936119055 0 -0.026665682073081322 -0.00198253993348703 0 -0.026927054147649343 -0.0022305572801972116 0 -0.026081636308072087 -0.0016517875810356151 0 -0.026011575906239221 -0.002205070995816415 0 -0.026732155938176159 -0.0028505852616963591 0 -0.026927054147649343 -0.0022305572801972116 0 -0.026011575906239221 -0.002205070995816415 0 -0.027867958445652288 -0.0030525966078869715 0 -0.027898680796751094 -0.002445405620690554 0 -0.027213322029396213 -0.0022878827381890123 0 -0.027898680796751094 -0.002445405620690554 0 -0.028227908622445428 -0.0018178878246747536 0 -0.027213322029396213 -0.0022878827381890123 0 -0.028227908622445428 -0.0018178878246747536 0 -0.027798857588208464 -0.00094088807837502237 0 -0.027213322029396213 -0.0022878827381890123 0 -0.028227908622445428 -0.0018178878246747536 0 -0.027798857588208464 -0.00094088807837502237 0 -0.028989554570993278 -0.0012856844631081955 0 -0.027798857588208464 -0.00094088807837502237 0 -0.028146164959973276 -0.0004332698081831284 0 -0.028812230091049169 -0.0010746661693119839 0 -0.027819475353712243 -0.00092498593089017172 0 -0.029141961983891108 -0.00074620047000961568 0 -0.027798857588208464 -0.00094088807837502237 0 -0.029080684177992332 -0.00040388479742213779 0 -0.028989554570993278 -0.0012856844631081955 0 -0.027798857588208464 -0.00094088807837502237 0 -0.028146164959973276 -0.0004332698081831284 0 -0.027627474658863668 -6.9960563713069999e-05 0 -0.027798857588208464 -0.00094088807837502237 0 -0.027627474658863668 -6.9960563713069999e-05 0 -0.02701926208955794 -0.00059457350315961363 0 -0.028146164959973276 -0.0004332698081831284 0 -0.02794579629942532 8.7738906360873946e-05 0 -0.027627474658863668 -6.9960563713069999e-05 0 -0.028146164959973276 -0.0004332698081831284 0 -0.02794579629942532 8.7738906360873946e-05 0 -0.02906951965975833 6.5500004407333459e-05 0 -0.02794579629942532 8.7738906360873946e-05 0 -0.027627474658863668 -6.9960563713069999e-05 0 -0.028004408972260999 -0.00054127080423459976 0 -0.037579524198396441 -0.0044421421774720289 0 -0.038194648568267452 -0.002502129197782945 0 -0.039602831011563054 -0.0028527828164556087 0 -0.037579524198396441 -0.0044421421774720289 0 -0.039986155076773451 -0.0042096616889282026 0 -0.039602831011563054 -0.0028527828164556087 0 -0.033231391645520587 -0.00214346759753185 0 -0.035435258702454328 -0.0023027802578356889 0 -0.030557361648538187 -0.0016290219939082897 0 -0.033231391645520587 -0.00214346759753185 0 -0.033086902462262494 -0.003481277191097888 0 -0.037579524198396441 -0.0044421421774720289 0 -0.035704825859821862 -0.0015206966978430984 0 -0.02906951965975833 6.5500004407333459e-05 0 -0.029631269276546572 -0.00050465223125078021 0 -0.028812230091049169 -0.0010746661693119839 0 -0.028146164959973276 -0.0004332698081831284 0 -0.02906951965975833 6.5500004407333459e-05 0 -0.028812230091049169 -0.0010746661693119839 0 -0.02906951965975833 6.5500004407333459e-05 0 -0.029631269276546572 -0.00050465223125078021 0 -0.03059561471516542 -0.00022191933194496866 0 -0.029631269276546572 -0.00050465223125078021 0 -0.028812230091049169 -0.0010746661693119839 0 -0.030380871471603142 -0.0011159274183702404 0 -0.029631269276546572 -0.00050465223125078021 0 -0.030380871471603142 -0.0011159274183702404 0 -0.03059561471516542 -0.00022191933194496866 0 -0.029959715446767274 -0.00093087247558764274 0 -0.029080684177992332 -0.00040388479742213779 0 -0.030582238766434938 6.1223003049269123e-05 0 -0.029141961983891108 -0.00074620047000961568 0 -0.029744588889305972 -0.00036639289335255041 0 -0.029959715446767274 -0.00093087247558764274 0 -0.030820459379797847 -0.00075080693122844366 0 -0.030582238766434938 6.1223003049269123e-05 0 -0.029959715446767274 -0.00093087247558764274 0 -0.029080684177992332 -0.00040388479742213779 0 -0.028989554570993278 -0.0012856844631081955 0 -0.029211380846549981 -0.002049073635128457 0 -0.028989554570993278 -0.0012856844631081955 0 -0.029846461948091898 -0.0016230326547847054 0 -0.029211380846549981 -0.002049073635128457 0 -0.028227908622445428 -0.0018178878246747536 0 -0.028989554570993278 -0.0012856844631081955 0 -0.029959715446767274 -0.00093087247558764274 0 -0.028989554570993278 -0.0012856844631081955 0 -0.029846461948091898 -0.0016230326547847054 0 -0.029959715446767274 -0.00093087247558764274 0 -0.029846461948091898 -0.0016230326547847054 0 -0.030811521056466052 -0.0015397139902364888 0 -0.030811521056466052 -0.0015397139902364888 0 -0.031552093243390103 -0.00095134641727454689 0 -0.031689834501726154 -0.0018174816400940402 0 -0.030811521056466052 -0.0015397139902364888 0 -0.031552093243390103 -0.00095134641727454689 0 -0.030820459379797847 -0.00075080693122844366 0 -0.029959715446767274 -0.00093087247558764274 0 -0.030811521056466052 -0.0015397139902364888 0 -0.030820459379797847 -0.00075080693122844366 0 -0.032412330784708322 -0.0011466843383914542 0 -0.032532909452643186 -0.0020486177756218627 0 -0.031689834501726154 -0.0018174816400940402 0 -0.031552093243390103 -0.00095134641727454689 0 -0.032412330784708322 -0.0011466843383914542 0 -0.031689834501726154 -0.0018174816400940402 0 -0.031552093243390103 -0.00095134641727454689 0 -0.032412330784708322 -0.0011466843383914542 0 -0.032110473783432486 -0.00048270498739699119 0 -0.032412330784708322 -0.0011466843383914542 0 -0.032110473783432486 -0.00048270498739699119 0 -0.033072290131800075 -0.00058033516227587326 0 -0.031552093243390103 -0.00095134641727454689 0 -0.032110473783432486 -0.00048270498739699119 0 -0.031465274366533846 -0.00033941605954993637 0 -0.032110473783432486 -0.00048270498739699119 0 -0.031465274366533846 -0.00033941605954993637 0 -0.032295458107033985 0.00046449195918533227 0 -0.032110473783432486 -0.00048270498739699119 0 -0.032295458107033985 0.00046449195918533227 0 -0.033072290131800075 -0.00058033516227587326 0 -0.031465274366533846 -0.00033941605954993637 0 -0.030582238766434938 6.1223003049269123e-05 0 -0.032295458107033985 0.00046449195918533227 0 -0.031552093243390103 -0.00095134641727454689 0 -0.030820459379797847 -0.00075080693122844366 0 -0.031465274366533846 -0.00033941605954993637 0 -0.030820459379797847 -0.00075080693122844366 0 -0.031465274366533846 -0.00033941605954993637 0 -0.030582238766434938 6.1223003049269123e-05 0 -0.030380871471603142 -0.0011159274183702404 0 -0.03059561471516542 -0.00022191933194496866 0 -0.032502589563553799 -0.00087019057647259282 0 -0.029744588889305972 -0.00036639289335255041 0 -0.036031752111658689 -0.0019805793336180343 0 -0.039986155076773451 -0.0042096616889282026 0 -0.041388730961751094 -0.0039092180574248798 0 -0.040922347414987681 -0.0035635049291291563 0 -0.035435258702454328 -0.0023027802578356889 0 -0.036031752111658689 -0.0019805793336180343 0 -0.041388730961751094 -0.0039092180574248798 0 -0.040922347414987681 -0.0035635049291291563 0 -0.041672283072865669 -0.003233959710527993 0 -0.040922347414987681 -0.0035635049291291563 0 -0.041010888977831082 -0.0031295268175823665 0 -0.040433728955388451 -0.0033168697584181348 0 -0.040922347414987681 -0.0035635049291291563 0 -0.041010888977831082 -0.0031295268175823665 0 -0.041672283072865669 -0.003233959710527993 0 -0.041010888977831082 -0.0031295268175823665 0 -0.041672283072865669 -0.003233959710527993 0 -0.0415288115398946 -0.0027335110846138343 0 -0.041010888977831082 -0.0031295268175823665 0 -0.040433728955388451 -0.0033168697584181348 0 -0.0406971622568248 -0.0026933486306168876 0 -0.041010888977831082 -0.0031295268175823665 0 -0.0406971622568248 -0.0026933486306168876 0 -0.0415288115398946 -0.0027335110846138343 0 -0.039986155076773451 -0.0042096616889282026 0 -0.040433728955388451 -0.0033168697584181348 0 -0.039602831011563054 -0.0028527828164556087 0 -0.040433728955388451 -0.0033168697584181348 0 -0.0406971622568248 -0.0026933486306168876 0 -0.039602831011563054 -0.0028527828164556087 0 -0.039986155076773451 -0.0042096616889282026 0 -0.040922347414987681 -0.0035635049291291563 0 -0.040433728955388451 -0.0033168697584181348 0 -0.042742880164126175 -0.0027302925404080638 0 -0.042254739882958227 -0.0026331922219883894 0 -0.042975752202936306 -0.0022735602392951726 0 -0.042742880164126175 -0.0027302925404080638 0 -0.043479277527831268 -0.0022824031962536202 0 -0.042975752202936306 -0.0022735602392951726 0 -0.042742880164126175 -0.0027302925404080638 0 -0.042254739882958227 -0.0026331922219883894 0 -0.041672283072865669 -0.003233959710527993 0 -0.042254739882958227 -0.0026331922219883894 0 -0.041672283072865669 -0.003233959710527993 0 -0.0415288115398946 -0.0027335110846138343 0 -0.042742880164126175 -0.0027302925404080638 0 -0.041672283072865669 -0.003233959710527993 0 -0.042130028054139818 -0.0033820881172044901 0 -0.041182917818328182 -0.0035528511054816461 0 -0.042130028054139818 -0.0033820881172044901 0 -0.042978923850520469 -0.0040339244790715259 0 -0.041388730961751094 -0.0039092180574248798 0 -0.041672283072865669 -0.003233959710527993 0 -0.042130028054139818 -0.0033820881172044901 0 -0.036031752111658689 -0.0019805793336180343 0 -0.043199160156005389 -0.0029505662832254244 0 -0.042130028054139818 -0.0033820881172044901 0 -0.042882870862288681 -0.0031352176607519137 0 -0.042978923850520469 -0.0040339244790715259 0 -0.042742880164126175 -0.0027302925404080638 0 -0.042130028054139818 -0.0033820881172044901 0 -0.042882870862288681 -0.0031352176607519137 0 -0.042742880164126175 -0.0027302925404080638 0 -0.042882870862288681 -0.0031352176607519137 0 -0.043784506280452509 -0.0025891984044020765 0 -0.042742880164126175 -0.0027302925404080638 0 -0.043784506280452509 -0.0025891984044020765 0 -0.043479277527831268 -0.0022824031962536202 0 -0.041626756324581619 -0.00085608049763859369 0 -0.04345432045758961 -0.002814142423891173 0 -0.042882870862288681 -0.0031352176607519137 0 -0.042978923850520469 -0.0040339244790715259 0 -0.043784506280452509 -0.0025891984044020765 0 -0.041626756324581619 -0.00085608049763859369 0 -0.037323731989481523 -7.8862879249862742e-05 0 -0.034312224425176993 -0.00015431777704411187 0 -0.033072290131800075 -0.00058033516227587326 0 -0.033431733877234311 -0.0013447669344618775 0 -0.032295458107033985 0.00046449195918533227 0 -0.034312224425176993 -0.00015431777704411187 0 -0.033072290131800075 -0.00058033516227587326 0 -0.036031752111658689 -0.0019805793336180343 0 -0.041626756324581619 -0.00085608049763859369 0 -0.037323731989481523 -7.8862879249862742e-05 0 -0.045766838497825479 0.0016153932005533956 0 -0.032412330784708322 -0.0011466843383914542 0 -0.033072290131800075 -0.00058033516227587326 0 -0.033290548651701307 -0.0011989729293766169 0 -0.034385120686331497 -0.00012158310506753603 0 -0.037323731989481523 -7.8862879249862742e-05 0 -0.037323731989481523 -7.8862879249862742e-05 0 -0.035179120331538 -0.001119602045460141 0 -0.032412330784708322 -0.0011466843383914542 0 -0.033290548651701307 -0.0011989729293766169 0 -0.032532909452643186 -0.0020486177756218627 0 -0.039588857489933953 0.0021481478452992408 0 -0.039369113840481397 -5.4778411534025244e-05 0 -0.038024315798936129 4.7586585958855901e-05 0 -0.044139442794931018 0.0018797805876071959 0 -0.043160324334052771 0.00056642323143868227 0 -0.044704571766733037 0.00045504493425716359 0 -0.043160324334052771 0.00056642323143868227 0 -0.044704571766733037 0.00045504493425716359 0 -0.043886312595646272 -0.0010128175513121306 0 -0.044704571766733037 0.00045504493425716359 0 -0.043886312595646272 -0.0010128175513121306 0 -0.046104217496739715 -0.00030260582802301751 0 -0.044574266448428435 0.0035422193243444286 0 -0.045794540861903293 0.00078287152142426952 0 -0.043535640251380875 0.0017195340234362716 0 -0.053408647409921968 0.0037843805328051745 0 -0.052983422892748273 0.0047874023226965696 0 -0.052471082556438974 0.0040760673531366979 0 -0.048211439908798476 0.0032672035570414904 0 -0.047730054263200435 0.0043673488446859489 0 -0.043815896369051609 0.0028386963008869819 0 -0.045766838497825479 0.0016153932005533956 0 -0.049007724240278779 0.0033266499132768939 0 -0.047679403094111852 0.0050306619340175565 0 -0.049007724240278779 0.0033266499132768939 0 -0.041731192201550936 -0.00015743361052454109 0 -0.043535640251380875 0.0017195340234362716 0 -0.042047281139204792 0.0027137925678996267 0 -0.047730054263200435 0.0043673488446859489 0 -0.043575586556092734 0.0033860545417337623 0 -0.043815896369051609 0.0028386963008869819 0 -0.049007724240278779 0.0033266499132768939 0 -0.041922908175704716 0.0013095521084860058 0 -0.045794540861903293 0.00078287152142426952 0 -0.041731192201550936 -0.00015743361052454109 0 -0.043535640251380875 0.0017195340234362716 0 -0.039588857489933953 0.0021481478452992408 0 -0.040845130968431863 -0.00063832552726795935 0 -0.039369113840481397 -5.4778411534025244e-05 0 -0.040845130968431863 -0.00063832552726795935 0 -0.038645234841389944 -0.0013614512812294278 0 -0.039369113840481397 -5.4778411534025244e-05 0 -0.044574266448428435 0.0035422193243444286 0 -0.043535640251380875 0.0017195340234362716 0 -0.042047281139204792 0.0027137925678996267 0 -0.045766838497825479 0.0016153932005533956 0 -0.04045320037843906 0.00064714302542333377 0 -0.038645234841389944 -0.0013614512812294278 0 -0.039369113840481397 -5.4778411534025244e-05 0 -0.038024315798936129 4.7586585958855901e-05 0 -0.032532909452643186 -0.0020486177756218627 0 -0.031689834501726154 -0.0018174816400940402 0 -0.031813798852262092 -0.0028329885559169495 0 -0.031689834501726154 -0.0018174816400940402 0 -0.031055498679999294 -0.0023215386363884265 0 -0.031813798852262092 -0.0028329885559169495 0 -0.038645234841389944 -0.0013614512812294278 0 -0.038024315798936129 4.7586585958855901e-05 0 -0.036421397100336997 -0.0020792139949368572 0 -0.035179120331538 -0.001119602045460141 0 -0.034790182493113581 -0.0018460318132637065 0 -0.030199922094785885 -0.0022779493843774557 0 -0.030811521056466052 -0.0015397139902364888 0 -0.031055498679999294 -0.0023215386363884265 0 -0.030811521056466052 -0.0015397139902364888 0 -0.031689834501726154 -0.0018174816400940402 0 -0.031055498679999294 -0.0023215386363884265 0 -0.030199922094785885 -0.0022779493843774557 0 -0.031055498679999294 -0.0023215386363884265 0 -0.030744431367336161 -0.003041839587774175 0 -0.034790182493113581 -0.0018460318132637065 0 -0.037608377476393215 0.0013268040351454441 0 -0.039547339278668506 0.0018863822324154671 0 -0.03775842252175142 -0.0010539943999571145 0 -0.037283639605390752 -0.0011635069264620218 0 -0.030744431367336161 -0.003041839587774175 0 -0.031951746667560316 -0.0026385069703202058 0 -0.03102401239140121 -0.0037977774816590061 0 -0.031055498679999294 -0.0023215386363884265 0 -0.030744431367336161 -0.003041839587774175 0 -0.031813798852262092 -0.0028329885559169495 0 -0.029858012268016657 -0.0033492429173789143 0 -0.034790182493113581 -0.0018460318132637065 0 -0.041731192201550936 -0.00015743361052454109 0 -0.039547339278668506 0.0018863822324154671 0 -0.03775842252175142 -0.0010539943999571145 0 -0.041731192201550936 -0.00015743361052454109 0 -0.042047281139204792 0.0027137925678996267 0 -0.039547339278668506 0.0018863822324154671 0 -0.04045320037843906 0.00064714302542333377 0 -0.034790182493113581 -0.0018460318132637065 0 -0.043575586556092734 0.0033860545417337623 0 -0.039473360636132021 0.0024285426912776732 0 -0.043815896369051609 0.0028386963008869819 0 -0.041922908175704716 0.0013095521084860058 0 -0.039795219031127801 0.0021488961557610022 0 -0.043959103561476726 0.0055030101016296587 0 -0.042757913462808293 0.0063492467266924885 0 -0.044780538011040386 0.0064087049646697584 0 -0.039795219031127801 0.0021488961557610022 0 -0.044522091723909384 0.0048506568704849932 0 -0.043959103561476726 0.0055030101016296587 0 -0.042757913462808293 0.0063492467266924885 0 -0.042878741033395583 0.0053502714832918364 0 -0.029865372768740735 -0.0038002996023701278 0 -0.030744431367336161 -0.003041839587774175 0 -0.03102401239140121 -0.0037977774816590061 0 -0.039795219031127801 0.0021488961557610022 0 -0.037608377476393215 0.0013268040351454441 0 -0.042757913462808293 0.0063492467266924885 0 -0.042515475060701344 0.0063018219387596091 0 -0.042878741033395583 0.0053502714832918364 0 -0.04281907880301767 0.0070308816771760471 0 -0.037608377476393215 0.0013268040351454441 0 -0.041775797218528518 0.0053964885844945921 0 -0.042515475060701344 0.0063018219387596091 0 -0.042878741033395583 0.0053502714832918364 0 -0.041775797218528518 0.0053964885844945921 0 -0.042878741033395583 0.0053502714832918364 0 -0.042179421179785986 0.0046571086397024179 0 -0.042878741033395583 0.0053502714832918364 0 -0.042899880526858211 0.0043152752855684026 0 -0.042179421179785986 0.0046571086397024179 0 -0.042139805200824068 0.0038403563194325013 0 -0.042899880526858211 0.0043152752855684026 0 -0.042179421179785986 0.0046571086397024179 0 -0.042139805200824068 0.0038403563194325013 0 -0.041242759954755667 0.004536109260181543 0 -0.042179421179785986 0.0046571086397024179 0 -0.043959103561476726 0.0055030101016296587 0 -0.044100321726168616 0.0044448511583904367 0 -0.045222916233761484 0.0049987845341728674 0 -0.043959103561476726 0.0055030101016296587 0 -0.042878741033395583 0.0053502714832918364 0 -0.044100321726168616 0.0044448511583904367 0 -0.042878741033395583 0.0053502714832918364 0 -0.042899880526858211 0.0043152752855684026 0 -0.044100321726168616 0.0044448511583904367 0 -0.045343244289844813 0.0039645031153501343 0 -0.045222916233761484 0.0049987845341728674 0 -0.046356299809108679 0.0043130442636657249 0 -0.045343244289844813 0.0039645031153501343 0 -0.044100321726168616 0.0044448511583904367 0 -0.045222916233761484 0.0049987845341728674 0 -0.045222916233761484 0.0049987845341728674 0 -0.046356299809108679 0.0043130442636657249 0 -0.04608069760925889 0.0054297008590332959 0 -0.046356299809108679 0.0043130442636657249 0 -0.04608069760925889 0.0054297008590332959 0 -0.047076509317042943 0.0049917275128463223 0 -0.047679403094111852 0.0050306619340175565 0 -0.044522091723909384 0.0048506568704849932 0 -0.046592647862091947 0.0064514649639349246 0 -0.04608069760925889 0.0054297008590332959 0 -0.047076509317042943 0.0049917275128463223 0 -0.046592647862091947 0.0064514649639349246 0 -0.04608069760925889 0.0054297008590332959 0 -0.044780538011040386 0.0064087049646697584 0 -0.043959103561476726 0.0055030101016296587 0 -0.045222916233761484 0.0049987845341728674 0 -0.044780538011040386 0.0064087049646697584 0 -0.045222916233761484 0.0049987845341728674 0 -0.04608069760925889 0.0054297008590332959 0 -0.044780538011040386 0.0064087049646697584 0 -0.047647962069299984 0.0051381702602788419 0 -0.04794059796004576 0.0053070631856759979 0 -0.047448129107073557 0.0054141594312582392 0 -0.047647962069299984 0.0051381702602788419 0 -0.048043889543923059 0.0050539309227497246 0 -0.04794059796004576 0.0053070631856759979 0 -0.048299731558212752 0.0051915699452621585 0 -0.048399382313588847 0.0049463024757454817 0 -0.04862305888934277 0.0052292852553750477 0 -0.048043889543923059 0.0050539309227497246 0 -0.048299731558212752 0.0051915699452621585 0 -0.048399382313588847 0.0049463024757454817 0 -0.048043889543923059 0.0050539309227497246 0 -0.048299731558212752 0.0051915699452621585 0 -0.04794059796004576 0.0053070631856759979 0 -0.048299731558212752 0.0051915699452621585 0 -0.048414309429388493 0.0053399190856249848 0 -0.04794059796004576 0.0053070631856759979 0 -0.048299731558212752 0.0051915699452621585 0 -0.048414309429388493 0.0053399190856249848 0 -0.04862305888934277 0.0052292852553750477 0 -0.04794059796004576 0.0053070631856759979 0 -0.047448129107073557 0.0054141594312582392 0 -0.047799280315781859 0.0058030372543581704 0 -0.048414309429388493 0.0053399190856249848 0 -0.04794059796004576 0.0053070631856759979 0 -0.047799280315781859 0.0058030372543581704 0 -0.046821757936605347 0.0057186164555748055 0 -0.047448129107073557 0.0054141594312582392 0 -0.047799280315781859 0.0058030372543581704 0 -0.046821757936605347 0.0057186164555748055 0 -0.047448129107073557 0.0054141594312582392 0 -0.047076509317042943 0.0049917275128463223 0 -0.047679403094111852 0.0050306619340175565 0 -0.046814986935520518 0.0055434725330543539 0 -0.047647962069299984 0.0051381702602788419 0 -0.047448129107073557 0.0054141594312582392 0 -0.047076509317042943 0.0049917275128463223 0 -0.047647962069299984 0.0051381702602788419 0 -0.047076509317042943 0.0049917275128463223 0 -0.047879483506029878 0.0046812481618241711 0 -0.047086599390562284 0.0042474392766272996 0 -0.046356299809108679 0.0043130442636657249 0 -0.047076509317042943 0.0049917275128463223 0 -0.047086599390562284 0.0042474392766272996 0 -0.047076509317042943 0.0049917275128463223 0 -0.047879483506029878 0.0046812481618241711 0 -0.048427511766809712 0.0038253295123240301 0 -0.047879483506029878 0.0046812481618241711 0 -0.048399382313588847 0.0049463024757454817 0 -0.047678768966976537 0.0040514769439637492 0 -0.047086599390562284 0.0042474392766272996 0 -0.047879483506029878 0.0046812481618241711 0 -0.047647962069299984 0.0051381702602788419 0 -0.048043889543923059 0.0050539309227497246 0 -0.047879483506029878 0.0046812481618241711 0 -0.048043889543923059 0.0050539309227497246 0 -0.047879483506029878 0.0046812481618241711 0 -0.048399382313588847 0.0049463024757454817 0 -0.048427511766809712 0.0038253295123240301 0 -0.048399382313588847 0.0049463024757454817 0 -0.048788525101653858 0.0051957917244666143 0 -0.047047300370322793 0.0066527567074926392 0 -0.046534955232558725 0.0064591185024203777 0 -0.046716872231099327 0.0073920929727123606 0 -0.045263479722277268 0.0053229536122648214 0 -0.04835535983804249 0.0064622124950091848 0 -0.045570165024987307 0.008905220029111479 0 -0.047728429711948711 0.0080124574394755885 0 -0.046493664816817083 0.00903040050426707 0 -0.046464262276778974 0.0088846470151077769 0 -0.046279625742870908 0.0089593083749295466 0 -0.047047300370322793 0.0066527567074926392 0 -0.047196795975966675 0.0072219747861212409 0 -0.046716872231099327 0.0073920929727123606 0 -0.047728429711948711 0.0080124574394755885 0 -0.04835535983804249 0.0064622124950091848 0 -0.048849912780896149 0.0087149098413177098 0 -0.047715031157278889 0.006038568350008296 0 -0.047940225384142471 0.0076489702677513104 0 -0.048238776089334225 0.0081737046034644229 0 -0.04865680068578139 0.006676364298156553 0 -0.047715031157278889 0.006038568350008296 0 -0.048238776089334225 0.0081737046034644229 0 -0.04865680068578139 0.006676364298156553 0 -0.049588940239619829 0.0078155014607600229 0 -0.047728429711948711 0.0080124574394755885 0 -0.048018897992445311 0.0063901024271001711 0 -0.048849912780896149 0.0087149098413177098 0 -0.047940225384142471 0.0076489702677513104 0 -0.047617774576300669 0.008088546820252283 0 -0.04835535983804249 0.0064622124950091848 0 -0.049364288751433748 0.0052870881525867684 0 -0.04865680068578139 0.006676364298156553 0 -0.049588940239619829 0.0078155014607600229 0 -0.049187465319153668 0.0051454380168305287 0 -0.04862305888934277 0.0052292852553750477 0 -0.048788525101653858 0.0051957917244666143 0 -0.04908895433529048 0.0052640198200610243 0 -0.048399382313588847 0.0049463024757454817 0 -0.04862305888934277 0.0052292852553750477 0 -0.048788525101653858 0.0051957917244666143 0 -0.048414309429388493 0.0053399190856249848 0 -0.04862305888934277 0.0052292852553750477 0 -0.04908895433529048 0.0052640198200610243 0 -0.04908895433529048 0.0052640198200610243 0 -0.049616131179597768 0.0049781735934877639 0 -0.049719698059404079 0.0050911084394831673 0 -0.048788525101653858 0.0051957917244666143 0 -0.04908895433529048 0.0052640198200610243 0 -0.049187465319153668 0.0051454380168305287 0 -0.04908895433529048 0.0052640198200610243 0 -0.049187465319153668 0.0051454380168305287 0 -0.04938208538781462 0.0050067318307227392 0 -0.049187465319153668 0.0051454380168305287 0 -0.04938208538781462 0.0050067318307227392 0 -0.049527627291746056 0.0045990032113609547 0 -0.04908895433529048 0.0052640198200610243 0 -0.04938208538781462 0.0050067318307227392 0 -0.049616131179597768 0.0049781735934877639 0 -0.04938208538781462 0.0050067318307227392 0 -0.049527627291746056 0.0045990032113609547 0 -0.049616131179597768 0.0049781735934877639 0 -0.04865680068578139 0.006676364298156553 0 -0.049187465319153668 0.0051454380168305287 0 -0.048454123804316421 0.0058097220278474516 0 -0.04865680068578139 0.006676364298156553 0 -0.048454123804316421 0.0058097220278474516 0 -0.047715031157278889 0.006038568350008296 0 -0.049187465319153668 0.0051454380168305287 0 -0.048454123804316421 0.0058097220278474516 0 -0.048521722625278804 0.0048115328758210766 0 -0.048454123804316421 0.0058097220278474516 0 -0.047982924172831662 0.0053133081439792175 0 -0.048521722625278804 0.0048115328758210766 0 -0.047583076301341495 0.0054138511807906558 0 -0.047709421454311604 0.0043500708434164306 0 -0.04691544019158881 0.0058291508886223822 0 -0.048454123804316421 0.0058097220278474516 0 -0.047982924172831662 0.0053133081439792175 0 -0.047715031157278889 0.006038568350008296 0 -0.047982924172831662 0.0053133081439792175 0 -0.047583076301341495 0.0054138511807906558 0 -0.047709421454311604 0.0043500708434164306 0 -0.047982924172831662 0.0053133081439792175 0 -0.047583076301341495 0.0054138511807906558 0 -0.047715031157278889 0.006038568350008296 0 -0.047709421454311604 0.0043500708434164306 0 -0.046904328290248432 0.0017005002928334959 0 -0.04691544019158881 0.0058291508886223822 0 -0.047982924172831662 0.0053133081439792175 0 -0.047709421454311604 0.0043500708434164306 0 -0.048521722625278804 0.0048115328758210766 0 -0.048521722625278804 0.0048115328758210766 0 -0.048708942848809202 0.0033175230937998305 0 -0.049124491909756041 0.0042146590175190469 0 -0.047709421454311604 0.0043500708434164306 0 -0.048521722625278804 0.0048115328758210766 0 -0.048708942848809202 0.0033175230937998305 0 -0.047709421454311604 0.0043500708434164306 0 -0.048708942848809202 0.0033175230937998305 0 -0.046904328290248432 0.0017005002928334959 0 -0.049527627291746056 0.0045990032113609547 0 -0.049957032836989719 0.0032343135774360924 0 -0.050504710829303683 0.0040842431633853352 0 -0.049527627291746056 0.0045990032113609547 0 -0.049124491909756041 0.0042146590175190469 0 -0.049957032836989719 0.0032343135774360924 0 -0.049187465319153668 0.0051454380168305287 0 -0.049527627291746056 0.0045990032113609547 0 -0.049124491909756041 0.0042146590175190469 0 -0.049187465319153668 0.0051454380168305287 0 -0.048521722625278804 0.0048115328758210766 0 -0.049124491909756041 0.0042146590175190469 0 -0.048708942848809202 0.0033175230937998305 0 -0.049124491909756041 0.0042146590175190469 0 -0.049957032836989719 0.0032343135774360924 0 -0.048708942848809202 0.0033175230937998305 0 -0.049957032836989719 0.0032343135774360924 0 -0.049673184012123506 0.0018959514812323444 0 -0.049957032836989719 0.0032343135774360924 0 -0.050894673019364692 0.0037321133622023645 0 -0.051825921667905984 0.0031145387323280346 0 -0.050894673019364692 0.0037321133622023645 0 -0.051597961227602657 0.0045909744423666731 0 -0.051825921667905984 0.0031145387323280346 0 -0.049527627291746056 0.0045990032113609547 0 -0.050504710829303683 0.0040842431633853352 0 -0.051597961227602657 0.0045909744423666731 0 -0.049957032836989719 0.0032343135774360924 0 -0.050504710829303683 0.0040842431633853352 0 -0.050894673019364692 0.0037321133622023645 0 -0.050504710829303683 0.0040842431633853352 0 -0.050894673019364692 0.0037321133622023645 0 -0.051597961227602657 0.0045909744423666731 0 -0.049527627291746056 0.0045990032113609547 0 -0.049616131179597768 0.0049781735934877639 0 -0.049985708503549393 0.0050387560113166838 0 -0.048944579028972084 0.0053249062864341992 0 -0.04906151991603757 0.005514609850009445 0 -0.049616131179597768 0.0049781735934877639 0 -0.049985708503549393 0.0050387560113166838 0 -0.049719698059404079 0.0050911084394831673 0 -0.048414309429388493 0.0053399190856249848 0 -0.04908895433529048 0.0052640198200610243 0 -0.047799280315781859 0.0058030372543581704 0 -0.04908895433529048 0.0052640198200610243 0 -0.050003602619910444 0.0052397212068739582 0 -0.049719698059404079 0.0050911084394831673 0 -0.049336247445877127 0.004522184959673858 0 -0.051335964625232711 0.0050271150124927902 0 -0.049985708503549393 0.0050387560113166838 0 -0.050003602619910444 0.0052397212068739582 0 -0.049719698059404079 0.0050911084394831673 0 -0.05030424132277362 0.0052407691799066592 0 -0.049985708503549393 0.0050387560113166838 0 -0.050003602619910444 0.0052397212068739582 0 -0.052983422892748273 0.0047874023226965696 0 -0.051597961227602657 0.0045909744423666731 0 -0.052471082556438974 0.0040760673531366979 0 -0.049007724240278779 0.0033266499132768939 0 -0.051335964625232711 0.0050271150124927902 0 -0.047679403094111852 0.0050306619340175565 0 -0.04906151991603757 0.005514609850009445 0 -0.05030424132277362 0.0052407691799066592 0 -0.050348666848128568 0.0051298615608682038 0 -0.049985708503549393 0.0050387560113166838 0 -0.045766838497825479 0.0016153932005533956 0 -0.049824759799228902 0.0015638115646056691 0 -0.051597961227602657 0.0045909744423666731 0 -0.052471082556438974 0.0040760673531366979 0 -0.051825921667905984 0.0031145387323280346 0 -0.053408647409921968 0.0037843805328051745 0 -0.052471082556438974 0.0040760673531366979 0 -0.051825921667905984 0.0031145387323280346 0 -0.044704571766733037 0.00045504493425716359 0 -0.046104217496739715 -0.00030260582802301751 0 -0.046233789307046469 0.0011486175398803108 0 -0.044608793362760621 -0.0020959353842314615 0 -0.045778373611945707 -0.0011367735519644323 0 -0.045992261723193269 -0.0010615471943633389 0 -0.049957032836989719 0.0032343135774360924 0 -0.051825921667905984 0.0031145387323280346 0 -0.049673184012123506 0.0018959514812323444 0 -0.049824759799228902 0.0015638115646056691 0 -0.047628609823943291 0.00041351679218832108 0 -0.046104217496739715 -0.00030260582802301751 0 -0.046233789307046469 0.0011486175398803108 0 -0.048294788651387151 0.00041000617660987395 0 -0.045758106994043847 -0.00050075707908130965 0 -0.047628609823943291 0.00041351679218832108 0 -0.044608793362760621 -0.0020959353842314615 0 -0.045378578588020364 -0.0014571424233836261 0 -0.045778373611945707 -0.0011367735519644323 0 -0.044608793362760621 -0.0020959353842314615 0 -0.044597706214953826 -0.001967120345159605 0 -0.045378578588020364 -0.0014571424233836261 0 -0.041626756324581619 -0.00085608049763859369 0 -0.045758106994043847 -0.00050075707908130965 0 -0.044608793362760621 -0.0020959353842314615 0 -0.043784506280452509 -0.0025891984044020765 0 -0.044597706214953826 -0.001967120345159605 0 -0.044139442794931018 0.0018797805876071959 0 -0.044704571766733037 0.00045504493425716359 0 -0.046233789307046469 0.0011486175398803108 0 -0.043903598849084541 -0.0025043472487219034 0 -0.044608793362760621 -0.0020959353842314615 0 -0.043784506280452509 -0.0025891984044020765 0 -0.043784506280452509 -0.0025891984044020765 0 -0.044597706214953826 -0.001967120345159605 0 -0.044091292468629723 -0.0020999093074189857 0 -0.043784506280452509 -0.0025891984044020765 0 -0.043479277527831268 -0.0022824031962536202 0 -0.044091292468629723 -0.0020999093074189857 0 -0.044597706214953826 -0.001967120345159605 0 -0.045277970117805717 -0.0014999185759224309 0 -0.045378578588020364 -0.0014571424233836261 0 -0.044597706214953826 -0.001967120345159605 0 -0.044852838508642433 -0.0017168601865919769 0 -0.045277970117805717 -0.0014999185759224309 0 -0.044597706214953826 -0.001967120345159605 0 -0.044852838508642433 -0.0017168601865919769 0 -0.044091292468629723 -0.0020999093074189857 0 -0.044852838508642433 -0.0017168601865919769 0 -0.043627187186909257 -0.0019040585142312925 0 -0.045105556191156707 -0.0013969235889844133 0 -0.044852838508642433 -0.0017168601865919769 0 -0.043627187186909257 -0.0019040585142312925 0 -0.044091292468629723 -0.0020999093074189857 0 -0.043627187186909257 -0.0019040585142312925 0 -0.043479277527831268 -0.0022824031962536202 0 -0.042975752202936306 -0.0022735602392951726 0 -0.043627187186909257 -0.0019040585142312925 0 -0.043479277527831268 -0.0022824031962536202 0 -0.044091292468629723 -0.0020999093074189857 0 -0.045522393676794302 -0.0011683850692038474 0 -0.045554202236838315 -0.0012339664995424189 0 -0.045635160565851297 -0.0010236854197718471 0 -0.045598858043496775 -0.00097815638922861938 0 -0.045522393676794302 -0.0011683850692038474 0 -0.045635160565851297 -0.0010236854197718471 0 -0.045598858043496775 -0.00097815638922861938 0 -0.045522393676794302 -0.0011683850692038474 0 -0.045534658502985735 -0.0010637936991356371 0 -0.045522393676794302 -0.0011683850692038474 0 -0.045416506355522135 -0.0012196051314154993 0 -0.045534658502985735 -0.0010637936991356371 0 -0.045522393676794302 -0.0011683850692038474 0 -0.045321077542259773 -0.0013870978799870072 0 -0.045416506355522135 -0.0012196051314154993 0 -0.044852838508642433 -0.0017168601865919769 0 -0.045321077542259773 -0.0013870978799870072 0 -0.045105556191156707 -0.0013969235889844133 0 -0.045321077542259773 -0.0013870978799870072 0 -0.045416506355522135 -0.0012196051314154993 0 -0.045105556191156707 -0.0013969235889844133 0 -0.044852838508642433 -0.0017168601865919769 0 -0.045321077542259773 -0.0013870978799870072 0 -0.045277970117805717 -0.0014999185759224309 0 -0.045522393676794302 -0.0011683850692038474 0 -0.045321077542259773 -0.0013870978799870072 0 -0.045554202236838315 -0.0012339664995424189 0 -0.045321077542259773 -0.0013870978799870072 0 -0.045554202236838315 -0.0012339664995424189 0 -0.045277970117805717 -0.0014999185759224309 0 -0.045554202236838315 -0.0012339664995424189 0 -0.045277970117805717 -0.0014999185759224309 0 -0.045621389674603892 -0.0012435760993668996 0 -0.045277970117805717 -0.0014999185759224309 0 -0.045621389674603892 -0.0012435760993668996 0 -0.045378578588020364 -0.0014571424233836261 0 -0.045554202236838315 -0.0012339664995424189 0 -0.045621389674603892 -0.0012435760993668996 0 -0.045743516479024679 -0.0010528143233238592 0 -0.045554202236838315 -0.0012339664995424189 0 -0.045743516479024679 -0.0010528143233238592 0 -0.045635160565851297 -0.0010236854197718471 0 -0.045743516479024679 -0.0010528143233238592 0 -0.045635160565851297 -0.0010236854197718471 0 -0.045638133612877267 -0.00088035222331870797 0 -0.045743516479024679 -0.0010528143233238592 0 -0.04590718260237852 -0.0007253384502373452 0 -0.045638133612877267 -0.00088035222331870797 0 -0.045743516479024679 -0.0010528143233238592 0 -0.04590718260237852 -0.0007253384502373452 0 -0.046004612214227657 -0.00089488444953986495 0 -0.045621389674603892 -0.0012435760993668996 0 -0.045743516479024679 -0.0010528143233238592 0 -0.046004612214227657 -0.00089488444953986495 0 -0.04590718260237852 -0.0007253384502373452 0 -0.046004612214227657 -0.00089488444953986495 0 -0.046441722079458507 -1.9080522255625428e-05 0 -0.046004612214227657 -0.00089488444953986495 0 -0.046441722079458507 -1.9080522255625428e-05 0 -0.046212006769720752 -0.00057993704891031892 0 -0.04590718260237852 -0.0007253384502373452 0 -0.046441722079458507 -1.9080522255625428e-05 0 -0.045578498551291688 -0.00036830783315493063 0 -0.045621389674603892 -0.0012435760993668996 0 -0.046004612214227657 -0.00089488444953986495 0 -0.045378578588020364 -0.0014571424233836261 0 -0.046004612214227657 -0.00089488444953986495 0 -0.045378578588020364 -0.0014571424233836261 0 -0.045778373611945707 -0.0011367735519644323 0 -0.046004612214227657 -0.00089488444953986495 0 -0.045778373611945707 -0.0011367735519644323 0 -0.046212006769720752 -0.00057993704891031892 0 -0.045778373611945707 -0.0011367735519644323 0 -0.046223223297012977 -0.00078883948506522513 0 -0.046212006769720752 -0.00057993704891031892 0 -0.045778373611945707 -0.0011367735519644323 0 -0.045992261723193269 -0.0010615471943633389 0 -0.046223223297012977 -0.00078883948506522513 0 -0.047628609823943291 0.00041351679218832108 0 -0.047187822125481962 0.00020558367539333093 0 -0.047628609823943291 0.00041351679218832108 0 -0.046743417255371553 0.0015673823636948277 0 -0.048708942848809202 0.0033175230937998305 0 -0.049673184012123506 0.0018959514812323444 0 -0.046904328290248432 0.0017005002928334959 0 -0.04616994808556453 -0.001013454364621154 0 -0.046223223297012977 -0.00078883948506522513 0 -0.046904328290248432 0.0017005002928334959 0 -0.046223223297012977 -0.00078883948506522513 0 -0.046441722079458507 -1.9080522255625428e-05 0 -0.046904328290248432 0.0017005002928334959 0 -0.046441722079458507 -1.9080522255625428e-05 0 -0.046904328290248432 0.0017005002928334959 0 -0.045578498551291688 -0.00036830783315493063 0 -0.046223223297012977 -0.00078883948506522513 0 -0.046441722079458507 -1.9080522255625428e-05 0 -0.046212006769720752 -0.00057993704891031892 0 -0.046904328290248432 0.0017005002928334959 0 -0.044653315550258608 0.00077070149722095445 0 -0.045578498551291688 -0.00036830783315493063 0 -0.047698793480585006 0.0054030739688750128 0 -0.04687731341074667 0.0049086810438353067 0 -0.046944967628882991 0.0059870702477302978 0 -0.047698793480585006 0.0054030739688750128 0 -0.047540064545239007 0.0030569133184009598 0 -0.04687731341074667 0.0049086810438353067 0 -0.046246227379494798 0.0031192246542494154 0 -0.046390465691862059 0.0011645121405869643 0 -0.044653315550258608 0.00077070149722095445 0 -0.045356370497983065 -0.00081643410012586842 0 -0.045578498551291688 -0.00036830783315493063 0 -0.04590718260237852 -0.0007253384502373452 0 -0.045578498551291688 -0.00036830783315493063 0 -0.045638133612877267 -0.00088035222331870797 0 -0.045356370497983065 -0.00081643410012586842 0 -0.045578498551291688 -0.00036830783315493063 0 -0.045638133612877267 -0.00088035222331870797 0 -0.045635160565851297 -0.0010236854197718471 0 -0.045638133612877267 -0.00088035222331870797 0 -0.045648687650382443 -0.00078437892275126176 0 -0.045356370497983065 -0.00081643410012586842 0 -0.045638133612877267 -0.00088035222331870797 0 -0.045648687650382443 -0.00078437892275126176 0 -0.045356370497983065 -0.00081643410012586842 0 -0.045878322191058252 -0.00040682717839693222 0 -0.045648687650382443 -0.00078437892275126176 0 -0.045356370497983065 -0.00081643410012586842 0 -0.045878322191058252 -0.00040682717839693222 0 -0.046268658659152938 8.6242826633260437e-05 0 -0.045878322191058252 -0.00040682717839693222 0 -0.045648687650382443 -0.00078437892275126176 0 -0.045663884594990101 -0.00068622488639032695 0 -0.045598858043496775 -0.00097815638922861938 0 -0.045648687650382443 -0.00078437892275126176 0 -0.045663884594990101 -0.00068622488639032695 0 -0.045598858043496775 -0.00097815638922861938 0 -0.045635160565851297 -0.0010236854197718471 0 -0.045648687650382443 -0.00078437892275126176 0 -0.044999548302177991 0.00031474089541803267 0 -0.045663043010165938 4.264018817444035e-05 0 -0.04579096695936332 0.0015988542129448569 0 -0.044999548302177991 0.00031474089541803267 0 -0.045663043010165938 4.264018817444035e-05 0 -0.045000580316409904 -0.00039082371595144732 0 -0.045663043010165938 4.264018817444035e-05 0 -0.046268658659152938 8.6242826633260437e-05 0 -0.046144830090970833 -0.00032665548435289592 0 -0.045878322191058252 -0.00040682717839693222 0 -0.046268658659152938 8.6242826633260437e-05 0 -0.046144830090970833 -0.00032665548435289592 0 -0.045663043010165938 4.264018817444035e-05 0 -0.046268658659152938 8.6242826633260437e-05 0 -0.04579096695936332 0.0015988542129448569 0 -0.046390465691862059 0.0011645121405869643 0 -0.046269076332912731 0.00015743631236575466 0 -0.047540064545239007 0.0030569133184009598 0 -0.046268658659152938 8.6242826633260437e-05 0 -0.04579096695936332 0.0015988542129448569 0 -0.044999548302177991 0.00031474089541803267 0 -0.04579096695936332 0.0015988542129448569 0 -0.044999441832825005 0.002679984486133314 0 -0.04579096695936332 0.0015988542129448569 0 -0.044999441832825005 0.002679984486133314 0 -0.046038789517916713 0.0038837933681782691 0 -0.044999441832825005 0.002679984486133314 0 -0.046038789517916713 0.0038837933681782691 0 -0.044999765667933261 0.0050452266147302865 0 -0.047540064545239007 0.0030569133184009598 0 -0.046038789517916713 0.0038837933681782691 0 -0.04687731341074667 0.0049086810438353067 0 -0.047540064545239007 0.0030569133184009598 0 -0.04579096695936332 0.0015988542129448569 0 -0.046038789517916713 0.0038837933681782691 0 -0.046038789517916713 0.0038837933681782691 0 -0.04687731341074667 0.0049086810438353067 0 -0.04608242813095717 0.0057301060064306715 0 -0.04687731341074667 0.0049086810438353067 0 -0.04608242813095717 0.0057301060064306715 0 -0.046944967628882991 0.0059870702477302978 0 -0.046038789517916713 0.0038837933681782691 0 -0.044999765667933261 0.0050452266147302865 0 -0.04608242813095717 0.0057301060064306715 0 -0.04499966267375851 0.0074096344831512699 0 -0.046261033989573506 0.007112482094404033 0 -0.04608242813095717 0.0057301060064306715 0 -0.044999765667933261 0.0050452266147302865 0 -0.04499966267375851 0.0074096344831512699 0 -0.04608242813095717 0.0057301060064306715 0 -0.04499966267375851 0.0074096344831512699 0 -0.046261033989573506 0.007112482094404033 0 -0.045685634738256653 0.0082947301270217162 0 -0.046261033989573506 0.007112482094404033 0 -0.046944967628882991 0.0059870702477302978 0 -0.046939577469015281 0.0066330615100657327 0 -0.046261033989573506 0.007112482094404033 0 -0.046729527001570931 0.0075857825918906443 0 -0.046250207400457058 0.0082967173867555897 0 -0.046261033989573506 0.007112482094404033 0 -0.045685634738256653 0.0082947301270217162 0 -0.046250207400457058 0.0082967173867555897 0 -0.046261033989573506 0.007112482094404033 0 -0.04608242813095717 0.0057301060064306715 0 -0.046944967628882991 0.0059870702477302978 0 -0.047698793480585006 0.0054030739688750128 0 -0.046944967628882991 0.0059870702477302978 0 -0.047196065178796182 0.0060315793379135067 0 -0.046944967628882991 0.0059870702477302978 0 -0.047196065178796182 0.0060315793379135067 0 -0.046939577469015281 0.0066330615100657327 0 -0.046904328290248432 0.0017005002928334959 0 -0.044653315550258608 0.00077070149722095445 0 -0.04691544019158881 0.0058291508886223822 0 -0.046246227379494798 0.0031192246542494154 0 -0.046890180449180995 0.0056047384975881796 0 -0.047698793480585006 0.0054030739688750128 0 -0.047196065178796182 0.0060315793379135067 0 -0.04691544019158881 0.0058291508886223822 0 -0.047583076301341495 0.0054138511807906558 0 -0.047715031157278889 0.006038568350008296 0 -0.04691544019158881 0.0058291508886223822 0 -0.047715031157278889 0.006038568350008296 0 -0.04691544019158881 0.0058291508886223822 0 -0.047166179344458291 0.0062387992995883521 0 -0.04691544019158881 0.0058291508886223822 0 -0.047166179344458291 0.0062387992995883521 0 -0.04710582732447692 0.0063713654140552184 0 -0.047196065178796182 0.0060315793379135067 0 -0.04691544019158881 0.0058291508886223822 0 -0.04710582732447692 0.0063713654140552184 0 -0.04710582732447692 0.0063713654140552184 0 -0.047307890971685272 0.0067801475472618507 0 -0.047040772374386808 0.0071343512093449205 0 -0.047166179344458291 0.0062387992995883521 0 -0.04710582732447692 0.0063713654140552184 0 -0.047307890971685272 0.0067801475472618507 0 -0.047715031157278889 0.006038568350008296 0 -0.047307890971685272 0.0067801475472618507 0 -0.047553652201982946 0.0072654598354675816 0 -0.047715031157278889 0.006038568350008296 0 -0.047166179344458291 0.0062387992995883521 0 -0.047307890971685272 0.0067801475472618507 0 -0.046261033989573506 0.007112482094404033 0 -0.046939577469015281 0.0066330615100657327 0 -0.046729527001570931 0.0075857825918906443 0 -0.047196065178796182 0.0060315793379135067 0 -0.04710582732447692 0.0063713654140552184 0 -0.046939577469015281 0.0066330615100657327 0 -0.046939577469015281 0.0066330615100657327 0 -0.047040772374386808 0.0071343512093449205 0 -0.046729527001570931 0.0075857825918906443 0 -0.04710582732447692 0.0063713654140552184 0 -0.046939577469015281 0.0066330615100657327 0 -0.047040772374386808 0.0071343512093449205 0 -0.046729527001570931 0.0075857825918906443 0 -0.046972135992314208 0.0078399434774952866 0 -0.046763381038280948 0.0083692701413438878 0 -0.046729527001570931 0.0075857825918906443 0 -0.046763381038280948 0.0083692701413438878 0 -0.046250207400457058 0.0082967173867555897 0 -0.047040772374386808 0.0071343512093449205 0 -0.046729527001570931 0.0075857825918906443 0 -0.046972135992314208 0.0078399434774952866 0 -0.047040772374386808 0.0071343512093449205 0 -0.046972135992314208 0.0078399434774952866 0 -0.047259940002218295 0.0076512161162710212 0 -0.046972135992314208 0.0078399434774952866 0 -0.047134448592037324 0.008496021438349299 0 -0.047259940002218295 0.0076512161162710212 0 -0.046972135992314208 0.0078399434774952866 0 -0.047134448592037324 0.008496021438349299 0 -0.046763381038280948 0.0083692701413438878 0 -0.047134448592037324 0.008496021438349299 0 -0.046763381038280948 0.0083692701413438878 0 -0.046907904112633812 0.0088189263023260925 0 -0.047553652201982946 0.0072654598354675816 0 -0.047940225384142471 0.0076489702677513104 0 -0.047617774576300669 0.008088546820252283 0 -0.047715031157278889 0.006038568350008296 0 -0.047553652201982946 0.0072654598354675816 0 -0.047940225384142471 0.0076489702677513104 0 -0.047553652201982946 0.0072654598354675816 0 -0.047259940002218295 0.0076512161162710212 0 -0.047617774576300669 0.008088546820252283 0 -0.047307890971685272 0.0067801475472618507 0 -0.047553652201982946 0.0072654598354675816 0 -0.047259940002218295 0.0076512161162710212 0 -0.047307890971685272 0.0067801475472618507 0 -0.047040772374386808 0.0071343512093449205 0 -0.047259940002218295 0.0076512161162710212 0 -0.047134448592037324 0.008496021438349299 0 -0.047617774576300669 0.008088546820252283 0 -0.047476053109626971 0.0087267754448519287 0 -0.047134448592037324 0.008496021438349299 0 -0.047259940002218295 0.0076512161162710212 0 -0.047617774576300669 0.008088546820252283 0 -0.047728429711948711 0.0080124574394755885 0 -0.046101393490519844 0.009818599675292701 0 -0.045570165024987307 0.008905220029111479 0 -0.046101393490519844 0.009818599675292701 0 -0.048849912780896149 0.0087149098413177098 0 -0.047476053109626971 0.0087267754448519287 0 -0.04724772396222756 0.009261931750516459 0 -0.048849912780896149 0.0087149098413177098 0 -0.047617774576300669 0.008088546820252283 0 -0.047476053109626971 0.0087267754448519287 0 -0.047476053109626971 0.0087267754448519287 0 -0.04724772396222756 0.009261931750516459 0 -0.047000725850987302 0.0092368029500206096 0 -0.045413979783867478 0.010742319175807695 0 -0.046101393490519844 0.009818599675292701 0 -0.046559994769387353 0.0099500572251636915 0 -0.047409895537637144 0.0093586817380390836 0 -0.047000725850987302 0.0092368029500206096 0 -0.046763381038280948 0.0083692701413438878 0 -0.046665603904299968 0.0091168077170024966 0 -0.046907904112633812 0.0088189263023260925 0 -0.046763381038280948 0.0083692701413438878 0 -0.046665603904299968 0.0091168077170024966 0 -0.046288196906930229 0.0093546839568647722 0 -0.046665603904299968 0.0091168077170024966 0 -0.046907904112633812 0.0088189263023260925 0 -0.047000725850987302 0.0092368029500206096 0 -0.047134448592037324 0.008496021438349299 0 -0.047476053109626971 0.0087267754448519287 0 -0.047000725850987302 0.0092368029500206096 0 -0.047134448592037324 0.008496021438349299 0 -0.046907904112633812 0.0088189263023260925 0 -0.047000725850987302 0.0092368029500206096 0 -0.046101393490519844 0.009818599675292701 0 -0.046844248894429334 0.0097219439606854394 0 -0.046559994769387353 0.0099500572251636915 0 -0.046665603904299968 0.0091168077170024966 0 -0.047000725850987302 0.0092368029500206096 0 -0.046559994769387353 0.0099500572251636915 0 -0.046665603904299968 0.0091168077170024966 0 -0.046288196906930229 0.0093546839568647722 0 -0.046288196906930229 0.0093546839568647722 0 -0.046172580977196093 0.010019721103623551 0 -0.045707147180060269 0.010473610513852472 0 -0.046288196906930229 0.0093546839568647722 0 -0.045707147180060269 0.010473610513852472 0 -0.045812576358047918 0.0092213686821528192 0 -0.046559994769387353 0.0099500572251636915 0 -0.046288196906930229 0.0093546839568647722 0 -0.046172580977196093 0.010019721103623551 0 -0.044999662035249195 0.012139272036487191 0 -0.045707147180060269 0.010473610513852472 0 -0.044999767553504086 0.0097738181439228338 0 -0.045707147180060269 0.010473610513852472 0 -0.045812576358047918 0.0092213686821528192 0 -0.044999767553504086 0.0097738181439228338 0 -0.045812576358047918 0.0092213686821528192 0 -0.044999767553504086 0.0097738181439228338 0 -0.045685634738256653 0.0082947301270217162 0 -0.04499966267375851 0.0074096344831512699 0 -0.044999767553504086 0.0097738181439228338 0 -0.045685634738256653 0.0082947301270217162 0 -0.045812576358047918 0.0092213686821528192 0 -0.045685634738256653 0.0082947301270217162 0 -0.046250207400457058 0.0082967173867555897 0 -0.046763381038280948 0.0083692701413438878 0 -0.046288196906930229 0.0093546839568647722 0 -0.046250207400457058 0.0082967173867555897 0 -0.046288196906930229 0.0093546839568647722 0 -0.045812576358047918 0.0092213686821528192 0 -0.046250207400457058 0.0082967173867555897 0 -0.012781313003014955 0.0083716579550653179 0 -0.011719606384551016 0.0070942098536077051 0 -0.013435160101749494 0.0060453841641225263 0 -0.014197241522029084 0.0074654791506262273 0 -0.013435160101749494 0.0060453841641225263 0 -0.015586425404679272 0.0067139747879535706 0 -0.014197241522029084 0.0074654791506262273 0 -0.012781313003014955 0.0083716579550653179 0 -0.013435160101749494 0.0060453841641225263 0 -0.012781313003014955 0.0083716579550653179 0 -0.015034944096527621 0.0085728720733261373 0 -0.014030225578129354 0.01029174641034526 0 -0.014197241522029084 0.0074654791506262273 0 -0.012781313003014955 0.0083716579550653179 0 -0.015034944096527621 0.0085728720733261373 0 -0.012781313003014955 0.0083716579550653179 0 -0.010607841838320817 0.0091879678941549497 0 -0.012043845382125993 0.0098137828694150487 0 -0.012781313003014955 0.0083716579550653179 0 -0.010607841838320817 0.0091879678941549497 0 -0.011719606384551016 0.0070942098536077051 0 -0.011927622156800374 0.0086815036814846952 0 -0.011360200566967276 0.0061570027111081489 0 -0.010542000951048071 0.0069256212553013398 0 -0.011257656248317236 0.0089212563415181564 0 -0.010844319708874822 0.0066798870569579477 0 -0.010607841838320817 0.0091879678941549497 0 -0.010317427590960486 0.0071087779730349514 0 -0.011719606384551016 0.0070942098536077051 0 -0.010317427590960486 0.0071087779730349514 0 -0.011719606384551016 0.0070942098536077051 0 -0.010941567421719657 0.0059003135081355795 0 -0.011719606384551016 0.0070942098536077051 0 -0.011747521170857199 0.0054798366551763898 0 -0.010941567421719657 0.0059003135081355795 0 -0.010317427590960486 0.0071087779730349514 0 -0.010941567421719657 0.0059003135081355795 0 -0.010549180033686673 0.0051989168770545024 0 -0.010844319708874822 0.0066798870569579477 0 -0.010570682631959845 0.0053548465496546464 0 -0.013028797552366595 0.0055835857952758186 0 -0.011909633504861291 0.0051621787988789126 0 -0.011747521170857199 0.0054798366551763898 0 -0.010941567421719657 0.0059003135081355795 0 -0.010582718227660229 0.0051085029201778194 0 -0.010941567421719657 0.0059003135081355795 0 -0.010582718227660229 0.0051085029201778194 0 -0.010549180033686673 0.0051989168770545024 0 -0.013165976693345106 0.0052036536877560647 0 -0.013931179265087077 0.004938602252749837 0 -0.013380832462241508 0.0046427459203611547 0 -0.01431141798607107 0.0056914483913337545 0 -0.013165976693345106 0.0052036536877560647 0 -0.013931179265087077 0.004938602252749837 0 -0.01431141798607107 0.0056914483913337545 0 -0.013931179265087077 0.004938602252749837 0 -0.014715654308999168 0.0045493215373718834 0 -0.01431141798607107 0.0056914483913337545 0 -0.015327438525938175 0.0051705372147114077 0 -0.014715654308999168 0.0045493215373718834 0 -0.01431141798607107 0.0056914483913337545 0 -0.01526057719817185 0.0060986627141562961 0 -0.015327438525938175 0.0051705372147114077 0 -0.011719606384551016 0.0070942098536077051 0 -0.011747521170857199 0.0054798366551763898 0 -0.013435160101749494 0.0060453841641225263 0 -0.013028797552366595 0.0055835857952758186 0 -0.01437400457734276 0.0061048206368459774 0 -0.01526057719817185 0.0060986627141562961 0 -0.015866328883455551 0.0056947726591366809 0 -0.015586425404679272 0.0067139747879535706 0 -0.01437400457734276 0.0061048206368459774 0 -0.01554710883339629 0.0066551005772235439 0 -0.015327438525938175 0.0051705372147114077 0 -0.015866328883455551 0.0056947726591366809 0 -0.016092839102638343 0.0046954891285324839 0 -0.01526057719817185 0.0060986627141562961 0 -0.015327438525938175 0.0051705372147114077 0 -0.015866328883455551 0.0056947726591366809 0 -0.015866328883455551 0.0056947726591366809 0 -0.016650538694488792 0.005179586449400515 0 -0.016484332682678023 0.0060702735808809468 0 -0.015866328883455551 0.0056947726591366809 0 -0.016650538694488792 0.005179586449400515 0 -0.016092839102638343 0.0046954891285324839 0 -0.016948090991309644 0.0056578934739895878 0 -0.016484332682678023 0.0060702735808809468 0 -0.017176481313219222 0.0062840383995004081 0 -0.016650538694488792 0.005179586449400515 0 -0.016948090991309644 0.0056578934739895878 0 -0.016484332682678023 0.0060702735808809468 0 -0.016650538694488792 0.005179586449400515 0 -0.016948090991309644 0.0056578934739895878 0 -0.01712602671428937 0.0051326884046982895 0 -0.016484332682678023 0.0060702735808809468 0 -0.016708713367735516 0.006828525871235668 0 -0.017176481313219222 0.0062840383995004081 0 -0.016484332682678023 0.0060702735808809468 0 -0.016708713367735516 0.006828525871235668 0 -0.015586425404679272 0.0067139747879535706 0 -0.015866328883455551 0.0056947726591366809 0 -0.016484332682678023 0.0060702735808809468 0 -0.015586425404679272 0.0067139747879535706 0 -0.017880232036640294 0.005804301316273402 0 -0.017453434224261127 0.0055456879762995617 0 -0.017974869242602699 0.0052865470338486339 0 -0.01802279622966416 0.0063364399096439089 0 -0.017880232036640294 0.005804301316273402 0 -0.017635680118801261 0.0061635291807554341 0 -0.017880232036640294 0.005804301316273402 0 -0.017635680118801261 0.0061635291807554341 0 -0.017453434224261127 0.0055456879762995617 0 -0.017635680118801261 0.0061635291807554341 0 -0.017453434224261127 0.0055456879762995617 0 -0.017176481313219222 0.0062840383995004081 0 -0.016948090991309644 0.0056578934739895878 0 -0.017453434224261127 0.0055456879762995617 0 -0.017176481313219222 0.0062840383995004081 0 -0.016948090991309644 0.0056578934739895878 0 -0.017453434224261127 0.0055456879762995617 0 -0.01712602671428937 0.0051326884046982895 0 -0.016708713367735516 0.006828525871235668 0 -0.017176481313219222 0.0062840383995004081 0 -0.017173726066007623 0.0071894191427945642 0 -0.017176481313219222 0.0062840383995004081 0 -0.017639792430926685 0.0068823843009288514 0 -0.017173726066007623 0.0071894191427945642 0 -0.017635680118801261 0.0061635291807554341 0 -0.017176481313219222 0.0062840383995004081 0 -0.017639792430926685 0.0068823843009288514 0 -0.01802279622966416 0.0063364399096439089 0 -0.017635680118801261 0.0061635291807554341 0 -0.017639792430926685 0.0068823843009288514 0 -0.017639792430926685 0.0068823843009288514 0 -0.017370136329325579 0.0077097143412822398 0 -0.017173726066007623 0.0071894191427945642 0 -0.017855021509289082 0.0076266804477507178 0 -0.017639792430926685 0.0068823843009288514 0 -0.017370136329325579 0.0077097143412822398 0 -0.016708713367735516 0.006828525871235668 0 -0.017173726066007623 0.0071894191427945642 0 -0.01656502596903384 0.0079909704296701658 0 -0.017370136329325579 0.0077097143412822398 0 -0.017173726066007623 0.0071894191427945642 0 -0.01656502596903384 0.0079909704296701658 0 -0.016561806649838733 0.0081055019195664275 0 -0.01688460302162921 0.0093841442586298281 0 -0.017373799022706974 0.0084244648675210667 0 -0.01656502596903384 0.0079909704296701658 0 -0.016651635631460351 0.0088869858755722189 0 -0.017370136329325579 0.0077097143412822398 0 -0.017373799022706974 0.0084244648675210667 0 -0.01656502596903384 0.0079909704296701658 0 -0.017855021509289082 0.0076266804477507178 0 -0.017370136329325579 0.0077097143412822398 0 -0.017373799022706974 0.0084244648675210667 0 -0.014197241522029084 0.0074654791506262273 0 -0.015586425404679272 0.0067139747879535706 0 -0.015034944096527621 0.0085728720733261373 0 -0.015586425404679272 0.0067139747879535706 0 -0.01656502596903384 0.0079909704296701658 0 -0.015034944096527621 0.0085728720733261373 0 -0.016708713367735516 0.006828525871235668 0 -0.015586425404679272 0.0067139747879535706 0 -0.01656502596903384 0.0079909704296701658 0 -0.01656502596903384 0.0079909704296701658 0 -0.015768960006467932 0.0095430788023008386 0 -0.01714488717192833 0.0098701864599033667 0 -0.01656502596903384 0.0079909704296701658 0 -0.015034944096527621 0.0085728720733261373 0 -0.015768960006467932 0.0095430788023008386 0 -0.015768960006467932 0.0095430788023008386 0 -0.015477602570117066 0.011082560134867971 0 -0.014030225578129354 0.01029174641034526 0 -0.015034944096527621 0.0085728720733261373 0 -0.015768960006467932 0.0095430788023008386 0 -0.014030225578129354 0.01029174641034526 0 -0.015768960006467932 0.0095430788023008386 0 -0.015477602570117066 0.011082560134867971 0 -0.01714488717192833 0.0098701864599033667 0 -0.015477602570117066 0.011082560134867971 0 -0.01714488717192833 0.0098701864599033667 0 -0.016496184648820095 0.011511696086456212 0 -0.015477602570117066 0.011082560134867971 0 -0.016496184648820095 0.011511696086456212 0 -0.0156162012943555 0.013143794899625231 0 -0.015477602570117066 0.011082560134867971 0 -0.01451747684595725 0.012439611682354657 0 -0.014030225578129354 0.01029174641034526 0 -0.017936462357572125 0.0087210774703557082 0 -0.017373799022706974 0.0084244648675210667 0 -0.017562848188581608 0.0091178308430094248 0 -0.017373799022706974 0.0084244648675210667 0 -0.016651635631460351 0.0088869858755722189 0 -0.017130690586117714 0.0093603453460997469 0 -0.017373799022706974 0.0084244648675210667 0 -0.017562848188581608 0.0091178308430094248 0 -0.017130690586117714 0.0093603453460997469 0 -0.01714488717192833 0.0098701864599033667 0 -0.016496184648820095 0.011511696086456212 0 -0.017725830660674347 0.011701876348013961 0 -0.016651635631460351 0.0088869858755722189 0 -0.016783973807345906 0.0099193182447646355 0 -0.017130690586117714 0.0093603453460997469 0 -0.01688460302162921 0.0093841442586298281 0 -0.017459916379399632 0.010668098033350542 0 -0.016496184648820095 0.011511696086456212 0 -0.017725830660674347 0.011701876348013961 0 -0.017184209154016947 0.012704875361826184 0 -0.016783973807345906 0.0099193182447646355 0 -0.017130690586117714 0.0093603453460997469 0 -0.017190647670131259 0.0098043339345838098 0 -0.016783973807345906 0.0099193182447646355 0 -0.017190647670131259 0.0098043339345838098 0 -0.017332136719852887 0.010243180722731057 0 -0.017512161882632379 0.0097022594348804819 0 -0.017190647670131259 0.0098043339345838098 0 -0.017332136719852887 0.010243180722731057 0 -0.017512161882632379 0.0097022594348804819 0 -0.017130690586117714 0.0093603453460997469 0 -0.017190647670131259 0.0098043339345838098 0 -0.017512161882632379 0.0097022594348804819 0 -0.017562848188581608 0.0091178308430094248 0 -0.017130690586117714 0.0093603453460997469 0 -0.016783973807345906 0.0099193182447646355 0 -0.017332136719852887 0.010243180722731057 0 -0.017065142163763123 0.010783054073562164 0 -0.016783973807345906 0.0099193182447646355 0 -0.017065142163763123 0.010783054073562164 0 -0.017025233941546359 0.010974228614957922 0 -0.017725830660674347 0.011701876348013961 0 -0.018173392973569905 0.013137554946627989 0 -0.018516488435439755 0.013715123522844746 0 -0.017459916379399632 0.010668098033350542 0 -0.015160250150939041 0.013784720010592114 0 -0.017387537763138262 0.01057789788702272 0 -0.017065142163763123 0.010783054073562164 0 -0.017243699020834901 0.010896630025764869 0 -0.017387537763138262 0.01057789788702272 0 -0.017332136719852887 0.010243180722731057 0 -0.017065142163763123 0.010783054073562164 0 -0.017460326281837708 0.010913695031389066 0 -0.017387537763138262 0.01057789788702272 0 -0.017243699020834901 0.010896630025764869 0 -0.018173392973569905 0.013137554946627989 0 -0.017184209154016947 0.012704875361826184 0 -0.01850181653114738 0.014198329128059854 0 -0.016504103064759891 0.014204247608246703 0 -0.014972779832687575 0.015286484413001976 0 -0.016496184648820095 0.011511696086456212 0 -0.017184209154016947 0.012704875361826184 0 -0.0156162012943555 0.013143794899625231 0 -0.017184209154016947 0.012704875361826184 0 -0.01850181653114738 0.014198329128059854 0 -0.0156162012943555 0.013143794899625231 0 -0.017725830660674347 0.011701876348013961 0 -0.018173392973569905 0.013137554946627989 0 -0.017184209154016947 0.012704875361826184 0 -0.016206971405199836 0.014488260984591087 0 -0.016697215783279609 0.014040701996418973 0 -0.0156162012943555 0.013143794899625231 0 -0.015612909592887787 0.014615716627677439 0 -0.016206971405199836 0.014488260984591087 0 -0.0156162012943555 0.013143794899625231 0 -0.014979592262003341 0.016549136665070921 0 -0.0166504574711617 0.012587232215397377 0 -0.013525886172103988 0.021097243378183177 0 -0.013380663013401772 0.021786442420472032 0 -0.013301891711465313 0.021764133532858873 0 -0.018173392973569905 0.013137554946627989 0 -0.018526364795818755 0.013925176554039442 0 -0.01850181653114738 0.014198329128059854 0 -0.018173392973569905 0.013137554946627989 0 -0.018516488435439755 0.013715123522844746 0 -0.018496763823576283 0.013885578429203306 0 -0.015495819301299486 0.012507973703354663 0 -0.015160250150939041 0.013784720010592114 0 -0.015160250150939041 0.013784720010592114 0 -0.014972779832687575 0.015286484413001976 0 -0.014972779832687575 0.015286484413001976 0 -0.014979592262003341 0.016549136665070921 0 -0.013947583707048546 0.016694142930267976 0 -0.013912859886171058 0.017037962925406953 0 -0.014238200328704128 0.01715681860544423 0 -0.0085469042691371164 0.022585757534868332 0 -0.012681397729705892 0.017370854659245833 0 -0.017460326281837708 0.010913695031389066 0 -0.017183212737679095 0.011156317581696799 0 -0.017243699020834901 0.010896630025764869 0 -0.013774430490424757 0.015260525184421812 0 -0.013736470383264695 0.015619980549260368 0 -0.014198425767182561 0.016360787410009858 0 -0.015160250150939041 0.013784720010592114 0 -0.012681397729705892 0.017370854659245833 0 -0.014979592262003341 0.016549136665070921 0 -0.012681397729705892 0.017370854659245833 0 -0.014972779832687575 0.015286484413001976 0 -0.012681397729705892 0.017370854659245833 0 -0.017063825866234089 0.010953155882798851 0 -0.017183212737679095 0.011156317581696799 0 -0.017243699020834901 0.010896630025764869 0 -0.017065142163763123 0.010783054073562164 0 -0.017063825866234089 0.010953155882798851 0 -0.017243699020834901 0.010896630025764869 0 -0.01451747684595725 0.012439611682354657 0 -0.0156162012943555 0.013143794899625231 0 -0.014331896658990885 0.014033087794094252 0 -0.015477602570117066 0.011082560134867971 0 -0.01451747684595725 0.012439611682354657 0 -0.0156162012943555 0.013143794899625231 0 -0.014937496711313428 0.014530344966980694 0 -0.0156162012943555 0.013143794899625231 0 -0.014331896658990885 0.014033087794094252 0 -0.014937496711313428 0.014530344966980694 0 -0.015612909592887787 0.014615716627677439 0 -0.0156162012943555 0.013143794899625231 0 -0.01451747684595725 0.012439611682354657 0 -0.014331896658990885 0.014033087794094252 0 -0.013571748191162171 0.013361603629802933 0 -0.013085772420107986 0.014522342179535854 0 -0.014331896658990885 0.014033087794094252 0 -0.013571748191162171 0.013361603629802933 0 -0.013085772420107986 0.014522342179535854 0 -0.013571748191162171 0.013361603629802933 0 -0.012677481596625672 0.013468856872933312 0 -0.011858094008955248 0.014650782935893551 0 -0.013085772420107986 0.014522342179535854 0 -0.012677481596625672 0.013468856872933312 0 -0.011858094008955248 0.014650782935893551 0 -0.012677481596625672 0.013468856872933312 0 -0.011830594890953628 0.013107017332961978 0 -0.012677481596625672 0.013468856872933312 0 -0.012401327392238775 0.012321898818262957 0 -0.013297200380018455 0.012248009637597668 0 -0.012677481596625672 0.013468856872933312 0 -0.012401327392238775 0.012321898818262957 0 -0.011830594890953628 0.013107017332961978 0 -0.013571748191162171 0.013361603629802933 0 -0.012677481596625672 0.013468856872933312 0 -0.013297200380018455 0.012248009637597668 0 -0.01451747684595725 0.012439611682354657 0 -0.013571748191162171 0.013361603629802933 0 -0.013297200380018455 0.012248009637597668 0 -0.01451747684595725 0.012439611682354657 0 -0.013297200380018455 0.012248009637597668 0 -0.014030225578129354 0.01029174641034526 0 -0.013297200380018455 0.012248009637597668 0 -0.01260605119746094 0.011141390201417259 0 -0.014030225578129354 0.01029174641034526 0 -0.012401327392238775 0.012321898818262957 0 -0.013297200380018455 0.012248009637597668 0 -0.01260605119746094 0.011141390201417259 0 -0.012401327392238775 0.012321898818262957 0 -0.01260605119746094 0.011141390201417259 0 -0.011088578606432982 0.011279261829540064 0 -0.01260605119746094 0.011141390201417259 0 -0.012043845382125993 0.0098137828694150487 0 -0.014030225578129354 0.01029174641034526 0 -0.012781313003014955 0.0083716579550653179 0 -0.012043845382125993 0.0098137828694150487 0 -0.014030225578129354 0.01029174641034526 0 -0.011927622156800374 0.0086815036814846952 0 -0.011122398523355644 0.010330428709275891 0 -0.0099446780169159463 0.0099819295958434515 0 -0.011927622156800374 0.0086815036814846952 0 -0.012117027788084643 0.011088713305155111 0 -0.011122398523355644 0.010330428709275891 0 -0.011257656248317236 0.0089212563415181564 0 -0.011590129211315386 0.011166248189363043 0 -0.010607841838320817 0.0091879678941549497 0 -0.012043845382125993 0.0098137828694150487 0 -0.011088578606432982 0.011279261829540064 0 -0.01260605119746094 0.011141390201417259 0 -0.012043845382125993 0.0098137828694150487 0 -0.011088578606432982 0.011279261829540064 0 -0.012117027788084643 0.011088713305155111 0 -0.011122398523355644 0.010330428709275891 0 -0.010489513191209533 0.011492337485900098 0 -0.012117027788084643 0.011088713305155111 0 -0.011105797142301156 0.012580523510639713 0 -0.010489513191209533 0.011492337485900098 0 -0.011105797142301156 0.012580523510639713 0 -0.0098648473207678181 0.013181744692282813 0 -0.010489513191209533 0.011492337485900098 0 -0.011590129211315386 0.011166248189363043 0 -0.011843580503232143 0.012919531879161464 0 -0.012117027788084643 0.011088713305155111 0 -0.011105797142301156 0.012580523510639713 0 -0.011830594890953628 0.013107017332961978 0 -0.012401327392238775 0.012321898818262957 0 -0.011088578606432982 0.011279261829540064 0 -0.011830594890953628 0.013107017332961978 0 -0.011105797142301156 0.012580523510639713 0 -0.011198926252999309 0.013797790780188774 0 -0.011830594890953628 0.013107017332961978 0 -0.011858094008955248 0.014650782935893551 0 -0.011198926252999309 0.013797790780188774 0 -0.011830594890953628 0.013107017332961978 0 -0.01057092581011107 0.014771181697812625 0 -0.011055488285045699 0.01276811662006009 0 -0.010111201142494969 0.014710566869151835 0 -0.011105797142301156 0.012580523510639713 0 -0.011198926252999309 0.013797790780188774 0 -0.010980786264897837 0.015002296672447986 0 -0.011105797142301156 0.012580523510639713 0 -0.0098648473207678181 0.013181744692282813 0 -0.0096177009570061912 0.014568180801316576 0 -0.0098648473207678181 0.013181744692282813 0 -0.0082581059851702474 0.014287968200069306 0 -0.0096177009570061912 0.014568180801316576 0 -0.010980786264897837 0.015002296672447986 0 -0.0098648473207678181 0.013181744692282813 0 -0.0098648473207678181 0.013181744692282813 0 -0.0090016829753826709 0.011679227502246188 0 -0.010489513191209533 0.011492337485900098 0 -0.0098648473207678181 0.013181744692282813 0 -0.0090016829753826709 0.011679227502246188 0 -0.0081147147122681076 0.012954611497000824 0 -0.0090016829753826709 0.011679227502246188 0 -0.0081147147122681076 0.012954611497000824 0 -0.0072668922027131211 0.012038523557077716 0 -0.0098648473207678181 0.013181744692282813 0 -0.0081147147122681076 0.012954611497000824 0 -0.0082581059851702474 0.014287968200069306 0 -0.0081147147122681076 0.012954611497000824 0 -0.0082581059851702474 0.014287968200069306 0 -0.0061062632165697506 0.013585549907774929 0 -0.017136741187768239 0.019065803892598522 0 -0.018467372840498961 0.017139285554418775 0 -0.016523309570626477 0.017491473887511891 0 -0.01227686875352893 0.015449884956770367 0 -0.011911427409822352 0.01247283214545424 0 -0.0061062632165697506 0.013585549907774929 0 -0.0072668922027131211 0.012038523557077716 0 -0.0056511621037731684 0.011243155464810715 0 -0.018467372840498961 0.017139285554418775 0 -0.017901539864202332 0.014481246261730021 0 -0.016332722860529232 0.015793060337281263 0 -0.0081147147122681076 0.012954611497000824 0 -0.0061062632165697506 0.013585549907774929 0 -0.0072668922027131211 0.012038523557077716 0 -0.0072668922027131211 0.012038523557077716 0 -0.0068845053875520182 0.011096552423683818 0 -0.0082097605837456906 0.010651167013947615 0 -0.0072668922027131211 0.012038523557077716 0 -0.0068845053875520182 0.011096552423683818 0 -0.0056511621037731684 0.011243155464810715 0 -0.0068845053875520182 0.011096552423683818 0 -0.0068375376184918145 0.010218458514550418 0 -0.0082097605837456906 0.010651167013947615 0 -0.0065273531861933676 0.01040020165442896 0 -0.011911427409822352 0.01247283214545424 0 -0.0068845053875520182 0.011096552423683818 0 -0.0068375376184918145 0.010218458514550418 0 -0.0056511621037731684 0.011243155464810715 0 -0.0071787997397387143 0.0098162918137161929 0 -0.006229162680977637 0.010590815720655993 0 -0.0064336673358367175 0.0096903441572427293 0 -0.006229162680977637 0.010590815720655993 0 -0.0060975136392874179 0.009962521954092602 0 -0.0064336673358367175 0.0096903441572427293 0 -0.011911427409822352 0.01247283214545424 0 -0.012687554424412707 0.0098206868671848607 0 -0.012687554424412707 0.0098206868671848607 0 -0.008798537414802474 0.011197107808572084 0 -0.012687554424412707 0.0098206868671848607 0 -0.012034753066875082 0.0078858325937960043 0 -0.0060428274388104174 0.0099923604070763575 0 -0.0064336673358367175 0.0096903441572427293 0 -0.0055746997933086842 0.0078695676376369945 0 -0.0064336673358367175 0.0096903441572427293 0 -0.0055746997933086842 0.0078695676376369945 0 -0.0070228826140239725 0.0084291142489336512 0 -0.0071787997397387143 0.0098162918137161929 0 -0.0064336673358367175 0.0096903441572427293 0 -0.0070228826140239725 0.0084291142489336512 0 -0.0071787997397387143 0.0098162918137161929 0 -0.008169653991257228 0.0090894106735118167 0 -0.0070228826140239725 0.0084291142489336512 0 -0.0065273531861933676 0.01040020165442896 0 -0.008209886651952528 0.0090574523985154556 0 -0.0068375376184918145 0.010218458514550418 0 -0.008169653991257228 0.0090894106735118167 0 -0.0082097605837456906 0.010651167013947615 0 -0.0091663086886523831 0.0089529955658879494 0 -0.0099446780169159463 0.0099819295958434515 0 -0.0082097605837456906 0.010651167013947615 0 -0.0091663086886523831 0.0089529955658879494 0 -0.008169653991257228 0.0090894106735118167 0 -0.0082097605837456906 0.010651167013947615 0 -0.0091663086886523831 0.0089529955658879494 0 -0.0099446780169159463 0.0099819295958434515 0 -0.0098255280845340204 0.0079846434424909289 0 -0.011927622156800374 0.0086815036814846952 0 -0.0099446780169159463 0.0099819295958434515 0 -0.0098255280845340204 0.0079846434424909289 0 -0.011122398523355644 0.010330428709275891 0 -0.0099446780169159463 0.0099819295958434515 0 -0.010489513191209533 0.011492337485900098 0 -0.0090016829753826709 0.011679227502246188 0 -0.0099446780169159463 0.0099819295958434515 0 -0.010489513191209533 0.011492337485900098 0 -0.0090016829753826709 0.011679227502246188 0 -0.0072668922027131211 0.012038523557077716 0 -0.0082097605837456906 0.010651167013947615 0 -0.0090016829753826709 0.011679227502246188 0 -0.0099446780169159463 0.0099819295958434515 0 -0.0082097605837456906 0.010651167013947615 0 -0.022639906728902912 0.01483169919240673 0 -0.022052266770001713 0.01603334759712239 0 -0.022902703715953893 0.015669608002720471 0 -0.023172165731276534 0.013713529951880576 0 -0.022639906728902912 0.01483169919240673 0 -0.023672935286663262 0.015086802722765399 0 -0.022639906728902912 0.01483169919240673 0 -0.022902703715953893 0.015669608002720471 0 -0.023672935286663262 0.015086802722765399 0 -0.02704880777478464 0.01500748815373127 0 -0.025201909209391558 0.017517053000280138 0 -0.022639906728902912 0.01483169919240673 0 -0.021326584449444817 0.014583802587904036 0 -0.022052266770001713 0.01603334759712239 0 -0.02698803327920218 0.018067841605388268 0 -0.02708358103436051 0.016050569818813254 0 -0.028166680111923654 0.018204352841122179 0 -0.023172165731276534 0.013713529951880576 0 -0.022639906728902912 0.01483169919240673 0 -0.021326584449444817 0.014583802587904036 0 -0.030158617215000634 0.01854583774149721 0 -0.027827439353943155 0.026385659271315559 0 -0.030158617215000634 0.01854583774149721 0 -0.025201909209391558 0.017517053000280138 0 -0.025902517802316595 0.021023786327537333 0 -0.026547748569606563 0.021104206542972067 0 -0.026375596425317432 0.022144166505356926 0 -0.025201909209391558 0.017517053000280138 0 -0.024078960412355559 0.0172522269388551 0 -0.029035657164117969 0.021354386877025136 0 -0.028834567610162228 0.025485126593207928 0 -0.031128199006619842 0.026105584460920855 0 -0.026547748569606563 0.021104206542972067 0 -0.026375596425317432 0.022144166505356926 0 -0.027222395324585102 0.022384033242123805 0 -0.025201909209391558 0.017517053000280138 0 -0.02340481652153209 0.024293795339804126 0 -0.030333280360310046 0.027529598797262942 0 -0.027827439353943155 0.026385659271315559 0 -0.027827439353943155 0.026385659271315559 0 -0.02340481652153209 0.024293795339804126 0 -0.025652263676174712 0.02501713745658915 0 -0.026255162109476555 0.026239464910870355 0 -0.024589675496245481 0.02579114094341306 0 -0.024485817897673602 0.029889893788633416 0 -0.027827439353943155 0.026385659271315559 0 -0.030513132819746751 0.032740117331356025 0 -0.030485303259319051 0.032837768681599468 0 -0.030404794672441095 0.03282572890202428 0 -0.030342199897543831 0.032739958502390983 0 -0.030513132819746751 0.032740117331356025 0 -0.030404794672441095 0.03282572890202428 0 -0.02205286295235092 0.016039529359818071 0 -0.022889386406291047 0.017576721285804273 0 -0.0229555407537647 0.016787967049758858 0 -0.022889386406291047 0.017576721285804273 0 -0.0229555407537647 0.016787967049758858 0 -0.023710187403613362 0.016014422688716626 0 -0.024485817897673602 0.029889893788633416 0 -0.02340481652153209 0.024293795339804126 0 -0.0229555407537647 0.016787967049758858 0 -0.022598209428990646 0.01609987440661997 0 -0.023710187403613362 0.016014422688716626 0 -0.02205286295235092 0.016039529359818071 0 -0.0229555407537647 0.016787967049758858 0 -0.022598209428990646 0.01609987440661997 0 -0.022052266770001713 0.01603334759712239 0 -0.022902703715953893 0.015669608002720471 0 -0.022598209428990646 0.01609987440661997 0 -0.022902703715953893 0.015669608002720471 0 -0.022598209428990646 0.01609987440661997 0 -0.023710187403613362 0.016014422688716626 0 -0.022902703715953893 0.015669608002720471 0 -0.023710187403613362 0.016014422688716626 0 -0.023672935286663262 0.015086802722765399 0 -0.02340481652153209 0.024293795339804126 0 -0.022557657679500548 0.01691620130425435 0 -0.019944272414606279 0.021556911528477867 0 -0.022557657679500548 0.01691620130425435 0 -0.022889386406291047 0.017576721285804273 0 -0.023710187403613362 0.016014422688716626 0 -0.025206892276958541 0.015802549414876462 0 -0.023710187403613362 0.016014422688716626 0 -0.025206892276958541 0.015802549414876462 0 -0.02428818841317635 0.015387354324012418 0 -0.021771372484065202 0.020927893300794045 0 -0.022104613368730413 0.021025628162593821 0 -0.021891280356790423 0.021153752630924401 0 -0.018228448928349177 0.016386387465720659 0 -0.019247532987644322 0.01650313953005618 0 -0.019528955248666425 0.017427434541760739 0 -0.025206892276958541 0.015802549414876462 0 -0.024766793047144336 0.014463717874707632 0 -0.026637505049547986 0.014718529625285139 0 -0.022557657679500548 0.01691620130425435 0 -0.019638699746476009 0.013068175416653836 0 -0.018228448928349177 0.016386387465720659 0 -0.01980274272653899 0.015208342143003714 0 -0.019247532987644322 0.01650313953005618 0 -0.025206892276958541 0.015802549414876462 0 -0.02428818841317635 0.015387354324012418 0 -0.024766793047144336 0.014463717874707632 0 -0.023172165731276534 0.013713529951880576 0 -0.023672935286663262 0.015086802722765399 0 -0.024766793047144336 0.014463717874707632 0 -0.023710187403613362 0.016014422688716626 0 -0.02428818841317635 0.015387354324012418 0 -0.023672935286663262 0.015086802722765399 0 -0.02428818841317635 0.015387354324012418 0 -0.023672935286663262 0.015086802722765399 0 -0.024766793047144336 0.014463717874707632 0 -0.023172165731276534 0.013713529951880576 0 -0.024766793047144336 0.014463717874707632 0 -0.024674278695205693 0.012345094903360738 0 -0.024766793047144336 0.014463717874707632 0 -0.026637505049547986 0.014718529625285139 0 -0.024674278695205693 0.012345094903360738 0 -0.016724640086668713 0.012555917309736006 0 -0.016687679618653761 0.012243451074013178 0 -0.016178998645942026 0.012584996184778667 0 -0.016724640086668713 0.012555917309736006 0 -0.016178998645942026 0.012584996184778667 0 -0.016220644449059147 0.012882716482591487 0 -0.019638699746476009 0.013068175416653836 0 -0.017705188599542902 0.011033482522359913 0 -0.017368858859423891 0.016069145359826859 0 -0.016690871482574404 0.013960132910647674 0 -0.01980274272653899 0.015208342143003714 0 -0.019247532987644322 0.01650313953005618 0 -0.020015248067802596 0.01703620810510632 0 -0.019638699746476009 0.013068175416653836 0 -0.017368858859423891 0.016069145359826859 0 -0.015944741074549528 0.018366434899297755 0 -0.014739347852144207 0.017104845991562357 0 -0.016523309570626477 0.017491473887511891 0 -0.019535361586864104 0.019323998588436482 0 -0.018228448928349177 0.016386387465720659 0 -0.019528955248666425 0.017427434541760739 0 -0.017368858859423891 0.016069145359826859 0 -0.017894200179025793 0.016043525394830015 0 -0.019247532987644322 0.01650313953005618 0 -0.020015248067802596 0.01703620810510632 0 -0.019528955248666425 0.017427434541760739 0 -0.020294384080243765 0.019529341991927025 0 -0.020007442616327718 0.017040377404311618 0 -0.019528955248666425 0.017427434541760739 0 -0.017726410878742181 0.019750647755050681 0 -0.017368858859423891 0.016069145359826859 0 -0.015944741074549528 0.018366434899297755 0 -0.015077102007129866 0.018705609059784495 0 -0.014739347852144207 0.017104845991562357 0 -0.014739347852144207 0.017104845991562357 0 -0.016523309570626477 0.017491473887511891 0 -0.016332722860529232 0.015793060337281263 0 -0.018467372840498961 0.017139285554418775 0 -0.016523309570626477 0.017491473887511891 0 -0.016332722860529232 0.015793060337281263 0 -0.011911427409822352 0.01247283214545424 0 -0.016690871482574404 0.013960132910647674 0 -0.015619497588049331 0.012953989478368349 0 -0.016178998645942026 0.012584996184778667 0 -0.016220644449059147 0.012882716482591487 0 -0.012687554424412707 0.0098206868671848607 0 -0.017705188599542902 0.011033482522359913 0 -0.019485213890955456 0.0088282076983017405 0 -0.018511615923147613 0.009584863213724067 0 -0.018307612837112224 0.0079298957240362903 0 -0.015619497588049331 0.012953989478368349 0 -0.015668397969959409 0.013228406435863888 0 -0.016220644449059147 0.012882716482591487 0 -0.019485213890955456 0.0088282076983017405 0 -0.018307612837112224 0.0079298957240362903 0 -0.019174164177529998 0.0071056608240809621 0 -0.018307612837112224 0.0079298957240362903 0 -0.017320789439815944 0.0086697887906250701 0 -0.017142029120936885 0.006973705393718669 0 -0.018511615923147613 0.009584863213724067 0 -0.018307612837112224 0.0079298957240362903 0 -0.017320789439815944 0.0086697887906250701 0 -0.019638699746476009 0.013068175416653836 0 -0.022053082528984927 0.0095153976368178364 0 -0.017520651752735834 0.010356814023541053 0 -0.018511615923147613 0.009584863213724067 0 -0.017320789439815944 0.0086697887906250701 0 -0.026198139989271087 0.010813981756580434 0 -0.024674278695205693 0.012345094903360738 0 -0.02394812366787762 0.0093858759541083758 0 -0.026637505049547986 0.014718529625285139 0 -0.026198139989271087 0.010813981756580434 0 -0.024674278695205693 0.012345094903360738 0 -0.026198139989271087 0.010813981756580434 0 -0.02394812366787762 0.0093858759541083758 0 -0.025752131170079035 0.0069003701140021214 0 -0.022053082528984927 0.0095153976368178364 0 -0.021172112144478394 0.0076378832223988414 0 -0.02394812366787762 0.0093858759541083758 0 -0.021502703331290243 0.010668665327342123 0 -0.021689819168460831 0.0067503703434074747 0 -0.024683083561323624 0.010699079395330373 0 -0.025102065371773726 0.0077458386645195701 0 -0.023172165731276534 0.013713529951880576 0 -0.021326584449444817 0.014583802587904036 0 -0.021502703331290243 0.010668665327342123 0 -0.024674278695205693 0.012345094903360738 0 -0.02394812366787762 0.0093858759541083758 0 -0.021502703331290243 0.010668665327342123 0 -0.023172165731276534 0.013713529951880576 0 -0.024674278695205693 0.012345094903360738 0 -0.021502703331290243 0.010668665327342123 0 -0.02704880777478464 0.01500748815373127 0 -0.024683083561323624 0.010699079395330373 0 -0.027856526331996822 0.0051524077195050158 0 -0.028553118575943125 0.0073353451629736607 0 -0.028756387258265001 0.0033726616999846786 0 -0.025102065371773726 0.0077458386645195701 0 -0.025608622819159394 -7.3145129073857456e-05 0 -0.023582531861650189 0.004866671319092966 0 -0.021689819168460831 0.0067503703434074747 0 -0.021888471716872859 0.0028264144944794944 0 -0.02394812366787762 0.0093858759541083758 0 -0.021689819168460831 0.0067503703434074747 0 -0.025752131170079035 0.0069003701140021214 0 -0.023582531861650189 0.004866671319092966 0 -0.021689819168460831 0.0067503703434074747 0 -0.025752131170079035 0.0069003701140021214 0 -0.021172112144478394 0.0076378832223988414 0 -0.023649336047510239 0.0008523276244554014 0 -0.023582531861650189 0.004866671319092966 0 -0.025752131170079035 0.0069003701140021214 0 -0.025300302163459437 0.0029805450991545451 0 -0.017142029120936885 0.006973705393718669 0 -0.018161434132688174 0.0064547456863324783 0 -0.016989814429950133 0.0052909989741827378 0 -0.018161434132688174 0.0064547456863324783 0 -0.01885590284146656 0.0053918125464944558 0 -0.016989814429950133 0.0052909989741827378 0 -0.018307612837112224 0.0079298957240362903 0 -0.017142029120936885 0.006973705393718669 0 -0.018161434132688174 0.0064547456863324783 0 -0.018307612837112224 0.0079298957240362903 0 -0.018161434132688174 0.0064547456863324783 0 -0.019174164177529998 0.0071056608240809621 0 -0.012034753066875082 0.0078858325937960043 0 -0.015235312346206242 0.0029559904565147396 0 -0.018161434132688174 0.0064547456863324783 0 -0.019174164177529998 0.0071056608240809621 0 -0.01885590284146656 0.0053918125464944558 0 -0.015235312346206242 0.0029559904565147396 0 -0.018369512157298741 0.00028995374929697247 0 -0.024242518986553253 -0.0039393617798731814 0 -0.024425815599676364 -0.0034044548892710079 0 -0.024775166222664506 -0.003638168272659433 0 -0.01196002699573037 0.0043899116573337636 0 -0.012037853116523296 0.0045890919793964398 0 -0.011726276999574041 0.0046901618471523682 0 -0.024425815599676364 -0.0034044548892710079 0 -0.024775166222664506 -0.003638168272659433 0 -0.024881784899242164 -0.0033536291230712289 0 -0.024425815599676364 -0.0034044548892710079 0 -0.024881784899242164 -0.0033536291230712289 0 -0.024703064225777716 -0.0031218616477018441 0 -0.024775166222664506 -0.003638168272659433 0 -0.024881784899242164 -0.0033536291230712289 0 -0.025227425800560765 -0.003544898880971916 0 -0.015235312346206242 0.0029559904565147396 0 -0.023649336047510239 0.0008523276244554014 0 -0.024242518986553253 -0.0039393617798731814 0 -0.024775166222664506 -0.003638168272659433 0 -0.025113529626884647 -0.0039499231548539744 0 -0.024775166222664506 -0.003638168272659433 0 -0.025113529626884647 -0.0039499231548539744 0 -0.025227425800560765 -0.003544898880971916 0 -0.023649336047510239 0.0008523276244554014 0 -0.025009332749800176 -0.0050490541778279172 0 -0.02521061121766914 -0.0038659821116203996 0 -0.025227425800560765 -0.003544898880971916 0 -0.025452612044587829 -0.0037031439948987666 0 -0.025227425800560765 -0.003544898880971916 0 -0.025734395478018736 -0.0033913650988057101 0 -0.025250489585430573 -0.0033016662564881991 0 -0.024881784899242164 -0.0033536291230712289 0 -0.025227425800560765 -0.003544898880971916 0 -0.025250489585430573 -0.0033016662564881991 0 -0.026118223241345818 -0.0046551246408048598 0 -0.025608622819159394 -7.3145129073857456e-05 0 -0.025734395478018736 -0.0033913650988057101 0 -0.025452612044587829 -0.0037031439948987666 0 -0.025683404063336905 -0.0038501117509125134 0 -0.025227425800560765 -0.003544898880971916 0 -0.025734395478018736 -0.0033913650988057101 0 -0.025452612044587829 -0.0037031439948987666 0 -0.023582531861650189 0.004866671319092966 0 -0.025300302163459437 0.0029805450991545451 0 -0.021888471716872859 0.0028264144944794944 0 -0.023649336047510239 0.0008523276244554014 0 -0.025608622819159394 -7.3145129073857456e-05 0 -0.026959883903591376 -0.0046749408666824695 0 -0.026359026936419606 -0.004073571461035764 0 -0.026533124656166168 -0.0049027071578859709 0 -0.02521061121766914 -0.0038659821116203996 0 -0.025452612044587829 -0.0037031439948987666 0 -0.025683404063336905 -0.0038501117509125134 0 -0.0093523612665431331 0.0067393115032689521 0 -0.0083783079628677072 0.0075340039374665385 0 -0.0075038907697314071 0.0057254474967402096 0 -0.0093523612665431331 0.0067393115032689521 0 -0.0075038907697314071 0.0057254474967402096 0 -0.010411977422915063 0.005503375323351831 0 -0.011360200566967276 0.0061570027111081489 0 -0.010542000951048071 0.0069256212553013398 0 -0.010411977422915063 0.005503375323351831 0 -0.0093523612665431331 0.0067393115032689521 0 -0.010542000951048071 0.0069256212553013398 0 -0.010411977422915063 0.005503375323351831 0 -0.011927622156800374 0.0086815036814846952 0 -0.010542000951048071 0.0069256212553013398 0 -0.0098255280845340204 0.0079846434424909289 0 -0.0093523612665431331 0.0067393115032689521 0 -0.010542000951048071 0.0069256212553013398 0 -0.0098255280845340204 0.0079846434424909289 0 -0.0093523612665431331 0.0067393115032689521 0 -0.0098255280845340204 0.0079846434424909289 0 -0.0083783079628677072 0.0075340039374665385 0 -0.0091663086886523831 0.0089529955658879494 0 -0.0098255280845340204 0.0079846434424909289 0 -0.0083783079628677072 0.0075340039374665385 0 -0.0091663086886523831 0.0089529955658879494 0 -0.008169653991257228 0.0090894106735118167 0 -0.0083783079628677072 0.0075340039374665385 0 -0.0083783079628677072 0.0075340039374665385 0 -0.0070228826140239725 0.0084291142489336512 0 -0.0075038907697314071 0.0057254474967402096 0 -0.008169653991257228 0.0090894106735118167 0 -0.0083783079628677072 0.0075340039374665385 0 -0.0070228826140239725 0.0084291142489336512 0 -0.0055746997933086842 0.0078695676376369945 0 -0.0070228826140239725 0.0084291142489336512 0 -0.0075038907697314071 0.0057254474967402096 0 -0.0055746997933086842 0.0078695676376369945 0 -0.0052254673504903981 0.0056947198249732755 0 -0.0075038907697314071 0.0057254474967402096 0 -0.011325188448278931 0.0045454275369457382 0 -0.011332396404050177 0.004870687148301597 0 -0.010824229659455261 0.0050554884224207281 0 -0.011325188448278931 0.0045454275369457382 0 -0.011726276999574041 0.0046901618471523682 0 -0.011332396404050177 0.004870687148301597 0 -0.01196002699573037 0.0043899116573337636 0 -0.011325188448278931 0.0045454275369457382 0 -0.011726276999574041 0.0046901618471523682 0 -0.015235312346206242 0.0029559904565147396 0 -0.0078530419974609904 0.0054476947437431924 0 -0.012037853116523296 0.0045890919793964398 0 -0.011726276999574041 0.0046901618471523682 0 -0.011923123420590919 0.0046244250045802274 0 -0.011726276999574041 0.0046901618471523682 0 -0.011332396404050177 0.004870687148301597 0 -0.011730546318172498 0.0047089024373738004 0 -0.011332396404050177 0.004870687148301597 0 -0.010824229659455261 0.0050554884224207281 0 -0.010918866386209883 0.0051378081229239338 0 -0.011325188448278931 0.0045454275369457382 0 -0.010824229659455261 0.0050554884224207281 0 -0.010411977422915063 0.005503375323351831 0 -0.0078530419974609904 0.0054476947437431924 0 -0.011138430533893087 0.0053799744549300581 0 -0.010824229659455261 0.0050554884224207281 0 -0.010411977422915063 0.005503375323351831 0 -0.010549180033686673 0.0051989168770545024 0 -0.011360200566967276 0.0061570027111081489 0 -0.010411977422915063 0.005503375323351831 0 -0.010549180033686673 0.0051989168770545024 0 -0.010582718227660229 0.0051085029201778194 0 -0.010549180033686673 0.0051989168770545024 0 -0.010918866386209883 0.0051378081229239338 0 -0.010824229659455261 0.0050554884224207281 0 -0.010549180033686673 0.0051989168770545024 0 -0.010918866386209883 0.0051378081229239338 0 -0.011909633504861291 0.0051621787988789126 0 -0.011590999377335504 0.0049259474658933959 0 -0.01288518510280102 0.0044020338065490243 0 -0.012413076522943219 0.0041511492280007058 0 -0.012271605921563461 0.0047671540887765035 0 -0.013165976693345106 0.0052036536877560647 0 -0.01288518510280102 0.0044020338065490243 0 -0.012271605921563461 0.0047671540887765035 0 -0.01288518510280102 0.0044020338065490243 0 -0.012413076522943219 0.0041511492280007058 0 -0.012857748688168122 0.0037359911329687451 0 -0.012413076522943219 0.0041511492280007058 0 -0.012857748688168122 0.0037359911329687451 0 -0.012233863682766509 0.0036109168193813423 0 -0.012413076522943219 0.0041511492280007058 0 -0.012053885939872036 0.0043126943231024274 0 -0.012233863682766509 0.0036109168193813423 0 -0.011590999377335504 0.0049259474658933959 0 -0.011656836551271482 0.0047471619987389108 0 -0.012053885939872036 0.0043126943231024274 0 -0.012271605921563461 0.0047671540887765035 0 -0.011730546318172498 0.0047089024373738004 0 -0.012413076522943219 0.0041511492280007058 0 -0.012053885939872036 0.0043126943231024274 0 -0.012271605921563461 0.0047671540887765035 0 -0.011332396404050177 0.004870687148301597 0 -0.010918866386209883 0.0051378081229239338 0 -0.011730546318172498 0.0047089024373738004 0 -0.011726276999574041 0.0046901618471523682 0 -0.011730546318172498 0.0047089024373738004 0 -0.011923123420590919 0.0046244250045802274 0 -0.011730546318172498 0.0047089024373738004 0 -0.011923123420590919 0.0046244250045802274 0 -0.011876486688349008 0.0044475125092773484 0 -0.019357928111496839 -0.0027177243096177745 0 -0.018922299605388545 -0.0014706160809114274 0 -0.020618636908566794 -0.0029178158784863364 0 -0.011923123420590919 0.0046244250045802274 0 -0.011876486688349008 0.0044475125092773484 0 -0.01233498810731213 0.0046153352394068667 0 -0.015057038770601073 0.0010118055291251657 0 -0.015065331057541608 0.000970732156657195 0 -0.012053885939872036 0.0043126943231024274 0 -0.011876486688349008 0.0044475125092773484 0 -0.012233863682766509 0.0036109168193813423 0 -0.012053885939872036 0.0043126943231024274 0 -0.011730546318172498 0.0047089024373738004 0 -0.011876486688349008 0.0044475125092773484 0 -0.019357928111496839 -0.0027177243096177745 0 -0.018922299605388545 -0.0014706160809114274 0 -0.017483355861371844 -0.0015369226013789712 0 -0.019507264860365081 -0.0021718898608838176 0 -0.018078659690583098 -0.0013484686265977674 0 -0.020141322824415043 -0.0028428337281548653 0 -0.020718439181705458 -0.0026602161473285118 0 -0.02041023787252878 -0.0023435904879309946 0 -0.020141322824415043 -0.0028428337281548653 0 -0.020718439181705458 -0.0026602161473285118 0 -0.020618636908566794 -0.0029178158784863364 0 -0.019507264860365081 -0.0021718898608838176 0 -0.020542455912331111 -0.0028465947288394502 0 -0.02041023787252878 -0.0023435904879309946 0 -0.021187112335948888 -0.002204993327393723 0 -0.020379941845776309 -0.001466059651124232 0 -0.020718439181705458 -0.0026602161473285118 0 -0.02041023787252878 -0.0023435904879309946 0 -0.021187112335948888 -0.002204993327393723 0 -0.020141322824415043 -0.0028428337281548653 0 -0.019751168583209192 -0.0019635620354322768 0 -0.0185756616451483 -0.002122979009119176 0 -0.020141322824415043 -0.0028428337281548653 0 -0.02041023787252878 -0.0023435904879309946 0 -0.019751168583209192 -0.0019635620354322768 0 -0.02041023787252878 -0.0023435904879309946 0 -0.019751168583209192 -0.0019635620354322768 0 -0.020379941845776309 -0.001466059651124232 0 -0.019751168583209192 -0.0019635620354322768 0 -0.0185756616451483 -0.002122979009119176 0 -0.018872265737787972 -0.0011157018465352609 0 -0.017525750127831977 -0.00064904747597991578 0 -0.017040241354586188 -0.00043556998760786801 0 -0.016669902739873108 -0.00068658323066694176 0 -0.018078659690583098 -0.0013484686265977674 0 -0.017109607451709367 -0.00055155045645696515 0 -0.0185756616451483 -0.002122979009119176 0 -0.018872265737787972 -0.0011157018465352609 0 -0.017040241354586188 -0.00043556998760786801 0 -0.012857748688168122 0.0037359911329687451 0 -0.012233863682766509 0.0036109168193813423 0 -0.013365854404380312 0.0024817138817349481 0 -0.017525750127831977 -0.00064904747597991578 0 -0.017483355861371844 -0.0015369226013789712 0 -0.016669902739873108 -0.00068658323066694176 0 -0.015065331057541608 0.000970732156657195 0 -0.015076979169636082 0.00092153233416074061 0 -0.018922299605388545 -0.0014706160809114274 0 -0.017525750127831977 -0.00064904747597991578 0 -0.017483355861371844 -0.0015369226013789712 0 -0.025972449952640784 -0.0028787331077030822 0 -0.025073586842199295 -0.0025853989223348522 0 -0.026011575906239221 -0.002205070995816415 0 -0.026732155938176159 -0.0028505852616963591 0 -0.025972449952640784 -0.0028787331077030822 0 -0.026011575906239221 -0.002205070995816415 0 -0.025734395478018736 -0.0033913650988057101 0 -0.025972449952640784 -0.0028787331077030822 0 -0.025411905763287636 -0.0030798537139863987 0 -0.026118223241345818 -0.0046551246408048598 0 -0.025956709910548211 -0.0025088875380122316 0 -0.025734395478018736 -0.0033913650988057101 0 -0.025411905763287636 -0.0030798537139863987 0 -0.025250489585430573 -0.0033016662564881991 0 -0.025411905763287636 -0.0030798537139863987 0 -0.025250489585430573 -0.0033016662564881991 0 -0.024992571391425619 -0.0030724568243512278 0 -0.024881784899242164 -0.0033536291230712289 0 -0.025250489585430573 -0.0033016662564881991 0 -0.024992571391425619 -0.0030724568243512278 0 -0.025972449952640784 -0.0028787331077030822 0 -0.025411905763287636 -0.0030798537139863987 0 -0.025073586842199295 -0.0025853989223348522 0 -0.025411905763287636 -0.0030798537139863987 0 -0.025073586842199295 -0.0025853989223348522 0 -0.024992571391425619 -0.0030724568243512278 0 -0.025073586842199295 -0.0025853989223348522 0 -0.024666282235601925 -0.0029062623076289529 0 -0.024538259664433647 -0.0028716241448565362 0 -0.025073586842199295 -0.0025853989223348522 0 -0.024992571391425619 -0.0030724568243512278 0 -0.024666282235601925 -0.0029062623076289529 0 -0.025073586842199295 -0.0025853989223348522 0 -0.024538259664433647 -0.0028716241448565362 0 -0.024656218119973154 -0.0022022345907002903 0 -0.019459107126253192 -8.9573638525785839e-05 0 -0.023543659698634777 -0.002966792900727622 0 -0.022230360449652077 -0.0011032177523239445 0 -0.019459107126253192 -8.9573638525785839e-05 0 -0.024881784899242164 -0.0033536291230712289 0 -0.024992571391425619 -0.0030724568243512278 0 -0.024703064225777716 -0.0031218616477018441 0 -0.024703064225777716 -0.0031218616477018441 0 -0.024666282235601925 -0.0029062623076289529 0 -0.024554359369877102 -0.0028700457291450034 0 -0.024992571391425619 -0.0030724568243512278 0 -0.024703064225777716 -0.0031218616477018441 0 -0.024666282235601925 -0.0029062623076289529 0 -0.018369512157298741 0.00028995374929697247 0 -0.019459107126253192 -8.9573638525785839e-05 0 -0.024425815599676364 -0.0034044548892710079 0 -0.024703064225777716 -0.0031218616477018441 0 -0.024554359369877102 -0.0028700457291450034 0 -0.012037853116523296 0.0045890919793964398 0 -0.011923123420590919 0.0046244250045802274 0 -0.01233498810731213 0.0046153352394068667 0 -0.019357928111496839 -0.0027177243096177745 0 -0.020618636908566794 -0.0029178158784863364 0 -0.021331313444076083 -0.00348465607705551 0 -0.015057038770601073 0.0010118055291251657 0 -0.019459107126253192 -8.9573638525785839e-05 0 -0.020618636908566794 -0.0029178158784863364 0 -0.021331313444076083 -0.00348465607705551 0 -0.021793362066939291 -0.0026072459580783604 0 -0.020718439181705458 -0.0026602161473285118 0 -0.021187112335948888 -0.002204993327393723 0 -0.021793362066939291 -0.0026072459580783604 0 -0.020718439181705458 -0.0026602161473285118 0 -0.020618636908566794 -0.0029178158784863364 0 -0.021793362066939291 -0.0026072459580783604 0 -0.021187112335948888 -0.002204993327393723 0 -0.021793362066939291 -0.0026072459580783604 0 -0.022713341228979774 -0.001939931574599354 0 -0.023543659698634777 -0.002966792900727622 0 -0.023744195097329873 -0.0015306919490631025 0 -0.024656218119973154 -0.0022022345907002903 0 -0.025273779078913428 -0.0017862239444806811 0 -0.024743511005532674 -0.0015442721496768488 0 -0.025073586842199295 -0.0025853989223348522 0 -0.024656218119973154 -0.0022022345907002903 0 -0.025273779078913428 -0.0017862239444806811 0 -0.025073586842199295 -0.0025853989223348522 0 -0.025273779078913428 -0.0017862239444806811 0 -0.026011575906239221 -0.002205070995816415 0 -0.025273779078913428 -0.0017862239444806811 0 -0.026081636308072087 -0.0016517875810356151 0 -0.026011575906239221 -0.002205070995816415 0 -0.025273779078913428 -0.0017862239444806811 0 -0.026081636308072087 -0.0016517875810356151 0 -0.025509525875601392 -0.0012080963028541908 0 -0.027798857588208464 -0.00094088807837502237 0 -0.026560478022829924 -0.0015887650757103195 0 -0.02701926208955794 -0.00059457350315961363 0 -0.026560478022829924 -0.0015887650757103195 0 -0.025231683339288255 -0.00055981014588165181 0 -0.02701926208955794 -0.00059457350315961363 0 -0.027798857588208464 -0.00094088807837502237 0 -0.027213322029396213 -0.0022878827381890123 0 -0.026560478022829924 -0.0015887650757103195 0 -0.026665682073081322 -0.00198253993348703 0 -0.026004874552845607 -0.0013638266075312062 0 -0.025273779078913428 -0.0017862239444806811 0 -0.025509525875601392 -0.0012080963028541908 0 -0.024998912840578803 -0.0012530052847294082 0 -0.025273779078913428 -0.0017862239444806811 0 -0.024998912840578803 -0.0012530052847294082 0 -0.024743511005532674 -0.0015442721496768488 0 -0.026004874552845607 -0.0013638266075312062 0 -0.025293136183168776 -0.00056929396282877419 0 -0.025509525875601392 -0.0012080963028541908 0 -0.024998912840578803 -0.0012530052847294082 0 -0.025231683339288255 -0.00055981014588165181 0 -0.024998912840578803 -0.0012530052847294082 0 -0.024367116465809024 -0.00080110288600863315 0 -0.025231683339288255 -0.00055981014588165181 0 -0.024367116465809024 -0.00080110288600863315 0 -0.022747374023171875 -0.0010620128158806586 0 -0.022713341228979774 -0.001939931574599354 0 -0.024367116465809024 -0.00080110288600863315 0 -0.022747374023171875 -0.0010620128158806586 0 -0.023156634492420721 -0.00026375159849774383 0 -0.024998912840578803 -0.0012530052847294082 0 -0.024367116465809024 -0.00080110288600863315 0 -0.024743511005532674 -0.0015442721496768488 0 -0.024281860300393088 -0.00079453275112964517 0 -0.023744195097329873 -0.0015306919490631025 0 -0.021187112335948888 -0.002204993327393723 0 -0.022713341228979774 -0.001939931574599354 0 -0.021650363284609644 -0.0014412446686942267 0 -0.022747374023171875 -0.0010620128158806586 0 -0.022713341228979774 -0.001939931574599354 0 -0.021650363284609644 -0.0014412446686942267 0 -0.022747374023171875 -0.0010620128158806586 0 -0.021650363284609644 -0.0014412446686942267 0 -0.02194091995468201 -0.00046159810967425646 0 -0.021650363284609644 -0.0014412446686942267 0 -0.02194091995468201 -0.00046159810967425646 0 -0.020864384043423768 -0.00058055048203883408 0 -0.022747374023171875 -0.0010620128158806586 0 -0.02194091995468201 -0.00046159810967425646 0 -0.023156634492420721 -0.00026375159849774383 0 -0.02194091995468201 -0.00046159810967425646 0 -0.022282893795673182 0.00041752779567535276 0 -0.020915037628304253 0.00066060677362198678 0 -0.02194091995468201 -0.00046159810967425646 0 -0.022282893795673182 0.00041752779567535276 0 -0.023156634492420721 -0.00026375159849774383 0 -0.022282893795673182 0.00041752779567535276 0 -0.023487340058690652 0.00068118519495066851 0 -0.023156634492420721 -0.00026375159849774383 0 -0.022282893795673182 0.00041752779567535276 0 -0.022212301938662957 0.0018986654211100725 0 -0.020915037628304253 0.00066060677362198678 0 -0.022282893795673182 0.00041752779567535276 0 -0.022212301938662957 0.0018986654211100725 0 -0.023487340058690652 0.00068118519495066851 0 -0.022212301938662957 0.0018986654211100725 0 -0.023487340058690652 0.00068118519495066851 0 -0.024088686309442959 0.0023522022107551133 0 -0.023487340058690652 0.00068118519495066851 0 -0.025100279438000264 0.00047115520813285135 0 -0.024088686309442959 0.0023522022107551133 0 -0.023487340058690652 0.00068118519495066851 0 -0.024273611937472985 -0.00010315784446777777 0 -0.025100279438000264 0.00047115520813285135 0 -0.023487340058690652 0.00068118519495066851 0 -0.023156634492420721 -0.00026375159849774383 0 -0.024273611937472985 -0.00010315784446777777 0 -0.024367116465809024 -0.00080110288600863315 0 -0.023156634492420721 -0.00026375159849774383 0 -0.024273611937472985 -0.00010315784446777777 0 -0.024367116465809024 -0.00080110288600863315 0 -0.024273611937472985 -0.00010315784446777777 0 -0.025231683339288255 -0.00055981014588165181 0 -0.025231683339288255 -0.00055981014588165181 0 -0.026140856382571027 -0.00014683618212878451 0 -0.02701926208955794 -0.00059457350315961363 0 -0.024273611937472985 -0.00010315784446777777 0 -0.025231683339288255 -0.00055981014588165181 0 -0.025100279438000264 0.00047115520813285135 0 -0.026140856382571027 -0.00014683618212878451 0 -0.025100279438000264 0.00047115520813285135 0 -0.026928087006743238 0.00026159564864598669 0 -0.025231683339288255 -0.00055981014588165181 0 -0.026140856382571027 -0.00014683618212878451 0 -0.025100279438000264 0.00047115520813285135 0 -0.025100279438000264 0.00047115520813285135 0 -0.025555126433217966 0.0017238027496482011 0 -0.024088686309442959 0.0023522022107551133 0 -0.027000356115380691 -0.00011900964491235561 0 -0.026387355760772547 0.0027157224005064304 0 -0.025555126433217966 0.0017238027496482011 0 -0.026928087006743238 0.00026159564864598669 0 -0.026322813776460705 0.0032161212344820117 0 -0.025100279438000264 0.00047115520813285135 0 -0.025555126433217966 0.0017238027496482011 0 -0.026928087006743238 0.00026159564864598669 0 -0.027627474658863668 -6.9960563713069999e-05 0 -0.026928087006743238 0.00026159564864598669 0 -0.028004408972260999 -0.00054127080423459976 0 -0.026140856382571027 -0.00014683618212878451 0 -0.026928087006743238 0.00026159564864598669 0 -0.02701926208955794 -0.00059457350315961363 0 -0.027627474658863668 -6.9960563713069999e-05 0 -0.026928087006743238 0.00026159564864598669 0 -0.02701926208955794 -0.00059457350315961363 0 -0.018454434240547563 -0.00028201635265835641 0 -0.018872265737787972 -0.0011157018465352609 0 -0.019740572861987899 -0.00028924273754024838 0 -0.018454434240547563 -0.00028201635265835641 0 -0.019740572861987899 -0.00028924273754024838 0 -0.018972847947104781 0.00051696445579682993 0 -0.018454434240547563 -0.00028201635265835641 0 -0.017201861228527918 8.1279060878518866e-05 0 -0.017040241354586188 -0.00043556998760786801 0 -0.018454434240547563 -0.00028201635265835641 0 -0.017887121535626459 0.000303214807382737 0 -0.017201861228527918 8.1279060878518866e-05 0 -0.018454434240547563 -0.00028201635265835641 0 -0.018872265737787972 -0.0011157018465352609 0 -0.017040241354586188 -0.00043556998760786801 0 -0.018872265737787972 -0.0011157018465352609 0 -0.020379941845776309 -0.001466059651124232 0 -0.019740572861987899 -0.00028924273754024838 0 -0.019751168583209192 -0.0019635620354322768 0 -0.018872265737787972 -0.0011157018465352609 0 -0.020379941845776309 -0.001466059651124232 0 -0.021187112335948888 -0.002204993327393723 0 -0.021650363284609644 -0.0014412446686942267 0 -0.020379941845776309 -0.001466059651124232 0 -0.021650363284609644 -0.0014412446686942267 0 -0.020379941845776309 -0.001466059651124232 0 -0.020864384043423768 -0.00058055048203883408 0 -0.020864384043423768 -0.00058055048203883408 0 -0.019740572861987899 -0.00028924273754024838 0 -0.020915037628304253 0.00066060677362198678 0 -0.020379941845776309 -0.001466059651124232 0 -0.020864384043423768 -0.00058055048203883408 0 -0.019740572861987899 -0.00028924273754024838 0 -0.019740572861987899 -0.00028924273754024838 0 -0.020915037628304253 0.00066060677362198678 0 -0.018972847947104781 0.00051696445579682993 0 -0.02194091995468201 -0.00046159810967425646 0 -0.020864384043423768 -0.00058055048203883408 0 -0.020915037628304253 0.00066060677362198678 0 -0.022212301938662957 0.0018986654211100725 0 -0.020915037628304253 0.00066060677362198678 0 -0.020942201139416253 0.0027937295295103175 0 -0.020915037628304253 0.00066060677362198678 0 -0.019297318173003324 0.0018050516316670462 0 -0.020761891238163809 0.0025031761408497583 0 -0.02047986969563444 0.001947210613349908 0 -0.022568857275235544 -0.00013919576010149794 0 -0.020915037628304253 0.00066060677362198678 0 -0.019297318173003324 0.0018050516316670462 0 -0.018972847947104781 0.00051696445579682993 0 -0.019297318173003324 0.0018050516316670462 0 -0.018972847947104781 0.00051696445579682993 0 -0.017900504485789306 0.0007683873527056475 0 -0.017998331963325287 0.00069986072289305874 0 -0.017900504485789306 0.0007683873527056475 0 -0.017853773367475824 0.00075664820531085269 0 -0.018188069819225557 0.0012428049751041993 0 -0.018136920778295634 0.00088186066894337047 0 -0.018972847947104781 0.00051696445579682993 0 -0.017887121535626459 0.000303214807382737 0 -0.017900504485789306 0.0007683873527056475 0 -0.018454434240547563 -0.00028201635265835641 0 -0.018972847947104781 0.00051696445579682993 0 -0.017887121535626459 0.000303214807382737 0 -0.017887121535626459 0.000303214807382737 0 -0.017308046328677638 0.00043783267139667321 0 -0.017201861228527918 8.1279060878518866e-05 0 -0.017887121535626459 0.000303214807382737 0 -0.017900504485789306 0.0007683873527056475 0 -0.017308046328677638 0.00043783267139667321 0 -0.017900504485789306 0.0007683873527056475 0 -0.017531027675837193 0.00066345560689898232 0 -0.017853773367475824 0.00075664820531085269 0 -0.017900504485789306 0.0007683873527056475 0 -0.017308046328677638 0.00043783267139667321 0 -0.017531027675837193 0.00066345560689898232 0 -0.017308046328677638 0.00043783267139667321 0 -0.017154470953709242 0.00046065306130694498 0 -0.016935299771909443 0.00025785734844474968 0 -0.017308046328677638 0.00043783267139667321 0 -0.017154470953709242 0.00046065306130694498 0 -0.017531027675837193 0.00066345560689898232 0 -0.017154470953709242 0.00046065306130694498 0 -0.016935299771909443 0.00025785734844474968 0 -0.016930856305075133 0.00031207688850995869 0 -0.016935299771909443 0.00025785734844474968 0 -0.016790223250271224 7.194304782888999e-05 0 -0.016930856305075133 0.00031207688850995869 0 -0.016935299771909443 0.00025785734844474968 0 -0.016732667790021444 0.00013764891101465475 0 -0.016690273359767936 3.3691388713894772e-05 0 -0.017308046328677638 0.00043783267139667321 0 -0.016935299771909443 0.00025785734844474968 0 -0.016732667790021444 0.00013764891101465475 0 -0.017308046328677638 0.00043783267139667321 0 -0.016732667790021444 0.00013764891101465475 0 -0.017201861228527918 8.1279060878518866e-05 0 -0.016873359506399184 -0.00032879304287250375 0 -0.017204033827916423 -0.00087729975576280445 0 -0.016701244109522857 9.7169829850775951e-05 0 -0.016873359506399184 -0.00032879304287250375 0 -0.016786473153488468 -0.0001757609364766554 0 -0.017003402237170392 -0.00037320850147758085 0 -0.016873359506399184 -0.00032879304287250375 0 -0.016776602979600642 -0.00010597571323894935 0 -0.016701244109522857 9.7169829850775951e-05 0 -0.016873359506399184 -0.00032879304287250375 0 -0.016776602979600642 -0.00010597571323894935 0 -0.016786473153488468 -0.0001757609364766554 0 -0.016935299771909443 0.00025785734844474968 0 -0.016790223250271224 7.194304782888999e-05 0 -0.016690273359767936 3.3691388713894772e-05 0 -0.016776602979600642 -0.00010597571323894935 0 -0.016786473153488468 -0.0001757609364766554 0 -0.016790223250271224 7.194304782888999e-05 0 -0.016786473153488468 -0.0001757609364766554 0 -0.016790223250271224 7.194304782888999e-05 0 -0.016690273359767936 3.3691388713894772e-05 0 -0.016776602979600642 -0.00010597571323894935 0 -0.016790223250271224 7.194304782888999e-05 0 -0.016701244109522857 9.7169829850775951e-05 0 -0.016690273359767936 3.3691388713894772e-05 0 -0.016792974976704976 -5.6838423698373865e-05 0 -0.016566460540467603 0.00012733528871690044 0 -0.016732667790021444 0.00013764891101465475 0 -0.016690273359767936 3.3691388713894772e-05 0 -0.016566460540467603 0.00012733528871690044 0 -0.016786473153488468 -0.0001757609364766554 0 -0.016690273359767936 3.3691388713894772e-05 0 -0.016792974976704976 -5.6838423698373865e-05 0 -0.016792974976704976 -5.6838423698373865e-05 0 -0.017003402237170392 -0.00037320850147758085 0 -0.017137836024670214 -7.9754443222620317e-05 0 -0.016786473153488468 -0.0001757609364766554 0 -0.016792974976704976 -5.6838423698373865e-05 0 -0.017003402237170392 -0.00037320850147758085 0 -0.016792974976704976 -5.6838423698373865e-05 0 -0.016723289133038891 0.00024906159896598967 0 -0.017137836024670214 -7.9754443222620317e-05 0 -0.016792974976704976 -5.6838423698373865e-05 0 -0.016723289133038891 0.00024906159896598967 0 -0.016566460540467603 0.00012733528871690044 0 -0.016723289133038891 0.00024906159896598967 0 -0.016566460540467603 0.00012733528871690044 0 -0.016314771060805009 0.00037074771688841809 0 -0.016566460540467603 0.00012733528871690044 0 -0.016314771060805009 0.00037074771688841809 0 -0.016557731140713006 0.000107841420556909 0 -0.016723289133038891 0.00024906159896598967 0 -0.016657132701410733 0.00078581484437651708 0 -0.017180102544638826 0.00039289267662495403 0 -0.016723289133038891 0.00024906159896598967 0 -0.016314771060805009 0.00037074771688841809 0 -0.016657132701410733 0.00078581484437651708 0 -0.016732667790021444 0.00013764891101465475 0 -0.017201861228527918 8.1279060878518866e-05 0 -0.016557731140713006 0.000107841420556909 0 -0.016732667790021444 0.00013764891101465475 0 -0.016566460540467603 0.00012733528871690044 0 -0.016557731140713006 0.000107841420556909 0 -0.016314771060805009 0.00037074771688841809 0 -0.016557731140713006 0.000107841420556909 0 -0.01633831392155901 0.00016725312886394967 0 -0.016557731140713006 0.000107841420556909 0 -0.017040241354586188 -0.00043556998760786801 0 -0.01633831392155901 0.00016725312886394967 0 -0.017201861228527918 8.1279060878518866e-05 0 -0.016557731140713006 0.000107841420556909 0 -0.017040241354586188 -0.00043556998760786801 0 -0.017040241354586188 -0.00043556998760786801 0 -0.016669902739873108 -0.00068658323066694176 0 -0.01633831392155901 0.00016725312886394967 0 -0.013365854404380312 0.0024817138817349481 0 -0.015766517785533153 0.0010258084034816769 0 -0.014844494045811106 0.0032367065581122493 0 -0.015076979169636082 0.00092153233416074061 0 -0.01582737982215773 0.00094872280319804685 0 -0.016669902739873108 -0.00068658323066694176 0 -0.01633831392155901 0.00016725312886394967 0 -0.015766517785533153 0.0010258084034816769 0 -0.016314771060805009 0.00037074771688841809 0 -0.016657132701410733 0.00078581484437651708 0 -0.015766517785533153 0.0010258084034816769 0 -0.016314771060805009 0.00037074771688841809 0 -0.01633831392155901 0.00016725312886394967 0 -0.015766517785533153 0.0010258084034816769 0 -0.016657132701410733 0.00078581484437651708 0 -0.016508396796148104 0.001655265485141352 0 -0.016979224801581955 0.0013285047657180375 0 -0.016657132701410733 0.00078581484437651708 0 -0.015766517785533153 0.0010258084034816769 0 -0.016508396796148104 0.001655265485141352 0 -0.015766517785533153 0.0010258084034816769 0 -0.016508396796148104 0.001655265485141352 0 -0.015978539615685239 0.0026475488119108983 0 -0.016508396796148104 0.001655265485141352 0 -0.015978539615685239 0.0026475488119108983 0 -0.016609131160227494 0.0025345962593398162 0 -0.015766517785533153 0.0010258084034816769 0 -0.015978539615685239 0.0026475488119108983 0 -0.014844494045811106 0.0032367065581122493 0 -0.015978539615685239 0.0026475488119108983 0 -0.014844494045811106 0.0032367065581122493 0 -0.015586859961951348 0.0039763866670095909 0 -0.014844494045811106 0.0032367065581122493 0 -0.015586859961951348 0.0039763866670095909 0 -0.014715654308999168 0.0045493215373718834 0 -0.015978539615685239 0.0026475488119108983 0 -0.015586859961951348 0.0039763866670095909 0 -0.016444799258532254 0.0035911861615222241 0 -0.015978539615685239 0.0026475488119108983 0 -0.016444799258532254 0.0035911861615222241 0 -0.016609131160227494 0.0025345962593398162 0 -0.015586859961951348 0.0039763866670095909 0 -0.016092839102638343 0.0046954891285324839 0 -0.016444799258532254 0.0035911861615222241 0 -0.015327438525938175 0.0051705372147114077 0 -0.015586859961951348 0.0039763866670095909 0 -0.016092839102638343 0.0046954891285324839 0 -0.015327438525938175 0.0051705372147114077 0 -0.015586859961951348 0.0039763866670095909 0 -0.014715654308999168 0.0045493215373718834 0 -0.013931179265087077 0.004938602252749837 0 -0.014715654308999168 0.0045493215373718834 0 -0.013651241832350832 0.0039877966333527002 0 -0.013931179265087077 0.004938602252749837 0 -0.013380832462241508 0.0046427459203611547 0 -0.013651241832350832 0.0039877966333527002 0 -0.013165976693345106 0.0052036536877560647 0 -0.01288518510280102 0.0044020338065490243 0 -0.013380832462241508 0.0046427459203611547 0 -0.01288518510280102 0.0044020338065490243 0 -0.013380832462241508 0.0046427459203611547 0 -0.013651241832350832 0.0039877966333527002 0 -0.012857748688168122 0.0037359911329687451 0 -0.013365854404380312 0.0024817138817349481 0 -0.013651241832350832 0.0039877966333527002 0 -0.01288518510280102 0.0044020338065490243 0 -0.012857748688168122 0.0037359911329687451 0 -0.013651241832350832 0.0039877966333527002 0 -0.014844494045811106 0.0032367065581122493 0 -0.014715654308999168 0.0045493215373718834 0 -0.013651241832350832 0.0039877966333527002 0 -0.013365854404380312 0.0024817138817349481 0 -0.014844494045811106 0.0032367065581122493 0 -0.013651241832350832 0.0039877966333527002 0 -0.018553921239499373 0.003395154271796908 0 -0.018911080593151726 0.0031006873612599317 0 -0.019306703897751309 0.0033673410927207784 0 -0.018553921239499373 0.003395154271796908 0 -0.018661867887731571 0.0028758522024461227 0 -0.018115404971856441 0.0026559079459480732 0 -0.018661867887731571 0.0028758522024461227 0 -0.018911080593151726 0.0031006873612599317 0 -0.019118287787544635 0.0027588651998146584 0 -0.018553921239499373 0.003395154271796908 0 -0.018661867887731571 0.0028758522024461227 0 -0.018911080593151726 0.0031006873612599317 0 -0.01996289479572113 0.0027862302579805625 0 -0.019306703897751309 0.0033673410927207784 0 -0.019118287787544635 0.0027588651998146584 0 -0.018911080593151726 0.0031006873612599317 0 -0.019306703897751309 0.0033673410927207784 0 -0.019118287787544635 0.0027588651998146584 0 -0.019808034494006612 0.0035385365853523375 0 -0.01996289479572113 0.0027862302579805625 0 -0.019306703897751309 0.0033673410927207784 0 -0.019104877716857822 0.0048996830051782746 0 -0.017837530810751311 0.004492310539272318 0 -0.018538388419163988 0.0036194102810849418 0 -0.019104877716857822 0.0048996830051782746 0 -0.017453434224261127 0.0055456879762995617 0 -0.017974869242602699 0.0052865470338486339 0 -0.017408455072362789 0.0051017864947459843 0 -0.018553921239499373 0.003395154271796908 0 -0.019306703897751309 0.0033673410927207784 0 -0.019701658734136318 0.0040061846904148784 0 -0.019813316271362201 0.0040723952893993703 0 -0.019808034494006612 0.0035385365853523375 0 -0.019701658734136318 0.0040061846904148784 0 -0.019808034494006612 0.0035385365853523375 0 -0.019306703897751309 0.0033673410927207784 0 -0.019701658734136318 0.0040061846904148784 0 -0.018053520513362089 0.0053587199929485381 0 -0.017880232036640294 0.005804301316273402 0 -0.017974869242602699 0.0052865470338486339 0 -0.019043349705420189 0.0052310120606788562 0 -0.019104877716857822 0.0048996830051782746 0 -0.017974869242602699 0.0052865470338486339 0 -0.017408455072362789 0.0051017864947459843 0 -0.017345467244716219 0.0047533555718356256 0 -0.018356782985516618 0.0039978707130571339 0 -0.019738191335772721 0.0048158453273429254 0 -0.018469248850618753 0.0043250212874622468 0 -0.017453434224261127 0.0055456879762995617 0 -0.017408455072362789 0.0051017864947459843 0 -0.01712602671428937 0.0051326884046982895 0 -0.017408455072362789 0.0051017864947459843 0 -0.017345467244716219 0.0047533555718356256 0 -0.017232612113705775 0.004889477905736731 0 -0.017345467244716219 0.0047533555718356256 0 -0.017232612113705775 0.004889477905736731 0 -0.017073420896455124 0.0045935643116321615 0 -0.017408455072362789 0.0051017864947459843 0 -0.017232612113705775 0.004889477905736731 0 -0.01712602671428937 0.0051326884046982895 0 -0.016650538694488792 0.005179586449400515 0 -0.01712602671428937 0.0051326884046982895 0 -0.017073420896455124 0.0045935643116321615 0 -0.017232612113705775 0.004889477905736731 0 -0.01712602671428937 0.0051326884046982895 0 -0.017073420896455124 0.0045935643116321615 0 -0.016650538694488792 0.005179586449400515 0 -0.017073420896455124 0.0045935643116321615 0 -0.016708859110783583 0.0044461869471782789 0 -0.017073420896455124 0.0045935643116321615 0 -0.016708859110783583 0.0044461869471782789 0 -0.017111796456325365 0.0037525997539139102 0 -0.016650538694488792 0.005179586449400515 0 -0.016092839102638343 0.0046954891285324839 0 -0.016708859110783583 0.0044461869471782789 0 -0.016092839102638343 0.0046954891285324839 0 -0.016708859110783583 0.0044461869471782789 0 -0.016444799258532254 0.0035911861615222241 0 -0.016708859110783583 0.0044461869471782789 0 -0.016444799258532254 0.0035911861615222241 0 -0.017111796456325365 0.0037525997539139102 0 -0.016444799258532254 0.0035911861615222241 0 -0.017111796456325365 0.0037525997539139102 0 -0.017098399073196893 0.0028204137186371592 0 -0.016444799258532254 0.0035911861615222241 0 -0.016609131160227494 0.0025345962593398162 0 -0.017098399073196893 0.0028204137186371592 0 -0.017345467244716219 0.0047533555718356256 0 -0.017073420896455124 0.0045935643116321615 0 -0.017111796456325365 0.0037525997539139102 0 -0.018356782985516618 0.0039978707130571339 0 -0.018469248850618753 0.0043250212874622468 0 -0.017111796456325365 0.0037525997539139102 0 -0.017837530810751311 0.004492310539272318 0 -0.01711308778076465 0.003860661293182994 0 -0.018538388419163988 0.0036194102810849418 0 -0.017092736072416896 0.0028687572630019275 0 -0.018356782985516618 0.0039978707130571339 0 -0.017111796456325365 0.0037525997539139102 0 -0.017098399073196893 0.0028204137186371592 0 -0.018553921239499373 0.003395154271796908 0 -0.018115404971856441 0.0026559079459480732 0 -0.017098399073196893 0.0028204137186371592 0 -0.018115404971856441 0.0026559079459480732 0 -0.01755177726423969 0.0021274720433098458 0 -0.017098399073196893 0.0028204137186371592 0 -0.018115404971856441 0.0026559079459480732 0 -0.01755177726423969 0.0021274720433098458 0 -0.018016976480661338 0.0018303245624034217 0 -0.018115404971856441 0.0026559079459480732 0 -0.018016976480661338 0.0018303245624034217 0 -0.018597714974958941 0.0023630501169722446 0 -0.016609131160227494 0.0025345962593398162 0 -0.017098399073196893 0.0028204137186371592 0 -0.01701833912354566 0.0019762995839529853 0 -0.01755177726423969 0.0021274720433098458 0 -0.017098399073196893 0.0028204137186371592 0 -0.01701833912354566 0.0019762995839529853 0 -0.016508396796148104 0.001655265485141352 0 -0.016609131160227494 0.0025345962593398162 0 -0.01701833912354566 0.0019762995839529853 0 -0.016508396796148104 0.001655265485141352 0 -0.01701833912354566 0.0019762995839529853 0 -0.016979224801581955 0.0013285047657180375 0 -0.01701833912354566 0.0019762995839529853 0 -0.017435166092655045 0.0015215036739430717 0 -0.016979224801581955 0.0013285047657180375 0 -0.01755177726423969 0.0021274720433098458 0 -0.01701833912354566 0.0019762995839529853 0 -0.017435166092655045 0.0015215036739430717 0 -0.017435166092655045 0.0015215036739430717 0 -0.017243629992367105 0.00089071004321524189 0 -0.017682912954981676 0.0010969426311104118 0 -0.017435166092655045 0.0015215036739430717 0 -0.016979224801581955 0.0013285047657180375 0 -0.017243629992367105 0.00089071004321524189 0 -0.018016976480661338 0.0018303245624034217 0 -0.018205831629568358 0.001286936650748299 0 -0.018561240868879027 0.0018369190725000387 0 -0.01755177726423969 0.0021274720433098458 0 -0.017435166092655045 0.0015215036739430717 0 -0.018016976480661338 0.0018303245624034217 0 -0.017435166092655045 0.0015215036739430717 0 -0.018016976480661338 0.0018303245624034217 0 -0.017682912954981676 0.0010969426311104118 0 -0.018016976480661338 0.0018303245624034217 0 -0.018205831629568358 0.001286936650748299 0 -0.017682912954981676 0.0010969426311104118 0 -0.018205831629568358 0.001286936650748299 0 -0.018756383056273956 0.0013741445088220599 0 -0.018561240868879027 0.0018369190725000387 0 -0.018756383056273956 0.0013741445088220599 0 -0.018561240868879027 0.0018369190725000387 0 -0.019235765594566908 0.002026071867042404 0 -0.018016976480661338 0.0018303245624034217 0 -0.018561240868879027 0.0018369190725000387 0 -0.018597714974958941 0.0023630501169722446 0 -0.018597714974958941 0.0023630501169722446 0 -0.019118287787544635 0.0027588651998146584 0 -0.019235765594566908 0.002026071867042404 0 -0.018561240868879027 0.0018369190725000387 0 -0.018597714974958941 0.0023630501169722446 0 -0.019235765594566908 0.002026071867042404 0 -0.018661867887731571 0.0028758522024461227 0 -0.018597714974958941 0.0023630501169722446 0 -0.019118287787544635 0.0027588651998146584 0 -0.018661867887731571 0.0028758522024461227 0 -0.018115404971856441 0.0026559079459480732 0 -0.018597714974958941 0.0023630501169722446 0 -0.01996289479572113 0.0027862302579805625 0 -0.019905717111927877 0.0014661526321500303 0 -0.019235765594566908 0.002026071867042404 0 -0.01996289479572113 0.0027862302579805625 0 -0.019118287787544635 0.0027588651998146584 0 -0.019235765594566908 0.002026071867042404 0 -0.019905717111927877 0.0014661526321500303 0 -0.018756383056273956 0.0013741445088220599 0 -0.019235765594566908 0.002026071867042404 0 -0.019905717111927877 0.0014661526321500303 0 -0.018756383056273956 0.0013741445088220599 0 -0.019087497953191378 0.00075355117204783744 0 -0.019905717111927877 0.0014661526321500303 0 -0.019087497953191378 0.00075355117204783744 0 -0.019913431476953469 0.00021120936786648943 0 -0.018756383056273956 0.0013741445088220599 0 -0.019087497953191378 0.00075355117204783744 0 -0.018296164049686554 0.00085034389629528695 0 -0.018205831629568358 0.001286936650748299 0 -0.018756383056273956 0.0013741445088220599 0 -0.018296164049686554 0.00085034389629528695 0 -0.019087497953191378 0.00075355117204783744 0 -0.018451928043131571 0.00037911206419327914 0 -0.018296164049686554 0.00085034389629528695 0 -0.019087497953191378 0.00075355117204783744 0 -0.018451928043131571 0.00037911206419327914 0 -0.019111455793175382 0.00015516673196176394 0 -0.018451928043131571 0.00037911206419327914 0 -0.019111455793175382 0.00015516673196176394 0 -0.018670198550099867 -0.00020432739411805519 0 -0.019111455793175382 0.00015516673196176394 0 -0.019913431476953469 0.00021120936786648943 0 -0.019410358108953526 -0.00041708800521503611 0 -0.019087497953191378 0.00075355117204783744 0 -0.019111455793175382 0.00015516673196176394 0 -0.019913431476953469 0.00021120936786648943 0 -0.016657132701410733 0.00078581484437651708 0 -0.017243629992367105 0.00089071004321524189 0 -0.017180102544638826 0.00039289267662495403 0 -0.016657132701410733 0.00078581484437651708 0 -0.016979224801581955 0.0013285047657180375 0 -0.017243629992367105 0.00089071004321524189 0 -0.017243629992367105 0.00089071004321524189 0 -0.017788199130046325 0.00064719562599991622 0 -0.017180102544638826 0.00039289267662495403 0 -0.017243629992367105 0.00089071004321524189 0 -0.017788199130046325 0.00064719562599991622 0 -0.017682912954981676 0.0010969426311104118 0 -0.018205831629568358 0.001286936650748299 0 -0.017682912954981676 0.0010969426311104118 0 -0.018296164049686554 0.00085034389629528695 0 -0.017788199130046325 0.00064719562599991622 0 -0.017682912954981676 0.0010969426311104118 0 -0.018296164049686554 0.00085034389629528695 0 -0.018451928043131571 0.00037911206419327914 0 -0.017788199130046325 0.00064719562599991622 0 -0.018296164049686554 0.00085034389629528695 0 -0.018451928043131571 0.00037911206419327914 0 -0.017788199130046325 0.00064719562599991622 0 -0.017755213037005474 1.1779118860156328e-05 0 -0.017788199130046325 0.00064719562599991622 0 -0.017755213037005474 1.1779118860156328e-05 0 -0.017180102544638826 0.00039289267662495403 0 -0.018451928043131571 0.00037911206419327914 0 -0.017755213037005474 1.1779118860156328e-05 0 -0.018670198550099867 -0.00020432739411805519 0 -0.017755213037005474 1.1779118860156328e-05 0 -0.017180102544638826 0.00039289267662495403 0 -0.017137836024670214 -7.9754443222620317e-05 0 -0.016723289133038891 0.00024906159896598967 0 -0.017180102544638826 0.00039289267662495403 0 -0.017137836024670214 -7.9754443222620317e-05 0 -0.017003402237170392 -0.00037320850147758085 0 -0.017137836024670214 -7.9754443222620317e-05 0 -0.017403251267332526 -0.00053899319019458337 0 -0.017755213037005474 1.1779118860156328e-05 0 -0.017137836024670214 -7.9754443222620317e-05 0 -0.017403251267332526 -0.00053899319019458337 0 -0.017755213037005474 1.1779118860156328e-05 0 -0.018078660842175742 -0.00063582602115508184 0 -0.018670198550099867 -0.00020432739411805519 0 -0.017755213037005474 1.1779118860156328e-05 0 -0.017403251267332526 -0.00053899319019458337 0 -0.018078660842175742 -0.00063582602115508184 0 -0.018078660842175742 -0.00063582602115508184 0 -0.017597335247630359 -0.0011273370822361124 0 -0.018388881598253956 -0.0013250420412720633 0 -0.018388881598253956 -0.0013250420412720633 0 -0.018793141632847607 -0.0022136985298642393 0 -0.01789809371006576 -0.0022800380251275574 0 -0.017597335247630359 -0.0011273370822361124 0 -0.018388881598253956 -0.0013250420412720633 0 -0.01789809371006576 -0.0022800380251275574 0 -0.017403251267332526 -0.00053899319019458337 0 -0.018078660842175742 -0.00063582602115508184 0 -0.017597335247630359 -0.0011273370822361124 0 -0.017403251267332526 -0.00053899319019458337 0 -0.017597335247630359 -0.0011273370822361124 0 -0.017204033827916423 -0.00087729975576280445 0 -0.017597335247630359 -0.0011273370822361124 0 -0.017204033827916423 -0.00087729975576280445 0 -0.017346596900458987 -0.001087053878168914 0 -0.017003402237170392 -0.00037320850147758085 0 -0.017403251267332526 -0.00053899319019458337 0 -0.017204033827916423 -0.00087729975576280445 0 -0.016873359506399184 -0.00032879304287250375 0 -0.017003402237170392 -0.00037320850147758085 0 -0.017204033827916423 -0.00087729975576280445 0 -0.019410358108953526 -0.00041708800521503611 0 -0.019120180534234133 -0.0011034329272104526 0 -0.020193569038834326 -0.0013128882383105667 0 -0.019794070382056571 4.1191996705343699e-05 0 -0.019460564155033003 -0.0022340410408440885 0 -0.019806478169832668 -0.0013658772072343425 0 -0.019551440612738068 -0.00033379430491508027 0 -0.019439661309194483 -0.0020495014015521821 0 -0.019913431476953469 0.00021120936786648943 0 -0.019410358108953526 -0.00041708800521503611 0 -0.020193569038834326 -0.0013128882383105667 0 -0.019410358108953526 -0.00041708800521503611 0 -0.018670198550099867 -0.00020432739411805519 0 -0.019120180534234133 -0.0011034329272104526 0 -0.019111455793175382 0.00015516673196176394 0 -0.019410358108953526 -0.00041708800521503611 0 -0.018670198550099867 -0.00020432739411805519 0 -0.018078660842175742 -0.00063582602115508184 0 -0.018670198550099867 -0.00020432739411805519 0 -0.019120180534234133 -0.0011034329272104526 0 -0.018078660842175742 -0.00063582602115508184 0 -0.019120180534234133 -0.0011034329272104526 0 -0.018388881598253956 -0.0013250420412720633 0 -0.019120180534234133 -0.0011034329272104526 0 -0.018388881598253956 -0.0013250420412720633 0 -0.018793141632847607 -0.0022136985298642393 0 -0.019120180534234133 -0.0011034329272104526 0 -0.019571376370596433 -0.0017260007180433952 0 -0.018793141632847607 -0.0022136985298642393 0 -0.019571376370596433 -0.0017260007180433952 0 -0.019972856022880563 -0.0024660144171759152 0 -0.018793141632847607 -0.0022136985298642393 0 -0.019571376370596433 -0.0017260007180433952 0 -0.020193569038834326 -0.0013128882383105667 0 -0.019972856022880563 -0.0024660144171759152 0 -0.018979426371390287 -0.0039644599871893876 0 -0.018778161139650862 -0.0039280986557314037 0 -0.018800542254917299 -0.0043939886560335458 0 -0.019120180534234133 -0.0011034329272104526 0 -0.019571376370596433 -0.0017260007180433952 0 -0.020193569038834326 -0.0013128882383105667 0 -0.019460564155033003 -0.0022340410408440885 0 -0.019346187653196928 -0.0034944496391933152 0 -0.018800542254917299 -0.0043939886560335458 0 -0.019061837178343082 -0.0048896372595454742 0 -0.019060472091398929 -0.0042302644692285502 0 -0.019972856022880563 -0.0024660144171759152 0 -0.018793141632847607 -0.0022136985298642393 0 -0.018643922006644185 -0.0035845778995838204 0 -0.018793141632847607 -0.0022136985298642393 0 -0.018643922006644185 -0.0035845778995838204 0 -0.018293413517914067 -0.0028823701944046013 0 -0.019346187653196928 -0.0034944496391933152 0 -0.018969359809545207 -0.0048931201239281802 0 -0.019972856022880563 -0.0024660144171759152 0 -0.018643922006644185 -0.0035845778995838204 0 -0.018967083946546032 -0.0050138885021232763 0 -0.018643922006644185 -0.0035845778995838204 0 -0.018967083946546032 -0.0050138885021232763 0 -0.018275897835681509 -0.0045924322159035394 0 -0.018800542254917299 -0.0043939886560335458 0 -0.018967083946546032 -0.0050138885021232763 0 -0.019061837178343082 -0.0048896372595454742 0 -0.017283960161969664 -0.0011965380216672958 0 -0.017371882692635853 -0.0012856739455477373 0 -0.017180770599679068 -0.0011970092050951153 0 -0.017204033827916423 -0.00087729975576280445 0 -0.01710991440412582 -0.0011725457800105729 0 -0.017180770599679068 -0.0011970092050951153 0 -0.017204033827916423 -0.00087729975576280445 0 -0.017283960161969664 -0.0011965380216672958 0 -0.017180770599679068 -0.0011970092050951153 0 -0.017204033827916423 -0.00087729975576280445 0 -0.017346596900458987 -0.001087053878168914 0 -0.017283960161969664 -0.0011965380216672958 0 -0.017346596900458987 -0.001087053878168914 0 -0.017357203715941186 -0.0011915351424662058 0 -0.017283960161969664 -0.0011965380216672958 0 -0.017346596900458987 -0.001087053878168914 0 -0.017357203715941186 -0.0011915351424662058 0 -0.017425874896264373 -0.0011891394086911201 0 -0.019182051092446233 -0.0059200021900907866 0 -0.019205264009830882 -0.0028943457716222665 0 -0.017357203715941186 -0.0011915351424662058 0 -0.017371882692635853 -0.0012856739455477373 0 -0.017425874896264373 -0.0011891394086911201 0 -0.017357203715941186 -0.0011915351424662058 0 -0.017283960161969664 -0.0011965380216672958 0 -0.017371882692635853 -0.0012856739455477373 0 -0.017597335247630359 -0.0011273370822361124 0 -0.017416579065490934 -0.0012208792879188589 0 -0.017425874896264373 -0.0011891394086911201 0 -0.017597335247630359 -0.0011273370822361124 0 -0.017307564860277069 -0.0034982652853917779 0 -0.01789809371006576 -0.0022800380251275574 0 -0.017597335247630359 -0.0011273370822361124 0 -0.017346596900458987 -0.001087053878168914 0 -0.017425874896264373 -0.0011891394086911201 0 -0.01744831622945223 -0.00036174412423040954 0 -0.018821462069763029 -0.0046997845411914305 0 -0.017307564860277069 -0.0034982652853917779 0 -0.017785594272114083 -0.0034670248463780531 0 -0.01789809371006576 -0.0022800380251275574 0 -0.019182051092446233 -0.0059200021900907866 0 -0.018821462069763029 -0.0046997845411914305 0 -0.017497880460082424 -0.0035489150593626911 0 -0.017785594272114083 -0.0034670248463780531 0 -0.017992365565581814 -0.0041179251715184259 0 -0.018821462069763029 -0.0046997845411914305 0 -0.018347052976969827 -0.0045521978797513681 0 -0.017408223115214325 -0.0012284759629870722 0 -0.017416579065490934 -0.0012208792879188589 0 -0.017425874896264373 -0.0011891394086911201 0 -0.017785594272114083 -0.0034670248463780531 0 -0.01789809371006576 -0.0022800380251275574 0 -0.018293413517914067 -0.0028823701944046013 0 -0.018793141632847607 -0.0022136985298642393 0 -0.01789809371006576 -0.0022800380251275574 0 -0.018293413517914067 -0.0028823701944046013 0 -0.018643922006644185 -0.0035845778995838204 0 -0.017785594272114083 -0.0034670248463780531 0 -0.018293413517914067 -0.0028823701944046013 0 -0.018643922006644185 -0.0035845778995838204 0 -0.017785594272114083 -0.0034670248463780531 0 -0.017992365565581814 -0.0041179251715184259 0 -0.018821462069763029 -0.0046997845411914305 0 -0.019130854133295801 -0.0067434657676128523 0 -0.017497880460082424 -0.0035489150593626911 0 -0.017992365565581814 -0.0041179251715184259 0 -0.017969539519775035 -0.0052390849603029576 0 -0.020285018994266477 -0.0080519092516554043 0 -0.020258363713549703 -0.0080488060739840172 0 -0.020297298253855602 -0.0079375840067101803 0 -0.018643922006644185 -0.0035845778995838204 0 -0.017992365565581814 -0.0041179251715184259 0 -0.018275897835681509 -0.0045924322159035394 0 -0.018967083946546032 -0.0050138885021232763 0 -0.018275897835681509 -0.0045924322159035394 0 -0.018519285350207679 -0.0051688841755447214 0 -0.018275897835681509 -0.0045924322159035394 0 -0.017969539519775035 -0.0052390849603029576 0 -0.018519285350207679 -0.0051688841755447214 0 -0.017992365565581814 -0.0041179251715184259 0 -0.018275897835681509 -0.0045924322159035394 0 -0.017969539519775035 -0.0052390849603029576 0 -0.019182051092446233 -0.0059200021900907866 0 -0.020811548465510459 -0.009296502837872209 0 -0.020285018994266477 -0.0080519092516554043 0 -0.020423148026293539 -0.0079125571011698891 0 -0.020297298253855602 -0.0079375840067101803 0 -0.020740987000962566 -0.010379062610709614 0 -0.021342426626182565 -0.01003054378571498 0 -0.021081942218819618 -0.0093956313069463813 0 -0.020740987000962566 -0.010379062610709614 0 -0.021342426626182565 -0.01003054378571498 0 -0.022001711332302554 -0.010333993105414338 0 -0.021342426626182565 -0.01003054378571498 0 -0.021081942218819618 -0.0093956313069463813 0 -0.021521814517402597 -0.0096389341152766043 0 -0.019130854133295801 -0.0067434657676128523 0 -0.019561999200650448 -0.0067990706885074177 0 -0.020423148026293539 -0.0079125571011698891 0 -0.020297298253855602 -0.0079375840067101803 0 -0.020280261346644197 -0.0075783515536560764 0 -0.017969539519775035 -0.0052390849603029576 0 -0.018842787194965672 -0.0057712298321185027 0 -0.018707944440016496 -0.0062877242916906861 0 -0.017969539519775035 -0.0052390849603029576 0 -0.018519285350207679 -0.0051688841755447214 0 -0.018842787194965672 -0.0057712298321185027 0 -0.018842787194965672 -0.0057712298321185027 0 -0.019152870442169203 -0.0063798611913567383 0 -0.018707944440016496 -0.0062877242916906861 0 -0.019152870442169203 -0.0063798611913567383 0 -0.018707944440016496 -0.0062877242916906861 0 -0.019357595886798865 -0.0066001181970115619 0 -0.020811548465510459 -0.009296502837872209 0 -0.021077164964486906 -0.0076975627490672455 0 -0.020423148026293539 -0.0079125571011698891 0 -0.020280261346644197 -0.0075783515536560764 0 -0.020758165718853375 -0.0073974654544028164 0 -0.018967083946546032 -0.0050138885021232763 0 -0.019061837178343082 -0.0048896372595454742 0 -0.019172555378941542 -0.0055014859223221175 0 -0.019172555378941542 -0.0055014859223221175 0 -0.019367970175678775 -0.0059203814418292032 0 -0.019387780084835795 -0.0053830288270351684 0 -0.019061837178343082 -0.0048896372595454742 0 -0.019172555378941542 -0.0055014859223221175 0 -0.019387780084835795 -0.0053830288270351684 0 -0.018967083946546032 -0.0050138885021232763 0 -0.018842787194965672 -0.0057712298321185027 0 -0.019172555378941542 -0.0055014859223221175 0 -0.018967083946546032 -0.0050138885021232763 0 -0.018519285350207679 -0.0051688841755447214 0 -0.018842787194965672 -0.0057712298321185027 0 -0.018842787194965672 -0.0057712298321185027 0 -0.019172555378941542 -0.0055014859223221175 0 -0.01915054848384173 -0.0061264321418187159 0 -0.018842787194965672 -0.0057712298321185027 0 -0.019152870442169203 -0.0063798611913567383 0 -0.01915054848384173 -0.0061264321418187159 0 -0.01915054848384173 -0.0061264321418187159 0 -0.019367970175678775 -0.0059203814418292032 0 -0.019269321438493654 -0.0063619881963111009 0 -0.019172555378941542 -0.0055014859223221175 0 -0.01915054848384173 -0.0061264321418187159 0 -0.019367970175678775 -0.0059203814418292032 0 -0.019367970175678775 -0.0059203814418292032 0 -0.019269321438493654 -0.0063619881963111009 0 -0.019545786906749109 -0.0063532796216469725 0 -0.019269321438493654 -0.0063619881963111009 0 -0.019368207741576597 -0.0065268489143635337 0 -0.019545786906749109 -0.0063532796216469725 0 -0.020417207686241182 -0.0069223538143227759 0 -0.020372848601375212 -0.0069021891295244931 0 -0.020420518870487601 -0.0069325424866904482 0 -0.019269321438493654 -0.0063619881963111009 0 -0.019368207741576597 -0.0065268489143635337 0 -0.019249542563353077 -0.006500204819067463 0 -0.019368207741576597 -0.0065268489143635337 0 -0.019249542563353077 -0.006500204819067463 0 -0.019322951196422807 -0.0067009143483772234 0 -0.019368207741576597 -0.0065268489143635337 0 -0.019322951196422807 -0.0067009143483772234 0 -0.019545129075926718 -0.0067050209620792235 0 -0.019249542563353077 -0.006500204819067463 0 -0.019322951196422807 -0.0067009143483772234 0 -0.019220482296181809 -0.0064776122923294512 0 -0.019945702752955746 -0.0065519657083011017 0 -0.020942403933800684 -0.0070170403876620747 0 -0.019864985617914718 -0.0068215561063771574 0 -0.019945702752955746 -0.0065519657083011017 0 -0.019249542563353077 -0.006500204819067463 0 -0.019220482296181809 -0.0064776122923294512 0 -0.019204721421224064 -0.0064690663737472917 0 -0.019220482296181809 -0.0064776122923294512 0 -0.019204721421224064 -0.0064690663737472917 0 -0.019409677075527831 -0.0065162757735409658 0 -0.019269321438493654 -0.0063619881963111009 0 -0.019249542563353077 -0.006500204819067463 0 -0.019204721421224064 -0.0064690663737472917 0 -0.01915054848384173 -0.0061264321418187159 0 -0.019269321438493654 -0.0063619881963111009 0 -0.019204721421224064 -0.0064690663737472917 0 -0.019152870442169203 -0.0063798611913567383 0 -0.019204721421224064 -0.0064690663737472917 0 -0.019303111176226875 -0.0065459754166277452 0 -0.019152870442169203 -0.0063798611913567383 0 -0.01915054848384173 -0.0061264321418187159 0 -0.019204721421224064 -0.0064690663737472917 0 -0.019152870442169203 -0.0063798611913567383 0 -0.019357595886798865 -0.0066001181970115619 0 -0.019303111176226875 -0.0065459754166277452 0 -0.019677983340883422 -0.0066724122769196903 0 -0.020236709006392302 -0.006854144878507361 0 -0.020325313454399582 -0.0065399440599748539 0 -0.019357595886798865 -0.0066001181970115619 0 -0.019677983340883422 -0.0066724122769196903 0 -0.019303111176226875 -0.0065459754166277452 0 -0.019357595886798865 -0.0066001181970115619 0 -0.019677983340883422 -0.0066724122769196903 0 -0.020236709006392302 -0.006854144878507361 0 -0.019677983340883422 -0.0066724122769196903 0 -0.019303111176226875 -0.0065459754166277452 0 -0.019409677075527831 -0.0065162757735409658 0 -0.019204721421224064 -0.0064690663737472917 0 -0.019303111176226875 -0.0065459754166277452 0 -0.019409677075527831 -0.0065162757735409658 0 -0.018707944440016496 -0.0062877242916906861 0 -0.019357595886798865 -0.0066001181970115619 0 -0.020236709006392302 -0.006854144878507361 0 -0.020280261346644197 -0.0075783515536560764 0 -0.020236709006392302 -0.006854144878507361 0 -0.020758165718853375 -0.0073974654544028164 0 -0.020236709006392302 -0.006854144878507361 0 -0.020701671032559519 -0.0067665882245965536 0 -0.020758165718853375 -0.0073974654544028164 0 -0.019561999200650448 -0.0067990706885074177 0 -0.020055591817708135 -0.0067600588682756244 0 -0.020236709006392302 -0.006854144878507361 0 -0.020701671032559519 -0.0067665882245965536 0 -0.020325313454399582 -0.0065399440599748539 0 -0.020701671032559519 -0.0067665882245965536 0 -0.020637545419570653 -0.0066888024586437347 0 -0.020325313454399582 -0.0065399440599748539 0 -0.020701671032559519 -0.0067665882245965536 0 -0.020637545419570653 -0.0066888024586437347 0 -0.020879047259347663 -0.0067081686460763118 0 -0.020701671032559519 -0.0067665882245965536 0 -0.020879047259347663 -0.0067081686460763118 0 -0.021184882356892185 -0.0067257889709516133 0 -0.021128674027256877 -0.0066375148172780314 0 -0.020325313454399582 -0.0065399440599748539 0 -0.02077859004256874 -0.0067275480417813231 0 -0.019945702752955746 -0.0065519657083011017 0 -0.020198299671037988 -0.0064058646901682037 0 -0.018496278825874464 -0.0056831101491374254 0 -0.019409677075527831 -0.0065162757735409658 0 -0.020325313454399582 -0.0065399440599748539 0 -0.019945702752955746 -0.0065519657083011017 0 -0.019173590481665569 -0.006245259223049319 0 -0.019677983340883422 -0.0066724122769196903 0 -0.019409677075527831 -0.0065162757735409658 0 -0.020325313454399582 -0.0065399440599748539 0 -0.020637545419570653 -0.0066888024586437347 0 -0.02077859004256874 -0.0067275480417813231 0 -0.020861869246657627 -0.0067773659894470985 0 -0.020637545419570653 -0.0066888024586437347 0 -0.020325313454399582 -0.0065399440599748539 0 -0.02077859004256874 -0.0067275480417813231 0 -0.021128674027256877 -0.0066375148172780314 0 -0.02077859004256874 -0.0067275480417813231 0 -0.021006316349322471 -0.0068307852805051562 0 -0.02077859004256874 -0.0067275480417813231 0 -0.021006316349322471 -0.0068307852805051562 0 -0.020861869246657627 -0.0067773659894470985 0 -0.020861869246657627 -0.0067773659894470985 0 -0.021083862700204382 -0.0067515650182332623 0 -0.021095225845952952 -0.0068831027523577077 0 -0.021006316349322471 -0.0068307852805051562 0 -0.021095225845952952 -0.0068831027523577077 0 -0.0211398688152796 -0.0069443587460432006 0 -0.021006316349322471 -0.0068307852805051562 0 -0.020861869246657627 -0.0067773659894470985 0 -0.021095225845952952 -0.0068831027523577077 0 -0.020879047259347663 -0.0067081686460763118 0 -0.021233750391477596 -0.0066354117184188989 0 -0.021184882356892185 -0.0067257889709516133 0 -0.020861869246657627 -0.0067773659894470985 0 -0.020879047259347663 -0.0067081686460763118 0 -0.021083862700204382 -0.0067515650182332623 0 -0.020637545419570653 -0.0066888024586437347 0 -0.020861869246657627 -0.0067773659894470985 0 -0.020879047259347663 -0.0067081686460763118 0 -0.020879047259347663 -0.0067081686460763118 0 -0.021083862700204382 -0.0067515650182332623 0 -0.021233750391477596 -0.0066354117184188989 0 -0.021083862700204382 -0.0067515650182332623 0 -0.021345798815233189 -0.0067370920929130636 0 -0.021233750391477596 -0.0066354117184188989 0 -0.021083862700204382 -0.0067515650182332623 0 -0.021194253436384612 -0.0068443236498240013 0 -0.021345798815233189 -0.0067370920929130636 0 -0.021194253436384612 -0.0068443236498240013 0 -0.021345798815233189 -0.0067370920929130636 0 -0.021310371664521589 -0.0069067652932298714 0 -0.021095225845952952 -0.0068831027523577077 0 -0.021218770150030177 -0.0069882407518901809 0 -0.0211398688152796 -0.0069443587460432006 0 -0.021083862700204382 -0.0067515650182332623 0 -0.021194253436384612 -0.0068443236498240013 0 -0.021095225845952952 -0.0068831027523577077 0 -0.021194253436384612 -0.0068443236498240013 0 -0.021095225845952952 -0.0068831027523577077 0 -0.021228905811611416 -0.0069269154208114114 0 -0.021194253436384612 -0.0068443236498240013 0 -0.021228905811611416 -0.0069269154208114114 0 -0.021310371664521589 -0.0069067652932298714 0 -0.021095225845952952 -0.0068831027523577077 0 -0.021228905811611416 -0.0069269154208114114 0 -0.021218770150030177 -0.0069882407518901809 0 -0.021218770150030177 -0.0069882407518901809 0 -0.0211398688152796 -0.0069443587460432006 0 -0.0211907093022572 -0.0070106650388057599 0 -0.0211907093022572 -0.0070106650388057599 0 -0.021182193847014592 -0.0070422205752197183 0 -0.021180013869610485 -0.0069843058639611089 0 -0.0211398688152796 -0.0069443587460432006 0 -0.0211907093022572 -0.0070106650388057599 0 -0.021180013869610485 -0.0069843058639611089 0 -0.0211907093022572 -0.0070106650388057599 0 -0.021193066931799141 -0.0070436707732535412 0 -0.021222460376068761 -0.0070441182088939683 0 -0.021218770150030177 -0.0069882407518901809 0 -0.0211907093022572 -0.0070106650388057599 0 -0.021222460376068761 -0.0070441182088939683 0 -0.0211907093022572 -0.0070106650388057599 0 -0.021193066931799141 -0.0070436707732535412 0 -0.021182193847014592 -0.0070422205752197183 0 -0.021193066931799141 -0.0070436707732535412 0 -0.021182193847014592 -0.0070422205752197183 0 -0.021165740440012876 -0.0070638142054685613 0 -0.021144696015979691 -0.0070827053921772585 0 -0.021165740440012876 -0.0070638142054685613 0 -0.02107639104706871 -0.0070720318194613715 0 -0.021144696015979691 -0.0070827053921772585 0 -0.021182193847014592 -0.0070422205752197183 0 -0.021165740440012876 -0.0070638142054685613 0 -0.021144696015979691 -0.0070827053921772585 0 -0.021173385505650528 -0.0070522826604487226 0 -0.021182193847014592 -0.0070422205752197183 0 -0.021144696015979691 -0.0070827053921772585 0 -0.021173385505650528 -0.0070522826604487226 0 -0.021043810096844001 -0.0071842672458012511 0 -0.021173385505650528 -0.0070522826604487226 0 -0.021182193847014592 -0.0070422205752197183 0 -0.021180013869610485 -0.0069843058639611089 0 -0.020942403933800684 -0.0070170403876620747 0 -0.020672649656814868 -0.0069956796781230242 0 -0.021173385505650528 -0.0070522826604487226 0 -0.021224598536424839 -0.0069685277830222325 0 -0.021180013869610485 -0.0069843058639611089 0 -0.021173385505650528 -0.0070522826604487226 0 -0.021224598536424839 -0.0069685277830222325 0 -0.021043810096844001 -0.0071842672458012511 0 -0.020417207686241182 -0.0069223538143227759 0 -0.020420518870487601 -0.0069325424866904482 0 -0.020408633706915379 -0.0069288500280053154 0 -0.021128674027256877 -0.0066375148172780314 0 -0.021224598536424839 -0.0069685277830222325 0 -0.021141443001254555 -0.0068878241219786961 0 -0.021128674027256877 -0.0066375148172780314 0 -0.021006316349322471 -0.0068307852805051562 0 -0.021141443001254555 -0.0068878241219786961 0 -0.021006316349322471 -0.0068307852805051562 0 -0.0211398688152796 -0.0069443587460432006 0 -0.021141443001254555 -0.0068878241219786961 0 -0.0211398688152796 -0.0069443587460432006 0 -0.021141443001254555 -0.0068878241219786961 0 -0.021180013869610485 -0.0069843058639611089 0 -0.021224598536424839 -0.0069685277830222325 0 -0.021141443001254555 -0.0068878241219786961 0 -0.021180013869610485 -0.0069843058639611089 0 -0.023539327255356821 -0.0066136161919019719 0 -0.022997158878634492 -0.0061779710449624868 0 -0.022804655987136029 -0.0070610390710932761 0 -0.023539327255356821 -0.0066136161919019719 0 -0.023766554480022361 -0.0056873010436289274 0 -0.022997158878634492 -0.0061779710449624868 0 -0.023539327255356821 -0.0066136161919019719 0 -0.024201196089850694 -0.0062834792644745853 0 -0.023766554480022361 -0.0056873010436289274 0 -0.024201196089850694 -0.0062834792644745853 0 -0.024729408402980196 -0.0057293538185553905 0 -0.024860375543122246 -0.0064584882553678164 0 -0.023539327255356821 -0.0066136161919019719 0 -0.024201196089850694 -0.0062834792644745853 0 -0.024174792500215956 -0.0069515897922440735 0 -0.024201196089850694 -0.0062834792644745853 0 -0.024174792500215956 -0.0069515897922440735 0 -0.024860375543122246 -0.0064584882553678164 0 -0.024729408402980196 -0.0057293538185553905 0 -0.023766554480022361 -0.0056873010436289274 0 -0.024445606497829502 -0.0051401212630759413 0 -0.024201196089850694 -0.0062834792644745853 0 -0.024729408402980196 -0.0057293538185553905 0 -0.023766554480022361 -0.0056873010436289274 0 -0.022997158878634492 -0.0061779710449624868 0 -0.021889011265276166 -0.0065253075177734241 0 -0.023092299794338987 -0.0051814666093493956 0 -0.021451136161204042 -0.0066102253133794291 0 -0.021889011265276166 -0.0065253075177734241 0 -0.021285943496152319 -0.0067421464587025257 0 -0.021915453054975269 -0.0065706294555710875 0 -0.022194509440358324 -0.0060389800851605125 0 -0.023766554480022361 -0.0056873010436289274 0 -0.022997158878634492 -0.0061779710449624868 0 -0.023092299794338987 -0.0051814666093493956 0 -0.021345798815233189 -0.0067370920929130636 0 -0.021451136161204042 -0.0066102253133794291 0 -0.021285943496152319 -0.0067421464587025257 0 -0.021345798815233189 -0.0067370920929130636 0 -0.021451136161204042 -0.0066102253133794291 0 -0.021233750391477596 -0.0066354117184188989 0 -0.021451136161204042 -0.0066102253133794291 0 -0.021233750391477596 -0.0066354117184188989 0 -0.021889011265276166 -0.0065253075177734241 0 -0.021233750391477596 -0.0066354117184188989 0 -0.021184882356892185 -0.0067257889709516133 0 -0.021889011265276166 -0.0065253075177734241 0 -0.021184882356892185 -0.0067257889709516133 0 -0.021889011265276166 -0.0065253075177734241 0 -0.021443890658549517 -0.0069792226361572261 0 -0.022997158878634492 -0.0061779710449624868 0 -0.021889011265276166 -0.0065253075177734241 0 -0.022804655987136029 -0.0070610390710932761 0 -0.022804655987136029 -0.0070610390710932761 0 -0.022177820842799324 -0.0072532721589442318 0 -0.022779856114985567 -0.0079284366985818335 0 -0.021889011265276166 -0.0065253075177734241 0 -0.022804655987136029 -0.0070610390710932761 0 -0.022177820842799324 -0.0072532721589442318 0 -0.021889011265276166 -0.0065253075177734241 0 -0.022177820842799324 -0.0072532721589442318 0 -0.021443890658549517 -0.0069792226361572261 0 -0.020701671032559519 -0.0067665882245965536 0 -0.021184882356892185 -0.0067257889709516133 0 -0.021443890658549517 -0.0069792226361572261 0 -0.022177820842799324 -0.0072532721589442318 0 -0.021443890658549517 -0.0069792226361572261 0 -0.021972452016948668 -0.0078300057043474477 0 -0.021406544290021045 -0.0070418982777079543 0 -0.021077164964486906 -0.0076975627490672455 0 -0.021972452016948668 -0.0078300057043474477 0 -0.021322717625374962 -0.0083534586060905087 0 -0.022112434429652571 -0.0085134763206632224 0 -0.021443890658549517 -0.0069792226361572261 0 -0.021972452016948668 -0.0078300057043474477 0 -0.021322717625374962 -0.0083534586060905087 0 -0.020701671032559519 -0.0067665882245965536 0 -0.021443890658549517 -0.0069792226361572261 0 -0.020758165718853375 -0.0073974654544028164 0 -0.022177820842799324 -0.0072532721589442318 0 -0.021972452016948668 -0.0078300057043474477 0 -0.022779856114985567 -0.0079284366985818335 0 -0.021972452016948668 -0.0078300057043474477 0 -0.022779856114985567 -0.0079284366985818335 0 -0.022112434429652571 -0.0085134763206632224 0 -0.022779856114985567 -0.0079284366985818335 0 -0.023788058830749432 -0.0080426479060255185 0 -0.02323870806058596 -0.0085394506261445586 0 -0.022779856114985567 -0.0079284366985818335 0 -0.023549270847453053 -0.0073666617821195809 0 -0.023788058830749432 -0.0080426479060255185 0 -0.022804655987136029 -0.0070610390710932761 0 -0.022779856114985567 -0.0079284366985818335 0 -0.023549270847453053 -0.0073666617821195809 0 -0.023539327255356821 -0.0066136161919019719 0 -0.023549270847453053 -0.0073666617821195809 0 -0.024174792500215956 -0.0069515897922440735 0 -0.023539327255356821 -0.0066136161919019719 0 -0.022804655987136029 -0.0070610390710932761 0 -0.023549270847453053 -0.0073666617821195809 0 -0.023549270847453053 -0.0073666617821195809 0 -0.024174792500215956 -0.0069515897922440735 0 -0.024219344603397971 -0.0075173993257335201 0 -0.024174792500215956 -0.0069515897922440735 0 -0.024219344603397971 -0.0075173993257335201 0 -0.024947947986527916 -0.007161042055047204 0 -0.023788058830749432 -0.0080426479060255185 0 -0.02459503812053105 -0.0085020168556221801 0 -0.024753926295166283 -0.0078589292455942417 0 -0.024219344603397971 -0.0075173993257335201 0 -0.023788058830749432 -0.0080426479060255185 0 -0.024753926295166283 -0.0078589292455942417 0 -0.023549270847453053 -0.0073666617821195809 0 -0.024219344603397971 -0.0075173993257335201 0 -0.023788058830749432 -0.0080426479060255185 0 -0.023795831689302188 -0.0087759076311549403 0 -0.02459503812053105 -0.0085020168556221801 0 -0.024649530010484481 -0.009329703135200455 0 -0.023650251548401308 -0.0086769138466183324 0 -0.025031226942169471 -0.009687351268356955 0 -0.023788058830749432 -0.0080426479060255185 0 -0.023795831689302188 -0.0087759076311549403 0 -0.02459503812053105 -0.0085020168556221801 0 -0.022779856114985567 -0.0079284366985818335 0 -0.02323870806058596 -0.0085394506261445586 0 -0.022705985617496125 -0.0086966599287115233 0 -0.023795831689302188 -0.0087759076311549403 0 -0.02323870806058596 -0.0085394506261445586 0 -0.023027174228101067 -0.0093106264158332192 0 -0.02323870806058596 -0.0085394506261445586 0 -0.023027174228101067 -0.0093106264158332192 0 -0.022705985617496125 -0.0086966599287115233 0 -0.023788058830749432 -0.0080426479060255185 0 -0.023795831689302188 -0.0087759076311549403 0 -0.02323870806058596 -0.0085394506261445586 0 -0.023795831689302188 -0.0087759076311549403 0 -0.023027174228101067 -0.0093106264158332192 0 -0.023728853178834358 -0.00944275942101978 0 -0.023027174228101067 -0.0093106264158332192 0 -0.023728853178834358 -0.00944275942101978 0 -0.023330829971948186 -0.010204601587403951 0 -0.023795831689302188 -0.0087759076311549403 0 -0.023728853178834358 -0.00944275942101978 0 -0.024227397891740748 -0.0091759452787880409 0 -0.023728853178834358 -0.00944275942101978 0 -0.024086572308325536 -0.0098389149513847945 0 -0.024227397891740748 -0.0091759452787880409 0 -0.021322717625374962 -0.0083534586060905087 0 -0.022112434429652571 -0.0085134763206632224 0 -0.02169030120253276 -0.009123449522756533 0 -0.021081942218819618 -0.0093956313069463813 0 -0.021322717625374962 -0.0083534586060905087 0 -0.02169030120253276 -0.009123449522756533 0 -0.022112434429652571 -0.0085134763206632224 0 -0.022308045253748261 -0.0091940004654205744 0 -0.02169030120253276 -0.009123449522756533 0 -0.022779856114985567 -0.0079284366985818335 0 -0.022112434429652571 -0.0085134763206632224 0 -0.022705985617496125 -0.0086966599287115233 0 -0.022112434429652571 -0.0085134763206632224 0 -0.022705985617496125 -0.0086966599287115233 0 -0.022308045253748261 -0.0091940004654205744 0 -0.023027174228101067 -0.0093106264158332192 0 -0.022705985617496125 -0.0086966599287115233 0 -0.022308045253748261 -0.0091940004654205744 0 -0.023027174228101067 -0.0093106264158332192 0 -0.022396939955610828 -0.0095850105234210389 0 -0.022308045253748261 -0.0091940004654205744 0 -0.023027174228101067 -0.0093106264158332192 0 -0.022396939955610828 -0.0095850105234210389 0 -0.022622089626015262 -0.0099028775709178798 0 -0.022396939955610828 -0.0095850105234210389 0 -0.022308045253748261 -0.0091940004654205744 0 -0.02191695811811414 -0.009621098387215166 0 -0.022308045253748261 -0.0091940004654205744 0 -0.02169030120253276 -0.009123449522756533 0 -0.02191695811811414 -0.009621098387215166 0 -0.02169030120253276 -0.009123449522756533 0 -0.02191695811811414 -0.009621098387215166 0 -0.021521814517402597 -0.0096389341152766043 0 -0.021081942218819618 -0.0093956313069463813 0 -0.02169030120253276 -0.009123449522756533 0 -0.021521814517402597 -0.0096389341152766043 0 -0.021342426626182565 -0.01003054378571498 0 -0.021521814517402597 -0.0096389341152766043 0 -0.021772611607688137 -0.0099242238911121002 0 -0.02191695811811414 -0.009621098387215166 0 -0.021521814517402597 -0.0096389341152766043 0 -0.021772611607688137 -0.0099242238911121002 0 -0.02191695811811414 -0.009621098387215166 0 -0.021772611607688137 -0.0099242238911121002 0 -0.022125341990847161 -0.0098902007146167877 0 -0.021772611607688137 -0.0099242238911121002 0 -0.022125341990847161 -0.0098902007146167877 0 -0.022001711332302554 -0.010333993105414338 0 -0.021342426626182565 -0.01003054378571498 0 -0.021772611607688137 -0.0099242238911121002 0 -0.022001711332302554 -0.010333993105414338 0 -0.022622089626015262 -0.0099028775709178798 0 -0.022001711332302554 -0.010333993105414338 0 -0.023330829971948186 -0.010204601587403951 0 -0.019778874739501059 -0.0062622183574979106 0 -0.018853619614284303 -0.0022245404112003213 0 -0.022125341990847161 -0.0098902007146167877 0 -0.022622089626015262 -0.0099028775709178798 0 -0.022001711332302554 -0.010333993105414338 0 -0.022396939955610828 -0.0095850105234210389 0 -0.022125341990847161 -0.0098902007146167877 0 -0.022622089626015262 -0.0099028775709178798 0 -0.022396939955610828 -0.0095850105234210389 0 -0.02191695811811414 -0.009621098387215166 0 -0.022125341990847161 -0.0098902007146167877 0 -0.016626505239734919 -0.00034246348076234767 0 -0.018853619614284303 -0.0022245404112003213 0 -0.016790223250271224 7.194304782888999e-05 0 -0.016701244109522857 9.7169829850775951e-05 0 -0.016930856305075133 0.00031207688850995869 0 -0.017026485306618874 -0.0012565630924381392 0 -0.017027313702145185 -0.0012612125594892107 0 -0.01718396718833717 -0.0012685894382766141 0 -0.017204033827916423 -0.00087729975576280445 0 -0.017026485306618874 -0.0012565630924381392 0 -0.01710991440412582 -0.0011725457800105729 0 -0.019182051092446233 -0.0059200021900907866 0 -0.019778874739501059 -0.0062622183574979106 0 -0.017371882692635853 -0.0012856739455477373 0 -0.017027313702145185 -0.0012612125594892107 0 -0.017180770599679068 -0.0011970092050951153 0 -0.017332878407583591 -0.0008409912643802471 0 -0.016626505239734919 -0.00034246348076234767 0 -0.017026485306618874 -0.0012565630924381392 0 -0.017027313702145185 -0.0012612125594892107 0 -0.01710991440412582 -0.0011725457800105729 0 -0.017027313702145185 -0.0012612125594892107 0 -0.01710991440412582 -0.0011725457800105729 0 -0.017180770599679068 -0.0011970092050951153 0 -0.021012560199722741 -0.0045198917256206918 0 -0.018853619614284303 -0.0022245404112003213 0 -0.018853619614284303 -0.0022245404112003213 0 -0.017256306439966933 0.0017160518106892962 0 -0.017858740460805385 0.00084686700107122813 0 -0.017955980334748017 0.00081171108165076754 0 -0.017803529343173082 0.00090468352125183747 0 -0.023728853178834358 -0.00944275942101978 0 -0.024086572308325536 -0.0098389149513847945 0 -0.023330829971948186 -0.010204601587403951 0 -0.023027174228101067 -0.0093106264158332192 0 -0.022622089626015262 -0.0099028775709178798 0 -0.023330829971948186 -0.010204601587403951 0 -0.017154470953709242 0.00046065306130694498 0 -0.017123058718850708 0.00078037740794809594 0 -0.016930856305075133 0.00031207688850995869 0 -0.016701244109522857 9.7169829850775951e-05 0 -0.017123058718850708 0.00078037740794809594 0 -0.016930856305075133 0.00031207688850995869 0 -0.017154470953709242 0.00046065306130694498 0 -0.017123058718850708 0.00078037740794809594 0 -0.017531027675837193 0.00066345560689898232 0 -0.017123058718850708 0.00078037740794809594 0 -0.017531027675837193 0.00066345560689898232 0 -0.017803529343173082 0.00090468352125183747 0 -0.017531027675837193 0.00066345560689898232 0 -0.017803529343173082 0.00090468352125183747 0 -0.017853773367475824 0.00075664820531085269 0 -0.017858740460805385 0.00084686700107122813 0 -0.017803529343173082 0.00090468352125183747 0 -0.017862593071250096 0.00092239575076451361 0 -0.021012560199722741 -0.0045198917256206918 0 -0.022563363515480384 -0.0059153680793791836 0 -0.01791364319931613 0.00085034233222438334 0 -0.01803500951557651 0.000886372410281985 0 -0.017862593071250096 0.00092239575076451361 0 -0.017803529343173082 0.00090468352125183747 0 -0.01791364319931613 0.00085034233222438334 0 -0.017862593071250096 0.00092239575076451361 0 -0.023728372769669413 -0.0035549242964034848 0 -0.024671821292887967 -0.0042739512365721046 0 -0.024386466128711815 -0.0043941031847791858 0 -0.020166583838530552 -0.00075488126301170974 0 -0.022563363515480384 -0.0059153680793791836 0 -0.023728372769669413 -0.0035549242964034848 0 -0.023845408359953833 -0.0041544270007848414 0 -0.024386466128711815 -0.0043941031847791858 0 -0.017998331963325287 0.00069986072289305874 0 -0.01791364319931613 0.00085034233222438334 0 -0.017853773367475824 0.00075664820531085269 0 -0.017998331963325287 0.00069986072289305874 0 -0.01791364319931613 0.00085034233222438334 0 -0.01803500951557651 0.000886372410281985 0 -0.017803529343173082 0.00090468352125183747 0 -0.01791364319931613 0.00085034233222438334 0 -0.017853773367475824 0.00075664820531085269 0 -0.017998331963325287 0.00069986072289305874 0 -0.018258013543893191 0.00076735320620553629 0 -0.01803500951557651 0.000886372410281985 0 -0.018188069819225557 0.0012428049751041993 0 -0.022568857275235544 -0.00013919576010149794 0 -0.022568857275235544 -0.00013919576010149794 0 -0.020166583838530552 -0.00075488126301170974 0 -0.021265001091411641 0.0026559949043378933 0 -0.022568857275235544 -0.00013919576010149794 0 -0.029837221377096493 -0.0060623359496178725 0 -0.029889073216606922 -0.0063563999148712564 0 -0.029662983433180367 -0.0062134352323764972 0 -0.022568857275235544 -0.00013919576010149794 0 -0.026543087689974244 -0.0058934059734225422 0 -0.022753324689173248 -0.0028178544502617396 0 -0.022818823139558974 -0.0039590544801692811 0 -0.023728372769669413 -0.0035549242964034848 0 -0.022818823139558974 -0.0039590544801692811 0 -0.023728372769669413 -0.0035549242964034848 0 -0.023845408359953833 -0.0041544270007848414 0 -0.022818823139558974 -0.0039590544801692811 0 -0.023845408359953833 -0.0041544270007848414 0 -0.023644589178614884 -0.0047156224506154495 0 -0.022818823139558974 -0.0039590544801692811 0 -0.023644589178614884 -0.0047156224506154495 0 -0.022899105391162963 -0.0050486132442906688 0 -0.02489397700814178 -0.0063579624620805613 0 -0.026702899804779419 -0.0062732779912006596 0 -0.029889073216606922 -0.0063563999148712564 0 -0.029892425394695995 -0.0066018900443451231 0 -0.029739726016365542 -0.0065102470599195071 0 -0.026543087689974244 -0.0058934059734225422 0 -0.026702899804779419 -0.0062732779912006596 0 -0.026702899804779419 -0.0062732779912006596 0 -0.027232454912283804 -0.0072350673591785406 0 -0.027640829859200654 -0.007217504910340772 0 -0.028208423565676977 -0.0069847209129718585 0 -0.027607976772948174 -0.0065448021292595854 0 -0.026702899804779419 -0.0062732779912006596 0 -0.029342973949996704 -0.0071449333936440982 0 -0.02668969167491236 -0.0076267499201177827 0 -0.026438803077422135 -0.0073895499412297882 0 -0.026683626388456581 -0.0071074778881063273 0 -0.026401236439533925 -0.0077490708328958663 0 -0.02668969167491236 -0.0076267499201177827 0 -0.026438803077422135 -0.0073895499412297882 0 -0.026401236439533925 -0.0077490708328958663 0 -0.026438803077422135 -0.0073895499412297882 0 -0.026100956444920543 -0.0073666749370573182 0 -0.025973696404007044 -0.0082043721068946421 0 -0.025043916642274223 -0.0073444900061642908 0 -0.025637625238332542 -0.0083924237664467945 0 -0.02459503812053105 -0.0085020168556221801 0 -0.024649530010484481 -0.009329703135200455 0 -0.024086572308325536 -0.0098389149513847945 0 -0.024227397891740748 -0.0091759452787880409 0 -0.024717178437496094 -0.0095249712043043375 0 -0.024649530010484481 -0.009329703135200455 0 -0.025372848161527219 -0.0098207603694153399 0 -0.0256536715668793 -0.0097039461911124329 0 -0.025031226942169471 -0.009687351268356955 0 -0.022563363515480384 -0.0059153680793791836 0 -0.026401236439533925 -0.0077490708328958663 0 -0.026100956444920543 -0.0073666749370573182 0 -0.026115815975559922 -0.0078671033388710478 0 -0.025637625238332542 -0.0083924237664467945 0 -0.024649530010484481 -0.009329703135200455 0 -0.0256536715668793 -0.0097039461911124329 0 -0.022563363515480384 -0.0059153680793791836 0 -0.025043916642274223 -0.0073444900061642908 0 -0.023845408359953833 -0.0041544270007848414 0 -0.023644589178614884 -0.0047156224506154495 0 -0.024386466128711815 -0.0043941031847791858 0 -0.02489397700814178 -0.0063579624620805613 0 -0.025043916642274223 -0.0073444900061642908 0 -0.02823977557675722 0.0014494570683314357 0 -0.028004408972260999 -0.00054127080423459976 0 -0.030344981029086344 0.00085951357215459248 0 -0.02823977557675722 0.0014494570683314357 0 -0.027048644190955824 -0.00010784551951451207 0 -0.026166380661441759 0.0026165139409541497 0 -0.026928087006743238 0.00026159564864598669 0 -0.028004408972260999 -0.00054127080423459976 0 -0.027048644190955824 -0.00010784551951451207 0 -0.02823977557675722 0.0014494570683314357 0 -0.028004408972260999 -0.00054127080423459976 0 -0.027048644190955824 -0.00010784551951451207 0 -0.025555126433217966 0.0017238027496482011 0 -0.026322813776460705 0.0032161212344820117 0 -0.024088686309442959 0.0023522022107551133 0 -0.026322813776460705 0.0032161212344820117 0 -0.024641902209995382 0.0048969835634307792 0 -0.024088686309442959 0.0023522022107551133 0 -0.026322813776460705 0.0032161212344820117 0 -0.024641902209995382 0.0048969835634307792 0 -0.025905467530569909 0.0054662965864873785 0 -0.026387355760772547 0.0027157224005064304 0 -0.027996069040887639 -0.0011430427846415316 0 -0.026736936709053832 0.00011527575681394994 0 -0.027996069040887639 -0.0011430427846415316 0 -0.026736936709053832 0.00011527575681394994 0 -0.026569820612727148 -0.0013817901740564964 0 -0.029449229196238151 -0.0063176620429492075 0 -0.029662983433180367 -0.0062134352323764972 0 -0.029618241971657203 -0.0064907663593327366 0 -0.026736936709053832 0.00011527575681394994 0 -0.023870656920297422 0.0042268154479888015 0 -0.024464195847088904 0.0044250594136838114 0 -0.024088686309442959 0.0023522022107551133 0 -0.022677150281273605 0.0036147191679488716 0 -0.022568857275235544 -0.00013919576010149794 0 -0.026569820612727148 -0.0013817901740564964 0 -0.022212301938662957 0.0018986654211100725 0 -0.020983377109624217 0.0027905579254365641 0 -0.022677150281273605 0.0036147191679488716 0 -0.022212301938662957 0.0018986654211100725 0 -0.024088686309442959 0.0023522022107551133 0 -0.022677150281273605 0.0036147191679488716 0 -0.029889073216606922 -0.0063563999148712564 0 -0.029662983433180367 -0.0062134352323764972 0 -0.029739726016365542 -0.0065102470599195071 0 -0.029662983433180367 -0.0062134352323764972 0 -0.029739726016365542 -0.0065102470599195071 0 -0.029618241971657203 -0.0064907663593327366 0 -0.029739726016365542 -0.0065102470599195071 0 -0.029671790693510166 -0.0066081960872020088 0 -0.029696598446542429 -0.0067069996582519659 0 -0.029739726016365542 -0.0065102470599195071 0 -0.029671790693510166 -0.0066081960872020088 0 -0.029618241971657203 -0.0064907663593327366 0 -0.029892425394695995 -0.0066018900443451231 0 -0.029739726016365542 -0.0065102470599195071 0 -0.029696598446542429 -0.0067069996582519659 0 -0.029342973949996704 -0.0071449333936440982 0 -0.02952557437641825 -0.0077747859236932289 0 -0.029671790693510166 -0.0066081960872020088 0 -0.029696598446542429 -0.0067069996582519659 0 -0.029613141331621233 -0.0067012292278944728 0 -0.03040831255202428 -0.0072574302340724607 0 -0.029633020485008908 -0.0071767097063313821 0 -0.029613141331621233 -0.0067012292278944728 0 -0.03040831255202428 -0.0072574302340724607 0 -0.029633020485008908 -0.0071767097063313821 0 -0.029531623033855394 -0.0076832363904828869 0 -0.029342973949996704 -0.0071449333936440982 0 -0.029808076596155302 -0.0068007684558565691 0 -0.029633020485008908 -0.0071767097063313821 0 -0.029395964284880709 -0.0075908810028443383 0 -0.029531623033855394 -0.0076832363904828869 0 -0.029633020485008908 -0.0071767097063313821 0 -0.029613141331621233 -0.0067012292278944728 0 -0.029394832855261326 -0.0066747493121091751 0 -0.029613141331621233 -0.0067012292278944728 0 -0.029618241971657203 -0.0064907663593327366 0 -0.029394832855261326 -0.0066747493121091751 0 -0.029449229196238151 -0.0063176620429492075 0 -0.029618241971657203 -0.0064907663593327366 0 -0.029394832855261326 -0.0066747493121091751 0 -0.029671790693510166 -0.0066081960872020088 0 -0.029613141331621233 -0.0067012292278944728 0 -0.029618241971657203 -0.0064907663593327366 0 -0.027996069040887639 -0.0011430427846415316 0 -0.029417964785324175 -0.0083023206406185931 0 -0.02971245142200224 -0.0016438592738903576 0 -0.027390613392413516 -0.0027751263386453584 0 -0.029085997352411633 -0.0053485922891619523 0 -0.026736936709053832 0.00011527575681394994 0 -0.029202770517007728 -0.006769696696728663 0 -0.027390613392413516 -0.0027751263386453584 0 -0.029085997352411633 -0.0053485922891619523 0 -0.02792801115306625 -0.00590956052311637 0 -0.029202770517007728 -0.006769696696728663 0 -0.029447100692021493 -0.0077288477532741146 0 -0.029417964785324175 -0.0083023206406185931 0 -0.029447100692021493 -0.0077288477532741146 0 -0.029085997352411633 -0.0053485922891619523 0 -0.02792801115306625 -0.00590956052311637 0 -0.028457614109593618 -0.0090030827956429603 0 -0.030601983337760416 -0.0088802989844681251 0 -0.031680831462077522 -0.0079556312818379552 0 -0.030451493795004454 -0.0076429126300181028 0 -0.029633020485008908 -0.0071767097063313821 0 -0.029394832855261326 -0.0066747493121091751 0 -0.029395964284880709 -0.0075908810028443383 0 -0.030601983337760416 -0.0088802989844681251 0 -0.031680831462077522 -0.0079556312818379552 0 -0.033039600675428264 -0.009229018302139411 0 -0.027996069040887639 -0.0011430427846415316 0 -0.031516424308932575 -0.0022946196990873834 0 -0.02823977557675722 0.0014494570683314357 0 -0.026166380661441759 0.0026165139409541497 0 -0.030087547405345669 0.0048159455750609583 0 -0.030810307298692819 -0.010109978062643783 0 -0.030601983337760416 -0.0088802989844681251 0 -0.033039600675428264 -0.009229018302139411 0 -0.03199613380291335 -0.0058222102504452474 0 -0.03116597457829591 -0.0060795015091313995 0 -0.031583563676978732 -0.0064185227685318331 0 -0.03116597457829591 -0.0060795015091313995 0 -0.031583563676978732 -0.0064185227685318331 0 -0.030779629881533106 -0.00636531621088405 0 -0.03199613380291335 -0.0058222102504452474 0 -0.031583563676978732 -0.0064185227685318331 0 -0.032381124986423496 -0.0066013503379103783 0 -0.031680831462077522 -0.0079556312818379552 0 -0.032036025203220013 -0.0071631335796034975 0 -0.033137359261618565 -0.0078311647557450809 0 -0.031583563676978732 -0.0064185227685318331 0 -0.032381124986423496 -0.0066013503379103783 0 -0.032036025203220013 -0.0071631335796034975 0 -0.032381124986423496 -0.0066013503379103783 0 -0.032036025203220013 -0.0071631335796034975 0 -0.032903257560263584 -0.0070937440562821238 0 -0.031680831462077522 -0.0079556312818379552 0 -0.032036025203220013 -0.0071631335796034975 0 -0.031299469891103444 -0.0070717618202078012 0 -0.031583563676978732 -0.0064185227685318331 0 -0.032036025203220013 -0.0071631335796034975 0 -0.031299469891103444 -0.0070717618202078012 0 -0.029554149841077765 -0.0078033721843258621 0 -0.029596940857206884 -0.007649854413266057 0 -0.030092718198672212 -0.0070480565464052184 0 -0.031299469891103444 -0.0070717618202078012 0 -0.030451493795004454 -0.0076429126300181028 0 -0.030779629881533106 -0.00636531621088405 0 -0.029447100692021493 -0.0077288477532741146 0 -0.030430640405757728 -0.0066426941740352543 0 -0.031680831462077522 -0.0079556312818379552 0 -0.031299469891103444 -0.0070717618202078012 0 -0.030451493795004454 -0.0076429126300181028 0 -0.029596940857206884 -0.007649854413266057 0 -0.029513163783369448 -0.0074173662116074155 0 -0.029531623033855394 -0.0076832363904828869 0 -0.029395964284880709 -0.0075908810028443383 0 -0.029596940857206884 -0.007649854413266057 0 -0.029531623033855394 -0.0076832363904828869 0 -0.029447100692021493 -0.0077288477532741146 0 -0.029457124311729289 -0.0076908684175708087 0 -0.029596940857206884 -0.007649854413266057 0 -0.030092718198672212 -0.0070480565464052184 0 -0.029513163783369448 -0.0074173662116074155 0 -0.03116597457829591 -0.0060795015091313995 0 -0.030779629881533106 -0.00636531621088405 0 -0.030606231492067489 -0.0057609434558773889 0 -0.030092718198672212 -0.0070480565464052184 0 -0.029338188476117574 -0.0071044977087154982 0 -0.029513163783369448 -0.0074173662116074155 0 -0.030430640405757728 -0.0066426941740352543 0 -0.030595712194964129 -0.0058211617520880689 0 -0.030092718198672212 -0.0070480565464052184 0 -0.029543675453441276 -0.0063793872842598139 0 -0.030606231492067489 -0.0057609434558773889 0 -0.031583563676978732 -0.0064185227685318331 0 -0.031299469891103444 -0.0070717618202078012 0 -0.030779629881533106 -0.00636531621088405 0 -0.029338188476117574 -0.0071044977087154982 0 -0.028717420081165224 -0.006841751275246253 0 -0.029543675453441276 -0.0063793872842598139 0 -0.029338188476117574 -0.0071044977087154982 0 -0.02901447718497285 -0.0074586077252128766 0 -0.028717420081165224 -0.006841751275246253 0 -0.030092718198672212 -0.0070480565464052184 0 -0.029338188476117574 -0.0071044977087154982 0 -0.029543675453441276 -0.0063793872842598139 0 -0.028620175757656109 -0.0081870243757505342 0 -0.029531623033855394 -0.0076832363904828869 0 -0.02901447718497285 -0.0074586077252128766 0 -0.029338188476117574 -0.0071044977087154982 0 -0.029513163783369448 -0.0074173662116074155 0 -0.02901447718497285 -0.0074586077252128766 0 -0.029513163783369448 -0.0074173662116074155 0 -0.029531623033855394 -0.0076832363904828869 0 -0.02901447718497285 -0.0074586077252128766 0 -0.028620175757656109 -0.0081870243757505342 0 -0.028366993124708313 -0.0073411735569820407 0 -0.027469264835602341 -0.0074198362622126942 0 -0.028620175757656109 -0.0081870243757505342 0 -0.02901447718497285 -0.0074586077252128766 0 -0.028366993124708313 -0.0073411735569820407 0 -0.02901447718497285 -0.0074586077252128766 0 -0.028366993124708313 -0.0073411735569820407 0 -0.028717420081165224 -0.006841751275246253 0 -0.028366993124708313 -0.0073411735569820407 0 -0.028717420081165224 -0.006841751275246253 0 -0.028025936669392137 -0.0068274514881375911 0 -0.028717420081165224 -0.006841751275246253 0 -0.02815839641237728 -0.0062507419616585295 0 -0.028025936669392137 -0.0068274514881375911 0 -0.02815839641237728 -0.0062507419616585295 0 -0.028292675482659013 -0.0053973542518305929 0 -0.028988733006747373 -0.0057958871515191371 0 -0.028717420081165224 -0.006841751275246253 0 -0.02815839641237728 -0.0062507419616585295 0 -0.028988733006747373 -0.0057958871515191371 0 -0.028988733006747373 -0.0057958871515191371 0 -0.029776428767174838 -0.0055281057911072103 0 -0.029303778725027863 -0.0045443878292888594 0 -0.028292675482659013 -0.0053973542518305929 0 -0.028988733006747373 -0.0057958871515191371 0 -0.029303778725027863 -0.0045443878292888594 0 -0.028988733006747373 -0.0057958871515191371 0 -0.029543675453441276 -0.0063793872842598139 0 -0.029776428767174838 -0.0055281057911072103 0 -0.028717420081165224 -0.006841751275246253 0 -0.028988733006747373 -0.0057958871515191371 0 -0.029543675453441276 -0.0063793872842598139 0 -0.029543675453441276 -0.0063793872842598139 0 -0.030606231492067489 -0.0057609434558773889 0 -0.029776428767174838 -0.0055281057911072103 0 -0.030606231492067489 -0.0057609434558773889 0 -0.029776428767174838 -0.0055281057911072103 0 -0.030456671611640014 -0.0053120909843910559 0 -0.031450102562550722 -0.0034393303075193364 0 -0.031330424454159643 -0.0030645944347957839 0 -0.030047422247295983 -0.003332841964238002 0 -0.029776428767174838 -0.0055281057911072103 0 -0.030456671611640014 -0.0053120909843910559 0 -0.029303778725027863 -0.0045443878292888594 0 -0.030949599050156873 -0.0043636974216175305 0 -0.029616754851645714 -0.0039150747956756618 0 -0.031450102562550722 -0.0034393303075193364 0 -0.032191840154811198 -0.0030434729444231059 0 -0.03265560661379549 -0.003436430663429186 0 -0.032191840154811198 -0.0030434729444231059 0 -0.032005792337889562 -0.0027740470076842443 0 -0.031330424454159643 -0.0030645944347957839 0 -0.031450102562550722 -0.0034393303075193364 0 -0.032191840154811198 -0.0030434729444231059 0 -0.031330424454159643 -0.0030645944347957839 0 -0.032191840154811198 -0.0030434729444231059 0 -0.032005792337889562 -0.0027740470076842443 0 -0.03277182291274041 -0.0025719953775623326 0 -0.032191840154811198 -0.0030434729444231059 0 -0.03265560661379549 -0.003436430663429186 0 -0.033331601897935187 -0.0029399193850554515 0 -0.032796155360134964 -0.0042835306132056796 0 -0.031450102562550722 -0.0034393303075193364 0 -0.03265560661379549 -0.003436430663429186 0 -0.032442035074460321 -0.0051491298094335902 0 -0.030949599050156873 -0.0043636974216175305 0 -0.03199613380291335 -0.0058222102504452474 0 -0.030606231492067489 -0.0057609434558773889 0 -0.030456671611640014 -0.0053120909843910559 0 -0.03199613380291335 -0.0058222102504452474 0 -0.03116597457829591 -0.0060795015091313995 0 -0.030606231492067489 -0.0057609434558773889 0 -0.026244701799361267 -0.0067055161475505654 0 -0.026035164957688282 -0.006830448555052087 0 -0.02631437300300531 -0.0070884398805086853 0 -0.026244701799361267 -0.0067055161475505654 0 -0.026035164957688282 -0.006830448555052087 0 -0.026305568939401815 -0.0063541374143311199 0 -0.025665344406396094 -0.007108888182277881 0 -0.024947947986527916 -0.007161042055047204 0 -0.025319513438632757 -0.0066404556978717551 0 -0.024174792500215956 -0.0069515897922440735 0 -0.024947947986527916 -0.007161042055047204 0 -0.024860375543122246 -0.0064584882553678164 0 -0.024219344603397971 -0.0075173993257335201 0 -0.024947947986527916 -0.007161042055047204 0 -0.024753926295166283 -0.0078589292455942417 0 -0.024947947986527916 -0.007161042055047204 0 -0.025250270177786791 -0.0076282175743784056 0 -0.024753926295166283 -0.0078589292455942417 0 -0.025665344406396094 -0.007108888182277881 0 -0.024947947986527916 -0.007161042055047204 0 -0.025250270177786791 -0.0076282175743784056 0 -0.025637625238332542 -0.0083924237664467945 0 -0.02459503812053105 -0.0085020168556221801 0 -0.024753926295166283 -0.0078589292455942417 0 -0.025637625238332542 -0.0083924237664467945 0 -0.025250270177786791 -0.0076282175743784056 0 -0.024753926295166283 -0.0078589292455942417 0 -0.026100956444920543 -0.0073666749370573182 0 -0.026035164957688282 -0.006830448555052087 0 -0.02631437300300531 -0.0070884398805086853 0 -0.025637625238332542 -0.0083924237664467945 0 -0.025665344406396094 -0.007108888182277881 0 -0.025250270177786791 -0.0076282175743784056 0 -0.025973696404007044 -0.0082043721068946421 0 -0.025834634800191048 -0.0068602031168625375 0 -0.026438803077422135 -0.0073895499412297882 0 -0.026100956444920543 -0.0073666749370573182 0 -0.02631437300300531 -0.0070884398805086853 0 -0.026438803077422135 -0.0073895499412297882 0 -0.02631437300300531 -0.0070884398805086853 0 -0.026683626388456581 -0.0071074778881063273 0 -0.029342973949996704 -0.0071449333936440982 0 -0.027232454912283804 -0.0072350673591785406 0 -0.02815839641237728 -0.0062507419616585295 0 -0.027373156467557124 -0.0066823903387194317 0 -0.028025936669392137 -0.0068274514881375911 0 -0.027469264835602341 -0.0074198362622126942 0 -0.027373156467557124 -0.0066823903387194317 0 -0.028025936669392137 -0.0068274514881375911 0 -0.028366993124708313 -0.0073411735569820407 0 -0.027469264835602341 -0.0074198362622126942 0 -0.028025936669392137 -0.0068274514881375911 0 -0.027232454912283804 -0.0072350673591785406 0 -0.027387349774987101 -0.0068501954547181537 0 -0.026210946199244908 -0.0067449063223786474 0 -0.027232454912283804 -0.0072350673591785406 0 -0.027403149272661236 -0.0075408910200312441 0 -0.027373156467557124 -0.0066823903387194317 0 -0.026792922812012572 -0.0064916762229582075 0 -0.026244701799361267 -0.0067055161475505654 0 -0.027403149272661236 -0.0075408910200312441 0 -0.026792922812012572 -0.0064916762229582075 0 -0.026244701799361267 -0.0067055161475505654 0 -0.02631437300300531 -0.0070884398805086853 0 -0.026683626388456581 -0.0071074778881063273 0 -0.026244701799361267 -0.0067055161475505654 0 -0.026792922812012572 -0.0064916762229582075 0 -0.026305568939401815 -0.0063541374143311199 0 -0.027373156467557124 -0.0066823903387194317 0 -0.026792922812012572 -0.0064916762229582075 0 -0.027478665375945083 -0.0060214890698262642 0 -0.026792922812012572 -0.0064916762229582075 0 -0.027478665375945083 -0.0060214890698262642 0 -0.026772507179892862 -0.0058392789524817218 0 -0.026792922812012572 -0.0064916762229582075 0 -0.026772507179892862 -0.0058392789524817218 0 -0.026305568939401815 -0.0063541374143311199 0 -0.02815839641237728 -0.0062507419616585295 0 -0.028292675482659013 -0.0053973542518305929 0 -0.027478665375945083 -0.0060214890698262642 0 -0.02815839641237728 -0.0062507419616585295 0 -0.027373156467557124 -0.0066823903387194317 0 -0.027478665375945083 -0.0060214890698262642 0 -0.027478665375945083 -0.0060214890698262642 0 -0.027511666775152686 -0.0052419427186334126 0 -0.026772507179892862 -0.0058392789524817218 0 -0.028292675482659013 -0.0053973542518305929 0 -0.027478665375945083 -0.0060214890698262642 0 -0.027511666775152686 -0.0052419427186334126 0 -0.027511666775152686 -0.0052419427186334126 0 -0.026772507179892862 -0.0058392789524817218 0 -0.026600189469259534 -0.0051492966632306304 0 -0.026772507179892862 -0.0058392789524817218 0 -0.025814849723425039 -0.0058152537902496568 0 -0.026600189469259534 -0.0051492966632306304 0 -0.025814849723425039 -0.0058152537902496568 0 -0.025527396401693631 -0.0051288821797420359 0 -0.026600189469259534 -0.0051492966632306304 0 -0.025834634800191048 -0.0068602031168625375 0 -0.025818239073674167 -0.0058957957897396258 0 -0.026035164957688282 -0.006830448555052087 0 -0.025814849723425039 -0.0058152537902496568 0 -0.026305568939401815 -0.0063541374143311199 0 -0.025665344406396094 -0.007108888182277881 0 -0.025814849723425039 -0.0058152537902496568 0 -0.025319513438632757 -0.0066404556978717551 0 -0.026772507179892862 -0.0058392789524817218 0 -0.025814849723425039 -0.0058152537902496568 0 -0.026305568939401815 -0.0063541374143311199 0 -0.025814849723425039 -0.0058152537902496568 0 -0.024860375543122246 -0.0064584882553678164 0 -0.025319513438632757 -0.0066404556978717551 0 -0.024947947986527916 -0.007161042055047204 0 -0.024860375543122246 -0.0064584882553678164 0 -0.025319513438632757 -0.0066404556978717551 0 -0.024729408402980196 -0.0057293538185553905 0 -0.025814849723425039 -0.0058152537902496568 0 -0.024860375543122246 -0.0064584882553678164 0 -0.024729408402980196 -0.0057293538185553905 0 -0.025814849723425039 -0.0058152537902496568 0 -0.025527396401693631 -0.0051288821797420359 0 -0.025527396401693631 -0.0051288821797420359 0 -0.025227908942717783 -0.004562216035509656 0 -0.024445606497829502 -0.0051401212630759413 0 -0.024729408402980196 -0.0057293538185553905 0 -0.025527396401693631 -0.0051288821797420359 0 -0.024445606497829502 -0.0051401212630759413 0 -0.025527396401693631 -0.0051288821797420359 0 -0.025227908942717783 -0.004562216035509656 0 -0.026389914401552503 -0.0044411340150988451 0 -0.025227908942717783 -0.004562216035509656 0 -0.026389914401552503 -0.0044411340150988451 0 -0.026293136185566182 -0.0034516793242126897 0 -0.025527396401693631 -0.0051288821797420359 0 -0.026389914401552503 -0.0044411340150988451 0 -0.026600189469259534 -0.0051492966632306304 0 -0.027511666775152686 -0.0052419427186334126 0 -0.026600189469259534 -0.0051492966632306304 0 -0.027416861093943867 -0.0043985844475527974 0 -0.026389914401552503 -0.0044411340150988451 0 -0.026600189469259534 -0.0051492966632306304 0 -0.027416861093943867 -0.0043985844475527974 0 -0.027511666775152686 -0.0052419427186334126 0 -0.027416861093943867 -0.0043985844475527974 0 -0.028244254427595206 -0.0046013543753322924 0 -0.027416861093943867 -0.0043985844475527974 0 -0.027213373464551199 -0.0037629020447015964 0 -0.028352622024833438 -0.0036547231748202194 0 -0.026389914401552503 -0.0044411340150988451 0 -0.027416861093943867 -0.0043985844475527974 0 -0.027213373464551199 -0.0037629020447015964 0 -0.026389914401552503 -0.0044411340150988451 0 -0.027213373464551199 -0.0037629020447015964 0 -0.026293136185566182 -0.0034516793242126897 0 -0.027213373464551199 -0.0037629020447015964 0 -0.028352622024833438 -0.0036547231748202194 0 -0.027699950458898712 -0.003478763104600829 0 -0.027213373464551199 -0.0037629020447015964 0 -0.027137007516461246 -0.0039215856544792165 0 -0.027699950458898712 -0.003478763104600829 0 -0.027137007516461246 -0.0039215856544792165 0 -0.027699950458898712 -0.003478763104600829 0 -0.027174733256585652 -0.003802016368277903 0 -0.027137007516461246 -0.0039215856544792165 0 -0.026005360597318086 -0.0058049386214099998 0 -0.026555784985306318 -0.0047320509441334214 0 -0.027008714252294556 -0.0040347237751302296 0 -0.026085741524892778 -0.0045982159559827618 0 -0.027213373464551199 -0.0037629020447015964 0 -0.027137007516461246 -0.0039215856544792165 0 -0.026293136185566182 -0.0034516793242126897 0 -0.026005360597318086 -0.0058049386214099998 0 -0.025998872485246183 -0.0050999917594073772 0 -0.026555784985306318 -0.0047320509441334214 0 -0.026005360597318086 -0.0058049386214099998 0 -0.025175963832196467 -0.0055036308629170926 0 -0.025998872485246183 -0.0050999917594073772 0 -0.026005360597318086 -0.0058049386214099998 0 -0.025175963832196467 -0.0055036308629170926 0 -0.024347358006449247 -0.0060506232860571612 0 -0.026085741524892778 -0.0045982159559827618 0 -0.024615029228857117 -0.0049539881829990199 0 -0.025227908942717783 -0.004562216035509656 0 -0.026293136185566182 -0.0034516793242126897 0 -0.024738543587498694 -0.0039081990968853611 0 -0.031095620387412537 -0.0024426421434422824 0 -0.03184487769962277 -0.0022598232432778464 0 -0.031487026196141694 -0.002179779543554269 0 -0.031095620387412537 -0.0024426421434422824 0 -0.031310564299228495 -0.0025151284243132136 0 -0.03184487769962277 -0.0022598232432778464 0 -0.031310564299228495 -0.0025151284243132136 0 -0.03184487769962277 -0.0022598232432778464 0 -0.031772985825528559 -0.0024711820713436317 0 -0.031310564299228495 -0.0025151284243132136 0 -0.031772985825528559 -0.0024711820713436317 0 -0.031339536936176526 -0.0026738711249208093 0 -0.03184487769962277 -0.0022598232432778464 0 -0.031772985825528559 -0.0024711820713436317 0 -0.032356589461642521 -0.0022178030802838338 0 -0.032231770141134743 -0.0024647879332246221 0 -0.031772985825528559 -0.0024711820713436317 0 -0.032356589461642521 -0.0022178030802838338 0 -0.032231770141134743 -0.0024647879332246221 0 -0.031772985825528559 -0.0024711820713436317 0 -0.031591078435597407 -0.0027374031463214387 0 -0.032231770141134743 -0.0024647879332246221 0 -0.032005792337889562 -0.0027740470076842443 0 -0.031591078435597407 -0.0027374031463214387 0 -0.032231770141134743 -0.0024647879332246221 0 -0.032005792337889562 -0.0027740470076842443 0 -0.03277182291274041 -0.0025719953775623326 0 -0.032005792337889562 -0.0027740470076842443 0 -0.031591078435597407 -0.0027374031463214387 0 -0.031330424454159643 -0.0030645944347957839 0 -0.031772985825528559 -0.0024711820713436317 0 -0.031591078435597407 -0.0027374031463214387 0 -0.031339536936176526 -0.0026738711249208093 0 -0.031591078435597407 -0.0027374031463214387 0 -0.031339536936176526 -0.0026738711249208093 0 -0.030878441826221091 -0.0029454664188036956 0 -0.030878441826221091 -0.0029454664188036956 0 -0.031330424454159643 -0.0030645944347957839 0 -0.030047422247295983 -0.003332841964238002 0 -0.031591078435597407 -0.0027374031463214387 0 -0.030878441826221091 -0.0029454664188036956 0 -0.031330424454159643 -0.0030645944347957839 0 -0.030878441826221091 -0.0029454664188036956 0 -0.030600173250147789 -0.0027909904942066081 0 -0.030047422247295983 -0.003332841964238002 0 -0.031310564299228495 -0.0025151284243132136 0 -0.031339536936176526 -0.0026738711249208093 0 -0.030600173250147789 -0.0027909904942066081 0 -0.031339536936176526 -0.0026738711249208093 0 -0.030878441826221091 -0.0029454664188036956 0 -0.030600173250147789 -0.0027909904942066081 0 -0.031095620387412537 -0.0024426421434422824 0 -0.030600173250147789 -0.0027909904942066081 0 -0.030572510730319497 -0.0025096371573198346 0 -0.031095620387412537 -0.0024426421434422824 0 -0.031310564299228495 -0.0025151284243132136 0 -0.030600173250147789 -0.0027909904942066081 0 -0.030600173250147789 -0.0027909904942066081 0 -0.029727125501425023 -0.0029807210185085423 0 -0.030572510730319497 -0.0025096371573198346 0 -0.030600173250147789 -0.0027909904942066081 0 -0.030047422247295983 -0.003332841964238002 0 -0.029727125501425023 -0.0029807210185085423 0 -0.030047422247295983 -0.003332841964238002 0 -0.028352622024833438 -0.0036547231748202194 0 -0.029727125501425023 -0.0029807210185085423 0 -0.029616754851645714 -0.0039150747956756618 0 -0.028452339736202654 -0.0035529056001126331 0 -0.028292675482659013 -0.0053973542518305929 0 -0.027511666775152686 -0.0052419427186334126 0 -0.028244254427595206 -0.0046013543753322924 0 -0.028292675482659013 -0.0053973542518305929 0 -0.029303778725027863 -0.0045443878292888594 0 -0.028244254427595206 -0.0046013543753322924 0 -0.027416861093943867 -0.0043985844475527974 0 -0.028244254427595206 -0.0046013543753322924 0 -0.028352622024833438 -0.0036547231748202194 0 -0.029303778725027863 -0.0045443878292888594 0 -0.028244254427595206 -0.0046013543753322924 0 -0.028352622024833438 -0.0036547231748202194 0 -0.028352622024833438 -0.0036547231748202194 0 -0.027699950458898712 -0.003478763104600829 0 -0.028791708507611733 -0.0030450627355938036 0 -0.027699950458898712 -0.003478763104600829 0 -0.028128516950652799 -0.0029597888601481299 0 -0.027174733256585652 -0.003802016368277903 0 -0.027699950458898712 -0.003478763104600829 0 -0.028791708507611733 -0.0030450627355938036 0 -0.028128516950652799 -0.0029597888601481299 0 -0.029208174697363434 -0.0044978978527220118 0 -0.026178461944672576 -0.0032967286605876003 0 -0.024561789729339978 -0.0038137882304641112 0 -0.024789882732786938 -0.0040411095843931625 0 -0.024985758001101494 -0.0040499796773991415 0 -0.028791708507611733 -0.0030450627355938036 0 -0.029997299037254562 -0.0023992544028524662 0 -0.028128516950652799 -0.0029597888601481299 0 -0.029208174697363434 -0.0044978978527220118 0 -0.025506434294196134 -0.0073447362759772056 0 -0.028791708507611733 -0.0030450627355938036 0 -0.029727125501425023 -0.0029807210185085423 0 -0.029997299037254562 -0.0023992544028524662 0 -0.028352622024833438 -0.0036547231748202194 0 -0.028791708507611733 -0.0030450627355938036 0 -0.029727125501425023 -0.0029807210185085423 0 -0.029727125501425023 -0.0029807210185085423 0 -0.030572510730319497 -0.0025096371573198346 0 -0.029997299037254562 -0.0023992544028524662 0 -0.030572510730319497 -0.0025096371573198346 0 -0.029997299037254562 -0.0023992544028524662 0 -0.031487026196141694 -0.002179779543554269 0 -0.027860264804855209 -0.012242275344085082 0 -0.027786971030449858 -0.010543773316503798 0 -0.026341987728627371 -0.010213704050819722 0 -0.027860264804855209 -0.012242275344085082 0 -0.029191354255256614 -0.011079817518507533 0 -0.027786971030449858 -0.010543773316503798 0 -0.027860264804855209 -0.012242275344085082 0 -0.02966948779237576 -0.012463067939321885 0 -0.029191354255256614 -0.011079817518507533 0 -0.02966948779237576 -0.012463067939321885 0 -0.029191354255256614 -0.011079817518507533 0 -0.030513093307946656 -0.011946057613310903 0 -0.029191354255256614 -0.011079817518507533 0 -0.030513093307946656 -0.011946057613310903 0 -0.030516145730242045 -0.010700414846449102 0 -0.02966948779237576 -0.012463067939321885 0 -0.030513093307946656 -0.011946057613310903 0 -0.030750433099187974 -0.012933414366530227 0 -0.027860264804855209 -0.012242275344085082 0 -0.02966948779237576 -0.012463067939321885 0 -0.030596439941035874 -0.014140523800018599 0 -0.029208174697363434 -0.0044978978527220118 0 -0.03318064329181606 -0.00095560520529949116 0 -0.029208174697363434 -0.0044978978527220118 0 -0.032860645274924043 -0.0075372950609521629 0 -0.02966948779237576 -0.012463067939321885 0 -0.030750433099187974 -0.012933414366530227 0 -0.030596439941035874 -0.014140523800018599 0 -0.03361349809687407 -0.0001977239032758494 0 -0.034332804124366033 -0.00032650857072429235 0 -0.034253199577833876 -0.00043182619348973222 0 -0.031095620387412537 -0.0024426421434422824 0 -0.030572510730319497 -0.0025096371573198346 0 -0.031487026196141694 -0.002179779543554269 0 -0.034332804124366033 -0.00032650857072429235 0 -0.034253199577833876 -0.00043182619348973222 0 -0.034663866646382331 -0.00051678638665806189 0 -0.029549597324462558 -0.0082676759128157817 0 -0.029054694322615537 -0.007198393548708131 0 -0.030707700567142029 -0.0076955274334854157 0 -0.029549597324462558 -0.0082676759128157817 0 -0.030680536498749092 -0.0084963451978527088 0 -0.030707700567142029 -0.0076955274334854157 0 -0.029549597324462558 -0.0082676759128157817 0 -0.028383532600762342 -0.0084850448964885385 0 -0.029054694322615537 -0.007198393548708131 0 -0.029549597324462558 -0.0082676759128157817 0 -0.029409404063170826 -0.0095717690059112862 0 -0.028383532600762342 -0.0084850448964885385 0 -0.029549597324462558 -0.0082676759128157817 0 -0.030625661798650745 -0.0094276399544729259 0 -0.030680536498749092 -0.0084963451978527088 0 -0.029549597324462558 -0.0082676759128157817 0 -0.029409404063170826 -0.0095717690059112862 0 -0.030625661798650745 -0.0094276399544729259 0 -0.030516145730242045 -0.010700414846449102 0 -0.029409404063170826 -0.0095717690059112862 0 -0.030625661798650745 -0.0094276399544729259 0 -0.029191354255256614 -0.011079817518507533 0 -0.030516145730242045 -0.010700414846449102 0 -0.029409404063170826 -0.0095717690059112862 0 -0.029191354255256614 -0.011079817518507533 0 -0.029409404063170826 -0.0095717690059112862 0 -0.028250208422295885 -0.0096685831808298525 0 -0.029409404063170826 -0.0095717690059112862 0 -0.028250208422295885 -0.0096685831808298525 0 -0.028383532600762342 -0.0084850448964885385 0 -0.029191354255256614 -0.011079817518507533 0 -0.028250208422295885 -0.0096685831808298525 0 -0.027786971030449858 -0.010543773316503798 0 -0.028250208422295885 -0.0096685831808298525 0 -0.027786971030449858 -0.010543773316503798 0 -0.027221074944549326 -0.0094834588469221177 0 -0.028250208422295885 -0.0096685831808298525 0 -0.027221074944549326 -0.0094834588469221177 0 -0.027362155883875368 -0.0084458141232874508 0 -0.028250208422295885 -0.0096685831808298525 0 -0.027362155883875368 -0.0084458141232874508 0 -0.028383532600762342 -0.0084850448964885385 0 -0.028383532600762342 -0.0084850448964885385 0 -0.027501399944437885 -0.0074542081102300616 0 -0.029054694322615537 -0.007198393548708131 0 -0.027362155883875368 -0.0084458141232874508 0 -0.028383532600762342 -0.0084850448964885385 0 -0.027501399944437885 -0.0074542081102300616 0 -0.027362155883875368 -0.0084458141232874508 0 -0.026480849551617489 -0.0074127747105019069 0 -0.027501399944437885 -0.0074542081102300616 0 -0.026480849551617489 -0.0074127747105019069 0 -0.025987413456289021 -0.007514530156713415 0 -0.025859224278854877 -0.0067379445739247593 0 -0.025987413456289021 -0.007514530156713415 0 -0.026469253401796324 -0.0084774992575314505 0 -0.025422270367025393 -0.0080704857144523537 0 -0.026480849551617489 -0.0074127747105019069 0 -0.025987413456289021 -0.007514530156713415 0 -0.026469253401796324 -0.0084774992575314505 0 -0.027362155883875368 -0.0084458141232874508 0 -0.026480849551617489 -0.0074127747105019069 0 -0.026469253401796324 -0.0084774992575314505 0 -0.027221074944549326 -0.0094834588469221177 0 -0.026469253401796324 -0.0084774992575314505 0 -0.026341987728627371 -0.010213704050819722 0 -0.027221074944549326 -0.0094834588469221177 0 -0.027362155883875368 -0.0084458141232874508 0 -0.026469253401796324 -0.0084774992575314505 0 -0.027786971030449858 -0.010543773316503798 0 -0.027221074944549326 -0.0094834588469221177 0 -0.026341987728627371 -0.010213704050819722 0 -0.024789882732786938 -0.0040411095843931625 0 -0.025206908576964483 -0.0046456723478404916 0 -0.024985758001101494 -0.0040499796773991415 0 -0.025506434294196134 -0.0073447362759772056 0 -0.025450720014390121 -0.0064071295253936801 0 -0.026469253401796324 -0.0084774992575314505 0 -0.026341987728627371 -0.010213704050819722 0 -0.025422270367025393 -0.0080704857144523537 0 -0.026178461944672576 -0.0032967286605876003 0 -0.026802587549794518 -0.0046280138377358809 0 -0.028128516950652799 -0.0029597888601481299 0 -0.027174733256585652 -0.003802016368277903 0 -0.026434403364878598 -0.0045965895179365364 0 -0.025206908576964483 -0.0046456723478404916 0 -0.024985758001101494 -0.0040499796773991415 0 -0.026434403364878598 -0.0045965895179365364 0 -0.025450720014390121 -0.0064071295253936801 0 -0.025830852924856075 -0.0061726430154467743 0 -0.025987413456289021 -0.007514530156713415 0 -0.025422270367025393 -0.0080704857144523537 0 -0.025716945079155132 -0.0067564310428818867 0 -0.025987413456289021 -0.007514530156713415 0 -0.025716945079155132 -0.0067564310428818867 0 -0.025859224278854877 -0.0067379445739247593 0 -0.025422270367025393 -0.0080704857144523537 0 -0.025716945079155132 -0.0067564310428818867 0 -0.025862047356009249 -0.0059392881853713277 0 -0.025716945079155132 -0.0067564310428818867 0 -0.025799322528251609 -0.0063008701440164898 0 -0.025862047356009249 -0.0059392881853713277 0 -0.025716945079155132 -0.0067564310428818867 0 -0.025859224278854877 -0.0067379445739247593 0 -0.025799322528251609 -0.0063008701440164898 0 -0.025859224278854877 -0.0067379445739247593 0 -0.025799322528251609 -0.0063008701440164898 0 -0.025629967476363442 -0.0064460823901705743 0 -0.025457425459358019 -0.0068819291718643693 0 -0.025629967476363442 -0.0064460823901705743 0 -0.02617368926990182 -0.0065925454349230498 0 -0.025799322528251609 -0.0063008701440164898 0 -0.025629967476363442 -0.0064460823901705743 0 -0.02617368926990182 -0.0065925454349230498 0 -0.025629967476363442 -0.0064460823901705743 0 -0.025500813633051532 -0.0061908513739867216 0 -0.026226830328584982 -0.0066562822744296495 0 -0.025457425459358019 -0.0068819291718643693 0 -0.025629967476363442 -0.0064460823901705743 0 -0.025500813633051532 -0.0061908513739867216 0 -0.025859224278854877 -0.0067379445739247593 0 -0.025629967476363442 -0.0064460823901705743 0 -0.026226830328584982 -0.0066562822744296495 0 -0.026480849551617489 -0.0074127747105019069 0 -0.025859224278854877 -0.0067379445739247593 0 -0.026226830328584982 -0.0066562822744296495 0 -0.026480849551617489 -0.0074127747105019069 0 -0.026226830328584982 -0.0066562822744296495 0 -0.027501399944437885 -0.0074542081102300616 0 -0.027501399944437885 -0.0074542081102300616 0 -0.027822607013440137 -0.0059907802863753473 0 -0.029054694322615537 -0.007198393548708131 0 -0.026226830328584982 -0.0066562822744296495 0 -0.027501399944437885 -0.0074542081102300616 0 -0.027822607013440137 -0.0059907802863753473 0 -0.025500813633051532 -0.0061908513739867216 0 -0.027822607013440137 -0.0059907802863753473 0 -0.027281889458468024 -0.0045498485397587485 0 -0.025500813633051532 -0.0061908513739867216 0 -0.026226830328584982 -0.0066562822744296495 0 -0.027822607013440137 -0.0059907802863753473 0 -0.025534527774771658 -0.0060810822045738499 0 -0.025623726683667625 -0.0060277834796174153 0 -0.031938443127966155 -0.00923496640346343 0 -0.027529562636035638 -0.007390915839032214 0 -0.027822607013440137 -0.0059907802863753473 0 -0.030538832407180447 -0.0058734581689150684 0 -0.02874082544757673 -0.0036111518253403776 0 -0.029054694322615537 -0.007198393548708131 0 -0.030707700567142029 -0.0076955274334854157 0 -0.030538832407180447 -0.0058734581689150684 0 -0.027822607013440137 -0.0059907802863753473 0 -0.029054694322615537 -0.007198393548708131 0 -0.030538832407180447 -0.0058734581689150684 0 -0.026179664842624434 -0.0050781872997163885 0 -0.025815554043187423 -0.0049671780453873372 0 -0.026627500629052416 -0.0055844064611377427 0 -0.026382678771309932 -0.0051514498852831062 0 -0.026179664842624434 -0.0050781872997163885 0 -0.026627500629052416 -0.0055844064611377427 0 -0.026179664842624434 -0.0050781872997163885 0 -0.025815554043187423 -0.0049671780453873372 0 -0.025902216700550228 -0.0048908707256701267 0 -0.026184040935503236 -0.0049314379248559647 0 -0.026179664842624434 -0.0050781872997163885 0 -0.025902216700550228 -0.0048908707256701267 0 -0.026184040935503236 -0.0049314379248559647 0 -0.026382678771309932 -0.0051514498852831062 0 -0.026179664842624434 -0.0050781872997163885 0 -0.026184040935503236 -0.0049314379248559647 0 -0.026382678771309932 -0.0051514498852831062 0 -0.02649095532522288 -0.004952121814539313 0 -0.024352294156123881 -0.0062315238497406234 0 -0.024522380973427984 -0.0074664986581637312 0 -0.023103375675231245 -0.0082394863551671586 0 -0.022875196328298594 -0.0076791941141716247 0 -0.023261430524704016 -0.0087632150848024216 0 -0.02578279296902641 -0.0046351648418891424 0 -0.025815554043187423 -0.0049671780453873372 0 -0.025819106497341513 -0.0062430599538750072 0 -0.023103375675231245 -0.0082394863551671586 0 -0.022875196328298594 -0.0076791941141716247 0 -0.023293305965680949 -0.0080465442591260636 0 -0.023103375675231245 -0.0082394863551671586 0 -0.023194680521492438 -0.0084787935641823606 0 -0.023293305965680949 -0.0080465442591260636 0 -0.02578279296902641 -0.0046351648418891424 0 -0.025815554043187423 -0.0049671780453873372 0 -0.025902216700550228 -0.0048908707256701267 0 -0.025902216700550228 -0.0048908707256701267 0 -0.025175963832196467 -0.0055036308629170926 0 -0.025998872485246183 -0.0050999917594073772 0 -0.02578279296902641 -0.0046351648418891424 0 -0.025902216700550228 -0.0048908707256701267 0 -0.025175963832196467 -0.0055036308629170926 0 -0.02578279296902641 -0.0046351648418891424 0 -0.025175963832196467 -0.0055036308629170926 0 -0.024021594637057279 -0.0058479267054351277 0 -0.026184040935503236 -0.0049314379248559647 0 -0.025902216700550228 -0.0048908707256701267 0 -0.025998872485246183 -0.0050999917594073772 0 -0.026184040935503236 -0.0049314379248559647 0 -0.025998872485246183 -0.0050999917594073772 0 -0.026396761079366116 -0.0048595592614944019 0 -0.026184040935503236 -0.0049314379248559647 0 -0.026396761079366116 -0.0048595592614944019 0 -0.02649095532522288 -0.004952121814539313 0 -0.025998872485246183 -0.0050999917594073772 0 -0.026396761079366116 -0.0048595592614944019 0 -0.026555784985306318 -0.0047320509441334214 0 -0.027137007516461246 -0.0039215856544792165 0 -0.026555784985306318 -0.0047320509441334214 0 -0.026784967862951359 -0.0043633833496649075 0 -0.026555784985306318 -0.0047320509441334214 0 -0.026784967862951359 -0.0043633833496649075 0 -0.026591880742363391 -0.0047114959718833659 0 -0.026784967862951359 -0.0043633833496649075 0 -0.026591880742363391 -0.0047114959718833659 0 -0.026609246308661468 -0.0047827025452306269 0 -0.026396761079366116 -0.0048595592614944019 0 -0.026591880742363391 -0.0047114959718833659 0 -0.02649095532522288 -0.004952121814539313 0 -0.026591880742363391 -0.0047114959718833659 0 -0.02649095532522288 -0.004952121814539313 0 -0.026609246308661468 -0.0047827025452306269 0 -0.026396761079366116 -0.0048595592614944019 0 -0.026555784985306318 -0.0047320509441334214 0 -0.026591880742363391 -0.0047114959718833659 0 -0.027137007516461246 -0.0039215856544792165 0 -0.026784967862951359 -0.0043633833496649075 0 -0.027174733256585652 -0.003802016368277903 0 -0.026784967862951359 -0.0043633833496649075 0 -0.027174733256585652 -0.003802016368277903 0 -0.026434403364878598 -0.0045965895179365364 0 -0.026784967862951359 -0.0043633833496649075 0 -0.026434403364878598 -0.0045965895179365364 0 -0.026609246308661468 -0.0047827025452306269 0 -0.025206908576964483 -0.0046456723478404916 0 -0.026434403364878598 -0.0045965895179365364 0 -0.025862047356009249 -0.0059392881853713277 0 -0.025862047356009249 -0.0059392881853713277 0 -0.026534521561836125 -0.0053007742550464426 0 -0.026440785424419633 -0.0056837858092480707 0 -0.026434403364878598 -0.0045965895179365364 0 -0.025862047356009249 -0.0059392881853713277 0 -0.026534521561836125 -0.0053007742550464426 0 -0.02649095532522288 -0.004952121814539313 0 -0.026609246308661468 -0.0047827025452306269 0 -0.026534521561836125 -0.0053007742550464426 0 -0.026434403364878598 -0.0045965895179365364 0 -0.026609246308661468 -0.0047827025452306269 0 -0.026534521561836125 -0.0053007742550464426 0 -0.026534521561836125 -0.0053007742550464426 0 -0.02651970613759384 -0.0053149900554101395 0 -0.026440785424419633 -0.0056837858092480707 0 -0.02649095532522288 -0.004952121814539313 0 -0.026534521561836125 -0.0053007742550464426 0 -0.02651970613759384 -0.0053149900554101395 0 -0.026382678771309932 -0.0051514498852831062 0 -0.02649095532522288 -0.004952121814539313 0 -0.02651970613759384 -0.0053149900554101395 0 -0.02651970613759384 -0.0053149900554101395 0 -0.026440785424419633 -0.0056837858092480707 0 -0.026627500629052416 -0.0055844064611377427 0 -0.026627500629052416 -0.0055844064611377427 0 -0.026259553826521065 -0.0060366316694731069 0 -0.02617368926990182 -0.0065925454349230498 0 -0.026382678771309932 -0.0051514498852831062 0 -0.02651970613759384 -0.0053149900554101395 0 -0.026627500629052416 -0.0055844064611377427 0 -0.025460457162467882 -0.0067437822315710725 0 -0.025415284791093652 -0.0077094530000056333 0 -0.025819106497341513 -0.0062430599538750072 0 -0.026440785424419633 -0.0056837858092480707 0 -0.026627500629052416 -0.0055844064611377427 0 -0.026259553826521065 -0.0060366316694731069 0 -0.025799322528251609 -0.0063008701440164898 0 -0.025862047356009249 -0.0059392881853713277 0 -0.026259553826521065 -0.0060366316694731069 0 -0.025862047356009249 -0.0059392881853713277 0 -0.026440785424419633 -0.0056837858092480707 0 -0.026259553826521065 -0.0060366316694731069 0 -0.025799322528251609 -0.0063008701440164898 0 -0.026259553826521065 -0.0060366316694731069 0 -0.02617368926990182 -0.0065925454349230498 0 -0.024759572439238195 -0.0081587095717600821 0 -0.025415284791093652 -0.0077094530000056333 0 -0.024826783320814838 -0.0084818715479446933 0 -0.025460457162467882 -0.0067437822315710725 0 -0.024759572439238195 -0.0081587095717600821 0 -0.025415284791093652 -0.0077094530000056333 0 -0.02471538961720407 -0.0083058551670357385 0 -0.024812468144268979 -0.0084664263668170932 0 -0.026005282715458034 -0.0061161848776303896 0 -0.025463378010056353 -0.0073584178565519812 0 -0.024083214409916575 -0.009013195175470343 0 -0.023923544457529561 -0.0088232275530831048 0 -0.024351562307941575 -0.0086940746925493213 0 -0.024083214409916575 -0.009013195175470343 0 -0.023593630545936651 -0.0088759474638821344 0 -0.023923544457529561 -0.0088232275530831048 0 -0.023540388766416471 -0.0088702814669218213 0 -0.023593630545936651 -0.0088759474638821344 0 -0.023923544457529561 -0.0088232275530831048 0 -0.023540388766416471 -0.0088702814669218213 0 -0.023593630545936651 -0.0088759474638821344 0 -0.023327813446648856 -0.0087817184403139979 0 -0.025924685202141789 -0.0051281309019575111 0 -0.026005282715458034 -0.0061161848776303896 0 -0.02471538961720407 -0.0083058551670357385 0 -0.024522380973427984 -0.0074664986581637312 0 -0.024083214409916575 -0.009013195175470343 0 -0.023593630545936651 -0.0088759474638821344 0 -0.023261430524704016 -0.0087632150848024216 0 -0.025815554043187423 -0.0049671780453873372 0 -0.025460457162467882 -0.0067437822315710725 0 -0.025819106497341513 -0.0062430599538750072 0 -0.023593630545936651 -0.0088759474638821344 0 -0.023261430524704016 -0.0087632150848024216 0 -0.023327813446648856 -0.0087817184403139979 0 -0.023194680521492438 -0.0084787935641823606 0 -0.023327813446648856 -0.0087817184403139979 0 -0.023291755779582195 -0.0085931715234165047 0 -0.023327813446648856 -0.0087817184403139979 0 -0.023322192400173886 -0.0088526186649645518 0 -0.023291755779582195 -0.0085931715234165047 0 -0.023194680521492438 -0.0084787935641823606 0 -0.023291755779582195 -0.0085931715234165047 0 -0.023293305965680949 -0.0080465442591260636 0 -0.023103375675231245 -0.0082394863551671586 0 -0.023261430524704016 -0.0087632150848024216 0 -0.023194680521492438 -0.0084787935641823606 0 -0.023261430524704016 -0.0087632150848024216 0 -0.023194680521492438 -0.0084787935641823606 0 -0.023327813446648856 -0.0087817184403139979 0 -0.023540388766416471 -0.0088702814669218213 0 -0.023322192400173886 -0.0088526186649645518 0 -0.023296023650599899 -0.0088935170325320657 0 -0.023540388766416471 -0.0088702814669218213 0 -0.023327813446648856 -0.0087817184403139979 0 -0.023322192400173886 -0.0088526186649645518 0 -0.023322192400173886 -0.0088526186649645518 0 -0.023224689784589102 -0.0088883719183652163 0 -0.023296023650599899 -0.0088935170325320657 0 -0.023322192400173886 -0.0088526186649645518 0 -0.023224689784589102 -0.0088883719183652163 0 -0.023291755779582195 -0.0085931715234165047 0 -0.023224689784589102 -0.0088883719183652163 0 -0.022933969758226893 -0.0089830969328245375 0 -0.023456637790816599 -0.0085145710136492348 0 -0.023224689784589102 -0.0088883719183652163 0 -0.022933969758226893 -0.0089830969328245375 0 -0.022909336293170351 -0.0089465049453492842 0 -0.022985381061779435 -0.0087978163990380821 0 -0.023138589623670644 -0.0079361393818709186 0 -0.022933969758226893 -0.0089830969328245375 0 -0.023456637790816599 -0.0085145710136492348 0 -0.02458281309801446 -0.0075861911734901952 0 -0.023224689784589102 -0.0088883719183652163 0 -0.023456637790816599 -0.0085145710136492348 0 -0.023291755779582195 -0.0085931715234165047 0 -0.023456637790816599 -0.0085145710136492348 0 -0.023291755779582195 -0.0085931715234165047 0 -0.023633841650444701 -0.0078701326660052268 0 -0.023291755779582195 -0.0085931715234165047 0 -0.023293305965680949 -0.0080465442591260636 0 -0.023633841650444701 -0.0078701326660052268 0 -0.023293305965680949 -0.0080465442591260636 0 -0.023633214438745647 -0.0073152667858652981 0 -0.023633841650444701 -0.0078701326660052268 0 -0.022875196328298594 -0.0076791941141716247 0 -0.023293305965680949 -0.0080465442591260636 0 -0.023633214438745647 -0.0073152667858652981 0 -0.023633214438745647 -0.0073152667858652981 0 -0.023633841650444701 -0.0078701326660052268 0 -0.024200136865577634 -0.0068532559611710359 0 -0.023633841650444701 -0.0078701326660052268 0 -0.02458281309801446 -0.0075861911734901952 0 -0.024200136865577634 -0.0068532559611710359 0 -0.023456637790816599 -0.0085145710136492348 0 -0.023633841650444701 -0.0078701326660052268 0 -0.02458281309801446 -0.0075861911734901952 0 -0.024200136865577634 -0.0068532559611710359 0 -0.024021594637057279 -0.0058479267054351277 0 -0.02459344247492027 -0.0059444873332680373 0 -0.02458281309801446 -0.0075861911734901952 0 -0.024200136865577634 -0.0068532559611710359 0 -0.02459344247492027 -0.0059444873332680373 0 -0.024352294156123881 -0.0062315238497406234 0 -0.02409280584047202 -0.0058988987068967118 0 -0.022875196328298594 -0.0076791941141716247 0 -0.023633214438745647 -0.0073152667858652981 0 -0.024021594637057279 -0.0058479267054351277 0 -0.023633214438745647 -0.0073152667858652981 0 -0.024200136865577634 -0.0068532559611710359 0 -0.024021594637057279 -0.0058479267054351277 0 -0.02172051551898091 -0.0077640227571975614 0 -0.021902971612148076 -0.0081337064461171719 0 -0.021884361510063143 -0.0079262226154867658 0 -0.02172051551898091 -0.0077640227571975614 0 -0.021884361510063143 -0.0079262226154867658 0 -0.02173765832155913 -0.0076126574409259408 0 -0.021754766218074172 -0.008421098278879071 0 -0.02172051551898091 -0.0077640227571975614 0 -0.02138508415139562 -0.0076076849044925407 0 -0.023138589623670644 -0.0079361393818709186 0 -0.022983711242361152 -0.006799289767747174 0 -0.021754766218074172 -0.008421098278879071 0 -0.022018281206754416 -0.0084648486957886807 0 -0.021902971612148076 -0.0081337064461171719 0 -0.021754766218074172 -0.008421098278879071 0 -0.02172051551898091 -0.0077640227571975614 0 -0.021902971612148076 -0.0081337064461171719 0 -0.022018281206754416 -0.0084648486957886807 0 -0.021902971612148076 -0.0081337064461171719 0 -0.022007079282875385 -0.0082590459219362786 0 -0.021902971612148076 -0.0081337064461171719 0 -0.022007079282875385 -0.0082590459219362786 0 -0.021884361510063143 -0.0079262226154867658 0 -0.022108641989142155 -0.0089203644618486184 0 -0.021870227256674021 -0.008743669210038222 0 -0.022081767134641814 -0.0091513442079619537 0 -0.022209600119732761 -0.0089280103199293036 0 -0.021835011949297302 -0.0095102904211613465 0 -0.022007079282875385 -0.0082590459219362786 0 -0.022209600119732761 -0.0089280103199293036 0 -0.021936865886450753 -0.0079537610068490389 0 -0.022018281206754416 -0.0084648486957886807 0 -0.022007079282875385 -0.0082590459219362786 0 -0.022209600119732761 -0.0089280103199293036 0 -0.022081767134641814 -0.0091513442079619537 0 -0.022176959643142553 -0.0090970636556944942 0 -0.022209600119732761 -0.0089280103199293036 0 -0.022081767134641814 -0.0091513442079619537 0 -0.022176959643142553 -0.0090970636556944942 0 -0.02205872679003975 -0.0092485737209080949 0 -0.021754766218074172 -0.008421098278879071 0 -0.022018281206754416 -0.0084648486957886807 0 -0.022209600119732761 -0.0089280103199293036 0 -0.022933969758226893 -0.0089830969328245375 0 -0.021754766218074172 -0.008421098278879071 0 -0.022209600119732761 -0.0089280103199293036 0 -0.022933969758226893 -0.0089830969328245375 0 -0.022372434355445003 -0.0090598511710430259 0 -0.022507364574051499 -0.009033385284301379 0 -0.022933969758226893 -0.0089830969328245375 0 -0.022209600119732761 -0.0089280103199293036 0 -0.022372434355445003 -0.0090598511710430259 0 -0.022372434355445003 -0.0090598511710430259 0 -0.022254914989665465 -0.009133408176233062 0 -0.022507364574051499 -0.009033385284301379 0 -0.022178549429169345 -0.0091531246446998355 0 -0.02205161279330637 -0.0092379109229921205 0 -0.02205872679003975 -0.0092485737209080949 0 -0.022176959643142553 -0.0090970636556944942 0 -0.022178549429169345 -0.0091531246446998355 0 -0.02205872679003975 -0.0092485737209080949 0 -0.022176959643142553 -0.0090970636556944942 0 -0.022209600119732761 -0.0089280103199293036 0 -0.022372434355445003 -0.0090598511710430259 0 -0.022176959643142553 -0.0090970636556944942 0 -0.022372434355445003 -0.0090598511710430259 0 -0.022178549429169345 -0.0091531246446998355 0 -0.022372434355445003 -0.0090598511710430259 0 -0.022178549429169345 -0.0091531246446998355 0 -0.022254914989665465 -0.009133408176233062 0 -0.022178549429169345 -0.0091531246446998355 0 -0.022254914989665465 -0.009133408176233062 0 -0.0221427541666416 -0.0091852436309689256 0 -0.022254914989665465 -0.009133408176233062 0 -0.0221427541666416 -0.0091852436309689256 0 -0.022098946225755273 -0.009206599647067654 0 -0.0221427541666416 -0.0091852436309689256 0 -0.02205161279330637 -0.0092379109229921205 0 -0.022098946225755273 -0.009206599647067654 0 -0.022178549429169345 -0.0091531246446998355 0 -0.0221427541666416 -0.0091852436309689256 0 -0.02205161279330637 -0.0092379109229921205 0 -0.02205161279330637 -0.0092379109229921205 0 -0.022001021936414428 -0.0092432513881879133 0 -0.021921471582111125 -0.0092628756882057461 0 -0.02205161279330637 -0.0092379109229921205 0 -0.022001021936414428 -0.0092432513881879133 0 -0.022098946225755273 -0.009206599647067654 0 -0.02205161279330637 -0.0092379109229921205 0 -0.021973512888001371 -0.0093229297693289692 0 -0.02205872679003975 -0.0092485737209080949 0 -0.021973512888001371 -0.0093229297693289692 0 -0.021921471582111125 -0.0092628756882057461 0 -0.021860191897496457 -0.0093213843766548534 0 -0.02205161279330637 -0.0092379109229921205 0 -0.021973512888001371 -0.0093229297693289692 0 -0.021921471582111125 -0.0092628756882057461 0 -0.021860191897496457 -0.0093213843766548534 0 -0.021722161690207631 -0.009346625837858346 0 -0.021760440519323711 -0.0092264913200733999 0 -0.021722161690207631 -0.009346625837858346 0 -0.021824559087811272 -0.009456104896705491 0 -0.021607042757700045 -0.0096024369661372819 0 -0.021860191897496457 -0.0093213843766548534 0 -0.021722161690207631 -0.009346625837858346 0 -0.021824559087811272 -0.009456104896705491 0 -0.021973512888001371 -0.0093229297693289692 0 -0.021860191897496457 -0.0093213843766548534 0 -0.021824559087811272 -0.009456104896705491 0 -0.021973512888001371 -0.0093229297693289692 0 -0.021824559087811272 -0.009456104896705491 0 -0.021881242532495317 -0.0096657568848908075 0 -0.021824559087811272 -0.009456104896705491 0 -0.021881242532495317 -0.0096657568848908075 0 -0.021607042757700045 -0.0096024369661372819 0 -0.022042078844085176 -0.0092199471693707874 0 -0.021708910479169275 -0.0094829556825082283 0 -0.022081767134641814 -0.0091513442079619537 0 -0.021537503069182923 -0.0093525386183555374 0 -0.021835011949297302 -0.0095102904211613465 0 -0.022081767134641814 -0.0091513442079619537 0 -0.021881242532495317 -0.0096657568848908075 0 -0.02205872679003975 -0.0092485737209080949 0 -0.021973512888001371 -0.0093229297693289692 0 -0.021881242532495317 -0.0096657568848908075 0 -0.02205872679003975 -0.0092485737209080949 0 -0.020826813343561637 -0.0092229673999537076 0 -0.021302586616004825 -0.0095399115672279225 0 -0.020499191961643681 -0.0098939212483729524 0 -0.020826813343561637 -0.0092229673999537076 0 -0.021302586616004825 -0.0095399115672279225 0 -0.02171520259531249 -0.0090961938104889561 0 -0.021722161690207631 -0.009346625837858346 0 -0.021302586616004825 -0.0095399115672279225 0 -0.02171520259531249 -0.0090961938104889561 0 -0.021722161690207631 -0.009346625837858346 0 -0.021302586616004825 -0.0095399115672279225 0 -0.021607042757700045 -0.0096024369661372819 0 -0.021881242532495317 -0.0096657568848908075 0 -0.021607042757700045 -0.0096024369661372819 0 -0.021170096537258265 -0.010151428270044331 0 -0.021708910479169275 -0.0094829556825082283 0 -0.020618575198919489 -0.0097968758257178136 0 -0.021302586616004825 -0.0095399115672279225 0 -0.021607042757700045 -0.0096024369661372819 0 -0.021170096537258265 -0.010151428270044331 0 -0.021170096537258265 -0.010151428270044331 0 -0.020499191961643681 -0.0098939212483729524 0 -0.019852925700656533 -0.010583402016505483 0 -0.021302586616004825 -0.0095399115672279225 0 -0.021170096537258265 -0.010151428270044331 0 -0.020499191961643681 -0.0098939212483729524 0 -0.02041335941966143 -0.0093536790896936537 0 -0.019758573065594916 -0.010267274159197082 0 -0.018949640140566975 -0.0094478427060814604 0 -0.020618575198919489 -0.0097968758257178136 0 -0.020008265176126926 -0.0097246409719701065 0 -0.02041335941966143 -0.0093536790896936537 0 -0.020352843829666709 -0.0099778965964394308 0 -0.019758573065594916 -0.010267274159197082 0 -0.021537503069182923 -0.0093525386183555374 0 -0.02041335941966143 -0.0093536790896936537 0 -0.020918389702411794 -0.0096918424138732629 0 -0.02041335941966143 -0.0093536790896936537 0 -0.020352843829666709 -0.0099778965964394308 0 -0.020918389702411794 -0.0096918424138732629 0 -0.020352843829666709 -0.0099778965964394308 0 -0.020918389702411794 -0.0096918424138732629 0 -0.020951316634193039 -0.010118338033536636 0 -0.020918389702411794 -0.0096918424138732629 0 -0.020951316634193039 -0.010118338033536636 0 -0.021319526665547584 -0.0096684708473419728 0 -0.02168003757934232 -0.0074781738601313675 0 -0.021528768820149254 -0.007605835390299966 0 -0.021305464269938443 -0.0076883799972679136 0 -0.021623777994996957 -0.0074034235252256001 0 -0.021599446611219143 -0.0074723188762904468 0 -0.021624112738977512 -0.0073620033679516698 0 -0.021497166369231022 -0.0071865247397768636 0 -0.021706599391616288 -0.007497795533071042 0 -0.02168003757934232 -0.0074781738601313675 0 -0.021528768820149254 -0.007605835390299966 0 -0.021706599391616288 -0.007497795533071042 0 -0.021624112738977512 -0.0073620033679516698 0 -0.021706599391616288 -0.007497795533071042 0 -0.02167340909362344 -0.0074347902508909401 0 -0.021624112738977512 -0.0073620033679516698 0 -0.021593846909396607 -0.0073240758492188005 0 -0.02167340909362344 -0.0074347902508909401 0 -0.021624112738977512 -0.0073620033679516698 0 -0.021593846909396607 -0.0073240758492188005 0 -0.021497166369231022 -0.0071865247397768636 0 -0.021497166369231022 -0.0071865247397768636 0 -0.02137920454601358 -0.0071392771911403261 0 -0.021489828758825113 -0.007234147753040202 0 -0.021593846909396607 -0.0073240758492188005 0 -0.021497166369231022 -0.0071865247397768636 0 -0.021489828758825113 -0.007234147753040202 0 -0.021219393020162951 -0.0089622995458906781 0 -0.020727408137039369 -0.0084271063310974587 0 -0.020352843829666709 -0.0099778965964394308 0 -0.019650586871231817 -0.010863505047238931 0 -0.019758573065594916 -0.010267274159197082 0 -0.020352843829666709 -0.0099778965964394308 0 -0.020951316634193039 -0.010118338033536636 0 -0.019650586871231817 -0.010863505047238931 0 -0.021623777994996957 -0.0074034235252256001 0 -0.020727408137039369 -0.0084271063310974587 0 -0.021497166369231022 -0.0071865247397768636 0 -0.021260787833441822 -0.0070286168688676208 0 -0.02137920454601358 -0.0071392771911403261 0 -0.021260787833441822 -0.0070286168688676208 0 -0.021261387450451065 -0.0070747309620482479 0 -0.02137920454601358 -0.0071392771911403261 0 -0.021260787833441822 -0.0070286168688676208 0 -0.021261387450451065 -0.0070747309620482479 0 -0.0212057914245804 -0.0070128106317781718 0 -0.020727408137039369 -0.0084271063310974587 0 -0.021015236069576615 -0.0081571770046241967 0 -0.021936865886450753 -0.0079537610068490389 0 -0.021762260709568437 -0.0076121549527949309 0 -0.021817883964922156 -0.0077428243367245395 0 -0.021884361510063143 -0.0079262226154867658 0 -0.021936865886450753 -0.0079537610068490389 0 -0.021817883964922156 -0.0077428243367245395 0 -0.022007079282875385 -0.0082590459219362786 0 -0.021884361510063143 -0.0079262226154867658 0 -0.021936865886450753 -0.0079537610068490389 0 -0.021219393020162951 -0.0089622995458906781 0 -0.021870227256674021 -0.008743669210038222 0 -0.020951316634193039 -0.010118338033536636 0 -0.021835011949297302 -0.0095102904211613465 0 -0.021319526665547584 -0.0096684708473419728 0 -0.021537503069182923 -0.0093525386183555374 0 -0.021835011949297302 -0.0095102904211613465 0 -0.021319526665547584 -0.0096684708473419728 0 -0.021936865886450753 -0.0079537610068490389 0 -0.021762260709568437 -0.0076121549527949309 0 -0.021706599391616288 -0.007497795533071042 0 -0.02168003757934232 -0.0074781738601313675 0 -0.021936865886450753 -0.0079537610068490389 0 -0.021706599391616288 -0.007497795533071042 0 -0.021537503069182923 -0.0093525386183555374 0 -0.020918389702411794 -0.0096918424138732629 0 -0.021319526665547584 -0.0096684708473419728 0 -0.021762260709568437 -0.0076121549527949309 0 -0.021706599391616288 -0.007497795533071042 0 -0.02167340909362344 -0.0074347902508909401 0 -0.02167340909362344 -0.0074347902508909401 0 -0.021686289485272257 -0.0074603167413253716 0 -0.021628185918770148 -0.0073698390038178891 0 -0.021593846909396607 -0.0073240758492188005 0 -0.02167340909362344 -0.0074347902508909401 0 -0.021628185918770148 -0.0073698390038178891 0 -0.021762260709568437 -0.0076121549527949309 0 -0.02167340909362344 -0.0074347902508909401 0 -0.021686289485272257 -0.0074603167413253716 0 -0.021686289485272257 -0.0074603167413253716 0 -0.021740430109158979 -0.0075758685963243332 0 -0.021674358453493536 -0.0074528181244552299 0 -0.021762260709568437 -0.0076121549527949309 0 -0.021686289485272257 -0.0074603167413253716 0 -0.021740430109158979 -0.0075758685963243332 0 -0.021740430109158979 -0.0075758685963243332 0 -0.02173765832155913 -0.0076126574409259408 0 -0.021674358453493536 -0.0074528181244552299 0 -0.021740430109158979 -0.0075758685963243332 0 -0.021817883964922156 -0.0077428243367245395 0 -0.02173765832155913 -0.0076126574409259408 0 -0.021762260709568437 -0.0076121549527949309 0 -0.021740430109158979 -0.0075758685963243332 0 -0.021817883964922156 -0.0077428243367245395 0 -0.021884361510063143 -0.0079262226154867658 0 -0.021817883964922156 -0.0077428243367245395 0 -0.02173765832155913 -0.0076126574409259408 0 -0.02173765832155913 -0.0076126574409259408 0 -0.021608956189187106 -0.0073773286314801944 0 -0.02159472853596086 -0.0074720480155840516 0 -0.02173765832155913 -0.0076126574409259408 0 -0.021608956189187106 -0.0073773286314801944 0 -0.021674358453493536 -0.0074528181244552299 0 -0.021608956189187106 -0.0073773286314801944 0 -0.021595325060095896 -0.0073208642677510087 0 -0.021674358453493536 -0.0074528181244552299 0 -0.021686289485272257 -0.0074603167413253716 0 -0.021674358453493536 -0.0074528181244552299 0 -0.021618574484010025 -0.0073540878485145395 0 -0.021686289485272257 -0.0074603167413253716 0 -0.021628185918770148 -0.0073698390038178891 0 -0.021618574484010025 -0.0073540878485145395 0 -0.021628185918770148 -0.0073698390038178891 0 -0.021618574484010025 -0.0073540878485145395 0 -0.021556917658116292 -0.0072896353072357152 0 -0.021618574484010025 -0.0073540878485145395 0 -0.021530504633229013 -0.0072413545557187724 0 -0.021556917658116292 -0.0072896353072357152 0 -0.021595325060095896 -0.0073208642677510087 0 -0.021618574484010025 -0.0073540878485145395 0 -0.021530504633229013 -0.0072413545557187724 0 -0.021595325060095896 -0.0073208642677510087 0 -0.021674358453493536 -0.0074528181244552299 0 -0.021618574484010025 -0.0073540878485145395 0 -0.021595325060095896 -0.0073208642677510087 0 -0.021530504633229013 -0.0072413545557187724 0 -0.021518839969881923 -0.0071958381016970132 0 -0.021530504633229013 -0.0072413545557187724 0 -0.021419056958254259 -0.0071679319607906716 0 -0.021440245320180733 -0.0071209171513785668 0 -0.021530504633229013 -0.0072413545557187724 0 -0.021518839969881923 -0.0071958381016970132 0 -0.021440245320180733 -0.0071209171513785668 0 -0.021518839969881923 -0.0071958381016970132 0 -0.021453378434786691 -0.0070891669741307613 0 -0.021516956934647079 -0.0072344810852570472 0 -0.021608956189187106 -0.0073773286314801944 0 -0.021518839969881923 -0.0071958381016970132 0 -0.021516956934647079 -0.0072344810852570472 0 -0.021608956189187106 -0.0073773286314801944 0 -0.021595325060095896 -0.0073208642677510087 0 -0.021518839969881923 -0.0071958381016970132 0 -0.021203314897614123 -0.0071029715243270232 0 -0.021291579056278005 -0.007118570184240584 0 -0.021325616980088547 -0.0071508401985587921 0 -0.021203314897614123 -0.0071029715243270232 0 -0.021203674305325024 -0.0070819917108083351 0 -0.021291579056278005 -0.007118570184240584 0 -0.021203674305325024 -0.0070819917108083351 0 -0.021261387450451065 -0.0070747309620482479 0 -0.021291579056278005 -0.007118570184240584 0 -0.021261387450451065 -0.0070747309620482479 0 -0.021291579056278005 -0.007118570184240584 0 -0.02137920454601358 -0.0071392771911403261 0 -0.021291579056278005 -0.007118570184240584 0 -0.02137920454601358 -0.0071392771911403261 0 -0.02139536551250661 -0.007176292258689306 0 -0.02137920454601358 -0.0071392771911403261 0 -0.02139536551250661 -0.007176292258689306 0 -0.021489828758825113 -0.007234147753040202 0 -0.021291579056278005 -0.007118570184240584 0 -0.02139536551250661 -0.007176292258689306 0 -0.021325616980088547 -0.0071508401985587921 0 -0.02139536551250661 -0.007176292258689306 0 -0.021460164637999136 -0.0072135053203628511 0 -0.021489828758825113 -0.007234147753040202 0 -0.02139536551250661 -0.007176292258689306 0 -0.021460164637999136 -0.0072135053203628511 0 -0.021325616980088547 -0.0071508401985587921 0 -0.021593846909396607 -0.0073240758492188005 0 -0.021489828758825113 -0.007234147753040202 0 -0.021556917658116292 -0.0072896353072357152 0 -0.021593846909396607 -0.0073240758492188005 0 -0.021628185918770148 -0.0073698390038178891 0 -0.021556917658116292 -0.0072896353072357152 0 -0.021460164637999136 -0.0072135053203628511 0 -0.021489828758825113 -0.007234147753040202 0 -0.021556917658116292 -0.0072896353072357152 0 -0.021530504633229013 -0.0072413545557187724 0 -0.021460164637999136 -0.0072135053203628511 0 -0.021556917658116292 -0.0072896353072357152 0 -0.021530504633229013 -0.0072413545557187724 0 -0.021460164637999136 -0.0072135053203628511 0 -0.021419056958254259 -0.0071679319607906716 0 -0.021419056958254259 -0.0071679319607906716 0 -0.021325616980088547 -0.0071508401985587921 0 -0.021286296016277208 -0.007119939139316348 0 -0.021460164637999136 -0.0072135053203628511 0 -0.021419056958254259 -0.0071679319607906716 0 -0.021325616980088547 -0.0071508401985587921 0 -0.021325616980088547 -0.0071508401985587921 0 -0.021193722355876504 -0.0071089316814339498 0 -0.021286296016277208 -0.007119939139316348 0 -0.021193722355876504 -0.0071089316814339498 0 -0.021137817542470391 -0.0070869938484088854 0 -0.021286296016277208 -0.007119939139316348 0 -0.021203314897614123 -0.0071029715243270232 0 -0.021325616980088547 -0.0071508401985587921 0 -0.021193722355876504 -0.0071089316814339498 0 -0.02118784396514329 -0.00707929060989814 0 -0.021121905508020972 -0.007062275726845306 0 -0.021054850926742502 -0.0070598028053794979 0 -0.02118784396514329 -0.00707929060989814 0 -0.021137817542470391 -0.0070869938484088854 0 -0.021054850926742502 -0.0070598028053794979 0 -0.02118784396514329 -0.00707929060989814 0 -0.021137817542470391 -0.0070869938484088854 0 -0.021286296016277208 -0.007119939139316348 0 -0.02118784396514329 -0.00707929060989814 0 -0.021286296016277208 -0.007119939139316348 0 -0.021273782093597416 -0.007086168051106255 0 -0.02118784396514329 -0.00707929060989814 0 -0.021273782093597416 -0.007086168051106255 0 -0.021214992169697234 -0.0070651165838476054 0 -0.021273782093597416 -0.007086168051106255 0 -0.02136079797869116 -0.0070993921526530815 0 -0.021284125618474963 -0.0070502973398261955 0 -0.021286296016277208 -0.007119939139316348 0 -0.021273782093597416 -0.007086168051106255 0 -0.02136079797869116 -0.0070993921526530815 0 -0.021419056958254259 -0.0071679319607906716 0 -0.021286296016277208 -0.007119939139316348 0 -0.02136079797869116 -0.0070993921526530815 0 -0.021419056958254259 -0.0071679319607906716 0 -0.02136079797869116 -0.0070993921526530815 0 -0.021440245320180733 -0.0071209171513785668 0 -0.02136079797869116 -0.0070993921526530815 0 -0.021284125618474963 -0.0070502973398261955 0 -0.021316256374566474 -0.0070059045743146335 0 -0.021218770150030177 -0.0069882407518901809 0 -0.021284125618474963 -0.0070502973398261955 0 -0.021316256374566474 -0.0070059045743146335 0 -0.021218770150030177 -0.0069882407518901809 0 -0.021284125618474963 -0.0070502973398261955 0 -0.021222460376068761 -0.0070441182088939683 0 -0.021284125618474963 -0.0070502973398261955 0 -0.021222460376068761 -0.0070441182088939683 0 -0.021214992169697234 -0.0070651165838476054 0 -0.021273782093597416 -0.007086168051106255 0 -0.021284125618474963 -0.0070502973398261955 0 -0.021214992169697234 -0.0070651165838476054 0 -0.021193066931799141 -0.0070436707732535412 0 -0.021222460376068761 -0.0070441182088939683 0 -0.021165740440012876 -0.0070638142054685613 0 -0.021222460376068761 -0.0070441182088939683 0 -0.021214992169697234 -0.0070651165838476054 0 -0.021165740440012876 -0.0070638142054685613 0 -0.021165740440012876 -0.0070638142054685613 0 -0.021121905508020972 -0.007062275726845306 0 -0.02107639104706871 -0.0070720318194613715 0 -0.021214992169697234 -0.0070651165838476054 0 -0.021165740440012876 -0.0070638142054685613 0 -0.021121905508020972 -0.007062275726845306 0 -0.02118784396514329 -0.00707929060989814 0 -0.021214992169697234 -0.0070651165838476054 0 -0.021121905508020972 -0.007062275726845306 0 -0.021518839969881923 -0.0071958381016970132 0 -0.021400270131251974 -0.007027808786833966 0 -0.021453378434786691 -0.0070891669741307613 0 -0.021453378434786691 -0.0070891669741307613 0 -0.021385226207060331 -0.0069388844032744678 0 -0.021403854890450252 -0.0070243759558258371 0 -0.021400270131251974 -0.007027808786833966 0 -0.021453378434786691 -0.0070891669741307613 0 -0.021385226207060331 -0.0069388844032744678 0 -0.021400270131251974 -0.007027808786833966 0 -0.021440245320180733 -0.0071209171513785668 0 -0.021316256374566474 -0.0070059045743146335 0 -0.02136079797869116 -0.0070993921526530815 0 -0.021440245320180733 -0.0071209171513785668 0 -0.021316256374566474 -0.0070059045743146335 0 -0.021518839969881923 -0.0071958381016970132 0 -0.021400270131251974 -0.007027808786833966 0 -0.021440245320180733 -0.0071209171513785668 0 -0.021400270131251974 -0.007027808786833966 0 -0.021316256374566474 -0.0070059045743146335 0 -0.021310371664521589 -0.0069067652932298714 0 -0.021228905811611416 -0.0069269154208114114 0 -0.021218770150030177 -0.0069882407518901809 0 -0.021316256374566474 -0.0070059045743146335 0 -0.021228905811611416 -0.0069269154208114114 0 -0.021316256374566474 -0.0070059045743146335 0 -0.021310371664521589 -0.0069067652932298714 0 -0.021345798815233189 -0.0067370920929130636 0 -0.021310371664521589 -0.0069067652932298714 0 -0.021385226207060331 -0.0069388844032744678 0 -0.021400270131251974 -0.007027808786833966 0 -0.021310371664521589 -0.0069067652932298714 0 -0.021385226207060331 -0.0069388844032744678 0 -0.021345798815233189 -0.0067370920929130636 0 -0.021385226207060331 -0.0069388844032744678 0 -0.021358846138752982 -0.0068910615028253746 0 -0.021345798815233189 -0.0067370920929130636 0 -0.021358846138752982 -0.0068910615028253746 0 -0.021285943496152319 -0.0067421464587025257 0 -0.021358846138752982 -0.0068910615028253746 0 -0.021356057050676086 -0.0070260021660811314 0 -0.021285943496152319 -0.0067421464587025257 0 -0.021385226207060331 -0.0069388844032744678 0 -0.021358846138752982 -0.0068910615028253746 0 -0.021403854890450252 -0.0070243759558258371 0 -0.021358846138752982 -0.0068910615028253746 0 -0.021403854890450252 -0.0070243759558258371 0 -0.021356057050676086 -0.0070260021660811314 0 -0.021403854890450252 -0.0070243759558258371 0 -0.021356057050676086 -0.0070260021660811314 0 -0.021445581611774851 -0.0071431640619862968 0 -0.021453378434786691 -0.0070891669741307613 0 -0.021403854890450252 -0.0070243759558258371 0 -0.021445581611774851 -0.0071431640619862968 0 -0.024039439899354142 -0.0049333164720584141 0 -0.023092299794338987 -0.0051814666093493956 0 -0.023761111135779694 -0.0049809545865563193 0 -0.022637172941801374 -0.0060702596738231775 0 -0.022194509440358324 -0.0060389800851605125 0 -0.021356057050676086 -0.0070260021660811314 0 -0.021252030457384666 -0.0071329879909745979 0 -0.021285943496152319 -0.0067421464587025257 0 -0.024039439899354142 -0.0049333164720584141 0 -0.023961877615293427 -0.0049398009794234055 0 -0.023761111135779694 -0.0049809545865563193 0 -0.023766554480022361 -0.0056873010436289274 0 -0.023092299794338987 -0.0051814666093493956 0 -0.023761111135779694 -0.0049809545865563193 0 -0.023761111135779694 -0.0049809545865563193 0 -0.024445606497829502 -0.0051401212630759413 0 -0.024336012623956179 -0.004685167951739227 0 -0.023766554480022361 -0.0056873010436289274 0 -0.023761111135779694 -0.0049809545865563193 0 -0.024445606497829502 -0.0051401212630759413 0 -0.025227908942717783 -0.004562216035509656 0 -0.024445606497829502 -0.0051401212630759413 0 -0.024336012623956179 -0.004685167951739227 0 -0.025227908942717783 -0.004562216035509656 0 -0.024336012623956179 -0.004685167951739227 0 -0.024738543587498694 -0.0039081990968853611 0 -0.023961877615293427 -0.0049398009794234055 0 -0.023761111135779694 -0.0049809545865563193 0 -0.024336012623956179 -0.004685167951739227 0 -0.023961877615293427 -0.0049398009794234055 0 -0.024336012623956179 -0.004685167951739227 0 -0.024738543587498694 -0.0039081990968853611 0 -0.023961877615293427 -0.0049398009794234055 0 -0.024150816641827187 -0.0055862950763676134 0 -0.024347358006449247 -0.0060506232860571612 0 -0.024073027748792542 -0.004937694909374039 0 -0.024615029228857117 -0.0049539881829990199 0 -0.024021594637057279 -0.0058479267054351277 0 -0.024150816641827187 -0.0055862950763676134 0 -0.024347358006449247 -0.0060506232860571612 0 -0.025175963832196467 -0.0055036308629170926 0 -0.024021594637057279 -0.0058479267054351277 0 -0.024347358006449247 -0.0060506232860571612 0 -0.024021594637057279 -0.0058479267054351277 0 -0.024150816641827187 -0.0055862950763676134 0 -0.02459344247492027 -0.0059444873332680373 0 -0.02138508415139562 -0.0076076849044925407 0 -0.02159472853596086 -0.0074720480155840516 0 -0.021435889981898631 -0.0072755524465768122 0 -0.02172051551898091 -0.0077640227571975614 0 -0.02138508415139562 -0.0076076849044925407 0 -0.02159472853596086 -0.0074720480155840516 0 -0.02172051551898091 -0.0077640227571975614 0 -0.02173765832155913 -0.0076126574409259408 0 -0.02159472853596086 -0.0074720480155840516 0 -0.021356057050676086 -0.0070260021660811314 0 -0.021445581611774851 -0.0071431640619862968 0 -0.021435889981898631 -0.0072755524465768122 0 -0.02159472853596086 -0.0074720480155840516 0 -0.021435889981898631 -0.0072755524465768122 0 -0.021516956934647079 -0.0072344810852570472 0 -0.021608956189187106 -0.0073773286314801944 0 -0.02159472853596086 -0.0074720480155840516 0 -0.021516956934647079 -0.0072344810852570472 0 -0.021453378434786691 -0.0070891669741307613 0 -0.021445581611774851 -0.0071431640619862968 0 -0.021516956934647079 -0.0072344810852570472 0 -0.021445581611774851 -0.0071431640619862968 0 -0.021435889981898631 -0.0072755524465768122 0 -0.021516956934647079 -0.0072344810852570472 0 -0.021356057050676086 -0.0070260021660811314 0 -0.021252030457384666 -0.0071329879909745979 0 -0.021435889981898631 -0.0072755524465768122 0 -0.024039439899354142 -0.0049333164720584141 0 -0.024150816641827187 -0.0055862950763676134 0 -0.02459344247492027 -0.0059444873332680373 0 -0.022637172941801374 -0.0060702596738231775 0 -0.022983711242361152 -0.006799289767747174 0 -0.021252030457384666 -0.0071329879909745979 0 -0.02138508415139562 -0.0076076849044925407 0 -0.021435889981898631 -0.0072755524465768122 0 -0.024039439899354142 -0.0049333164720584141 0 -0.023961877615293427 -0.0049398009794234055 0 -0.024150816641827187 -0.0055862950763676134 0 -0.046611301510547661 -0.0093293232702854421 0 -0.045947719465859585 -0.0089453724785253132 0 -0.046586277194369016 -0.010135690026308561 0 -0.047091477067104044 -0.009816408741155953 0 -0.046611301510547661 -0.0093293232702854421 0 -0.046586277194369016 -0.010135690026308561 0 -0.047091477067104044 -0.009816408741155953 0 -0.046586277194369016 -0.010135690026308561 0 -0.047239895182617127 -0.010521457800544289 0 -0.047091477067104044 -0.009816408741155953 0 -0.047239895182617127 -0.010521457800544289 0 -0.047614912251950615 -0.010167786022944009 0 -0.047091477067104044 -0.009816408741155953 0 -0.047447988111831658 -0.0096614561333498768 0 -0.047614912251950615 -0.010167786022944009 0 -0.047091477067104044 -0.009816408741155953 0 -0.047283456164131668 -0.0092257475477327908 0 -0.047447988111831658 -0.0096614561333498768 0 -0.047091477067104044 -0.009816408741155953 0 -0.046949290198219432 -0.0092072050748862651 0 -0.046611301510547661 -0.0093293232702854421 0 -0.046371513010588505 -0.0073315885564848209 0 -0.047054452915618453 -0.0076385720881270861 0 -0.046028992861404244 -0.0067375217679193286 0 -0.047091477067104044 -0.009816408741155953 0 -0.046949290198219432 -0.0092072050748862651 0 -0.047283456164131668 -0.0092257475477327908 0 -0.047283456164131668 -0.0092257475477327908 0 -0.047159660533863113 -0.008980675841944492 0 -0.047799069026531339 -0.0093902242025175574 0 -0.047086617482236165 -0.0085388282091787716 0 -0.046956724161738052 -0.0082822688691218081 0 -0.046956724161738052 -0.0082822688691218081 0 -0.046905244719784335 -0.0084243672264359502 0 -0.046949290198219432 -0.0092072050748862651 0 -0.047283456164131668 -0.0092257475477327908 0 -0.047183035396288181 -0.0089203727800172584 0 -0.046949290198219432 -0.0092072050748862651 0 -0.047183035396288181 -0.0089203727800172584 0 -0.046652597601646646 -0.0085001622611813269 0 -0.046949290198219432 -0.0092072050748862651 0 -0.046611301510547661 -0.0093293232702854421 0 -0.046652597601646646 -0.0085001622611813269 0 -0.046611301510547661 -0.0093293232702854421 0 -0.045947719465859585 -0.0089453724785253132 0 -0.046652597601646646 -0.0085001622611813269 0 -0.045947719465859585 -0.0089453724785253132 0 -0.045937183699607406 -0.010546631669716351 0 -0.046586277194369016 -0.010135690026308561 0 -0.045947719465859585 -0.0089453724785253132 0 -0.044999791040615092 -0.0087805638135132376 0 -0.045937183699607406 -0.010546631669716351 0 -0.044999791040615092 -0.0087805638135132376 0 -0.045937183699607406 -0.010546631669716351 0 -0.044999839890756121 -0.011407387533143215 0 -0.045937183699607406 -0.010546631669716351 0 -0.046586277194369016 -0.010135690026308561 0 -0.047099355806530012 -0.011386219163673302 0 -0.046586277194369016 -0.010135690026308561 0 -0.047239895182617127 -0.010521457800544289 0 -0.047099355806530012 -0.011386219163673302 0 -0.047239895182617127 -0.010521457800544289 0 -0.047099355806530012 -0.011386219163673302 0 -0.047773863425384935 -0.011038556556263511 0 -0.047099355806530012 -0.011386219163673302 0 -0.047773863425384935 -0.011038556556263511 0 -0.04806688376285876 -0.011910927086663402 0 -0.048358063227039449 -0.011328437735073553 0 -0.047773863425384935 -0.011038556556263511 0 -0.04806688376285876 -0.011910927086663402 0 -0.048358063227039449 -0.011328437735073553 0 -0.048655549728900349 -0.011946382091125342 0 -0.04806688376285876 -0.011910927086663402 0 -0.048358063227039449 -0.011328437735073553 0 -0.048138439722715504 -0.010632987396386913 0 -0.047773863425384935 -0.011038556556263511 0 -0.048138439722715504 -0.010632987396386913 0 -0.047773863425384935 -0.011038556556263511 0 -0.047614912251950615 -0.010167786022944009 0 -0.047239895182617127 -0.010521457800544289 0 -0.047773863425384935 -0.011038556556263511 0 -0.047614912251950615 -0.010167786022944009 0 -0.049012204612588157 -0.011178284823480437 0 -0.049612674025148483 -0.012941073085874777 0 -0.049078463097946584 -0.012390831688875278 0 -0.048852280017123294 -0.012305435863092877 0 -0.04899021019467973 -0.011938702209060419 0 -0.04951156041564813 -0.012447631764726191 0 -0.048655549728900349 -0.011946382091125342 0 -0.049012204612588157 -0.011178284823480437 0 -0.049078463097946584 -0.012390831688875278 0 -0.048358063227039449 -0.011328437735073553 0 -0.048655549728900349 -0.011946382091125342 0 -0.049012204612588157 -0.011178284823480437 0 -0.048358063227039449 -0.011328437735073553 0 -0.048138439722715504 -0.010632987396386913 0 -0.049012204612588157 -0.011178284823480437 0 -0.043873564116823804 -0.0020695687712346889 0 -0.043733863908688678 -0.0025349983584851891 0 -0.044260770507552269 -0.0024850223737160823 0 -0.048852280017123294 -0.012305435863092877 0 -0.04899021019467973 -0.011938702209060419 0 -0.047645972968712078 -0.011252114246287259 0 -0.043873564116823804 -0.0020695687712346889 0 -0.044863731467310181 -0.0022361546313392237 0 -0.044260770507552269 -0.0024850223737160823 0 -0.048138439722715504 -0.010632987396386913 0 -0.049012204612588157 -0.011178284823480437 0 -0.047799069026531339 -0.0093902242025175574 0 -0.049231622486338333 -0.012202484156632184 0 -0.046605405190084173 -0.0077203758659819014 0 -0.046298974896164094 -0.0068945551989403478 0 -0.046605405190084173 -0.0077203758659819014 0 -0.047447988111831658 -0.0096614561333498768 0 -0.047614912251950615 -0.010167786022944009 0 -0.047799069026531339 -0.0093902242025175574 0 -0.048138439722715504 -0.010632987396386913 0 -0.047614912251950615 -0.010167786022944009 0 -0.047799069026531339 -0.0093902242025175574 0 -0.046956724161738052 -0.0082822688691218081 0 -0.046605405190084173 -0.0077203758659819014 0 -0.047283456164131668 -0.0092257475477327908 0 -0.047447988111831658 -0.0096614561333498768 0 -0.047799069026531339 -0.0093902242025175574 0 -0.045075574245977162 -0.0027198596090982326 0 -0.044641769479067513 -0.0025932373000102467 0 -0.045164841173100913 -0.0028594301441894026 0 -0.045075574245977162 -0.0027198596090982326 0 -0.044260770507552269 -0.0024850223737160823 0 -0.043862631471354156 -0.0029604188154564999 0 -0.044863731467310181 -0.0022361546313392237 0 -0.045075574245977162 -0.0027198596090982326 0 -0.044260770507552269 -0.0024850223737160823 0 -0.045013471836695754 -0.0027021563573323797 0 -0.044261385750857335 -0.0027641677701355206 0 -0.043733863908688678 -0.0025349983584851891 0 -0.044260770507552269 -0.0024850223737160823 0 -0.043862631471354156 -0.0029604188154564999 0 -0.044481662105146237 -0.0027807143440263054 0 -0.044641769479067513 -0.0025932373000102467 0 -0.045164841173100913 -0.0028594301441894026 0 -0.044297224357850294 -0.002619062724747219 0 -0.045086161584727655 -0.0027993233191317178 0 -0.04410842329286721 -0.0024205302130862151 0 -0.045164841173100913 -0.0028594301441894026 0 -0.044981579622602297 -0.0028777111511863931 0 -0.045164841173100913 -0.0028594301441894026 0 -0.044981579622602297 -0.0028777111511863931 0 -0.045199985250285006 -0.0029728204204139087 0 -0.045164841173100913 -0.0028594301441894026 0 -0.045199985250285006 -0.0029728204204139087 0 -0.045277232688443622 -0.0030571554930566539 0 -0.044981579622602297 -0.0028777111511863931 0 -0.045199985250285006 -0.0029728204204139087 0 -0.045255091166601771 -0.0029565570518394597 0 -0.045199985250285006 -0.0029728204204139087 0 -0.045277232688443622 -0.0030571554930566539 0 -0.04531703828373037 -0.0031271495261091507 0 -0.045258795453933853 -0.0029368675553543169 0 -0.04536171670783546 -0.0026786261900963856 0 -0.045374075303795537 -0.0033047139039956309 0 -0.045277232688443622 -0.0030571554930566539 0 -0.045374075303795537 -0.0033047139039956309 0 -0.04531703828373037 -0.0031271495261091507 0 -0.045277232688443622 -0.0030571554930566539 0 -0.045258795453933853 -0.0029368675553543169 0 -0.045374075303795537 -0.0033047139039956309 0 -0.045164841173100913 -0.0028594301441894026 0 -0.045277232688443622 -0.0030571554930566539 0 -0.045258795453933853 -0.0029368675553543169 0 -0.045927779532758221 -0.0059759325698114582 0 -0.045582700061939464 -0.0045654941988834746 0 -0.045075574245977162 -0.0027198596090982326 0 -0.045258795453933853 -0.0029368675553543169 0 -0.04536171670783546 -0.0026786261900963856 0 -0.045075574245977162 -0.0027198596090982326 0 -0.045164841173100913 -0.0028594301441894026 0 -0.045258795453933853 -0.0029368675553543169 0 -0.045927779532758221 -0.0059759325698114582 0 -0.046165971779541647 -0.0071396921099319798 0 -0.046922233118186316 -0.0080982940144650253 0 -0.046652597601646646 -0.0085001622611813269 0 -0.045957859921947362 -0.0071146773607407019 0 -0.046605405190084173 -0.0077203758659819014 0 -0.045927779532758221 -0.0059759325698114582 0 -0.044863731467310181 -0.0022361546313392237 0 -0.045075574245977162 -0.0027198596090982326 0 -0.04536171670783546 -0.0026786261900963856 0 -0.047319420253126257 -0.008788550257387619 0 -0.046922233118186316 -0.0080982940144650253 0 -0.046652597601646646 -0.0085001622611813269 0 -0.046956724161738052 -0.0082822688691218081 0 -0.045927779532758221 -0.0059759325698114582 0 -0.046756998363093862 -0.0075819522346132727 0 -0.045945493525047489 -0.0068711898314727828 0 -0.045955686398796686 -0.0061563185044521615 0 -0.045947719465859585 -0.0089453724785253132 0 -0.044999791040615092 -0.0087805638135132376 0 -0.045957859921947362 -0.0071146773607407019 0 -0.044999791040615092 -0.0087805638135132376 0 -0.045957859921947362 -0.0071146773607407019 0 -0.045000004879350963 -0.0061533707366406626 0 -0.045947719465859585 -0.0089453724785253132 0 -0.046652597601646646 -0.0085001622611813269 0 -0.045957859921947362 -0.0071146773607407019 0 -0.046165971779541647 -0.0071396921099319798 0 -0.045000145178466032 -0.0061534620718030116 0 -0.045945493525047489 -0.0068711898314727828 0 -0.045955686398796686 -0.0061563185044521615 0 -0.044999955513108675 -0.0061531293866172723 0 -0.045955686398796686 -0.0061563185044521615 0 -0.044999955513108675 -0.0061531293866172723 0 -0.045000020180051337 -0.0044147642035839655 0 -0.045582700061939464 -0.0045654941988834746 0 -0.045000219643723985 -0.0044146297031138959 0 -0.045374075303795537 -0.0033047139039956309 0 -0.045000175540836858 -0.0044095955081726191 0 -0.045437116010053777 -0.0034009256302495214 0 -0.045374075303795537 -0.0033047139039956309 0 -0.04531703828373037 -0.0031271495261091507 0 -0.045437116010053777 -0.0034009256302495214 0 -0.04531703828373037 -0.0031271495261091507 0 -0.045437116010053777 -0.0034009256302495214 0 -0.045385976386954213 -0.0029592279748527823 0 -0.045437116010053777 -0.0034009256302495214 0 -0.045567362121460189 -0.0022307735612957162 0 -0.045561171480543824 -0.0026949976950534737 0 -0.045437116010053777 -0.0034009256302495214 0 -0.045561171480543824 -0.0026949976950534737 0 -0.045385976386954213 -0.0029592279748527823 0 -0.045000175540836858 -0.0044095955081726191 0 -0.045437116010053777 -0.0034009256302495214 0 -0.044999300215081153 -0.0020509194841816561 0 -0.044999300215081153 -0.0020509194841816561 0 -0.045567362121460189 -0.0022307735612957162 0 -0.045395375455566017 -0.0016404463777715647 0 -0.045437116010053777 -0.0034009256302495214 0 -0.044999300215081153 -0.0020509194841816561 0 -0.045567362121460189 -0.0022307735612957162 0 -0.045567362121460189 -0.0022307735612957162 0 -0.045679756357666031 -0.0022078600412739706 0 -0.045561171480543824 -0.0026949976950534737 0 -0.045567362121460189 -0.0022307735612957162 0 -0.045769899429506558 -0.0018365899176648577 0 -0.045679756357666031 -0.0022078600412739706 0 -0.045567362121460189 -0.0022307735612957162 0 -0.045769899429506558 -0.0018365899176648577 0 -0.045395375455566017 -0.0016404463777715647 0 -0.045880167977392756 -0.0010442962400678982 0 -0.044969182455895602 -0.00047610474981904429 0 -0.045663043010165938 4.264018817444035e-05 0 -0.046144830090970833 -0.00032665548435289592 0 -0.045000580316409904 -0.00039082371595144732 0 -0.045769899429506558 -0.0018365899176648577 0 -0.045395375455566017 -0.0016404463777715647 0 -0.045000004273707546 -0.00039251951232175541 0 -0.044999300215081153 -0.0020509194841816561 0 -0.045395375455566017 -0.0016404463777715647 0 -0.045000004273707546 -0.00039251951232175541 0 -0.045880167977392756 -0.0010442962400678982 0 -0.04573012058418699 -0.001351728155568398 0 -0.045878322191058252 -0.00040682717839693222 0 -0.046144830090970833 -0.00032665548435289592 0 -0.045663884594990101 -0.00068622488639032695 0 -0.045769899429506558 -0.0018365899176648577 0 -0.045677182046121277 -0.0020423998489056414 0 -0.045679756357666031 -0.0022078600412739706 0 -0.045677182046121277 -0.0020423998489056414 0 -0.045679756357666031 -0.0022078600412739706 0 -0.045590185762710483 -0.0023292694357769654 0 -0.045677182046121277 -0.0020423998489056414 0 -0.045590185762710483 -0.0023292694357769654 0 -0.045631190033851916 -0.0019874082225118162 0 -0.045590185762710483 -0.0023292694357769654 0 -0.045660032741696388 -0.0025909992928548745 0 -0.045631190033851916 -0.0019874082225118162 0 -0.045590185762710483 -0.0023292694357769654 0 -0.045380641938065541 -0.0027723310709295429 0 -0.045660032741696388 -0.0025909992928548745 0 -0.045679756357666031 -0.0022078600412739706 0 -0.045590185762710483 -0.0023292694357769654 0 -0.045561171480543824 -0.0026949976950534737 0 -0.045590185762710483 -0.0023292694357769654 0 -0.045561171480543824 -0.0026949976950534737 0 -0.045380641938065541 -0.0027723310709295429 0 -0.045561171480543824 -0.0026949976950534737 0 -0.045385976386954213 -0.0029592279748527823 0 -0.045380641938065541 -0.0027723310709295429 0 -0.044981579622602297 -0.0028777111511863931 0 -0.045380641938065541 -0.0027723310709295429 0 -0.045255091166601771 -0.0029565570518394597 0 -0.045385976386954213 -0.0029592279748527823 0 -0.045380641938065541 -0.0027723310709295429 0 -0.045255091166601771 -0.0029565570518394597 0 -0.04531703828373037 -0.0031271495261091507 0 -0.045385976386954213 -0.0029592279748527823 0 -0.045255091166601771 -0.0029565570518394597 0 -0.045199985250285006 -0.0029728204204139087 0 -0.04531703828373037 -0.0031271495261091507 0 -0.045255091166601771 -0.0029565570518394597 0 -0.044981579622602297 -0.0028777111511863931 0 -0.045380641938065541 -0.0027723310709295429 0 -0.045660032741696388 -0.0025909992928548745 0 -0.045000309075488014 -0.002807633523078501 0 -0.044872606621777125 -0.002655686680051218 0 -0.04410842329286721 -0.0024205302130862151 0 -0.044981579622602297 -0.0028777111511863931 0 -0.044082925921172966 -0.002780156778193097 0 -0.04410842329286721 -0.0024205302130862151 0 -0.043713249347713652 -0.0025378741858212627 0 -0.04317345893183186 -0.0023125632484651249 0 -0.04410842329286721 -0.0024205302130862151 0 -0.044082925921172966 -0.002780156778193097 0 -0.043713249347713652 -0.0025378741858212627 0 -0.044082925921172966 -0.002780156778193097 0 -0.043713249347713652 -0.0025378741858212627 0 -0.043489142524174129 -0.0026374744702756091 0 -0.043713249347713652 -0.0025378741858212627 0 -0.043489142524174129 -0.0026374744702756091 0 -0.04317345893183186 -0.0023125632484651249 0 -0.043489142524174129 -0.0026374744702756091 0 -0.04317345893183186 -0.0023125632484651249 0 -0.04317790252506664 -0.002574702390340646 0 -0.04317345893183186 -0.0023125632484651249 0 -0.04317790252506664 -0.002574702390340646 0 -0.042956569699706855 -0.0025039576491504654 0 -0.04317790252506664 -0.002574702390340646 0 -0.043189843184252098 -0.002675356439280136 0 -0.042979662926523429 -0.0026091416225994275 0 -0.043489142524174129 -0.0026374744702756091 0 -0.04317790252506664 -0.002574702390340646 0 -0.043189843184252098 -0.002675356439280136 0 -0.043489142524174129 -0.0026374744702756091 0 -0.043189843184252098 -0.002675356439280136 0 -0.043358460957805885 -0.0028061174909711556 0 -0.043189843184252098 -0.002675356439280136 0 -0.043046427488539957 -0.0026552564241121034 0 -0.042979662926523429 -0.0026091416225994275 0 -0.043189843184252098 -0.002675356439280136 0 -0.043358460957805885 -0.0028061174909711556 0 -0.043046427488539957 -0.0026552564241121034 0 -0.044872606621777125 -0.002655686680051218 0 -0.044517125546732324 -0.0022988754399294845 0 -0.045660032741696388 -0.0025909992928548745 0 -0.045729847034698803 -0.0018156488732084498 0 -0.045631190033851916 -0.0019874082225118162 0 -0.044082925921172966 -0.002780156778193097 0 -0.043489142524174129 -0.0026374744702756091 0 -0.043358460957805885 -0.0028061174909711556 0 -0.045677182046121277 -0.0020423998489056414 0 -0.045631190033851916 -0.0019874082225118162 0 -0.045545204335273169 -0.0013617460189572158 0 -0.045729847034698803 -0.0018156488732084498 0 -0.045631190033851916 -0.0019874082225118162 0 -0.045545204335273169 -0.0013617460189572158 0 -0.04573012058418699 -0.001351728155568398 0 -0.04561218502606483 -0.0013767800007249875 0 -0.044517125546732324 -0.0022988754399294845 0 -0.044075204878057744 -0.0018084499279317737 0 -0.043358460957805885 -0.0028061174909711556 0 -0.043046427488539957 -0.0026552564241121034 0 -0.042895785945271499 -0.0025418801540787912 0 -0.045729847034698803 -0.0018156488732084498 0 -0.045545204335273169 -0.0013617460189572158 0 -0.045247238352126885 -0.00093132750452148852 0 -0.045545204335273169 -0.0013617460189572158 0 -0.045447740054575088 -0.0011436145286151716 0 -0.045534658502985735 -0.0010637936991356371 0 -0.045545204335273169 -0.0013617460189572158 0 -0.045447740054575088 -0.0011436145286151716 0 -0.045247238352126885 -0.00093132750452148852 0 -0.045447740054575088 -0.0011436145286151716 0 -0.045105556191156707 -0.0013969235889844133 0 -0.045247238352126885 -0.00093132750452148852 0 -0.045447740054575088 -0.0011436145286151716 0 -0.045416506355522135 -0.0012196051314154993 0 -0.045105556191156707 -0.0013969235889844133 0 -0.045447740054575088 -0.0011436145286151716 0 -0.045416506355522135 -0.0012196051314154993 0 -0.045534658502985735 -0.0010637936991356371 0 -0.045598858043496775 -0.00097815638922861938 0 -0.045663884594990101 -0.00068622488639032695 0 -0.045534658502985735 -0.0010637936991356371 0 -0.045663884594990101 -0.00068622488639032695 0 -0.045545204335273169 -0.0013617460189572158 0 -0.045534658502985735 -0.0010637936991356371 0 -0.043152394456853288 -0.0023563803461923859 0 -0.042671972147165733 -0.0024459907473000915 0 -0.042975752202936306 -0.0022735602392951726 0 -0.043627187186909257 -0.0019040585142312925 0 -0.043152394456853288 -0.0023563803461923859 0 -0.042975752202936306 -0.0022735602392951726 0 -0.043627187186909257 -0.0019040585142312925 0 -0.045105556191156707 -0.0013969235889844133 0 -0.045247238352126885 -0.00093132750452148852 0 -0.043627187186909257 -0.0019040585142312925 0 -0.043152394456853288 -0.0023563803461923859 0 -0.042895785945271499 -0.0025418801540787912 0 -0.043652874593661531 -0.0019142421403420835 0 -0.044075204878057744 -0.0018084499279317737 0 -0.043152394456853288 -0.0023563803461923859 0 -0.042895785945271499 -0.0025418801540787912 0 -0.042953655056591246 -0.002583983265020053 0 -0.043046427488539957 -0.0026552564241121034 0 -0.042953655056591246 -0.002583983265020053 0 -0.042979662926523429 -0.0026091416225994275 0 -0.043046427488539957 -0.0026552564241121034 0 -0.042895785945271499 -0.0025418801540787912 0 -0.042953655056591246 -0.002583983265020053 0 -0.043152394456853288 -0.0023563803461923859 0 -0.042953655056591246 -0.002583983265020053 0 -0.042671972147165733 -0.0024459907473000915 0 -0.042953655056591246 -0.002583983265020053 0 -0.042671972147165733 -0.0024459907473000915 0 -0.042700891490052774 -0.0025367046489373855 0 -0.042700891490052774 -0.0025367046489373855 0 -0.042416962587606563 -0.0025057132974563609 0 -0.042217750013814205 -0.0024715250403811694 0 -0.042671972147165733 -0.0024459907473000915 0 -0.042700891490052774 -0.0025367046489373855 0 -0.042217750013814205 -0.0024715250403811694 0 -0.042700891490052774 -0.0025367046489373855 0 -0.042813369957540613 -0.0025323457236445059 0 -0.042604239881563664 -0.0024811104192804167 0 -0.042700891490052774 -0.0025367046489373855 0 -0.042416962587606563 -0.0025057132974563609 0 -0.042604239881563664 -0.0024811104192804167 0 -0.042953655056591246 -0.002583983265020053 0 -0.042700891490052774 -0.0025367046489373855 0 -0.042979662926523429 -0.0026091416225994275 0 -0.042700891490052774 -0.0025367046489373855 0 -0.042979662926523429 -0.0026091416225994275 0 -0.042813369957540613 -0.0025323457236445059 0 -0.042979662926523429 -0.0026091416225994275 0 -0.042813369957540613 -0.0025323457236445059 0 -0.042956569699706855 -0.0025039576491504654 0 -0.04317790252506664 -0.002574702390340646 0 -0.042979662926523429 -0.0026091416225994275 0 -0.042956569699706855 -0.0025039576491504654 0 -0.042813369957540613 -0.0025323457236445059 0 -0.042956569699706855 -0.0025039576491504654 0 -0.042604239881563664 -0.0024811104192804167 0 -0.04317345893183186 -0.0023125632484651249 0 -0.042956569699706855 -0.0025039576491504654 0 -0.042604239881563664 -0.0024811104192804167 0 -0.043575900445442253 -0.0026341227545774813 0 -0.04299423153489499 -0.0023663869377991936 0 -0.042604239881563664 -0.0024811104192804167 0 -0.043380892604664323 -0.0024788990178398074 0 -0.042666130320195242 -0.0024932243193191766 0 -0.042876843225703121 -0.0025251799555590904 0 -0.042241122200132937 -0.0025389414410079744 0 -0.04299423153489499 -0.0023663869377991936 0 -0.042604239881563664 -0.0024811104192804167 0 -0.042176514977676764 -0.0025178125450778738 0 -0.042777792106109123 -0.0026693931455421924 0 -0.042489376021630054 -0.0024055651889533067 0 -0.042176514977676764 -0.0025178125450778738 0 -0.042416962587606563 -0.0025057132974563609 0 -0.042604239881563664 -0.0024811104192804167 0 -0.042176514977676764 -0.0025178125450778738 0 -0.042777792106109123 -0.0026693931455421924 0 -0.042489376021630054 -0.0024055651889533067 0 -0.042756310153269132 -0.0024214271851897137 0 -0.042489376021630054 -0.0024055651889533067 0 -0.042756310153269132 -0.0024214271851897137 0 -0.042752864441887438 -0.0022557896389559097 0 -0.042756310153269132 -0.0024214271851897137 0 -0.042752864441887438 -0.0022557896389559097 0 -0.042874509165109771 -0.0023715092186156663 0 -0.042874509165109771 -0.0023715092186156663 0 -0.042927910291658114 -0.0025647352196691846 0 -0.043101486831115365 -0.0025242499422082885 0 -0.042756310153269132 -0.0024214271851897137 0 -0.042874509165109771 -0.0023715092186156663 0 -0.042927910291658114 -0.0025647352196691846 0 -0.042777792106109123 -0.0026693931455421924 0 -0.042756310153269132 -0.0024214271851897137 0 -0.042927910291658114 -0.0025647352196691846 0 -0.042876843225703121 -0.0025251799555590904 0 -0.043522567844875987 -0.0026524649646074922 0 -0.042777792106109123 -0.0026693931455421924 0 -0.042927910291658114 -0.0025647352196691846 0 -0.043183047193611407 -0.0028104817659441346 0 -0.042927910291658114 -0.0025647352196691846 0 -0.043183047193611407 -0.0028104817659441346 0 -0.043101486831115365 -0.0025242499422082885 0 -0.043575900445442253 -0.0026341227545774813 0 -0.04299423153489499 -0.0023663869377991936 0 -0.043864626671010445 -0.0024871330600161798 0 -0.044481662105146237 -0.0027807143440263054 0 -0.044641769479067513 -0.0025932373000102467 0 -0.043864626671010445 -0.0024871330600161798 0 -0.044481662105146237 -0.0027807143440263054 0 -0.043575900445442253 -0.0026341227545774813 0 -0.043864626671010445 -0.0024871330600161798 0 -0.044261385750857335 -0.0027641677701355206 0 -0.043522567844875987 -0.0026524649646074922 0 -0.044297224357850294 -0.002619062724747219 0 -0.043380892604664323 -0.0024788990178398074 0 -0.043862631471354156 -0.0029604188154564999 0 -0.043183047193611407 -0.0028104817659441346 0 -0.043420209835020554 -0.0026484535165934341 0 -0.043733863908688678 -0.0025349983584851891 0 -0.043862631471354156 -0.0029604188154564999 0 -0.043420209835020554 -0.0026484535165934341 0 -0.043420209835020554 -0.0026484535165934341 0 -0.043101486831115365 -0.0025242499422082885 0 -0.043353744801928051 -0.0024035533533133535 0 -0.043733863908688678 -0.0025349983584851891 0 -0.043420209835020554 -0.0026484535165934341 0 -0.043353744801928051 -0.0024035533533133535 0 -0.043183047193611407 -0.0028104817659441346 0 -0.043420209835020554 -0.0026484535165934341 0 -0.043101486831115365 -0.0025242499422082885 0 -0.043101486831115365 -0.0025242499422082885 0 -0.043009774020221249 -0.0023493974708400241 0 -0.043353744801928051 -0.0024035533533133535 0 -0.043009774020221249 -0.0023493974708400241 0 -0.043353744801928051 -0.0024035533533133535 0 -0.043222000847260633 -0.0021838020493658225 0 -0.043873564116823804 -0.0020695687712346889 0 -0.043733863908688678 -0.0025349983584851891 0 -0.043353744801928051 -0.0024035533533133535 0 -0.043873564116823804 -0.0020695687712346889 0 -0.043353744801928051 -0.0024035533533133535 0 -0.043222000847260633 -0.0021838020493658225 0 -0.049231622486338333 -0.012202484156632184 0 -0.049418515355001615 -0.01261057966521148 0 -0.046298974896164094 -0.0068945551989403478 0 -0.046504076913718079 -0.007353507993040213 0 -0.048852280017123294 -0.012305435863092877 0 -0.04951156041564813 -0.012447631764726191 0 -0.049612674025148483 -0.012941073085874777 0 -0.04899021019467973 -0.011938702209060419 0 -0.049526098210063298 -0.012425022580168006 0 -0.04951156041564813 -0.012447631764726191 0 -0.04951156041564813 -0.012447631764726191 0 -0.049835519322120082 -0.012979585530362329 0 -0.04969123130552041 -0.012883556035883648 0 -0.049526098210063298 -0.012425022580168006 0 -0.049145499046285172 -0.012022204757962628 0 -0.049222294775240046 -0.012033826453485628 0 -0.049255848512822928 -0.012327134546816464 0 -0.050170191835771885 -0.013060309220053298 0 -0.043009774020221249 -0.0023493974708400241 0 -0.043222000847260633 -0.0021838020493658225 0 -0.04290667287502474 -0.0025227746570740052 0 -0.04951156041564813 -0.012447631764726191 0 -0.050198522447440254 -0.013265923941623407 0 -0.049835519322120082 -0.012979585530362329 0 -0.049526098210063298 -0.012425022580168006 0 -0.04951156041564813 -0.012447631764726191 0 -0.049222294775240046 -0.012033826453485628 0 -0.046504076913718079 -0.007353507993040213 0 -0.04566679097166481 -0.0069832366391530997 0 -0.043009774020221249 -0.0023493974708400241 0 -0.042890521432199298 -0.0023924441917983243 0 -0.04290667287502474 -0.0025227746570740052 0 -0.043144110722283101 -0.0027422333391046798 0 -0.042890521432199298 -0.0023924441917983243 0 -0.04290667287502474 -0.0025227746570740052 0 -0.043144110722283101 -0.0027422333391046798 0 -0.042890521432199298 -0.0023924441917983243 0 -0.0429404647787456 -0.0023893673461976902 0 -0.042752864441887438 -0.0022557896389559097 0 -0.042890521432199298 -0.0023924441917983243 0 -0.0429404647787456 -0.0023893673461976902 0 -0.042752864441887438 -0.0022557896389559097 0 -0.042874509165109771 -0.0023715092186156663 0 -0.042890521432199298 -0.0023924441917983243 0 -0.042874509165109771 -0.0023715092186156663 0 -0.043009774020221249 -0.0023493974708400241 0 -0.042890521432199298 -0.0023924441917983243 0 -0.042874509165109771 -0.0023715092186156663 0 -0.043101486831115365 -0.0025242499422082885 0 -0.043009774020221249 -0.0023493974708400241 0 -0.043249048577719211 -0.0024393039720954851 0 -0.043735494802241308 -0.002743059856233636 0 -0.043991847166144391 -0.0023372436798393963 0 -0.043249048577719211 -0.0024393039720954851 0 -0.043991847166144391 -0.0023372436798393963 0 -0.042564046447254096 -0.0020381900211311785 0 -0.041712263744382395 -0.0025757079703303785 0 -0.042780218299680352 -0.00176465820269321 0 -0.041104962797364149 -0.0014521229797077773 0 -0.040753479497890613 -0.00090830495397176798 0 -0.042564046447254096 -0.0020381900211311785 0 -0.042752864441887438 -0.0022557896389559097 0 -0.0429404647787456 -0.0023893673461976902 0 -0.042564046447254096 -0.0020381900211311785 0 -0.043249048577719211 -0.0024393039720954851 0 -0.0429404647787456 -0.0023893673461976902 0 -0.042564046447254096 -0.0020381900211311785 0 -0.043249048577719211 -0.0024393039720954851 0 -0.0429404647787456 -0.0023893673461976902 0 -0.043308032681937073 -0.0026569157465915448 0 -0.043144110722283101 -0.0027422333391046798 0 -0.043308032681937073 -0.0026569157465915448 0 -0.043674865171383616 -0.0030951286317681291 0 -0.043144110722283101 -0.0027422333391046798 0 -0.0429404647787456 -0.0023893673461976902 0 -0.043308032681937073 -0.0026569157465915448 0 -0.043308032681937073 -0.0026569157465915448 0 -0.043735494802241308 -0.002743059856233636 0 -0.043674865171383616 -0.0030951286317681291 0 -0.043249048577719211 -0.0024393039720954851 0 -0.043308032681937073 -0.0026569157465915448 0 -0.043735494802241308 -0.002743059856233636 0 -0.045245562138679106 -0.0083058839307677147 0 -0.04826618715814323 -0.0056741673680351171 0 -0.045245562138679106 -0.0083058839307677147 0 -0.046211376855259716 -0.014371711311940811 0 -0.043735494802241308 -0.002743059856233636 0 -0.044179548947477762 -0.0026457879077894275 0 -0.044074068825703187 -0.0031779875024309169 0 -0.045245562138679106 -0.0083058839307677147 0 -0.041206163594887615 -0.0055793744314469006 0 -0.043735494802241308 -0.002743059856233636 0 -0.044179548947477762 -0.0026457879077894275 0 -0.043991847166144391 -0.0023372436798393963 0 -0.039152665694913075 -0.017543317474587899 0 -0.039094545463293953 -0.017753056067853618 0 -0.037770762204862057 -0.017217120329754067 0 -0.039011585194407533 -0.0020872882929590824 0 -0.039670489703155343 -0.002217846013523156 0 -0.038643785627211283 -0.0015633924431992853 0 -0.041206163594887615 -0.0055793744314469006 0 -0.038033723927883865 -0.0099257444237032671 0 -0.039152665694913075 -0.017543317474587899 0 -0.037770762204862057 -0.017217120329754067 0 -0.038387799718958587 -0.016513485109304896 0 -0.039011585194407533 -0.0020872882929590824 0 -0.038339740095013217 -0.0021501062255838291 0 -0.038643785627211283 -0.0015633924431992853 0 -0.039411907982112637 -0.0024611920300724364 0 -0.039670489703155343 -0.002217846013523156 0 -0.039788984435947493 -0.0024621048954678515 0 -0.039011585194407533 -0.0020872882929590824 0 -0.038852889530930725 -0.0024719862297664739 0 -0.038339740095013217 -0.0021501062255838291 0 -0.039011585194407533 -0.0020872882929590824 0 -0.039295829133632471 -0.0022934796135572395 0 -0.038852889530930725 -0.0024719862297664739 0 -0.039011585194407533 -0.0020872882929590824 0 -0.039295829133632471 -0.0022934796135572395 0 -0.039670489703155343 -0.002217846013523156 0 -0.039295829133632471 -0.0022934796135572395 0 -0.039411907982112637 -0.0024611920300724364 0 -0.039670489703155343 -0.002217846013523156 0 -0.039295829133632471 -0.0022934796135572395 0 -0.039411907982112637 -0.0024611920300724364 0 -0.038852889530930725 -0.0024719862297664739 0 -0.041206163594887615 -0.0055793744314469006 0 -0.039807078974017571 -0.00087549530986983748 0 -0.040746041982208811 -0.00090474394726084459 0 -0.040208395469860436 -0.00058359235443127412 0 -0.039788984435947493 -0.0024621048954678515 0 -0.041104962797364149 -0.0014521229797077773 0 -0.040746041982208811 -0.00090474394726084459 0 -0.039788984435947493 -0.0024621048954678515 0 -0.045245562138679106 -0.0083058839307677147 0 -0.041712263744382395 -0.0025757079703303785 0 -0.043875099886836466 -0.0064762770874123247 0 -0.041910927047296077 -0.00344342947277626 0 -0.044285984503038014 -0.0049176930132351629 0 -0.041712263744382395 -0.0025757079703303785 0 -0.041206163594887615 -0.0055793744314469006 0 -0.040944190797818955 -0.001299276083310907 0 -0.041712263744382395 -0.0025757079703303785 0 -0.041104962797364149 -0.0014521229797077773 0 -0.040879633002228882 -0.0023372497725784444 0 -0.039788984435947493 -0.0024621048954678515 0 -0.040879633002228882 -0.0023372497725784444 0 -0.039788984435947493 -0.0024621048954678515 0 -0.039782188828127785 -0.0029633576097537143 0 -0.039788984435947493 -0.0024621048954678515 0 -0.039782188828127785 -0.0029633576097537143 0 -0.039003668860137335 -0.0030287781694061542 0 -0.039411907982112637 -0.0024611920300724364 0 -0.039788984435947493 -0.0024621048954678515 0 -0.039003668860137335 -0.0030287781694061542 0 -0.039411907982112637 -0.0024611920300724364 0 -0.038852889530930725 -0.0024719862297664739 0 -0.039003668860137335 -0.0030287781694061542 0 -0.040879633002228882 -0.0023372497725784444 0 -0.039782188828127785 -0.0029633576097537143 0 -0.040557243574241862 -0.0027164239882806278 0 -0.040879633002228882 -0.0023372497725784444 0 -0.041240914550738514 -0.0025472847128732803 0 -0.040557243574241862 -0.0027164239882806278 0 -0.041240914550738514 -0.0025472847128732803 0 -0.042564046447254096 -0.0020381900211311785 0 -0.04198773827638045 -0.0024947686995140314 0 -0.041104962797364149 -0.0014521229797077773 0 -0.040879633002228882 -0.0023372497725784444 0 -0.042564046447254096 -0.0020381900211311785 0 -0.040879633002228882 -0.0023372497725784444 0 -0.041240914550738514 -0.0025472847128732803 0 -0.042564046447254096 -0.0020381900211311785 0 -0.042489376021630054 -0.0024055651889533067 0 -0.042752864441887438 -0.0022557896389559097 0 -0.042564046447254096 -0.0020381900211311785 0 -0.042489376021630054 -0.0024055651889533067 0 -0.04198773827638045 -0.0024947686995140314 0 -0.042176514977676764 -0.0025178125450778738 0 -0.042489376021630054 -0.0024055651889533067 0 -0.042564046447254096 -0.0020381900211311785 0 -0.04198773827638045 -0.0024947686995140314 0 -0.04198773827638045 -0.0024947686995140314 0 -0.042176514977676764 -0.0025178125450778738 0 -0.041481482335025209 -0.0025491057089828259 0 -0.041240914550738514 -0.0025472847128732803 0 -0.041481482335025209 -0.0025491057089828259 0 -0.040557243574241862 -0.0027164239882806278 0 -0.041240914550738514 -0.0025472847128732803 0 -0.04198773827638045 -0.0024947686995140314 0 -0.041481482335025209 -0.0025491057089828259 0 -0.041481482335025209 -0.0025491057089828259 0 -0.041630259335785721 -0.0024185987414332057 0 -0.042217750013814205 -0.0024715250403811694 0 -0.041481482335025209 -0.0025491057089828259 0 -0.041630259335785721 -0.0024185987414332057 0 -0.040479299440380243 -0.0025054391977060299 0 -0.042176514977676764 -0.0025178125450778738 0 -0.041481482335025209 -0.0025491057089828259 0 -0.042217750013814205 -0.0024715250403811694 0 -0.042416962587606563 -0.0025057132974563609 0 -0.042176514977676764 -0.0025178125450778738 0 -0.042217750013814205 -0.0024715250403811694 0 -0.041630259335785721 -0.0024185987414332057 0 -0.042217750013814205 -0.0024715250403811694 0 -0.042224269161597106 -0.0023895179355206777 0 -0.042671972147165733 -0.0024459907473000915 0 -0.042217750013814205 -0.0024715250403811694 0 -0.042224269161597106 -0.0023895179355206777 0 -0.041630259335785721 -0.0024185987414332057 0 -0.041590181534900544 -0.0023802087159508229 0 -0.042224269161597106 -0.0023895179355206777 0 -0.041590181534900544 -0.0023802087159508229 0 -0.042224269161597106 -0.0023895179355206777 0 -0.04120374821289062 -0.0024311627293430141 0 -0.041630259335785721 -0.0024185987414332057 0 -0.041590181534900544 -0.0023802087159508229 0 -0.040966289345423824 -0.00228857390829343 0 -0.042254739882958227 -0.0026331922219883894 0 -0.042224269161597106 -0.0023895179355206777 0 -0.0415288115398946 -0.0027335110846138343 0 -0.042224269161597106 -0.0023895179355206777 0 -0.0415288115398946 -0.0027335110846138343 0 -0.04120374821289062 -0.0024311627293430141 0 -0.042254739882958227 -0.0026331922219883894 0 -0.042224269161597106 -0.0023895179355206777 0 -0.042975752202936306 -0.0022735602392951726 0 -0.042671972147165733 -0.0024459907473000915 0 -0.042224269161597106 -0.0023895179355206777 0 -0.042975752202936306 -0.0022735602392951726 0 -0.040123922152477287 -0.0020742545835007666 0 -0.0406971622568248 -0.0026933486306168876 0 -0.039602831011563054 -0.0028527828164556087 0 -0.040123922152477287 -0.0020742545835007666 0 -0.0406971622568248 -0.0026933486306168876 0 -0.04120374821289062 -0.0024311627293430141 0 -0.0406971622568248 -0.0026933486306168876 0 -0.0415288115398946 -0.0027335110846138343 0 -0.04120374821289062 -0.0024311627293430141 0 -0.04120374821289062 -0.0024311627293430141 0 -0.040966289345423824 -0.00228857390829343 0 -0.040215006666698312 -0.0020865089754382384 0 -0.041590181534900544 -0.0023802087159508229 0 -0.04120374821289062 -0.0024311627293430141 0 -0.040966289345423824 -0.00228857390829343 0 -0.040123922152477287 -0.0020742545835007666 0 -0.040215006666698312 -0.0020865089754382384 0 -0.039534299937779044 -0.0017697008322140636 0 -0.040123922152477287 -0.0020742545835007666 0 -0.04120374821289062 -0.0024311627293430141 0 -0.040215006666698312 -0.0020865089754382384 0 -0.040215006666698312 -0.0020865089754382384 0 -0.039560370513263159 -0.0025028040354240716 0 -0.039534299937779044 -0.0017697008322140636 0 -0.040215006666698312 -0.0020865089754382384 0 -0.040479299440380243 -0.0025054391977060299 0 -0.039560370513263159 -0.0025028040354240716 0 -0.041630259335785721 -0.0024185987414332057 0 -0.040966289345423824 -0.00228857390829343 0 -0.040479299440380243 -0.0025054391977060299 0 -0.040966289345423824 -0.00228857390829343 0 -0.040215006666698312 -0.0020865089754382384 0 -0.040479299440380243 -0.0025054391977060299 0 -0.039782188828127785 -0.0029633576097537143 0 -0.040479299440380243 -0.0025054391977060299 0 -0.040557243574241862 -0.0027164239882806278 0 -0.041481482335025209 -0.0025491057089828259 0 -0.040479299440380243 -0.0025054391977060299 0 -0.040557243574241862 -0.0027164239882806278 0 -0.039782188828127785 -0.0029633576097537143 0 -0.039560370513263159 -0.0025028040354240716 0 -0.03899240805036748 -0.0037076279223844382 0 -0.039782188828127785 -0.0029633576097537143 0 -0.040479299440380243 -0.0025054391977060299 0 -0.039560370513263159 -0.0025028040354240716 0 -0.039714618801927254 -0.0027788231516159678 0 -0.039560370513263159 -0.0025028040354240716 0 -0.03899240805036748 -0.0037076279223844382 0 -0.039714618801927254 -0.0027788231516159678 0 -0.040559300204288724 -0.0030771198567670689 0 -0.03899240805036748 -0.0037076279223844382 0 -0.039714618801927254 -0.0027788231516159678 0 -0.040559300204288724 -0.0030771198567670689 0 -0.039999967225914423 -0.0020990781450450371 0 -0.036356246134232467 -0.0024822093939324669 0 -0.038368103032878589 0.0014271191297545057 0 -0.036356246134232467 -0.0024822093939324669 0 -0.039624921863174269 -0.0039480765306388775 0 -0.035139628327606733 0.0072474289890423742 0 -0.036972492521787644 0.00359030427575803 0 -0.033461456077597408 0.0042943231499173043 0 -0.039714618801927254 -0.0027788231516159678 0 -0.039999967225914423 -0.0020990781450450371 0 -0.039560370513263159 -0.0025028040354240716 0 -0.039999967225914423 -0.0020990781450450371 0 -0.039560370513263159 -0.0025028040354240716 0 -0.039534299937779044 -0.0017697008322140636 0 -0.040123922152477287 -0.0020742545835007666 0 -0.0391193047289419 -0.00096284709836818292 0 -0.039534299937779044 -0.0017697008322140636 0 -0.039999967225914423 -0.0020990781450450371 0 -0.0391193047289419 -0.00096284709836818292 0 -0.039534299937779044 -0.0017697008322140636 0 -0.036972492521787644 0.00359030427575803 0 -0.035704825859821862 -0.0015206966978430984 0 -0.033139977980507114 0.0014694718391875397 0 -0.036972492521787644 0.00359030427575803 0 -0.0391193047289419 -0.00096284709836818292 0 -0.035704825859821862 -0.0015206966978430984 0 -0.038368103032878589 0.0014271191297545057 0 -0.03919587729261078 -0.0010804846283750231 0 -0.0391193047289419 -0.00096284709836818292 0 -0.035704825859821862 -0.0015206966978430984 0 -0.038194648568267452 -0.002502129197782945 0 -0.037579524198396441 -0.0044421421774720289 0 -0.035704825859821862 -0.0015206966978430984 0 -0.038194648568267452 -0.002502129197782945 0 -0.040123922152477287 -0.0020742545835007666 0 -0.0391193047289419 -0.00096284709836818292 0 -0.039602831011563054 -0.0028527828164556087 0 -0.0391193047289419 -0.00096284709836818292 0 -0.038194648568267452 -0.002502129197782945 0 -0.039602831011563054 -0.0028527828164556087 0 -0.030557361648538187 -0.0016290219939082897 0 -0.028238806453692672 -0.00069229425240386873 0 -0.033086902462262494 -0.003481277191097888 0 -0.028004408972260999 -0.00054127080423459976 0 -0.030344981029086344 0.00085951357215459248 0 -0.033086902462262494 -0.003481277191097888 0 -0.033139977980507114 0.0014694718391875397 0 -0.030344981029086344 0.00085951357215459248 0 -0.033086902462262494 -0.003481277191097888 0 -0.035704825859821862 -0.0015206966978430984 0 -0.033139977980507114 0.0014694718391875397 0 -0.033139977980507114 0.0014694718391875397 0 -0.030344981029086344 0.00085951357215459248 0 -0.030087547405345669 0.0048159455750609583 0 -0.02823977557675722 0.0014494570683314357 0 -0.030344981029086344 0.00085951357215459248 0 -0.030087547405345669 0.0048159455750609583 0 -0.033139977980507114 0.0014694718391875397 0 -0.030087547405345669 0.0048159455750609583 0 -0.033461456077597408 0.0042943231499173043 0 -0.036972492521787644 0.00359030427575803 0 -0.033139977980507114 0.0014694718391875397 0 -0.033461456077597408 0.0042943231499173043 0 -0.035139628327606733 0.0072474289890423742 0 -0.030087547405345669 0.0048159455750609583 0 -0.033461456077597408 0.0042943231499173043 0 -0.036356246134232467 -0.0024822093939324669 0 -0.031516424308932575 -0.0022946196990873834 0 -0.035901071571594986 -0.0080826121550042797 0 -0.033039600675428264 -0.009229018302139411 0 -0.033137359261618565 -0.0078311647557450809 0 -0.031680831462077522 -0.0079556312818379552 0 -0.033039600675428264 -0.009229018302139411 0 -0.033137359261618565 -0.0078311647557450809 0 -0.032381124986423496 -0.0066013503379103783 0 -0.032903257560263584 -0.0070937440562821238 0 -0.03423555703729065 -0.0067957637227372943 0 -0.032036025203220013 -0.0071631335796034975 0 -0.033137359261618565 -0.0078311647557450809 0 -0.032903257560263584 -0.0070937440562821238 0 -0.033137359261618565 -0.0078311647557450809 0 -0.032903257560263584 -0.0070937440562821238 0 -0.03423555703729065 -0.0067957637227372943 0 -0.032442035074460321 -0.0051491298094335902 0 -0.034169325682958503 -0.006776169193079511 0 -0.032796155360134964 -0.0042835306132056796 0 -0.034788884017091591 -0.0042039428330756714 0 -0.03423555703729065 -0.0067957637227372943 0 -0.03199613380291335 -0.0058222102504452474 0 -0.032381124986423496 -0.0066013503379103783 0 -0.03423555703729065 -0.0067957637227372943 0 -0.034788884017091591 -0.0042039428330756714 0 -0.036104306440871994 -0.0043382182067903214 0 -0.036392260058473659 -0.0036411223633500971 0 -0.034783832246983878 -0.0039675275700612363 0 -0.035875675401446101 -0.0059145170933372791 0 -0.035901071571594986 -0.0080826121550042797 0 -0.033137359261618565 -0.0078311647557450809 0 -0.03423555703729065 -0.0067957637227372943 0 -0.036356246134232467 -0.0024822093939324669 0 -0.035875675401446101 -0.0059145170933372791 0 -0.034788884017091591 -0.0042039428330756714 0 -0.035230712755912878 -0.0063402683916056564 0 -0.03423555703729065 -0.0067957637227372943 0 -0.035901071571594986 -0.0080826121550042797 0 -0.035230712755912878 -0.0063402683916056564 0 -0.03423555703729065 -0.0067957637227372943 0 -0.036854301802331221 -0.0054052255597936642 0 -0.036104306440871994 -0.0043382182067903214 0 -0.037526554654808295 -0.0038475055229493117 0 -0.036854301802331221 -0.0054052255597936642 0 -0.037526554654808295 -0.0038475055229493117 0 -0.03899240805036748 -0.0037076279223844382 0 -0.037526554654808295 -0.0038475055229493117 0 -0.03899240805036748 -0.0037076279223844382 0 -0.039003668860137335 -0.0030287781694061542 0 -0.039782188828127785 -0.0029633576097537143 0 -0.03899240805036748 -0.0037076279223844382 0 -0.039003668860137335 -0.0030287781694061542 0 -0.037526554654808295 -0.0038475055229493117 0 -0.039003668860137335 -0.0030287781694061542 0 -0.037754169609525205 -0.0029276281651987087 0 -0.037526554654808295 -0.0038475055229493117 0 -0.036392260058473659 -0.0036411223633500971 0 -0.037754169609525205 -0.0029276281651987087 0 -0.036104306440871994 -0.0043382182067903214 0 -0.037526554654808295 -0.0038475055229493117 0 -0.036392260058473659 -0.0036411223633500971 0 -0.036518491448022723 -0.0027858860175691809 0 -0.037754169609525205 -0.0029276281651987087 0 -0.037347894404056649 -0.0020994768548337466 0 -0.036392260058473659 -0.0036411223633500971 0 -0.036518491448022723 -0.0027858860175691809 0 -0.037754169609525205 -0.0029276281651987087 0 -0.037754169609525205 -0.0029276281651987087 0 -0.038339740095013217 -0.0021501062255838291 0 -0.037347894404056649 -0.0020994768548337466 0 -0.038852889530930725 -0.0024719862297664739 0 -0.037754169609525205 -0.0029276281651987087 0 -0.038339740095013217 -0.0021501062255838291 0 -0.038852889530930725 -0.0024719862297664739 0 -0.039003668860137335 -0.0030287781694061542 0 -0.037754169609525205 -0.0029276281651987087 0 -0.038643785627211283 -0.0015633924431992853 0 -0.037347894404056649 -0.0020994768548337466 0 -0.036683563855220397 -0.00087544222521565996 0 -0.038339740095013217 -0.0021501062255838291 0 -0.038643785627211283 -0.0015633924431992853 0 -0.037347894404056649 -0.0020994768548337466 0 -0.037347894404056649 -0.0020994768548337466 0 -0.035855034131490507 -0.0018813608079783605 0 -0.036683563855220397 -0.00087544222521565996 0 -0.036518491448022723 -0.0027858860175691809 0 -0.037347894404056649 -0.0020994768548337466 0 -0.035855034131490507 -0.0018813608079783605 0 -0.035855034131490507 -0.0018813608079783605 0 -0.033809292261107252 -0.0023384619014161293 0 -0.034938744542607453 -0.0030476918346821293 0 -0.036518491448022723 -0.0027858860175691809 0 -0.035855034131490507 -0.0018813608079783605 0 -0.034938744542607453 -0.0030476918346821293 0 -0.033809292261107252 -0.0023384619014161293 0 -0.033331601897935187 -0.0029399193850554515 0 -0.034938744542607453 -0.0030476918346821293 0 -0.032191840154811198 -0.0030434729444231059 0 -0.033331601897935187 -0.0029399193850554515 0 -0.03277182291274041 -0.0025719953775623326 0 -0.033809292261107252 -0.0023384619014161293 0 -0.033331601897935187 -0.0029399193850554515 0 -0.03277182291274041 -0.0025719953775623326 0 -0.032796155360134964 -0.0042835306132056796 0 -0.03265560661379549 -0.003436430663429186 0 -0.033744968573908206 -0.0035829489176443618 0 -0.032796155360134964 -0.0042835306132056796 0 -0.034788884017091591 -0.0042039428330756714 0 -0.033744968573908206 -0.0035829489176443618 0 -0.033331601897935187 -0.0029399193850554515 0 -0.033744968573908206 -0.0035829489176443618 0 -0.034938744542607453 -0.0030476918346821293 0 -0.034788884017091591 -0.0042039428330756714 0 -0.033744968573908206 -0.0035829489176443618 0 -0.034938744542607453 -0.0030476918346821293 0 -0.03265560661379549 -0.003436430663429186 0 -0.033331601897935187 -0.0029399193850554515 0 -0.033744968573908206 -0.0035829489176443618 0 -0.036392260058473659 -0.0036411223633500971 0 -0.036518491448022723 -0.0027858860175691809 0 -0.034938744542607453 -0.0030476918346821293 0 -0.034788884017091591 -0.0042039428330756714 0 -0.036392260058473659 -0.0036411223633500971 0 -0.034938744542607453 -0.0030476918346821293 0 -0.034234216373047688 -0.0079678381084804083 0 -0.036309385160002178 -0.008661487282671609 0 -0.033467959786140866 -0.015572649682307033 0 -0.035500740343414813 -0.014711309146058267 0 -0.033959548301196046 -0.014082267708874403 0 -0.035153962217209157 -0.00049466817813492324 0 -0.034906137709735011 -0.00084040075959437833 0 -0.035645352666350459 -0.00099842939685070974 0 -0.034332804124366033 -0.00032650857072429235 0 -0.035153962217209157 -0.00049466817813492324 0 -0.034663866646382331 -0.00051678638665806189 0 -0.03318064329181606 -0.00095560520529949116 0 -0.03418263055974291 -0.0014532215010442488 0 -0.034253199577833876 -0.00043182619348973222 0 -0.034663866646382331 -0.00051678638665806189 0 -0.034906137709735011 -0.00084040075959437833 0 -0.03184487769962277 -0.0022598232432778464 0 -0.033313432842241648 -0.0018184612486031328 0 -0.032356589461642521 -0.0022178030802838338 0 -0.03184487769962277 -0.0022598232432778464 0 -0.031487026196141694 -0.002179779543554269 0 -0.033313432842241648 -0.0018184612486031328 0 -0.032860645274924043 -0.0075372950609521629 0 -0.034234216373047688 -0.0079678381084804083 0 -0.035153962217209157 -0.00049466817813492324 0 -0.034663866646382331 -0.00051678638665806189 0 -0.034906137709735011 -0.00084040075959437833 0 -0.032231770141134743 -0.0024647879332246221 0 -0.032356589461642521 -0.0022178030802838338 0 -0.032857459219656382 -0.0022260087194945185 0 -0.033313432842241648 -0.0018184612486031328 0 -0.032356589461642521 -0.0022178030802838338 0 -0.032857459219656382 -0.0022260087194945185 0 -0.033809292261107252 -0.0023384619014161293 0 -0.032857459219656382 -0.0022260087194945185 0 -0.03277182291274041 -0.0025719953775623326 0 -0.032231770141134743 -0.0024647879332246221 0 -0.032857459219656382 -0.0022260087194945185 0 -0.03277182291274041 -0.0025719953775623326 0 -0.033809292261107252 -0.0023384619014161293 0 -0.033313432842241648 -0.0018184612486031328 0 -0.032857459219656382 -0.0022260087194945185 0 -0.035153962217209157 -0.00049466817813492324 0 -0.035645352666350459 -0.00099842939685070974 0 -0.036683563855220397 -0.00087544222521565996 0 -0.035855034131490507 -0.0018813608079783605 0 -0.034906137709735011 -0.00084040075959437833 0 -0.035645352666350459 -0.00099842939685070974 0 -0.035740485128262993 -0.0019694984433554687 0 -0.03418263055974291 -0.0014532215010442488 0 -0.035855034131490507 -0.0018813608079783605 0 -0.033809292261107252 -0.0023384619014161293 0 -0.033313432842241648 -0.0018184612486031328 0 -0.035855034131490507 -0.0018813608079783605 0 -0.035645352666350459 -0.00099842939685070974 0 -0.036683563855220397 -0.00087544222521565996 0 -0.037770762204862057 -0.017217120329754067 0 -0.035887828485034058 -0.016547295229369964 0 -0.037246683908956066 -0.016309298646243139 0 -0.038033723927883865 -0.0099257444237032671 0 -0.036309385160002178 -0.008661487282671609 0 -0.037246683908956066 -0.016309298646243139 0 -0.037483495259511258 -0.014938686257777511 0 -0.038387799718958587 -0.016513485109304896 0 -0.035887828485034058 -0.016547295229369964 0 -0.037246683908956066 -0.016309298646243139 0 -0.037483495259511258 -0.014938686257777511 0 -0.035887828485034058 -0.016547295229369964 0 -0.037483495259511258 -0.014938686257777511 0 -0.035500740343414813 -0.014711309146058267 0 -0.033467959786140866 -0.015572649682307033 0 -0.035887828485034058 -0.016547295229369964 0 -0.035500740343414813 -0.014711309146058267 0 -0.035500740343414813 -0.014711309146058267 0 -0.034936949599205888 -0.013182721368026864 0 -0.036408552296965463 -0.013023413633434599 0 -0.037483495259511258 -0.014938686257777511 0 -0.035500740343414813 -0.014711309146058267 0 -0.036408552296965463 -0.013023413633434599 0 -0.05445411534080237 -0.012187222516013877 0 -0.054488629742756346 -0.013294259964191684 0 -0.054488510418818359 -0.013511418880511735 0 -0.045849728815255661 -0.013386179378588542 0 -0.0453279458747518 -0.013167987277399883 0 -0.054488629742756346 -0.013294259964191684 0 -0.054997123279200352 -0.01332194195053539 0 -0.054158224968008734 -0.014174304579903919 0 -0.054488629742756346 -0.013294259964191684 0 -0.054997123279200352 -0.01332194195053539 0 -0.054488510418818359 -0.013511418880511735 0 -0.054997123279200352 -0.01332194195053539 0 -0.054881669645707037 -0.014682908327770722 0 -0.054158224968008734 -0.014174304579903919 0 -0.054997123279200352 -0.01332194195053539 0 -0.054488510418818359 -0.013511418880511735 0 -0.052048245922451941 -0.011109867777545863 0 -0.034936949599205888 -0.013182721368026864 0 -0.036408552296965463 -0.013023413633434599 0 -0.034963090450948121 -0.010592185376635251 0 -0.0453279458747518 -0.013167987277399883 0 -0.044023747586108837 -0.010839958364543146 0 -0.034936949599205888 -0.013182721368026864 0 -0.033337002395295183 -0.012842754112744883 0 -0.034963090450948121 -0.010592185376635251 0 -0.033337002395295183 -0.012842754112744883 0 -0.032611340101980205 -0.011376439189197471 0 -0.034963090450948121 -0.010592185376635251 0 -0.034936949599205888 -0.013182721368026864 0 -0.033337002395295183 -0.012842754112744883 0 -0.033959548301196046 -0.014082267708874403 0 -0.033337002395295183 -0.012842754112744883 0 -0.033959548301196046 -0.014082267708874403 0 -0.032431448672373103 -0.014046390424313878 0 -0.033467959786140866 -0.015572649682307033 0 -0.033959548301196046 -0.014082267708874403 0 -0.032431448672373103 -0.014046390424313878 0 -0.035500740343414813 -0.014711309146058267 0 -0.034936949599205888 -0.013182721368026864 0 -0.033959548301196046 -0.014082267708874403 0 -0.030596439941035874 -0.014140523800018599 0 -0.033467959786140866 -0.015572649682307033 0 -0.032431448672373103 -0.014046390424313878 0 -0.030596439941035874 -0.014140523800018599 0 -0.032431448672373103 -0.014046390424313878 0 -0.031475004161224757 -0.013423663950831395 0 -0.033337002395295183 -0.012842754112744883 0 -0.032431448672373103 -0.014046390424313878 0 -0.032222557010790978 -0.01304243008692862 0 -0.032431448672373103 -0.014046390424313878 0 -0.032222557010790978 -0.01304243008692862 0 -0.031475004161224757 -0.013423663950831395 0 -0.032222557010790978 -0.01304243008692862 0 -0.031475004161224757 -0.013423663950831395 0 -0.031452762800337451 -0.012640040269696153 0 -0.030750433099187974 -0.012933414366530227 0 -0.030596439941035874 -0.014140523800018599 0 -0.031475004161224757 -0.013423663950831395 0 -0.030750433099187974 -0.012933414366530227 0 -0.031475004161224757 -0.013423663950831395 0 -0.031452762800337451 -0.012640040269696153 0 -0.030513093307946656 -0.011946057613310903 0 -0.030750433099187974 -0.012933414366530227 0 -0.031452762800337451 -0.012640040269696153 0 -0.031452762800337451 -0.012640040269696153 0 -0.032273750875127766 -0.012286719586445238 0 -0.031481358757547769 -0.01160731996476397 0 -0.030513093307946656 -0.011946057613310903 0 -0.031452762800337451 -0.012640040269696153 0 -0.031481358757547769 -0.01160731996476397 0 -0.033337002395295183 -0.012842754112744883 0 -0.032222557010790978 -0.01304243008692862 0 -0.032273750875127766 -0.012286719586445238 0 -0.033337002395295183 -0.012842754112744883 0 -0.032273750875127766 -0.012286719586445238 0 -0.032611340101980205 -0.011376439189197471 0 -0.032222557010790978 -0.01304243008692862 0 -0.031452762800337451 -0.012640040269696153 0 -0.032273750875127766 -0.012286719586445238 0 -0.032273750875127766 -0.012286719586445238 0 -0.032611340101980205 -0.011376439189197471 0 -0.031481358757547769 -0.01160731996476397 0 -0.030513093307946656 -0.011946057613310903 0 -0.030516145730242045 -0.010700414846449102 0 -0.031481358757547769 -0.01160731996476397 0 -0.030516145730242045 -0.010700414846449102 0 -0.031481358757547769 -0.01160731996476397 0 -0.031950144273087462 -0.010127514465151007 0 -0.032611340101980205 -0.011376439189197471 0 -0.031481358757547769 -0.01160731996476397 0 -0.031950144273087462 -0.010127514465151007 0 -0.031950144273087462 -0.010127514465151007 0 -0.030625661798650745 -0.0094276399544729259 0 -0.031847556179070695 -0.0086323008966394492 0 -0.030516145730242045 -0.010700414846449102 0 -0.031950144273087462 -0.010127514465151007 0 -0.030625661798650745 -0.0094276399544729259 0 -0.032611340101980205 -0.011376439189197471 0 -0.031950144273087462 -0.010127514465151007 0 -0.034963090450948121 -0.010592185376635251 0 -0.031950144273087462 -0.010127514465151007 0 -0.031847556179070695 -0.0086323008966394492 0 -0.034963090450948121 -0.010592185376635251 0 -0.033012166371762616 -0.0077590403748712235 0 -0.031847556179070695 -0.0086323008966394492 0 -0.034963090450948121 -0.010592185376635251 0 -0.050344007947775278 -0.0087330540527984779 0 -0.052048245922451941 -0.011109867777545863 0 -0.053261333158384973 -0.010221323342864592 0 -0.050344007947775278 -0.0087330540527984779 0 -0.051808373122498842 -0.0076920467044476028 0 -0.053261333158384973 -0.010221323342864592 0 -0.037413508677979455 -0.0094062385079091929 0 -0.044023747586108837 -0.010839958364543146 0 -0.032502929099106778 -0.007998993827178294 0 -0.031847556179070695 -0.0086323008966394492 0 -0.030707700567142029 -0.0076955274334854157 0 -0.030625661798650745 -0.0094276399544729259 0 -0.030680536498749092 -0.0084963451978527088 0 -0.031847556179070695 -0.0086323008966394492 0 -0.037413508677979455 -0.0094062385079091929 0 -0.032965561159101382 -0.0098653131945041512 0 -0.030680536498749092 -0.0084963451978527088 0 -0.031847556179070695 -0.0086323008966394492 0 -0.030707700567142029 -0.0076955274334854157 0 -0.037413508677979455 -0.0094062385079091929 0 -0.031938443127966155 -0.00923496640346343 0 -0.035423382689398153 -0.015048044475814613 0 -0.035304244598988621 -0.012978907241488041 0 -0.033466313405880271 -0.012192240439411963 0 -0.032502929099106778 -0.007998993827178294 0 -0.030707700567142029 -0.0076955274334854157 0 -0.030538832407180447 -0.0058734581689150684 0 -0.035423382689398153 -0.015048044475814613 0 -0.035304244598988621 -0.012978907241488041 0 -0.036918246735972479 -0.013831783713803145 0 -0.037413508677979455 -0.0094062385079091929 0 -0.046363068460298161 -0.015220396398251025 0 -0.035304244598988621 -0.012978907241488041 0 -0.036918246735972479 -0.013831783713803145 0 -0.035411758900368087 -0.010842587598149647 0 -0.046363068460298161 -0.015220396398251025 0 -0.037495380085745468 -0.015091560730222699 0 -0.035411758900368087 -0.010842587598149647 0 -0.033466313405880271 -0.012192240439411963 0 -0.033535903887114901 -0.010079114653074641 0 -0.035304244598988621 -0.012978907241488041 0 -0.035411758900368087 -0.010842587598149647 0 -0.033466313405880271 -0.012192240439411963 0 -0.040480186669094038 -0.019960469415477355 0 -0.039660240547155626 -0.018459757976510678 0 -0.041834409923560301 -0.018874421358810484 0 -0.055773320518780395 -0.020331092665526823 0 -0.056143185592430686 -0.020760009287014828 0 -0.05531097488800521 -0.020746209539341236 0 -0.056119596565104631 -0.020604231907872136 0 -0.055773320518780395 -0.020331092665526823 0 -0.056143185592430686 -0.020760009287014828 0 -0.052024286417855378 -0.021548368305148315 0 -0.051699388650700812 -0.021695079625051898 0 -0.056119596565104631 -0.020604231907872136 0 -0.055773320518780395 -0.020331092665526823 0 -0.056050451908971503 -0.019787698742274939 0 -0.058338090855377181 -0.018927597287049163 0 -0.056119596565104631 -0.020604231907872136 0 -0.056156556483281862 -0.020897855512679451 0 -0.058338090855377181 -0.018927597287049163 0 -0.056737608518706149 -0.019125747123773507 0 -0.05705227691699951 -0.01789509897725464 0 -0.046363068460298161 -0.015220396398251025 0 -0.051699388650700812 -0.021695079625051898 0 -0.058338090855377181 -0.018927597287049163 0 -0.056119596565104631 -0.020604231907872136 0 -0.056737608518706149 -0.019125747123773507 0 -0.056737608518706149 -0.019125747123773507 0 -0.056050451908971503 -0.019787698742274939 0 -0.055281788443607864 -0.019591782315578524 0 -0.056737608518706149 -0.019125747123773507 0 -0.055281788443607864 -0.019591782315578524 0 -0.05588293750127598 -0.017343476802349832 0 -0.056119596565104631 -0.020604231907872136 0 -0.056737608518706149 -0.019125747123773507 0 -0.056050451908971503 -0.019787698742274939 0 -0.055773320518780395 -0.020331092665526823 0 -0.056050451908971503 -0.019787698742274939 0 -0.055281788443607864 -0.019591782315578524 0 -0.055281788443607864 -0.019591782315578524 0 -0.05588293750127598 -0.017343476802349832 0 -0.054240878669889525 -0.017190343362307313 0 -0.056737608518706149 -0.019125747123773507 0 -0.05588293750127598 -0.017343476802349832 0 -0.05705227691699951 -0.01789509897725464 0 -0.05588293750127598 -0.017343476802349832 0 -0.054598093389525114 -0.015687145524301577 0 -0.054240878669889525 -0.017190343362307313 0 -0.058338090855377181 -0.018927597287049163 0 -0.05705227691699951 -0.01789509897725464 0 -0.057193436096332199 -0.016166499153374973 0 -0.046363068460298161 -0.015220396398251025 0 -0.056254448398063227 -0.013241949451140494 0 -0.05588293750127598 -0.017343476802349832 0 -0.05705227691699951 -0.01789509897725464 0 -0.057193436096332199 -0.016166499153374973 0 -0.054997123279200352 -0.01332194195053539 0 -0.052048245922451941 -0.011109867777545863 0 -0.053261333158384973 -0.010221323342864592 0 -0.054810014242755736 -0.013266744420133243 0 -0.056254448398063227 -0.013241949451140494 0 -0.054997123279200352 -0.01332194195053539 0 -0.055618096404615978 -0.015478792631525453 0 -0.054881669645707037 -0.014682908327770722 0 -0.054997123279200352 -0.01332194195053539 0 -0.057193436096332199 -0.016166499153374973 0 -0.055618096404615978 -0.015478792631525453 0 -0.05588293750127598 -0.017343476802349832 0 -0.054598093389525114 -0.015687145524301577 0 -0.055618096404615978 -0.015478792631525453 0 -0.05588293750127598 -0.017343476802349832 0 -0.057193436096332199 -0.016166499153374973 0 -0.055618096404615978 -0.015478792631525453 0 -0.054598093389525114 -0.015687145524301577 0 -0.054881669645707037 -0.014682908327770722 0 -0.054158224968008734 -0.014174304579903919 0 -0.054598093389525114 -0.015687145524301577 0 -0.055618096404615978 -0.015478792631525453 0 -0.054881669645707037 -0.014682908327770722 0 -0.054598093389525114 -0.015687145524301577 0 -0.053758409876818437 -0.015102339895439364 0 -0.054158224968008734 -0.014174304579903919 0 -0.053758409876818437 -0.015102339895439364 0 -0.053256596049047332 -0.016022215594997783 0 -0.053006391004706485 -0.014519423188886955 0 -0.054598093389525114 -0.015687145524301577 0 -0.053758409876818437 -0.015102339895439364 0 -0.053256596049047332 -0.016022215594997783 0 -0.051864287571836455 -0.015617147624655502 0 -0.051898181016581571 -0.01440245474195437 0 -0.053006391004706485 -0.014519423188886955 0 -0.053256596049047332 -0.016022215594997783 0 -0.051864287571836455 -0.015617147624655502 0 -0.053006391004706485 -0.014519423188886955 0 -0.053256596049047332 -0.016022215594997783 0 -0.051864287571836455 -0.015617147624655502 0 -0.052223316808826019 -0.01758326881366996 0 -0.055281788443607864 -0.019591782315578524 0 -0.052223316808826019 -0.01758326881366996 0 -0.054240878669889525 -0.017190343362307313 0 -0.053256596049047332 -0.016022215594997783 0 -0.052223316808826019 -0.01758326881366996 0 -0.054240878669889525 -0.017190343362307313 0 -0.054598093389525114 -0.015687145524301577 0 -0.053256596049047332 -0.016022215594997783 0 -0.054240878669889525 -0.017190343362307313 0 -0.055281788443607864 -0.019591782315578524 0 -0.054810937598395844 -0.019779740036665369 0 -0.05531097488800521 -0.020746209539341236 0 -0.05523081448091046 -0.019539587270507048 0 -0.053600929554845168 -0.018692756580295091 0 -0.054810937598395844 -0.019779740036665369 0 -0.05463045070566501 -0.021363025443110219 0 -0.05531097488800521 -0.020746209539341236 0 -0.056143185592430686 -0.020760009287014828 0 -0.05531097488800521 -0.020746209539341236 0 -0.055443810594409983 -0.021830066511108297 0 -0.05463045070566501 -0.021363025443110219 0 -0.05531097488800521 -0.020746209539341236 0 -0.055443810594409983 -0.021830066511108297 0 -0.055773320518780395 -0.020331092665526823 0 -0.055281788443607864 -0.019591782315578524 0 -0.05531097488800521 -0.020746209539341236 0 -0.05463045070566501 -0.021363025443110219 0 -0.053712426394846358 -0.021442791979388552 0 -0.054103642666539865 -0.020416973992997633 0 -0.054810937598395844 -0.019779740036665369 0 -0.05463045070566501 -0.021363025443110219 0 -0.054103642666539865 -0.020416973992997633 0 -0.053712426394846358 -0.021442791979388552 0 -0.054103642666539865 -0.020416973992997633 0 -0.05320429636666571 -0.020260263175561677 0 -0.054103642666539865 -0.020416973992997633 0 -0.054002237658324063 -0.019317218915222943 0 -0.05320429636666571 -0.020260263175561677 0 -0.054002237658324063 -0.019317218915222943 0 -0.052956112725076374 -0.018466617462011045 0 -0.05320429636666571 -0.020260263175561677 0 -0.051864287571836455 -0.015617147624655502 0 -0.052223316808826019 -0.01758326881366996 0 -0.050650845329474142 -0.016115992414538829 0 -0.054810937598395844 -0.019779740036665369 0 -0.054103642666539865 -0.020416973992997633 0 -0.054002237658324063 -0.019317218915222943 0 -0.053600929554845168 -0.018692756580295091 0 -0.052349889834971131 -0.017722435267984251 0 -0.051864287571836455 -0.015617147624655502 0 -0.050650845329474142 -0.016115992414538829 0 -0.050889752338976274 -0.015110952513067568 0 -0.051864287571836455 -0.015617147624655502 0 -0.050889752338976274 -0.015110952513067568 0 -0.051898181016581571 -0.01440245474195437 0 -0.050650845329474142 -0.016115992414538829 0 -0.050889752338976274 -0.015110952513067568 0 -0.050439037722644388 -0.015156014490885421 0 -0.050650845329474142 -0.016115992414538829 0 -0.050439037722644388 -0.015156014490885421 0 -0.050178820671656854 -0.015280016687915026 0 -0.052349889834971131 -0.017722435267984251 0 -0.051564443536785361 -0.016883271545841128 0 -0.050889752338976274 -0.015110952513067568 0 -0.050439037722644388 -0.015156014490885421 0 -0.0505157649669268 -0.014722724695431531 0 -0.0505157649669268 -0.014722724695431531 0 -0.05055073937903546 -0.014218348023706836 0 -0.05031498432465821 -0.014468760426296978 0 -0.0505157649669268 -0.014722724695431531 0 -0.05055073937903546 -0.014218348023706836 0 -0.050974020336439232 -0.014516642830145192 0 -0.05055073937903546 -0.014218348023706836 0 -0.050974020336439232 -0.014516642830145192 0 -0.051037350992120839 -0.013904133901694352 0 -0.051181561421887345 -0.014246103955345363 0 -0.049763833205456354 -0.010974790258420034 0 -0.050889752338976274 -0.015110952513067568 0 -0.0505157649669268 -0.014722724695431531 0 -0.050974020336439232 -0.014516642830145192 0 -0.050907137703500152 -0.014893243514863876 0 -0.051181561421887345 -0.014246103955345363 0 -0.050889752338976274 -0.015110952513067568 0 -0.051275389367929157 -0.013296813922241997 0 -0.051898181016581571 -0.01440245474195437 0 -0.051898181016581571 -0.01440245474195437 0 -0.053006391004706485 -0.014519423188886955 0 -0.052504807521261389 -0.013456807274221591 0 -0.053006391004706485 -0.014519423188886955 0 -0.052504807521261389 -0.013456807274221591 0 -0.053566343452877765 -0.013252718590698341 0 -0.051275389367929157 -0.013296813922241997 0 -0.051898181016581571 -0.01440245474195437 0 -0.052504807521261389 -0.013456807274221591 0 -0.053006391004706485 -0.014519423188886955 0 -0.054158224968008734 -0.014174304579903919 0 -0.053566343452877765 -0.013252718590698341 0 -0.053758409876818437 -0.015102339895439364 0 -0.053006391004706485 -0.014519423188886955 0 -0.054158224968008734 -0.014174304579903919 0 -0.054488629742756346 -0.013294259964191684 0 -0.054158224968008734 -0.014174304579903919 0 -0.053566343452877765 -0.013252718590698341 0 -0.05445411534080237 -0.012187222516013877 0 -0.054488629742756346 -0.013294259964191684 0 -0.053566343452877765 -0.013252718590698341 0 -0.05445411534080237 -0.012187222516013877 0 -0.053566343452877765 -0.013252718590698341 0 -0.052682382901300513 -0.012087832887181972 0 -0.052504807521261389 -0.013456807274221591 0 -0.053566343452877765 -0.013252718590698341 0 -0.052682382901300513 -0.012087832887181972 0 -0.051275389367929157 -0.013296813922241997 0 -0.052504807521261389 -0.013456807274221591 0 -0.052682382901300513 -0.012087832887181972 0 -0.051275389367929157 -0.013296813922241997 0 -0.052682382901300513 -0.012087832887181972 0 -0.051698348324571097 -0.011722991145115659 0 -0.052682382901300513 -0.012087832887181972 0 -0.052407158783656621 -0.011119709691886434 0 -0.05339923656491892 -0.010451880029724435 0 -0.05297758833789519 -0.012194653135290459 0 -0.049763833205456354 -0.010974790258420034 0 -0.052682382901300513 -0.012087832887181972 0 -0.052407158783656621 -0.011119709691886434 0 -0.051586330257167072 -0.011711725606254131 0 -0.05445411534080237 -0.012187222516013877 0 -0.052682382901300513 -0.012087832887181972 0 -0.05339923656491892 -0.010451880029724435 0 -0.045849728815255661 -0.013386179378588542 0 -0.046211376855259716 -0.014371711311940811 0 -0.037770762204862057 -0.017217120329754067 0 -0.037246683908956066 -0.016309298646243139 0 -0.038387799718958587 -0.016513485109304896 0 -0.04826618715814323 -0.0056741673680351171 0 -0.049763833205456354 -0.010974790258420034 0 -0.052407158783656621 -0.011119709691886434 0 -0.051933860130974598 -0.010237580785025938 0 -0.051586330257167072 -0.011711725606254131 0 -0.052253341926147508 -0.0087460578206114865 0 -0.05339923656491892 -0.010451880029724435 0 -0.051933860130974598 -0.010237580785025938 0 -0.052407158783656621 -0.011119709691886434 0 -0.05339923656491892 -0.010451880029724435 0 -0.051933860130974598 -0.010237580785025938 0 -0.044074068825703187 -0.0031779875024309169 0 -0.043674865171383616 -0.0030951286317681291 0 -0.044046735996768671 -0.0036642869366155196 0 -0.043674865171383616 -0.0030951286317681291 0 -0.043687241655598903 -0.0034540323863920283 0 -0.044046735996768671 -0.0036642869366155196 0 -0.043735494802241308 -0.002743059856233636 0 -0.044074068825703187 -0.0031779875024309169 0 -0.043674865171383616 -0.0030951286317681291 0 -0.04646243231362706 -0.0082863598846629159 0 -0.047399869544362448 -0.0095056813125470301 0 -0.043144110722283101 -0.0027422333391046798 0 -0.043674865171383616 -0.0030951286317681291 0 -0.043687241655598903 -0.0034540323863920283 0 -0.043144110722283101 -0.0027422333391046798 0 -0.043687241655598903 -0.0034540323863920283 0 -0.043234075171931056 -0.0031090364386495576 0 -0.050443713192933372 -0.013721506414650959 0 -0.050288912757528788 -0.014003255577180487 0 -0.050195270633185698 -0.013648573500359355 0 -0.05055073937903546 -0.014218348023706836 0 -0.050443713192933372 -0.013721506414650959 0 -0.050288912757528788 -0.014003255577180487 0 -0.04646243231362706 -0.0082863598846629159 0 -0.049763833205456354 -0.010974790258420034 0 -0.05055073937903546 -0.014218348023706836 0 -0.050443713192933372 -0.013721506414650959 0 -0.051037350992120839 -0.013904133901694352 0 -0.050198902514096158 -0.013733079956396896 0 -0.050094993314975543 -0.013873342432205176 0 -0.050116422942127779 -0.013530947878416535 0 -0.050198902514096158 -0.013733079956396896 0 -0.050094993314975543 -0.013873342432205176 0 -0.050192712057866476 -0.014188393758446731 0 -0.050094993314975543 -0.013873342432205176 0 -0.050192712057866476 -0.014188393758446731 0 -0.050048749419838258 -0.01432105263802652 0 -0.050198902514096158 -0.013733079956396896 0 -0.050192712057866476 -0.014188393758446731 0 -0.050288912757528788 -0.014003255577180487 0 -0.050198902514096158 -0.013733079956396896 0 -0.050288912757528788 -0.014003255577180487 0 -0.050195270633185698 -0.013648573500359355 0 -0.043144110722283101 -0.0027422333391046798 0 -0.043234075171931056 -0.0031090364386495576 0 -0.04290667287502474 -0.0025227746570740052 0 -0.050198902514096158 -0.013733079956396896 0 -0.050195270633185698 -0.013648573500359355 0 -0.050198522447440254 -0.013265923941623407 0 -0.047399869544362448 -0.0095056813125470301 0 -0.050170191835771885 -0.013060309220053298 0 -0.04837598675411952 -0.011402910049571826 0 -0.049145499046285172 -0.012022204757962628 0 -0.049222294775240046 -0.012033826453485628 0 -0.047399869544362448 -0.0095056813125470301 0 -0.04566679097166481 -0.0069832366391530997 0 -0.050198902514096158 -0.013733079956396896 0 -0.050116422942127779 -0.013530947878416535 0 -0.050198522447440254 -0.013265923941623407 0 -0.050198522447440254 -0.013265923941623407 0 -0.050006349462043423 -0.013295650443415227 0 -0.049835519322120082 -0.012979585530362329 0 -0.050116422942127779 -0.013530947878416535 0 -0.050198522447440254 -0.013265923941623407 0 -0.050006349462043423 -0.013295650443415227 0 -0.050006349462043423 -0.013295650443415227 0 -0.049835519322120082 -0.012979585530362329 0 -0.049803811986372175 -0.013163952210524646 0 -0.049835519322120082 -0.012979585530362329 0 -0.049803811986372175 -0.013163952210524646 0 -0.04969123130552041 -0.012883556035883648 0 -0.050006349462043423 -0.013295650443415227 0 -0.049803811986372175 -0.013163952210524646 0 -0.049971130121592051 -0.013546201272596937 0 -0.049803811986372175 -0.013163952210524646 0 -0.049971130121592051 -0.013546201272596937 0 -0.049703199920425663 -0.013446461553859897 0 -0.050116422942127779 -0.013530947878416535 0 -0.050006349462043423 -0.013295650443415227 0 -0.049971130121592051 -0.013546201272596937 0 -0.04951156041564813 -0.012447631764726191 0 -0.049612674025148483 -0.012941073085874777 0 -0.04969123130552041 -0.012883556035883648 0 -0.049803811986372175 -0.013163952210524646 0 -0.049612674025148483 -0.012941073085874777 0 -0.04969123130552041 -0.012883556035883648 0 -0.049612674025148483 -0.012941073085874777 0 -0.049291325203246202 -0.013208558373485418 0 -0.049703199920425663 -0.013446461553859897 0 -0.049803811986372175 -0.013163952210524646 0 -0.049612674025148483 -0.012941073085874777 0 -0.049703199920425663 -0.013446461553859897 0 -0.049612674025148483 -0.012941073085874777 0 -0.049291325203246202 -0.013208558373485418 0 -0.049078463097946584 -0.012390831688875278 0 -0.049291325203246202 -0.013208558373485418 0 -0.049491005180244067 -0.01397701026805093 0 -0.048865141148610347 -0.014510435701381027 0 -0.049291325203246202 -0.013208558373485418 0 -0.049703199920425663 -0.013446461553859897 0 -0.049491005180244067 -0.01397701026805093 0 -0.049703199920425663 -0.013446461553859897 0 -0.049491005180244067 -0.01397701026805093 0 -0.049889356509472786 -0.013928991678474124 0 -0.049491005180244067 -0.01397701026805093 0 -0.049889356509472786 -0.013928991678474124 0 -0.049815199268456289 -0.014671812344838688 0 -0.050094993314975543 -0.013873342432205176 0 -0.049971130121592051 -0.013546201272596937 0 -0.049889356509472786 -0.013928991678474124 0 -0.050094993314975543 -0.013873342432205176 0 -0.050116422942127779 -0.013530947878416535 0 -0.049971130121592051 -0.013546201272596937 0 -0.049971130121592051 -0.013546201272596937 0 -0.049703199920425663 -0.013446461553859897 0 -0.049889356509472786 -0.013928991678474124 0 -0.050094993314975543 -0.013873342432205176 0 -0.049889356509472786 -0.013928991678474124 0 -0.050048749419838258 -0.01432105263802652 0 -0.049815199268456289 -0.014671812344838688 0 -0.049716009399813112 -0.015746793398240647 0 -0.050087331374852793 -0.014762977336639244 0 -0.050048749419838258 -0.01432105263802652 0 -0.049815199268456289 -0.014671812344838688 0 -0.050087331374852793 -0.014762977336639244 0 -0.049889356509472786 -0.013928991678474124 0 -0.050048749419838258 -0.01432105263802652 0 -0.049815199268456289 -0.014671812344838688 0 -0.049491005180244067 -0.01397701026805093 0 -0.049815199268456289 -0.014671812344838688 0 -0.048865141148610347 -0.014510435701381027 0 -0.049815199268456289 -0.014671812344838688 0 -0.049716009399813112 -0.015746793398240647 0 -0.048865141148610347 -0.014510435701381027 0 -0.049719502618776085 -0.015740581866913465 0 -0.050751957337095394 -0.016199948817532169 0 -0.049716009399813112 -0.015746793398240647 0 -0.050087331374852793 -0.014762977336639244 0 -0.050010023626360055 -0.015126338956645219 0 -0.050087331374852793 -0.014762977336639244 0 -0.050186477015834022 -0.014924084639291318 0 -0.050010023626360055 -0.015126338956645219 0 -0.050087331374852793 -0.014762977336639244 0 -0.05031498432465821 -0.014468760426296978 0 -0.050186477015834022 -0.014924084639291318 0 -0.050192712057866476 -0.014188393758446731 0 -0.050087331374852793 -0.014762977336639244 0 -0.05031498432465821 -0.014468760426296978 0 -0.050192712057866476 -0.014188393758446731 0 -0.050048749419838258 -0.01432105263802652 0 -0.050087331374852793 -0.014762977336639244 0 -0.05055073937903546 -0.014218348023706836 0 -0.050288912757528788 -0.014003255577180487 0 -0.05031498432465821 -0.014468760426296978 0 -0.050192712057866476 -0.014188393758446731 0 -0.050288912757528788 -0.014003255577180487 0 -0.05031498432465821 -0.014468760426296978 0 -0.0505157649669268 -0.014722724695431531 0 -0.05031498432465821 -0.014468760426296978 0 -0.050186477015834022 -0.014924084639291318 0 -0.050439037722644388 -0.015156014490885421 0 -0.0505157649669268 -0.014722724695431531 0 -0.050186477015834022 -0.014924084639291318 0 -0.050439037722644388 -0.015156014490885421 0 -0.050186477015834022 -0.014924084639291318 0 -0.050178820671656854 -0.015280016687915026 0 -0.052956112725076374 -0.018466617462011045 0 -0.051985289219326346 -0.019210542223412175 0 -0.051654665365546359 -0.01726922456023822 0 -0.051564443536785361 -0.016883271545841128 0 -0.050751957337095394 -0.016199948817532169 0 -0.050186477015834022 -0.014924084639291318 0 -0.050178820671656854 -0.015280016687915026 0 -0.050010023626360055 -0.015126338956645219 0 -0.052956112725076374 -0.018466617462011045 0 -0.051985289219326346 -0.019210542223412175 0 -0.05320429636666571 -0.020260263175561677 0 -0.051985289219326346 -0.019210542223412175 0 -0.05320429636666571 -0.020260263175561677 0 -0.052006430909466467 -0.02078586328417795 0 -0.051985289219326346 -0.019210542223412175 0 -0.052006430909466467 -0.02078586328417795 0 -0.050784078490553115 -0.019830742422104655 0 -0.052006430909466467 -0.02078586328417795 0 -0.052725361253148383 -0.022117879054969907 0 -0.051699890437388138 -0.022125066622457751 0 -0.053712426394846358 -0.021442791979388552 0 -0.05320429636666571 -0.020260263175561677 0 -0.052725361253148383 -0.022117879054969907 0 -0.05320429636666571 -0.020260263175561677 0 -0.052006430909466467 -0.02078586328417795 0 -0.052725361253148383 -0.022117879054969907 0 -0.050822804107962083 -0.021343111459077101 0 -0.04894000640684934 -0.020479422925254655 0 -0.04993247700985997 -0.022524809795484373 0 -0.050822804107962083 -0.021343111459077101 0 -0.04993247700985997 -0.022524809795484373 0 -0.051699890437388138 -0.022125066622457751 0 -0.052006430909466467 -0.02078586328417795 0 -0.050822804107962083 -0.021343111459077101 0 -0.051699890437388138 -0.022125066622457751 0 -0.052006430909466467 -0.02078586328417795 0 -0.050822804107962083 -0.021343111459077101 0 -0.050784078490553115 -0.019830742422104655 0 -0.050822804107962083 -0.021343111459077101 0 -0.050784078490553115 -0.019830742422104655 0 -0.04894000640684934 -0.020479422925254655 0 -0.050784078490553115 -0.019830742422104655 0 -0.050830819510894569 -0.018405750890053793 0 -0.049361951241976482 -0.018398965005152878 0 -0.050784078490553115 -0.019830742422104655 0 -0.049361951241976482 -0.018398965005152878 0 -0.04894000640684934 -0.020479422925254655 0 -0.051985289219326346 -0.019210542223412175 0 -0.050784078490553115 -0.019830742422104655 0 -0.050830819510894569 -0.018405750890053793 0 -0.051985289219326346 -0.019210542223412175 0 -0.051654665365546359 -0.01726922456023822 0 -0.050830819510894569 -0.018405750890053793 0 -0.049716009399813112 -0.015746793398240647 0 -0.051654665365546359 -0.01726922456023822 0 -0.050830819510894569 -0.018405750890053793 0 -0.049716009399813112 -0.015746793398240647 0 -0.050830819510894569 -0.018405750890053793 0 -0.049361951241976482 -0.018398965005152878 0 -0.047523453130801779 -0.018729156309607923 0 -0.049361951241976482 -0.018398965005152878 0 -0.048343081993773011 -0.016687438361904929 0 -0.049716009399813112 -0.015746793398240647 0 -0.049361951241976482 -0.018398965005152878 0 -0.048343081993773011 -0.016687438361904929 0 -0.047523453130801779 -0.018729156309607923 0 -0.046606033209248977 -0.016895573282742767 0 -0.048343081993773011 -0.016687438361904929 0 -0.047523453130801779 -0.018729156309607923 0 -0.049361951241976482 -0.018398965005152878 0 -0.04894000640684934 -0.020479422925254655 0 -0.047523453130801779 -0.018729156309607923 0 -0.04894000640684934 -0.020479422925254655 0 -0.047094524546106367 -0.020995207755478886 0 -0.04894000640684934 -0.020479422925254655 0 -0.047094524546106367 -0.020995207755478886 0 -0.048557067951444363 -0.02225482107763762 0 -0.047094524546106367 -0.020995207755478886 0 -0.048557067951444363 -0.02225482107763762 0 -0.047371146289688006 -0.023433494831058905 0 -0.04894000640684934 -0.020479422925254655 0 -0.048557067951444363 -0.02225482107763762 0 -0.04993247700985997 -0.022524809795484373 0 -0.044999787552592263 -0.021914230685937206 0 -0.047094524546106367 -0.020995207755478886 0 -0.047371146289688006 -0.023433494831058905 0 -0.047523453130801779 -0.018729156309607923 0 -0.047094524546106367 -0.020995207755478886 0 -0.04499976478343206 -0.019287453390099237 0 -0.044999787552592263 -0.021914230685937206 0 -0.047094524546106367 -0.020995207755478886 0 -0.04499976478343206 -0.019287453390099237 0 -0.047523453130801779 -0.018729156309607923 0 -0.04499976478343206 -0.019287453390099237 0 -0.046606033209248977 -0.016895573282742767 0 -0.04499976478343206 -0.019287453390099237 0 -0.046606033209248977 -0.016895573282742767 0 -0.044999759525186492 -0.016660652461228127 0 -0.046606033209248977 -0.016895573282742767 0 -0.044999759525186492 -0.016660652461228127 0 -0.04631733282825682 -0.014883406804084433 0 -0.044999759525186492 -0.016660652461228127 0 -0.04631733282825682 -0.014883406804084433 0 -0.044999823918202245 -0.014033987324059754 0 -0.04631733282825682 -0.014883406804084433 0 -0.047403215614538398 -0.015361166983254033 0 -0.047477592471049442 -0.01380246431363534 0 -0.046606033209248977 -0.016895573282742767 0 -0.04631733282825682 -0.014883406804084433 0 -0.047403215614538398 -0.015361166983254033 0 -0.046606033209248977 -0.016895573282742767 0 -0.048343081993773011 -0.016687438361904929 0 -0.047403215614538398 -0.015361166983254033 0 -0.048343081993773011 -0.016687438361904929 0 -0.048865141148610347 -0.014510435701381027 0 -0.047403215614538398 -0.015361166983254033 0 -0.049716009399813112 -0.015746793398240647 0 -0.048343081993773011 -0.016687438361904929 0 -0.048865141148610347 -0.014510435701381027 0 -0.048865141148610347 -0.014510435701381027 0 -0.047403215614538398 -0.015361166983254033 0 -0.047477592471049442 -0.01380246431363534 0 -0.047477592471049442 -0.01380246431363534 0 -0.048513988835822912 -0.012997043886756253 0 -0.047570782071957002 -0.012594447693319277 0 -0.048865141148610347 -0.014510435701381027 0 -0.047477592471049442 -0.01380246431363534 0 -0.048513988835822912 -0.012997043886756253 0 -0.049291325203246202 -0.013208558373485418 0 -0.048865141148610347 -0.014510435701381027 0 -0.048513988835822912 -0.012997043886756253 0 -0.049291325203246202 -0.013208558373485418 0 -0.048513988835822912 -0.012997043886756253 0 -0.049078463097946584 -0.012390831688875278 0 -0.048655549728900349 -0.011946382091125342 0 -0.048513988835822912 -0.012997043886756253 0 -0.049078463097946584 -0.012390831688875278 0 -0.048655549728900349 -0.011946382091125342 0 -0.048513988835822912 -0.012997043886756253 0 -0.04806688376285876 -0.011910927086663402 0 -0.048513988835822912 -0.012997043886756253 0 -0.047570782071957002 -0.012594447693319277 0 -0.04806688376285876 -0.011910927086663402 0 -0.047099355806530012 -0.011386219163673302 0 -0.047570782071957002 -0.012594447693319277 0 -0.04806688376285876 -0.011910927086663402 0 -0.045937183699607406 -0.010546631669716351 0 -0.047099355806530012 -0.011386219163673302 0 -0.046310268956341404 -0.012637464747927691 0 -0.047099355806530012 -0.011386219163673302 0 -0.047570782071957002 -0.012594447693319277 0 -0.046310268956341404 -0.012637464747927691 0 -0.046310268956341404 -0.012637464747927691 0 -0.044999839890756121 -0.011407387533143215 0 -0.044999823918202245 -0.014033987324059754 0 -0.045937183699607406 -0.010546631669716351 0 -0.046310268956341404 -0.012637464747927691 0 -0.044999839890756121 -0.011407387533143215 0 -0.04631733282825682 -0.014883406804084433 0 -0.046310268956341404 -0.012637464747927691 0 -0.044999823918202245 -0.014033987324059754 0 -0.047477592471049442 -0.01380246431363534 0 -0.047570782071957002 -0.012594447693319277 0 -0.046310268956341404 -0.012637464747927691 0 -0.04631733282825682 -0.014883406804084433 0 -0.047477592471049442 -0.01380246431363534 0 -0.046310268956341404 -0.012637464747927691 0 -0.046476924564010563 -0.030770860503085192 0 -0.046482090803277906 -0.033407223321198602 0 -0.047740731252674071 -0.031854382741976009 0 -0.046476924564010563 -0.030770860503085192 0 -0.044999849198019991 -0.032369216246573733 0 -0.044999417797376047 -0.029794499392416598 0 -0.046476924564010563 -0.030770860503085192 0 -0.044999849198019991 -0.032369216246573733 0 -0.046482090803277906 -0.033407223321198602 0 -0.044999849198019991 -0.032369216246573733 0 -0.046482090803277906 -0.033407223321198602 0 -0.044999772044618566 -0.0349440869290083 0 -0.046482090803277906 -0.033407223321198602 0 -0.047740731252674071 -0.031854382741976009 0 -0.048421504399420827 -0.033280199324776209 0 -0.049515878375895106 -0.031993771629234856 0 -0.047740731252674071 -0.031854382741976009 0 -0.048421504399420827 -0.033280199324776209 0 -0.049515878375895106 -0.031993771629234856 0 -0.049780619781426116 -0.033795627501046928 0 -0.048421504399420827 -0.033280199324776209 0 -0.049515878375895106 -0.031993771629234856 0 -0.048867031599739361 -0.030747616721579215 0 -0.047740731252674071 -0.031854382741976009 0 -0.049515878375895106 -0.031993771629234856 0 -0.048867031599739361 -0.030747616721579215 0 -0.050001398919365482 -0.03052429658183756 0 -0.048867031599739361 -0.030747616721579215 0 -0.047740731252674071 -0.031854382741976009 0 -0.048204725049184473 -0.029359494674586515 0 -0.046476924564010563 -0.030770860503085192 0 -0.047740731252674071 -0.031854382741976009 0 -0.048204725049184473 -0.029359494674586515 0 -0.048867031599739361 -0.030747616721579215 0 -0.048204725049184473 -0.029359494674586515 0 -0.049797874199559028 -0.029151680616937386 0 -0.048867031599739361 -0.030747616721579215 0 -0.049797874199559028 -0.029151680616937386 0 -0.050001398919365482 -0.03052429658183756 0 -0.048204725049184473 -0.029359494674586515 0 -0.049433549917474617 -0.027558696219452897 0 -0.049797874199559028 -0.029151680616937386 0 -0.048204725049184473 -0.029359494674586515 0 -0.049433549917474617 -0.027558696219452897 0 -0.048159265045577021 -0.027717625204501006 0 -0.048204725049184473 -0.029359494674586515 0 -0.048159265045577021 -0.027717625204501006 0 -0.046622672353620193 -0.027848680521896919 0 -0.046476924564010563 -0.030770860503085192 0 -0.046622672353620193 -0.027848680521896919 0 -0.044999417797376047 -0.029794499392416598 0 -0.046476924564010563 -0.030770860503085192 0 -0.048204725049184473 -0.029359494674586515 0 -0.046622672353620193 -0.027848680521896919 0 -0.046899462464030442 -0.027920537445731922 0 -0.045000023609160479 -0.029794716864755086 0 -0.044999780404573447 -0.0271676569450655 0 -0.046778343881919739 -0.027861252748754416 0 -0.045000255280009706 -0.029794502692012014 0 -0.046899462464030442 -0.027920537445731922 0 -0.044999780404573447 -0.0271676569450655 0 -0.046585925301829756 -0.025797575110643702 0 -0.046899462464030442 -0.027920537445731922 0 -0.046585925301829756 -0.025797575110643702 0 -0.048519770640842903 -0.025997586547500846 0 -0.044999780404573447 -0.0271676569450655 0 -0.046585925301829756 -0.025797575110643702 0 -0.044999845980653451 -0.024540934986330254 0 -0.046585925301829756 -0.025797575110643702 0 -0.044999845980653451 -0.024540934986330254 0 -0.047371146289688006 -0.023433494831058905 0 -0.044999787552592263 -0.021914230685937206 0 -0.044999845980653451 -0.024540934986330254 0 -0.047371146289688006 -0.023433494831058905 0 -0.047371146289688006 -0.023433494831058905 0 -0.049225014913285133 -0.024106580158994181 0 -0.048519770640842903 -0.025997586547500846 0 -0.048557067951444363 -0.02225482107763762 0 -0.049225014913285133 -0.024106580158994181 0 -0.04993247700985997 -0.022524809795484373 0 -0.048557067951444363 -0.02225482107763762 0 -0.047371146289688006 -0.023433494831058905 0 -0.049225014913285133 -0.024106580158994181 0 -0.049225014913285133 -0.024106580158994181 0 -0.048519770640842903 -0.025997586547500846 0 -0.04990294450047545 -0.025790096745162992 0 -0.046585925301829756 -0.025797575110643702 0 -0.047371146289688006 -0.023433494831058905 0 -0.048519770640842903 -0.025997586547500846 0 -0.048159265045577021 -0.027717625204501006 0 -0.046622672353620193 -0.027848680521896919 0 -0.048519770640842903 -0.025997586547500846 0 -0.046778343881919739 -0.027861252748754416 0 -0.048456898056006358 -0.026128205220767916 0 -0.049433549917474617 -0.027558696219452897 0 -0.048519770640842903 -0.025997586547500846 0 -0.04990294450047545 -0.025790096745162992 0 -0.049433549917474617 -0.027558696219452897 0 -0.048159265045577021 -0.027717625204501006 0 -0.048519770640842903 -0.025997586547500846 0 -0.049433549917474617 -0.027558696219452897 0 -0.051277294978097666 -0.026373155294377913 0 -0.04990294450047545 -0.025790096745162992 0 -0.051277294978097666 -0.026373155294377913 0 -0.050723678903097293 -0.024613276197892168 0 -0.052118181772822972 -0.024971588016330652 0 -0.050723678903097293 -0.024613276197892168 0 -0.051699566372019418 -0.023560182617541569 0 -0.052118181772822972 -0.024971588016330652 0 -0.051277294978097666 -0.026373155294377913 0 -0.050723678903097293 -0.024613276197892168 0 -0.04990294450047545 -0.025790096745162992 0 -0.049225014913285133 -0.024106580158994181 0 -0.050723678903097293 -0.024613276197892168 0 -0.04990294450047545 -0.025790096745162992 0 -0.049225014913285133 -0.024106580158994181 0 -0.050723678903097293 -0.024613276197892168 0 -0.04993247700985997 -0.022524809795484373 0 -0.050723678903097293 -0.024613276197892168 0 -0.04993247700985997 -0.022524809795484373 0 -0.051699566372019418 -0.023560182617541569 0 -0.04993247700985997 -0.022524809795484373 0 -0.051699890437388138 -0.022125066622457751 0 -0.051699566372019418 -0.023560182617541569 0 -0.052725361253148383 -0.022117879054969907 0 -0.051699890437388138 -0.022125066622457751 0 -0.051699566372019418 -0.023560182617541569 0 -0.052725361253148383 -0.022117879054969907 0 -0.051699566372019418 -0.023560182617541569 0 -0.052753359883270311 -0.024013754381301565 0 -0.051699566372019418 -0.023560182617541569 0 -0.052753359883270311 -0.024013754381301565 0 -0.052118181772822972 -0.024971588016330652 0 -0.052725361253148383 -0.022117879054969907 0 -0.052753359883270311 -0.024013754381301565 0 -0.053727704495016765 -0.022793857715739805 0 -0.052753359883270311 -0.024013754381301565 0 -0.052118181772822972 -0.024971588016330652 0 -0.052936109079394625 -0.025273362408791203 0 -0.051277294978097666 -0.026373155294377913 0 -0.052118181772822972 -0.024971588016330652 0 -0.052678362385966244 -0.026024500489335998 0 -0.052118181772822972 -0.024971588016330652 0 -0.052678362385966244 -0.026024500489335998 0 -0.052936109079394625 -0.025273362408791203 0 -0.051277294978097666 -0.026373155294377913 0 -0.052678362385966244 -0.026024500489335998 0 -0.052203460751344313 -0.027639470298806566 0 -0.052678362385966244 -0.026024500489335998 0 -0.052936109079394625 -0.025273362408791203 0 -0.052915261880669424 -0.025652494881461364 0 -0.052678362385966244 -0.026024500489335998 0 -0.052915261880669424 -0.025652494881461364 0 -0.052866012586008225 -0.025666234582765048 0 -0.052915261880669424 -0.025652494881461364 0 -0.052918723047429249 -0.025643996997927531 0 -0.052866012586008225 -0.025666234582765048 0 -0.05288779776361071 -0.025684293980872165 0 -0.052924461982169664 -0.02567347719005874 0 -0.052815086934383616 -0.025807947300554336 0 -0.053228048226264965 -0.027402208636353311 0 -0.048359588579589788 -0.025994606140440898 0 -0.052866012586008225 -0.025666234582765048 0 -0.05288779776361071 -0.025684293980872165 0 -0.052815086934383616 -0.025807947300554336 0 -0.052918723047429249 -0.025643996997927531 0 -0.05288779776361071 -0.025684293980872165 0 -0.052924461982169664 -0.02567347719005874 0 -0.052918723047429249 -0.025643996997927531 0 -0.052866012586008225 -0.025666234582765048 0 -0.05288779776361071 -0.025684293980872165 0 -0.052961993985870211 -0.02872388785185476 0 -0.052761442792456127 -0.028848536473495123 0 -0.051932908398238962 -0.028217749337620064 0 -0.052153093415436579 -0.029744498110316125 0 -0.052761442792456127 -0.028848536473495123 0 -0.051776524380029151 -0.029044759603818984 0 -0.052961993985870211 -0.02872388785185476 0 -0.052761442792456127 -0.028848536473495123 0 -0.052203460751344313 -0.027639470298806566 0 -0.052761442792456127 -0.028848536473495123 0 -0.052203460751344313 -0.027639470298806566 0 -0.051776524380029151 -0.029044759603818984 0 -0.052626886890738564 -0.025972700403382488 0 -0.053228048226264965 -0.027402208636353311 0 -0.052678362385966244 -0.026024500489335998 0 -0.052961993985870211 -0.02872388785185476 0 -0.052203460751344313 -0.027639470298806566 0 -0.052203460751344313 -0.027639470298806566 0 -0.050950277555714282 -0.028193220640348546 0 -0.051776524380029151 -0.029044759603818984 0 -0.051277294978097666 -0.026373155294377913 0 -0.052203460751344313 -0.027639470298806566 0 -0.050950277555714282 -0.028193220640348546 0 -0.049433549917474617 -0.027558696219452897 0 -0.051277294978097666 -0.026373155294377913 0 -0.050950277555714282 -0.028193220640348546 0 -0.049433549917474617 -0.027558696219452897 0 -0.050950277555714282 -0.028193220640348546 0 -0.049797874199559028 -0.029151680616937386 0 -0.050950277555714282 -0.028193220640348546 0 -0.049797874199559028 -0.029151680616937386 0 -0.050879784609990965 -0.029651226027009692 0 -0.049797874199559028 -0.029151680616937386 0 -0.050879784609990965 -0.029651226027009692 0 -0.050001398919365482 -0.03052429658183756 0 -0.050950277555714282 -0.028193220640348546 0 -0.051776524380029151 -0.029044759603818984 0 -0.050879784609990965 -0.029651226027009692 0 -0.052153093415436579 -0.029744498110316125 0 -0.051776524380029151 -0.029044759603818984 0 -0.051678942712949698 -0.030382805274016333 0 -0.051776524380029151 -0.029044759603818984 0 -0.050879784609990965 -0.029651226027009692 0 -0.051678942712949698 -0.030382805274016333 0 -0.052153093415436579 -0.029744498110316125 0 -0.051678942712949698 -0.030382805274016333 0 -0.052466420931815187 -0.030930813681891215 0 -0.050879784609990965 -0.029651226027009692 0 -0.051678942712949698 -0.030382805274016333 0 -0.050868367723291931 -0.031121614239278284 0 -0.051678942712949698 -0.030382805274016333 0 -0.050868367723291931 -0.031121614239278284 0 -0.051750266135927946 -0.031508577004037593 0 -0.051678942712949698 -0.030382805274016333 0 -0.051750266135927946 -0.031508577004037593 0 -0.052466420931815187 -0.030930813681891215 0 -0.051750266135927946 -0.031508577004037593 0 -0.052312210358188324 -0.031641244617714059 0 -0.052466420931815187 -0.030930813681891215 0 -0.049515878375895106 -0.031993771629234856 0 -0.050001398919365482 -0.03052429658183756 0 -0.050868367723291931 -0.031121614239278284 0 -0.050879784609990965 -0.029651226027009692 0 -0.050001398919365482 -0.03052429658183756 0 -0.050868367723291931 -0.031121614239278284 0 -0.049515878375895106 -0.031993771629234856 0 -0.051004058552089018 -0.03258302422700908 0 -0.049780619781426116 -0.033795627501046928 0 -0.049515878375895106 -0.031993771629234856 0 -0.050868367723291931 -0.031121614239278284 0 -0.051004058552089018 -0.03258302422700908 0 -0.051750266135927946 -0.031508577004037593 0 -0.051004058552089018 -0.03258302422700908 0 -0.052062001045588453 -0.032243232552063635 0 -0.051750266135927946 -0.031508577004037593 0 -0.052062001045588453 -0.032243232552063635 0 -0.052312210358188324 -0.031641244617714059 0 -0.050868367723291931 -0.031121614239278284 0 -0.051750266135927946 -0.031508577004037593 0 -0.051004058552089018 -0.03258302422700908 0 -0.051004058552089018 -0.03258302422700908 0 -0.052062001045588453 -0.032243232552063635 0 -0.052114839461481585 -0.033215015571950834 0 -0.052062001045588453 -0.032243232552063635 0 -0.052921162171945764 -0.031970760482397567 0 -0.052114839461481585 -0.033215015571950834 0 -0.052921162171945764 -0.031970760482397567 0 -0.052312210358188324 -0.031641244617714059 0 -0.052466420931815187 -0.030930813681891215 0 -0.052062001045588453 -0.032243232552063635 0 -0.052921162171945764 -0.031970760482397567 0 -0.052312210358188324 -0.031641244617714059 0 -0.051923827690929021 -0.027915244153945345 0 -0.051702391903523034 -0.027709030481749788 0 -0.051385318858144194 -0.028046523224204607 0 -0.051874545352330596 -0.027742625330532726 0 -0.051923827690929021 -0.027915244153945345 0 -0.051702391903523034 -0.027709030481749788 0 -0.051702391903523034 -0.027709030481749788 0 -0.051504273524772673 -0.027608967306419808 0 -0.051474436030225751 -0.027483552335865101 0 -0.051874545352330596 -0.027742625330532726 0 -0.051702391903523034 -0.027709030481749788 0 -0.051474436030225751 -0.027483552335865101 0 -0.051504273524772673 -0.027608967306419808 0 -0.051266292607675547 -0.02738291098828978 0 -0.051474436030225751 -0.027483552335865101 0 -0.035208312280361205 -0.02042675993103242 0 -0.035312099626344434 -0.020434110494986828 0 -0.035186481064729692 -0.020322512667492128 0 -0.051504273524772673 -0.027608967306419808 0 -0.051266292607675547 -0.02738291098828978 0 -0.051385318858144194 -0.028046523224204607 0 -0.042876025827410257 -0.023430896005264063 0 -0.048359588579589788 -0.025994606140440898 0 -0.051702391903523034 -0.027709030481749788 0 -0.051504273524772673 -0.027608967306419808 0 -0.051385318858144194 -0.028046523224204607 0 -0.052924461982169664 -0.02567347719005874 0 -0.052815086934383616 -0.025807947300554336 0 -0.05304033443842289 -0.025611117943891988 0 -0.052761442792456127 -0.028848536473495123 0 -0.051874545352330596 -0.027742625330532726 0 -0.051923827690929021 -0.027915244153945345 0 -0.052761442792456127 -0.028848536473495123 0 -0.051923827690929021 -0.027915244153945345 0 -0.051932908398238962 -0.028217749337620064 0 -0.052761442792456127 -0.028848536473495123 0 -0.052921162171945764 -0.031970760482397567 0 -0.052466420931815187 -0.030930813681891215 0 -0.052153093415436579 -0.029744498110316125 0 -0.052761442792456127 -0.028848536473495123 0 -0.052466420931815187 -0.030930813681891215 0 -0.052718348296434347 -0.028976357841423023 0 -0.052364055909083239 -0.029856485510623788 0 -0.051650099453056958 -0.026947812193868471 0 -0.048359588579589788 -0.025994606140440898 0 -0.035125784061675484 -0.020185950044055132 0 -0.035056816820847617 -0.020055856604640376 0 -0.035280671171721359 -0.020286662756435665 0 -0.035186481064729692 -0.020322512667492128 0 -0.035125784061675484 -0.020185950044055132 0 -0.035280671171721359 -0.020286662756435665 0 -0.048359588579589788 -0.025994606140440898 0 -0.043516013903405759 -0.023047325666225055 0 -0.035312099626344434 -0.020434110494986828 0 -0.035186481064729692 -0.020322512667492128 0 -0.035280671171721359 -0.020286662756435665 0 -0.035186481064729692 -0.020322512667492128 0 -0.035125784061675484 -0.020185950044055132 0 -0.035109468786203586 -0.020318480608059266 0 -0.035125784061675484 -0.020185950044055132 0 -0.035056816820847617 -0.020055856604640376 0 -0.035092463587687452 -0.020067968084463532 0 -0.025628817253996971 -0.01323560030382478 0 -0.02477033377496389 -0.012668572509011607 0 -0.024846855693996098 -0.012941659713012447 0 -0.028381379115292354 -0.015807557521286913 0 -0.030735825629112767 -0.016240520507413495 0 -0.025628817253996971 -0.01323560030382478 0 -0.024501575897895356 -0.013359218367039419 0 -0.02477033377496389 -0.012668572509011607 0 -0.028381379115292354 -0.015807557521286913 0 -0.042955638406771322 -0.020259791134022067 0 -0.025628817253996971 -0.01323560030382478 0 -0.025432073149722845 -0.014086250933450334 0 -0.026447006664075179 -0.014557338445759113 0 -0.035056816820847617 -0.020055856604640376 0 -0.035187028685832421 -0.020295438215152645 0 -0.035280671171721359 -0.020286662756435665 0 -0.025628817253996971 -0.01323560030382478 0 -0.025432073149722845 -0.014086250933450334 0 -0.024501575897895356 -0.013359218367039419 0 -0.040395267430966504 -0.019648964293569497 0 -0.047254553194959345 -0.021570514298897038 0 -0.025432073149722845 -0.014086250933450334 0 -0.025076117411897032 -0.014975648728654157 0 -0.026327609800754579 -0.014633474639522897 0 -0.037330405528682178 -0.017221056507656936 0 -0.039736741326645897 -0.016637287201651651 0 -0.037447639796517621 -0.017941003738416512 0 -0.030330860460321501 -0.016198123167124875 0 -0.040395267430966504 -0.019648964293569497 0 -0.025432073149722845 -0.014086250933450334 0 -0.025076117411897032 -0.014975648728654157 0 -0.024490531115332097 -0.014398212270293056 0 -0.025432073149722845 -0.014086250933450334 0 -0.026327609800754579 -0.014633474639522897 0 -0.026447006664075179 -0.014557338445759113 0 -0.053393736991664303 -0.025186136336612559 0 -0.053391361259755243 -0.025133099796583583 0 -0.053409386501111863 -0.024926949225456879 0 -0.044088063554935338 -0.02182666213419613 0 -0.042955638406771322 -0.020259791134022067 0 -0.053393736991664303 -0.025186136336612559 0 -0.053395550145709569 -0.025210540947072257 0 -0.053386495170104901 -0.025190546247388236 0 -0.040395267430966504 -0.019648964293569497 0 -0.042955638406771322 -0.020259791134022067 0 -0.053395550145709569 -0.025210540947072257 0 -0.053422900893984812 -0.025258857365553816 0 -0.053361072193476265 -0.025227768614307471 0 -0.053395550145709569 -0.025210540947072257 0 -0.053391361259755243 -0.025133099796583583 0 -0.053361072193476265 -0.025227768614307471 0 -0.053393736991664303 -0.025186136336612559 0 -0.053395550145709569 -0.025210540947072257 0 -0.053391361259755243 -0.025133099796583583 0 -0.042955638406771322 -0.020259791134022067 0 -0.056321400133605308 -0.025546285522477372 0 -0.053391361259755243 -0.025133099796583583 0 -0.053242726806918834 -0.025341395632683571 0 -0.053331784966395131 -0.025169314755238047 0 -0.053422900893984812 -0.025258857365553816 0 -0.053242726806918834 -0.025341395632683571 0 -0.053031641601706661 -0.02561426808528534 0 -0.053391361259755243 -0.025133099796583583 0 -0.053361072193476265 -0.025227768614307471 0 -0.053242726806918834 -0.025341395632683571 0 -0.053242726806918834 -0.025341395632683571 0 -0.053112429816924787 -0.02545452200570112 0 -0.053331784966395131 -0.025169314755238047 0 -0.053242726806918834 -0.025341395632683571 0 -0.053031641601706661 -0.02561426808528534 0 -0.053112429816924787 -0.02545452200570112 0 -0.053422900893984812 -0.025258857365553816 0 -0.053361072193476265 -0.025227768614307471 0 -0.053242726806918834 -0.025341395632683571 0 -0.052604343898800691 -0.025494401151302075 0 -0.053031641601706661 -0.02561426808528534 0 -0.05304033443842289 -0.025611117943891988 0 -0.042955638406771322 -0.020259791134022067 0 -0.043516013903405759 -0.023047325666225055 0 -0.052924461982169664 -0.02567347719005874 0 -0.05304033443842289 -0.025611117943891988 0 -0.052985379316374724 -0.025629309681637926 0 -0.053031641601706661 -0.02561426808528534 0 -0.052985379316374724 -0.025629309681637926 0 -0.05298451561295886 -0.025607842176412328 0 -0.053031641601706661 -0.02561426808528534 0 -0.05304033443842289 -0.025611117943891988 0 -0.052985379316374724 -0.025629309681637926 0 -0.052918723047429249 -0.025643996997927531 0 -0.052985379316374724 -0.025629309681637926 0 -0.05298451561295886 -0.025607842176412328 0 -0.052918723047429249 -0.025643996997927531 0 -0.052924461982169664 -0.02567347719005874 0 -0.052985379316374724 -0.025629309681637926 0 -0.052915261880669424 -0.025652494881461364 0 -0.05298451561295886 -0.025607842176412328 0 -0.053112429816924787 -0.02545452200570112 0 -0.052915261880669424 -0.025652494881461364 0 -0.052918723047429249 -0.025643996997927531 0 -0.05298451561295886 -0.025607842176412328 0 -0.053031641601706661 -0.02561426808528534 0 -0.05298451561295886 -0.025607842176412328 0 -0.053112429816924787 -0.02545452200570112 0 -0.052915261880669424 -0.025652494881461364 0 -0.053112429816924787 -0.02545452200570112 0 -0.053184240463716344 -0.02528912750274713 0 -0.052936109079394625 -0.025273362408791203 0 -0.053184240463716344 -0.02528912750274713 0 -0.053602283874740503 -0.024747899331592205 0 -0.052936109079394625 -0.025273362408791203 0 -0.052915261880669424 -0.025652494881461364 0 -0.053184240463716344 -0.02528912750274713 0 -0.053184240463716344 -0.02528912750274713 0 -0.053331784966395131 -0.025169314755238047 0 -0.053602283874740503 -0.024747899331592205 0 -0.053112429816924787 -0.02545452200570112 0 -0.053184240463716344 -0.02528912750274713 0 -0.053331784966395131 -0.025169314755238047 0 -0.053331784966395131 -0.025169314755238047 0 -0.053464429595714506 -0.024921078975950858 0 -0.053602283874740503 -0.024747899331592205 0 -0.053391361259755243 -0.025133099796583583 0 -0.053331784966395131 -0.025169314755238047 0 -0.053464429595714506 -0.024921078975950858 0 -0.053638305397596828 -0.024677072477703611 0 -0.054003010404169167 -0.024076848970813237 0 -0.053464429595714506 -0.024921078975950858 0 -0.053602283874740503 -0.024747899331592205 0 -0.053410383575109271 -0.024875746944432946 0 -0.052753359883270311 -0.024013754381301565 0 -0.052936109079394625 -0.025273362408791203 0 -0.053602283874740503 -0.024747899331592205 0 -0.052753359883270311 -0.024013754381301565 0 -0.053602283874740503 -0.024747899331592205 0 -0.053727704495016765 -0.022793857715739805 0 -0.053602283874740503 -0.024747899331592205 0 -0.053727704495016765 -0.022793857715739805 0 -0.05484096447484952 -0.023188348484394473 0 -0.05463045070566501 -0.021363025443110219 0 -0.053712426394846358 -0.021442791979388552 0 -0.053727704495016765 -0.022793857715739805 0 -0.05463045070566501 -0.021363025443110219 0 -0.053727704495016765 -0.022793857715739805 0 -0.05484096447484952 -0.023188348484394473 0 -0.053712426394846358 -0.021442791979388552 0 -0.052725361253148383 -0.022117879054969907 0 -0.053727704495016765 -0.022793857715739805 0 -0.05463045070566501 -0.021363025443110219 0 -0.055443810594409983 -0.021830066511108297 0 -0.05484096447484952 -0.023188348484394473 0 -0.054842473495605115 -0.023362471845964725 0 -0.054003010404169167 -0.024076848970813237 0 -0.053335435695843647 -0.024838242078146829 0 -0.053410383575109271 -0.024875746944432946 0 -0.053343748534311473 -0.024858094550232149 0 -0.053410383575109271 -0.024875746944432946 0 -0.053343748534311473 -0.024858094550232149 0 -0.053409386501111863 -0.024926949225456879 0 -0.053464429595714506 -0.024921078975950858 0 -0.053410383575109271 -0.024875746944432946 0 -0.053409386501111863 -0.024926949225456879 0 -0.053393736991664303 -0.025186136336612559 0 -0.053409386501111863 -0.024926949225456879 0 -0.05334906332470802 -0.024891559520395696 0 -0.053391361259755243 -0.025133099796583583 0 -0.053464429595714506 -0.024921078975950858 0 -0.053409386501111863 -0.024926949225456879 0 -0.053343748534311473 -0.024858094550232149 0 -0.053409386501111863 -0.024926949225456879 0 -0.05334906332470802 -0.024891559520395696 0 -0.047254553194959345 -0.021570514298897038 0 -0.038705128286788279 -0.018348973336251927 0 -0.037447639796517621 -0.017941003738416512 0 -0.034913806007716548 -0.017862969542394812 0 -0.035154411130078708 -0.01932239492130321 0 -0.037330405528682178 -0.017221056507656936 0 -0.037447639796517621 -0.017941003738416512 0 -0.034913806007716548 -0.017862969542394812 0 -0.053343748534311473 -0.024858094550232149 0 -0.05334906332470802 -0.024891559520395696 0 -0.053218721935953318 -0.024790952936769389 0 -0.023197226264261718 -0.011169522154307318 0 -0.023267459876527237 -0.011166806795857567 0 -0.023281678450353102 -0.011101733840691894 0 -0.023197226264261718 -0.011169522154307318 0 -0.022892918803097601 -0.011226803467448596 0 -0.023110295134862929 -0.01139042003106807 0 -0.023131114744568627 -0.012261450283165901 0 -0.026584171568573765 -0.013108287176704144 0 -0.023197226264261718 -0.011169522154307318 0 -0.023251343333327009 -0.011166320680766574 0 -0.023267459876527237 -0.011166806795857567 0 -0.026584171568573765 -0.013108287176704144 0 -0.038705128286788279 -0.018348973336251927 0 -0.038705128286788279 -0.018348973336251927 0 -0.047962250763135122 -0.021492059142214082 0 -0.041195255879548434 -0.015568816950823291 0 -0.04151247818184426 -0.017219530729623029 0 -0.040034627593200464 -0.016227111133755953 0 -0.038705128286788279 -0.018348973336251927 0 -0.031028351433903378 -0.013663218868596295 0 -0.053343748534311473 -0.024858094550232149 0 -0.053218721935953318 -0.024790952936769389 0 -0.05327584319932497 -0.024812956767822907 0 -0.053335435695843647 -0.024838242078146829 0 -0.053343748534311473 -0.024858094550232149 0 -0.05327584319932497 -0.024812956767822907 0 -0.039660240547155626 -0.018459757976510678 0 -0.041834409923560301 -0.018874421358810484 0 -0.040381456742262567 -0.017541590594683694 0 -0.04151247818184426 -0.017219530729623029 0 -0.040381456742262567 -0.017541590594683694 0 -0.040034627593200464 -0.016227111133755953 0 -0.041834409923560301 -0.018874421358810484 0 -0.04151247818184426 -0.017219530729623029 0 -0.040381456742262567 -0.017541590594683694 0 -0.051699388650700812 -0.021695079625051898 0 -0.047962250763135122 -0.021492059142214082 0 -0.051699388650700812 -0.021695079625051898 0 -0.054842473495605115 -0.023362471845964725 0 -0.053287406960594849 -0.024797269232363844 0 -0.053335435695843647 -0.024838242078146829 0 -0.05327584319932497 -0.024812956767822907 0 -0.035411758900368087 -0.010842587598149647 0 -0.033535903887114901 -0.010079114653074641 0 -0.033913841461408953 -0.0078408324866610993 0 -0.037495380085745468 -0.015091560730222699 0 -0.029622268345053805 -0.011628776996384604 0 -0.033535903887114901 -0.010079114653074641 0 -0.033913841461408953 -0.0078408324866610993 0 -0.031520537821742516 -0.009316367485901941 0 -0.039660240547155626 -0.018459757976510678 0 -0.040381456742262567 -0.017541590594683694 0 -0.038821664864083123 -0.016905471860704315 0 -0.029622268345053805 -0.011628776996384604 0 -0.031028351433903378 -0.013663218868596295 0 -0.040381456742262567 -0.017541590594683694 0 -0.038821664864083123 -0.016905471860704315 0 -0.040034627593200464 -0.016227111133755953 0 -0.029622268345053805 -0.011628776996384604 0 -0.022451133113633739 -0.0095938104540168097 0 -0.023361811872176216 -0.011047992776511882 0 -0.023323365138072056 -0.011076492048650549 0 -0.023321341502499753 -0.011037886105644521 0 -0.023267459876527237 -0.011166806795857567 0 -0.023323365138072056 -0.011076492048650549 0 -0.023281678450353102 -0.011101733840691894 0 -0.023323365138072056 -0.011076492048650549 0 -0.023281678450353102 -0.011101733840691894 0 -0.023321341502499753 -0.011037886105644521 0 -0.023281678450353102 -0.011101733840691894 0 -0.023307550796031879 -0.0110550367648085 0 -0.023241325294650696 -0.011257321563390271 0 -0.023197226264261718 -0.011169522154307318 0 -0.023241325294650696 -0.011257321563390271 0 -0.023110295134862929 -0.01139042003106807 0 -0.023197226264261718 -0.011169522154307318 0 -0.023281678450353102 -0.011101733840691894 0 -0.023241325294650696 -0.011257321563390271 0 -0.023281678450353102 -0.011101733840691894 0 -0.023307550796031879 -0.0110550367648085 0 -0.023321341502499753 -0.011037886105644521 0 -0.023307550796031879 -0.0110550367648085 0 -0.023305527866823723 -0.011447606339694787 0 -0.0233435419204438 -0.011229635593845919 0 -0.023307550796031879 -0.0110550367648085 0 -0.023305527866823723 -0.011447606339694787 0 -0.023241325294650696 -0.011257321563390271 0 -0.023305527866823723 -0.011447606339694787 0 -0.02335338908897425 -0.011797465950370723 0 -0.023315419483858974 -0.012104864782399445 0 -0.023305527866823723 -0.011447606339694787 0 -0.02335338908897425 -0.011797465950370723 0 -0.0233435419204438 -0.011229635593845919 0 -0.023305527866823723 -0.011447606339694787 0 -0.023315419483858974 -0.012104864782399445 0 -0.023190762757682504 -0.01155442959567585 0 -0.023315419483858974 -0.012104864782399445 0 -0.023190762757682504 -0.01155442959567585 0 -0.022925870488912387 -0.011770388050754716 0 -0.023305527866823723 -0.011447606339694787 0 -0.023190762757682504 -0.01155442959567585 0 -0.023241325294650696 -0.011257321563390271 0 -0.023190762757682504 -0.01155442959567585 0 -0.023241325294650696 -0.011257321563390271 0 -0.023110295134862929 -0.01139042003106807 0 -0.022892918803097601 -0.011226803467448596 0 -0.023110295134862929 -0.01139042003106807 0 -0.022925870488912387 -0.011770388050754716 0 -0.026584171568573765 -0.013108287176704144 0 -0.023135631359373104 -0.01294272893587878 0 -0.023791201996756762 -0.015352063473072417 0 -0.024490531115332097 -0.014398212270293056 0 -0.023571265671940914 -0.01421880515205055 0 -0.023190762757682504 -0.01155442959567585 0 -0.023110295134862929 -0.01139042003106807 0 -0.022925870488912387 -0.011770388050754716 0 -0.030330860460321501 -0.016198123167124875 0 -0.026584171568573765 -0.013108287176704144 0 -0.025076117411897032 -0.014975648728654157 0 -0.023791201996756762 -0.015352063473072417 0 -0.024490531115332097 -0.014398212270293056 0 -0.024490531115332097 -0.014398212270293056 0 -0.023571265671940914 -0.01421880515205055 0 -0.024501575897895356 -0.013359218367039419 0 -0.025432073149722845 -0.014086250933450334 0 -0.024490531115332097 -0.014398212270293056 0 -0.024501575897895356 -0.013359218367039419 0 -0.023315419483858974 -0.012104864782399445 0 -0.022925870488912387 -0.011770388050754716 0 -0.023326710325249002 -0.01270652164874638 0 -0.023135631359373104 -0.01294272893587878 0 -0.023305558490442288 -0.0127331856071374 0 -0.023571265671940914 -0.01421880515205055 0 -0.023326710325249002 -0.01270652164874638 0 -0.024501575897895356 -0.013359218367039419 0 -0.023326710325249002 -0.01270652164874638 0 -0.024501575897895356 -0.013359218367039419 0 -0.023746287854457641 -0.01259278907864049 0 -0.023326710325249002 -0.01270652164874638 0 -0.023746287854457641 -0.01259278907864049 0 -0.023289698498948609 -0.012443450169109789 0 -0.024501575897895356 -0.013359218367039419 0 -0.02477033377496389 -0.012668572509011607 0 -0.023746287854457641 -0.01259278907864049 0 -0.02477033377496389 -0.012668572509011607 0 -0.025460529064182748 -0.013037293139422725 0 -0.02504351379685597 -0.013027863548316506 0 -0.02477033377496389 -0.012668572509011607 0 -0.023746287854457641 -0.01259278907864049 0 -0.023701409072744286 -0.011806409905073197 0 -0.024565832271499752 -0.012074666866783034 0 -0.024013621382299202 -0.015303227807112211 0 -0.02477033377496389 -0.012668572509011607 0 -0.02504351379685597 -0.013027863548316506 0 -0.024846855693996098 -0.012941659713012447 0 -0.023400637236630373 -0.012279419642555415 0 -0.023311275981047083 -0.012326743130223406 0 -0.023337434787659726 -0.012336769298578167 0 -0.023746287854457641 -0.01259278907864049 0 -0.023400637236630373 -0.012279419642555415 0 -0.023701409072744286 -0.011806409905073197 0 -0.023746287854457641 -0.01259278907864049 0 -0.023400637236630373 -0.012279419642555415 0 -0.023289698498948609 -0.012443450169109789 0 -0.024216256848838477 -0.012312717895450949 0 -0.024013621382299202 -0.015303227807112211 0 -0.023400637236630373 -0.012279419642555415 0 -0.023311275981047083 -0.012326743130223406 0 -0.023289698498948609 -0.012443450169109789 0 -0.023311275981047083 -0.012326743130223406 0 -0.023317322019446245 -0.012218440483437574 0 -0.023289698498948609 -0.012443450169109789 0 -0.023317322019446245 -0.012218440483437574 0 -0.023379383796752643 -0.012348946168330065 0 -0.023434562769149698 -0.012074908024684309 0 -0.023311275981047083 -0.012326743130223406 0 -0.023317322019446245 -0.012218440483437574 0 -0.023379383796752643 -0.012348946168330065 0 -0.02335338908897425 -0.011797465950370723 0 -0.023315419483858974 -0.012104864782399445 0 -0.023317322019446245 -0.012218440483437574 0 -0.02335338908897425 -0.011797465950370723 0 -0.023317322019446245 -0.012218440483437574 0 -0.023434562769149698 -0.012074908024684309 0 -0.023315419483858974 -0.012104864782399445 0 -0.023317322019446245 -0.012218440483437574 0 -0.023289698498948609 -0.012443450169109789 0 -0.023315419483858974 -0.012104864782399445 0 -0.023326710325249002 -0.01270652164874638 0 -0.023289698498948609 -0.012443450169109789 0 -0.025225578725334562 -0.024933699776195781 0 -0.024031239447166931 -0.024857599159773605 0 -0.024367945944721688 -0.025580425346200242 0 -0.02419952442382051 -0.01694426144601003 0 -0.022303762201161877 -0.033674690582675589 0 -0.023290368725648079 -0.012533725157198956 0 -0.023479829927417432 -0.012539399506653408 0 -0.02343315789652204 -0.012823950479686421 0 -0.023290368725648079 -0.012533725157198956 0 -0.023379383796752643 -0.012348946168330065 0 -0.023479829927417432 -0.012539399506653408 0 -0.023311275981047083 -0.012326743130223406 0 -0.023290368725648079 -0.012533725157198956 0 -0.023379383796752643 -0.012348946168330065 0 -0.02419952442382051 -0.01694426144601003 0 -0.024013621382299202 -0.015303227807112211 0 -0.023311275981047083 -0.012326743130223406 0 -0.023290368725648079 -0.012533725157198956 0 -0.023337434787659726 -0.012336769298578167 0 -0.023798010723780481 -0.023642074683425808 0 -0.023235377363611458 -0.024604438946021327 0 -0.024031239447166931 -0.024857599159773605 0 -0.024013621382299202 -0.015303227807112211 0 -0.02397081303161111 -0.01947205318044572 0 -0.02504351379685597 -0.013027863548316506 0 -0.025212990019671856 -0.013457070320766458 0 -0.024846855693996098 -0.012941659713012447 0 -0.025460529064182748 -0.013037293139422725 0 -0.02504351379685597 -0.013027863548316506 0 -0.025212990019671856 -0.013457070320766458 0 -0.025212990019671856 -0.013457070320766458 0 -0.024983424480981439 -0.013937398995949287 0 -0.024846855693996098 -0.012941659713012447 0 -0.02397081303161111 -0.01947205318044572 0 -0.026650954883261586 -0.020191182176242856 0 -0.023235377363611458 -0.024604438946021327 0 -0.022728512675037876 -0.025534303600447592 0 -0.023521149681828404 -0.025504353580961734 0 -0.025225578725334562 -0.024933699776195781 0 -0.023798010723780481 -0.023642074683425808 0 -0.024031239447166931 -0.024857599159773605 0 -0.023235377363611458 -0.024604438946021327 0 -0.024031239447166931 -0.024857599159773605 0 -0.023521149681828404 -0.025504353580961734 0 -0.024031239447166931 -0.024857599159773605 0 -0.023521149681828404 -0.025504353580961734 0 -0.024367945944721688 -0.025580425346200242 0 -0.024367945944721688 -0.025580425346200242 0 -0.023614378702088129 -0.026433195683918029 0 -0.025113255862735804 -0.026300516851277208 0 -0.023768324665460083 -0.039101241155455005 0 -0.025146559028788304 -0.039025445527339137 0 -0.023521149681828404 -0.025504353580961734 0 -0.024367945944721688 -0.025580425346200242 0 -0.023614378702088129 -0.026433195683918029 0 -0.023768324665460083 -0.039101241155455005 0 -0.028644879575723616 -0.0328501349653171 0 -0.023614378702088129 -0.026433195683918029 0 -0.02295935153710349 -0.026087743858965257 0 -0.022240043886430857 -0.026579716042860461 0 -0.022801926850547528 -0.02561342246031751 0 -0.02295935153710349 -0.026087743858965257 0 -0.022240043886430857 -0.026579716042860461 0 -0.026650954883261586 -0.020191182176242856 0 -0.025576591103823411 -0.024785054823347141 0 -0.023521149681828404 -0.025504353580961734 0 -0.023614378702088129 -0.026433195683918029 0 -0.02295935153710349 -0.026087743858965257 0 -0.022728512675037876 -0.025534303600447592 0 -0.023521149681828404 -0.025504353580961734 0 -0.02295935153710349 -0.026087743858965257 0 -0.025791153965615238 -0.050677158879422035 0 -0.026350835365110001 -0.049321625305687102 0 -0.027353852608167913 -0.050426096216586266 0 -0.025791153965615238 -0.050677158879422035 0 -0.02430064525951264 -0.050138449862112723 0 -0.024760415963278132 -0.04932950551451834 0 -0.025791153965615238 -0.050677158879422035 0 -0.024760415963278132 -0.04932950551451834 0 -0.026350835365110001 -0.049321625305687102 0 -0.025791153965615238 -0.050677158879422035 0 -0.02430064525951264 -0.050138449862112723 0 -0.024264415272150151 -0.050983308430107017 0 -0.02430064525951264 -0.050138449862112723 0 -0.023240902380704937 -0.049775641021276622 0 -0.024760415963278132 -0.04932950551451834 0 -0.02430064525951264 -0.050138449862112723 0 -0.024264415272150151 -0.050983308430107017 0 -0.023476535257368664 -0.050661888229082748 0 -0.025225578725334562 -0.024933699776195781 0 -0.024367945944721688 -0.025580425346200242 0 -0.025113255862735804 -0.026300516851277208 0 -0.023476535257368664 -0.050661888229082748 0 -0.021205039900293141 -0.049957620068486371 0 -0.021405412284423914 -0.051210677555393713 0 -0.024264415272150151 -0.050983308430107017 0 -0.023476535257368664 -0.050661888229082748 0 -0.021405412284423914 -0.051210677555393713 0 -0.025146559028788304 -0.039025445527339137 0 -0.022303762201161877 -0.033674690582675589 0 -0.025225578725334562 -0.024933699776195781 0 -0.025113255862735804 -0.026300516851277208 0 -0.026578275974213042 -0.026196959535454246 0 -0.023476535257368664 -0.050661888229082748 0 -0.023240902380704937 -0.049775641021276622 0 -0.021916590412842902 -0.049954094724849712 0 -0.02430064525951264 -0.050138449862112723 0 -0.023476535257368664 -0.050661888229082748 0 -0.023240902380704937 -0.049775641021276622 0 -0.023476535257368664 -0.050661888229082748 0 -0.020483138324498645 -0.048549359198332302 0 -0.021205039900293141 -0.049957620068486371 0 -0.023329319321214247 -0.050588414424916919 0 -0.021219352443022404 -0.04928635098952161 0 -0.023240902380704937 -0.049775641021276622 0 -0.023394870326031124 -0.048575701157598149 0 -0.0221395325701523 -0.049724395776313268 0 -0.023240902380704937 -0.049775641021276622 0 -0.024760415963278132 -0.04932950551451834 0 -0.023394870326031124 -0.048575701157598149 0 -0.025082267390100228 -0.048017077422004527 0 -0.023394870326031124 -0.048575701157598149 0 -0.023939551880546042 -0.047169830725482594 0 -0.024760415963278132 -0.04932950551451834 0 -0.025082267390100228 -0.048017077422004527 0 -0.023394870326031124 -0.048575701157598149 0 -0.023394870326031124 -0.048575701157598149 0 -0.022679392232437024 -0.047412910347214746 0 -0.021836482587184083 -0.048212071810259619 0 -0.023394870326031124 -0.048575701157598149 0 -0.022679392232437024 -0.047412910347214746 0 -0.023939551880546042 -0.047169830725482594 0 -0.022679392232437024 -0.047412910347214746 0 -0.022796403776811958 -0.046375425945453137 0 -0.023939551880546042 -0.047169830725482594 0 -0.025082267390100228 -0.048017077422004527 0 -0.023939551880546042 -0.047169830725482594 0 -0.025926809398731352 -0.04657468018633841 0 -0.023939551880546042 -0.047169830725482594 0 -0.024993087075157693 -0.044999941647124203 0 -0.025926809398731352 -0.04657468018633841 0 -0.022796403776811958 -0.046375425945453137 0 -0.023939551880546042 -0.047169830725482594 0 -0.024993087075157693 -0.044999941647124203 0 -0.022796403776811958 -0.046375425945453137 0 -0.024993087075157693 -0.044999941647124203 0 -0.022952023285318854 -0.044999876035810418 0 -0.027034335062024326 -0.044999878305635378 0 -0.025926809398731352 -0.04657468018633841 0 -0.02781951966492708 -0.046447314557050798 0 -0.027034335062024326 -0.044999878305635378 0 -0.02781951966492708 -0.046447314557050798 0 -0.029074981550238608 -0.044999936612848325 0 -0.024993087075157693 -0.044999941647124203 0 -0.027034335062024326 -0.044999878305635378 0 -0.025926809398731352 -0.04657468018633841 0 -0.025082267390100228 -0.048017077422004527 0 -0.025926809398731352 -0.04657468018633841 0 -0.026736255496265102 -0.047752745007558502 0 -0.025926809398731352 -0.04657468018633841 0 -0.02781951966492708 -0.046447314557050798 0 -0.026736255496265102 -0.047752745007558502 0 -0.02781951966492708 -0.046447314557050798 0 -0.026736255496265102 -0.047752745007558502 0 -0.028427118986657778 -0.048222314639896589 0 -0.026736255496265102 -0.047752745007558502 0 -0.027055347333983425 -0.049772393843264498 0 -0.028427118986657778 -0.048222314639896589 0 -0.025082267390100228 -0.048017077422004527 0 -0.026736255496265102 -0.047752745007558502 0 -0.027055347333983425 -0.049772393843264498 0 -0.024760415963278132 -0.04932950551451834 0 -0.025082267390100228 -0.048017077422004527 0 -0.027055347333983425 -0.049772393843264498 0 -0.024997894387595289 -0.049270342438022745 0 -0.026427832947604826 -0.049901970821560698 0 -0.027055347333983425 -0.049772393843264498 0 -0.029229319103506426 -0.050031954839412959 0 -0.028427118986657778 -0.048222314639896589 0 -0.026427832947604826 -0.049901970821560698 0 -0.029992280178128217 -0.046358050407596087 0 -0.031715339418520741 -0.045380924368541763 0 -0.030814021228967418 -0.046824001049246201 0 -0.03027268733185251 -0.045193416989257044 0 -0.029992280178128217 -0.046358050407596087 0 -0.030644645215165772 -0.048623776732614789 0 -0.030644645215165772 -0.048623776732614789 0 -0.032132871929383945 -0.042227109298411392 0 -0.029229319103506426 -0.050031954839412959 0 -0.030087229929986678 -0.048685026068859168 0 -0.028427118986657778 -0.048222314639896589 0 -0.030644645215165772 -0.048623776732614789 0 -0.02969791624696564 -0.046765444399599669 0 -0.030087229929986678 -0.048685026068859168 0 -0.028427118986657778 -0.048222314639896589 0 -0.029486347143679384 -0.046836316176331702 0 -0.03073850567468922 -0.048288373054255276 0 -0.030745629970646636 -0.047423652853074032 0 -0.029973101298646544 -0.046828812048200191 0 -0.03073850567468922 -0.048288373054255276 0 -0.030745629970646636 -0.047423652853074032 0 -0.031126912400078175 -0.047817092834826144 0 -0.02781951966492708 -0.046447314557050798 0 -0.028427118986657778 -0.048222314639896589 0 -0.029486347143679384 -0.046836316176331702 0 -0.030745629970646636 -0.047423652853074032 0 -0.029973101298646544 -0.046828812048200191 0 -0.031303768552842719 -0.046468300137138624 0 -0.029973101298646544 -0.046828812048200191 0 -0.030732976323083014 -0.044999934643660748 0 -0.029075792069500273 -0.044999948451641958 0 -0.029973101298646544 -0.046828812048200191 0 -0.030732976323083014 -0.044999934643660748 0 -0.031303768552842719 -0.046468300137138624 0 -0.02781951966492708 -0.046447314557050798 0 -0.029486347143679384 -0.046836316176331702 0 -0.029074981550238608 -0.044999936612848325 0 -0.02969791624696564 -0.046765444399599669 0 -0.029075670754125281 -0.045000361751739826 0 -0.032390290030125515 -0.045000641831963936 0 -0.03266170489668576 -0.046550378623646908 0 -0.032390560027436781 -0.044999881557814023 0 -0.032917147546330523 -0.046884365501266879 0 -0.034663206390394261 -0.045000029391514818 0 -0.030732976323083014 -0.044999934643660748 0 -0.032389741023590254 -0.045000030759663717 0 -0.031303768552842719 -0.046468300137138624 0 -0.032389741023590254 -0.045000030759663717 0 -0.031303768552842719 -0.046468300137138624 0 -0.032453543133572189 -0.046761123203973388 0 -0.031303768552842719 -0.046468300137138624 0 -0.032453543133572189 -0.046761123203973388 0 -0.031564977615472833 -0.047471700062102502 0 -0.030745629970646636 -0.047423652853074032 0 -0.031303768552842719 -0.046468300137138624 0 -0.031564977615472833 -0.047471700062102502 0 -0.03266170489668576 -0.046550378623646908 0 -0.032987048404085839 -0.049561345113376259 0 -0.032917147546330523 -0.046884365501266879 0 -0.033420914472402932 -0.04854073443104627 0 -0.03443796304108445 -0.047355192398278345 0 -0.032453543133572189 -0.046761123203973388 0 -0.032566472442059263 -0.048207679093982415 0 -0.031564977615472833 -0.047471700062102502 0 -0.032566472442059263 -0.048207679093982415 0 -0.031564977615472833 -0.047471700062102502 0 -0.03145566671154959 -0.048090662685651209 0 -0.030745629970646636 -0.047423652853074032 0 -0.031126912400078175 -0.047817092834826144 0 -0.031564977615472833 -0.047471700062102502 0 -0.031126912400078175 -0.047817092834826144 0 -0.031564977615472833 -0.047471700062102502 0 -0.03145566671154959 -0.048090662685651209 0 -0.03073850567468922 -0.048288373054255276 0 -0.031126912400078175 -0.047817092834826144 0 -0.03145566671154959 -0.048090662685651209 0 -0.032566472442059263 -0.048207679093982415 0 -0.03145566671154959 -0.048090662685651209 0 -0.03143589405322883 -0.048640644832912056 0 -0.03143589405322883 -0.048640644832912056 0 -0.032784275564793852 -0.049468529764311799 0 -0.031172235452592244 -0.049299361514142416 0 -0.03073850567468922 -0.048288373054255276 0 -0.03143589405322883 -0.048640644832912056 0 -0.031172235452592244 -0.049299361514142416 0 -0.03073850567468922 -0.048288373054255276 0 -0.03145566671154959 -0.048090662685651209 0 -0.03143589405322883 -0.048640644832912056 0 -0.032566472442059263 -0.048207679093982415 0 -0.03143589405322883 -0.048640644832912056 0 -0.032784275564793852 -0.049468529764311799 0 -0.033420914472402932 -0.04854073443104627 0 -0.03380209459076159 -0.04993395592341171 0 -0.034188342691928927 -0.049154555871594161 0 -0.032987048404085839 -0.049561345113376259 0 -0.034856105013961539 -0.043635602975597133 0 -0.035261540159473428 -0.036411318954518046 0 -0.035331295042574283 -0.036775388826229577 0 -0.03356472537075849 -0.036946107616389778 0 -0.035023206623689407 -0.020820699135241358 0 -0.035090207257408142 -0.020697021471811766 0 -0.035189284069789634 -0.020783668475638992 0 -0.036018313535294236 -0.031417909545192822 0 -0.033640999573534593 -0.02827028303770035 0 -0.034856105013961539 -0.043635602975597133 0 -0.036018313535294236 -0.031417909545192822 0 -0.036018313535294236 -0.031417909545192822 0 -0.040129948496958598 -0.024142030727968399 0 -0.035023206623689407 -0.020820699135241358 0 -0.035090207257408142 -0.020697021471811766 0 -0.035036461657772064 -0.020699577998398024 0 -0.035090207257408142 -0.020697021471811766 0 -0.03509714575989472 -0.020622716831602037 0 -0.035036461657772064 -0.020699577998398024 0 -0.035090207257408142 -0.020697021471811766 0 -0.03509714575989472 -0.020622716831602037 0 -0.035124367174628551 -0.020594414924003723 0 -0.03509714575989472 -0.020622716831602037 0 -0.035107653697337315 -0.020637863222110038 0 -0.035036461657772064 -0.020699577998398024 0 -0.036982381700372789 -0.02129218162447576 0 -0.040129948496958598 -0.024142030727968399 0 -0.035124367174628551 -0.020594414924003723 0 -0.035087269583719286 -0.020547396406889823 0 -0.035104987835229862 -0.020473401701801928 0 -0.03509714575989472 -0.020622716831602037 0 -0.035124367174628551 -0.020594414924003723 0 -0.035116755545652412 -0.020497173055901055 0 -0.035090207257408142 -0.020697021471811766 0 -0.035124367174628551 -0.020594414924003723 0 -0.035189284069789634 -0.020783668475638992 0 -0.035124367174628551 -0.020594414924003723 0 -0.035084210216326711 -0.020605253907334323 0 -0.035087269583719286 -0.020547396406889823 0 -0.033923510532028134 -0.019348354887487634 0 -0.033640999573534593 -0.02827028303770035 0 -0.034856105013961539 -0.043635602975597133 0 -0.032132871929383945 -0.042227109298411392 0 -0.035261540159473428 -0.036411318954518046 0 -0.03356472537075849 -0.036946107616389778 0 -0.033292372788259153 -0.036192046029577485 0 -0.033640999573534593 -0.02827028303770035 0 -0.032132871929383945 -0.042227109298411392 0 -0.031831168923332043 -0.036094840268780619 0 -0.031607708891704792 -0.036046342507878096 0 -0.031768023268069823 -0.035840076285168034 0 -0.029992280178128217 -0.046358050407596087 0 -0.032132871929383945 -0.042227109298411392 0 -0.031560990349898899 -0.035847674400394346 0 -0.031607708891704792 -0.036046342507878096 0 -0.031768023268069823 -0.035840076285168034 0 -0.033640999573534593 -0.02827028303770035 0 -0.034178627649525346 -0.028328892498149891 0 -0.026350835365110001 -0.049321625305687102 0 -0.028022900505903375 -0.049391716704634381 0 -0.027353852608167913 -0.050426096216586266 0 -0.031831168923332043 -0.036094840268780619 0 -0.031768023268069823 -0.035840076285168034 0 -0.031963968388221901 -0.035814400152660464 0 -0.029992280178128217 -0.046358050407596087 0 -0.028644879575723616 -0.0328501349653171 0 -0.034178627649525346 -0.028328892498149891 0 -0.028644879575723616 -0.0328501349653171 0 -0.035210521872231941 -0.020455713780586901 0 -0.035128365770950937 -0.02063314723985777 0 -0.035105950990706222 -0.020535318469275976 0 -0.035082889576086046 -0.02060605420734608 0 -0.035128365770950937 -0.02063314723985777 0 -0.035105950990706222 -0.020535318469275976 0 -0.026650954883261586 -0.020191182176242856 0 -0.028644879575723616 -0.0328501349653171 0 -0.035084210216326711 -0.020605253907334323 0 -0.035082889576086046 -0.02060605420734608 0 -0.035087269583719286 -0.020547396406889823 0 -0.035082889576086046 -0.02060605420734608 0 -0.035105950990706222 -0.020535318469275976 0 -0.035087269583719286 -0.020547396406889823 0 -0.035105950990706222 -0.020535318469275976 0 -0.035087269583719286 -0.020547396406889823 0 -0.035089179287674653 -0.020395038665942205 0 -0.035089179287674653 -0.020395038665942205 0 -0.035109468786203586 -0.020318480608059266 0 -0.035104987835229862 -0.020473401701801928 0 -0.035087269583719286 -0.020547396406889823 0 -0.035089179287674653 -0.020395038665942205 0 -0.035104987835229862 -0.020473401701801928 0 -0.026650954883261586 -0.020191182176242856 0 -0.030735825629112767 -0.016240520507413495 0 -0.035210521872231941 -0.020455713780586901 0 -0.035105950990706222 -0.020535318469275976 0 -0.035089179287674653 -0.020395038665942205 0 -0.035210521872231941 -0.020455713780586901 0 -0.035089179287674653 -0.020395038665942205 0 -0.035092463587687452 -0.020067968084463532 0 -0.035125784061675484 -0.020185950044055132 0 -0.035092463587687452 -0.020067968084463532 0 -0.035109468786203586 -0.020318480608059266 0 -0.035089179287674653 -0.020395038665942205 0 -0.035092463587687452 -0.020067968084463532 0 -0.035109468786203586 -0.020318480608059266 0 -0.035109468786203586 -0.020318480608059266 0 -0.035140460240850484 -0.020417601039055652 0 -0.035116755545652412 -0.020497173055901055 0 -0.035208312280361205 -0.02042675993103242 0 -0.035186481064729692 -0.020322512667492128 0 -0.035140460240850484 -0.020417601039055652 0 -0.035186481064729692 -0.020322512667492128 0 -0.035109468786203586 -0.020318480608059266 0 -0.035140460240850484 -0.020417601039055652 0 -0.035140460240850484 -0.020417601039055652 0 -0.035118829657997085 -0.020509876543130461 0 -0.035116755545652412 -0.020497173055901055 0 -0.035107653697337315 -0.020637863222110038 0 -0.03508644764174397 -0.020520091069469074 0 -0.035069179748950401 -0.020852606231395295 0 -0.035140460240850484 -0.020417601039055652 0 -0.035118829657997085 -0.020509876543130461 0 -0.03508644764174397 -0.020520091069469074 0 -0.035118829657997085 -0.020509876543130461 0 -0.035107653697337315 -0.020637863222110038 0 -0.03508644764174397 -0.020520091069469074 0 -0.035118829657997085 -0.020509876543130461 0 -0.035107653697337315 -0.020637863222110038 0 -0.035116755545652412 -0.020497173055901055 0 -0.03509714575989472 -0.020622716831602037 0 -0.035107653697337315 -0.020637863222110038 0 -0.035116755545652412 -0.020497173055901055 0 -0.035109468786203586 -0.020318480608059266 0 -0.035116755545652412 -0.020497173055901055 0 -0.035104987835229862 -0.020473401701801928 0 -0.035124367174628551 -0.020594414924003723 0 -0.035116755545652412 -0.020497173055901055 0 -0.035104987835229862 -0.020473401701801928 0 -0.051101629450435879 -0.027566200210924385 0 -0.051084791481355224 -0.027311491344695397 0 -0.05099884938940457 -0.027926032480112207 0 -0.051254841812118791 -0.027331524148862255 0 -0.05036936939996188 -0.028019365338121108 0 -0.05135965291178287 -0.027306704540316019 0 -0.051254841812118791 -0.027331524148862255 0 -0.051376437371344286 -0.027445628412284567 0 -0.043432024300492846 -0.024282016862811721 0 -0.040129948496958598 -0.024142030727968399 0 -0.05099884938940457 -0.027926032480112207 0 -0.051293267657026256 -0.02746653278437914 0 -0.051461612263407654 -0.028390972883129712 0 -0.05099884938940457 -0.027926032480112207 0 -0.051293267657026256 -0.02746653278437914 0 -0.051254841812118791 -0.027331524148862255 0 -0.042876025827410257 -0.023430896005264063 0 -0.043432024300492846 -0.024282016862811721 0 -0.051266292607675547 -0.02738291098828978 0 -0.051293267657026256 -0.02746653278437914 0 -0.051254841812118791 -0.027331524148862255 0 -0.035208312280361205 -0.02042675993103242 0 -0.035140460240850484 -0.020417601039055652 0 -0.03508644764174397 -0.020520091069469074 0 -0.051266292607675547 -0.02738291098828978 0 -0.051254841812118791 -0.027331524148862255 0 -0.051474436030225751 -0.027483552335865101 0 -0.052364055909083239 -0.029856485510623788 0 -0.052208467102129723 -0.031067782545687633 0 -0.051874545352330596 -0.027742625330532726 0 -0.05135965291178287 -0.027306704540316019 0 -0.051474436030225751 -0.027483552335865101 0 -0.052921162171945764 -0.031970760482397567 0 -0.052590730169040048 -0.034525177962188271 0 -0.052114839461481585 -0.033215015571950834 0 -0.05135965291178287 -0.027306704540316019 0 -0.051254841812118791 -0.027331524148862255 0 -0.051474436030225751 -0.027483552335865101 0 -0.051004058552089018 -0.03258302422700908 0 -0.052114839461481585 -0.033215015571950834 0 -0.050919813772587072 -0.03376399079609662 0 -0.052114839461481585 -0.033215015571950834 0 -0.051736465415008766 -0.034125509414406736 0 -0.050919813772587072 -0.03376399079609662 0 -0.052590730169040048 -0.034525177962188271 0 -0.052114839461481585 -0.033215015571950834 0 -0.051736465415008766 -0.034125509414406736 0 -0.051004058552089018 -0.03258302422700908 0 -0.050919813772587072 -0.03376399079609662 0 -0.049780619781426116 -0.033795627501046928 0 -0.050919813772587072 -0.03376399079609662 0 -0.050875405446542753 -0.035064312562509942 0 -0.049780619781426116 -0.033795627501046928 0 -0.050875405446542753 -0.035064312562509942 0 -0.049475589778421154 -0.035342179286894954 0 -0.049780619781426116 -0.033795627501046928 0 -0.051736465415008766 -0.034125509414406736 0 -0.050919813772587072 -0.03376399079609662 0 -0.050875405446542753 -0.035064312562509942 0 -0.052590730169040048 -0.034525177962188271 0 -0.051736465415008766 -0.034125509414406736 0 -0.051741641151755856 -0.034863611992236365 0 -0.051736465415008766 -0.034125509414406736 0 -0.050875405446542753 -0.035064312562509942 0 -0.051741641151755856 -0.034863611992236365 0 -0.050875405446542753 -0.035064312562509942 0 -0.051741641151755856 -0.034863611992236365 0 -0.051775438532667785 -0.035743656808970382 0 -0.052590730169040048 -0.034525177962188271 0 -0.051741641151755856 -0.034863611992236365 0 -0.051775438532667785 -0.035743656808970382 0 -0.051775438532667785 -0.035743656808970382 0 -0.051195890606863484 -0.036101088456569355 0 -0.051685260399203271 -0.03657888317025413 0 -0.050875405446542753 -0.035064312562509942 0 -0.051775438532667785 -0.035743656808970382 0 -0.051195890606863484 -0.036101088456569355 0 -0.051195890606863484 -0.036101088456569355 0 -0.051076429647745399 -0.036836184347745403 0 -0.051685260399203271 -0.03657888317025413 0 -0.051775438532667785 -0.035743656808970382 0 -0.051685260399203271 -0.03657888317025413 0 -0.052308135749651603 -0.037011411230458709 0 -0.050875405446542753 -0.035064312562509942 0 -0.051195890606863484 -0.036101088456569355 0 -0.049571001714223135 -0.037251703818905808 0 -0.051195890606863484 -0.036101088456569355 0 -0.051076429647745399 -0.036836184347745403 0 -0.049571001714223135 -0.037251703818905808 0 -0.052096654590865842 -0.033642812855148391 0 -0.046204840395074623 -0.040388148028802362 0 -0.050875405446542753 -0.035064312562509942 0 -0.049814848300653781 -0.037059491824364729 0 -0.049475589778421154 -0.035342179286894954 0 -0.04010778098562208 -0.046728428930780268 0 -0.040043502687790201 -0.046723355504089022 0 -0.040175520122018103 -0.046741917007389173 0 -0.04010778098562208 -0.046728428930780268 0 -0.04003808950217836 -0.046693726197106558 0 -0.040043502687790201 -0.046723355504089022 0 -0.046204840395074623 -0.040388148028802362 0 -0.044099055804892678 -0.04142748771988386 0 -0.051076429647745399 -0.036836184347745403 0 -0.049571001714223135 -0.037251703818905808 0 -0.052088842675863362 -0.03751432683406572 0 -0.051685260399203271 -0.03657888317025413 0 -0.052088842675863362 -0.03751432683406572 0 -0.052308135749651603 -0.037011411230458709 0 -0.051076429647745399 -0.036836184347745403 0 -0.051685260399203271 -0.03657888317025413 0 -0.052088842675863362 -0.03751432683406572 0 -0.044099055804892678 -0.04142748771988386 0 -0.040502248197808483 -0.042041983024229491 0 -0.049696089782443678 -0.029289936676516228 0 -0.049846763534677506 -0.028940608225967203 0 -0.050723660772723701 -0.0286675830127066 0 -0.049696089782443678 -0.029289936676516228 0 -0.050626009555259831 -0.029299900245037796 0 -0.051041597862691114 -0.029434235232383199 0 -0.049696089782443678 -0.029289936676516228 0 -0.050723660772723701 -0.0286675830127066 0 -0.050626009555259831 -0.029299900245037796 0 -0.044099055804892678 -0.04142748771988386 0 -0.050236624840866495 -0.031680567503529947 0 -0.05135965291178287 -0.027306704540316019 0 -0.051259888619045652 -0.027652240245622597 0 -0.051376437371344286 -0.027445628412284567 0 -0.052590730169040048 -0.034525177962188271 0 -0.051775438532667785 -0.035743656808970382 0 -0.052308135749651603 -0.037011411230458709 0 -0.050236624840866495 -0.031680567503529947 0 -0.051084791481355224 -0.027311491344695397 0 -0.052208467102129723 -0.031067782545687633 0 -0.050236624840866495 -0.031680567503529947 0 -0.049846763534677506 -0.028940608225967203 0 -0.05036936939996188 -0.028019365338121108 0 -0.050723660772723701 -0.0286675830127066 0 -0.05099884938940457 -0.027926032480112207 0 -0.05036936939996188 -0.028019365338121108 0 -0.050723660772723701 -0.0286675830127066 0 -0.05099884938940457 -0.027926032480112207 0 -0.050723660772723701 -0.0286675830127066 0 -0.051461612263407654 -0.028390972883129712 0 -0.050723660772723701 -0.0286675830127066 0 -0.051461612263407654 -0.028390972883129712 0 -0.05118636430160553 -0.029199236977470087 0 -0.040129948496958598 -0.024142030727968399 0 -0.043830847898568212 -0.0324506719613036 0 -0.03549007612331484 -0.036577332965757547 0 -0.036098559139411027 -0.039937432913414894 0 -0.040826692302468312 -0.039468675908006616 0 -0.04139875829215664 -0.031078674712393534 0 -0.040616001922305175 -0.026682106739407654 0 -0.038685680626499241 -0.031356279955315772 0 -0.043830847898568212 -0.0324506719613036 0 -0.040502248197808483 -0.042041983024229491 0 -0.036018313535294236 -0.031417909545192822 0 -0.043830847898568212 -0.0324506719613036 0 -0.051096520674239594 -0.029269167829488248 0 -0.050626009555259831 -0.029299900245037796 0 -0.051041597862691114 -0.029434235232383199 0 -0.043830847898568212 -0.0324506719613036 0 -0.051329031329794952 -0.030303138477095422 0 -0.050723660772723701 -0.0286675830127066 0 -0.05118636430160553 -0.029199236977470087 0 -0.050626009555259831 -0.029299900245037796 0 -0.03380209459076159 -0.04993395592341171 0 -0.034408659498368313 -0.050003655906958024 0 -0.034188342691928927 -0.049154555871594161 0 -0.034856105013961539 -0.043635602975597133 0 -0.040502248197808483 -0.042041983024229491 0 -0.03549007612331484 -0.036577332965757547 0 -0.040826692302468312 -0.039468675908006616 0 -0.041726725047781632 -0.037326429719674183 0 -0.040502248197808483 -0.042041983024229491 0 -0.03491962622482659 -0.049758978601518768 0 -0.033420914472402932 -0.04854073443104627 0 -0.034188342691928927 -0.049154555871594161 0 -0.035082045581620529 -0.048600755353083308 0 -0.034408659498368313 -0.050003655906958024 0 -0.034188342691928927 -0.049154555871594161 0 -0.035082045581620529 -0.048600755353083308 0 -0.037288308162945913 -0.048630865253810246 0 -0.036563299517449861 -0.047675367276088558 0 -0.037649453549102589 -0.047923966464608121 0 -0.037288308162945913 -0.048630865253810246 0 -0.036327237949688534 -0.048463729995718623 0 -0.036563299517449861 -0.047675367276088558 0 -0.035082045581620529 -0.048600755353083308 0 -0.03443796304108445 -0.047355192398278345 0 -0.035966366559033569 -0.046918366213767396 0 -0.036563299517449861 -0.047675367276088558 0 -0.036742424271143076 -0.046600018312360381 0 -0.037649453549102589 -0.047923966464608121 0 -0.03491962622482659 -0.049758978601518768 0 -0.036530385595304055 -0.046368456332850437 0 -0.033420914472402932 -0.04854073443104627 0 -0.035082045581620529 -0.048600755353083308 0 -0.03443796304108445 -0.047355192398278345 0 -0.03443796304108445 -0.047355192398278345 0 -0.035966366559033569 -0.046918366213767396 0 -0.034663206390394261 -0.045000029391514818 0 -0.032917147546330523 -0.046884365501266879 0 -0.03443796304108445 -0.047355192398278345 0 -0.034663206390394261 -0.045000029391514818 0 -0.036530385595304055 -0.046368456332850437 0 -0.03693602648309862 -0.045000800104916389 0 -0.035966366559033569 -0.046918366213767396 0 -0.034663206390394261 -0.045000029391514818 0 -0.036936108126102228 -0.044999906962895145 0 -0.039273610883451687 -0.045493874347761198 0 -0.036935953195252613 -0.045000901418821057 0 -0.041667967499409528 -0.044997099247894183 0 -0.039273610883451687 -0.045493874347761198 0 -0.036935953195252613 -0.045000901418821057 0 -0.038246780782908586 -0.047008042306202952 0 -0.036742424271143076 -0.046600018312360381 0 -0.036935953195252613 -0.045000901418821057 0 -0.038246780782908586 -0.047008042306202952 0 -0.039247864667774357 -0.045673398543557286 0 -0.039166146595213107 -0.04629354955047333 0 -0.039273610883451687 -0.045493874347761198 0 -0.039731883810574319 -0.046401118809340273 0 -0.040084418678787058 -0.046416374260998178 0 -0.039731883810574319 -0.046401118809340273 0 -0.040047344536207376 -0.046670860699781637 0 -0.039946262188328287 -0.046702409694529524 0 -0.039731883810574319 -0.046401118809340273 0 -0.040047344536207376 -0.046670860699781637 0 -0.040084418678787058 -0.046416374260998178 0 -0.039166146595213107 -0.04629354955047333 0 -0.037936088120515611 -0.048735021040863587 0 -0.036742424271143076 -0.046600018312360381 0 -0.038246780782908586 -0.047008042306202952 0 -0.037649453549102589 -0.047923966464608121 0 -0.044099055804892678 -0.04142748771988386 0 -0.037936088120515611 -0.048735021040863587 0 -0.04003808950217836 -0.046693726197106558 0 -0.039946262188328287 -0.046702409694529524 0 -0.040043502687790201 -0.046723355504089022 0 -0.040047344536207376 -0.046670860699781637 0 -0.040043502687790201 -0.046723355504089022 0 -0.040175520122018103 -0.046741917007389173 0 -0.040047344536207376 -0.046670860699781637 0 -0.039946262188328287 -0.046702409694529524 0 -0.040043502687790201 -0.046723355504089022 0 -0.040047344536207376 -0.046670860699781637 0 -0.040175520122018103 -0.046741917007389173 0 -0.040335757140313858 -0.046665490687830831 0 -0.043207620166628477 -0.045536720614166998 0 -0.040509451583060942 -0.047892113058495833 0 -0.048127674823576029 -0.040417865096327041 0 -0.046836913929628958 -0.040881529661689578 0 -0.047030231939631267 -0.042505770704543699 0 -0.046836913929628958 -0.040881529661689578 0 -0.046135726254258727 -0.04031550563084485 0 -0.047158137844180492 -0.039698665266527489 0 -0.048127674823576029 -0.040417865096327041 0 -0.046836913929628958 -0.040881529661689578 0 -0.047158137844180492 -0.039698665266527489 0 -0.046836913929628958 -0.040881529661689578 0 -0.045888563711517873 -0.041879663834973768 0 -0.046135726254258727 -0.04031550563084485 0 -0.046836913929628958 -0.040881529661689578 0 -0.045888563711517873 -0.041879663834973768 0 -0.047030231939631267 -0.042505770704543699 0 -0.045888563711517873 -0.041879663834973768 0 -0.047030231939631267 -0.042505770704543699 0 -0.044932535009067562 -0.043379416487210658 0 -0.040525927630605016 -0.049882333187325295 0 -0.04175960782641383 -0.0478626765499158 0 -0.040779393416031401 -0.048198948301367624 0 -0.04175960782641383 -0.0478626765499158 0 -0.040779393416031401 -0.048198948301367624 0 -0.040854617467543618 -0.046088459641521314 0 -0.043207620166628477 -0.045536720614166998 0 -0.044462600847266505 -0.04495929367680921 0 -0.040047344536207376 -0.046670860699781637 0 -0.040335757140313858 -0.046665490687830831 0 -0.040084418678787058 -0.046416374260998178 0 -0.039273610883451687 -0.045493874347761198 0 -0.040854617467543618 -0.046088459641521314 0 -0.040084418678787058 -0.046416374260998178 0 -0.040335757140313858 -0.046665490687830831 0 -0.040854617467543618 -0.046088459641521314 0 -0.040084418678787058 -0.046416374260998178 0 -0.040509451583060942 -0.047892113058495833 0 -0.04082586521010835 -0.046024725540107669 0 -0.047030231939631267 -0.042505770704543699 0 -0.043517043898232195 -0.045046744623759745 0 -0.044932535009067562 -0.043379416487210658 0 -0.04175960782641383 -0.0478626765499158 0 -0.040854617467543618 -0.046088459641521314 0 -0.043517043898232195 -0.045046744623759745 0 -0.044462600847266505 -0.04495929367680921 0 -0.04372530775482069 -0.045065973915717046 0 -0.040854617467543618 -0.046088459641521314 0 -0.043517043898232195 -0.045046744623759745 0 -0.041667967499409528 -0.044997099247894183 0 -0.039273610883451687 -0.045493874347761198 0 -0.040854617467543618 -0.046088459641521314 0 -0.041667967499409528 -0.044997099247894183 0 -0.044997818206855604 -0.044999740418860984 0 -0.044933606729328682 -0.042546292352034547 0 -0.044998139724563208 -0.04064437859626157 0 -0.043517043898232195 -0.045046744623759745 0 -0.041667967499409528 -0.044997099247894183 0 -0.044997818206855604 -0.044999740418860984 0 -0.043517043898232195 -0.045046744623759745 0 -0.044997818206855604 -0.044999740418860984 0 -0.044933606729328682 -0.042546292352034547 0 -0.043517043898232195 -0.045046744623759745 0 -0.044932535009067562 -0.043379416487210658 0 -0.044933606729328682 -0.042546292352034547 0 -0.045888563711517873 -0.041879663834973768 0 -0.044933606729328682 -0.042546292352034547 0 -0.046135726254258727 -0.04031550563084485 0 -0.045888563711517873 -0.041879663834973768 0 -0.044932535009067562 -0.043379416487210658 0 -0.044933606729328682 -0.042546292352034547 0 -0.044933606729328682 -0.042546292352034547 0 -0.046135726254258727 -0.04031550563084485 0 -0.045481369010762177 -0.039425629935503526 0 -0.044933606729328682 -0.042546292352034547 0 -0.044998139724563208 -0.04064437859626157 0 -0.045481369010762177 -0.039425629935503526 0 -0.045481369010762177 -0.039425629935503526 0 -0.04499967229629219 -0.037520049771091989 0 -0.046280453131215392 -0.038561673050865705 0 -0.044998139724563208 -0.04064437859626157 0 -0.045481369010762177 -0.039425629935503526 0 -0.04499967229629219 -0.037520049771091989 0 -0.044999806860308078 -0.037519079031519714 0 -0.046822931793236412 -0.037936348301830777 0 -0.044999853443183156 -0.037518174707237679 0 -0.04716390873971308 -0.037371405958873179 0 -0.046330395048323189 -0.035933299291851309 0 -0.04716390873971308 -0.037371405958873179 0 -0.04811899861113221 -0.036038057700507026 0 -0.046330395048323189 -0.035933299291851309 0 -0.046135726254258727 -0.04031550563084485 0 -0.045481369010762177 -0.039425629935503526 0 -0.046280453131215392 -0.038561673050865705 0 -0.046135726254258727 -0.04031550563084485 0 -0.046280453131215392 -0.038561673050865705 0 -0.047158137844180492 -0.039698665266527489 0 -0.046280453131215392 -0.038561673050865705 0 -0.047158137844180492 -0.039698665266527489 0 -0.048253094688521375 -0.038872769614863696 0 -0.046822931793236412 -0.037936348301830777 0 -0.048235022772580481 -0.038340663202837098 0 -0.046204840395074623 -0.040388148028802362 0 -0.043207620166628477 -0.045536720614166998 0 -0.048127674823576029 -0.040417865096327041 0 -0.047158137844180492 -0.039698665266527489 0 -0.048253094688521375 -0.038872769614863696 0 -0.047534555288193836 -0.039710515610196846 0 -0.044588698106466165 -0.045084515879430805 0 -0.045381047025462258 -0.039448578080269713 0 -0.043207620166628477 -0.045536720614166998 0 -0.048235022772580481 -0.038340663202837098 0 -0.046204840395074623 -0.040388148028802362 0 -0.048235022772580481 -0.038340663202837098 0 -0.049814848300653781 -0.037059491824364729 0 -0.049211307227458645 -0.036990198475021926 0 -0.049475589778421154 -0.035342179286894954 0 -0.048235022772580481 -0.038340663202837098 0 -0.04967167728469974 -0.03532736582487396 0 -0.049468603564452332 -0.037593912928883651 0 -0.04811899861113221 -0.036038057700507026 0 -0.049713600644888431 -0.035827222949117631 0 -0.04716390873971308 -0.037371405958873179 0 -0.049468603564452332 -0.037593912928883651 0 -0.04811899861113221 -0.036038057700507026 0 -0.04811899861113221 -0.036038057700507026 0 -0.04870001109436288 -0.03471103608263746 0 -0.047546119346294477 -0.03467585770158544 0 -0.04967167728469974 -0.03532736582487396 0 -0.049754717629651633 -0.034065810178266237 0 -0.04811899861113221 -0.036038057700507026 0 -0.04870001109436288 -0.03471103608263746 0 -0.049713600644888431 -0.035827222949117631 0 -0.04870001109436288 -0.03471103608263746 0 -0.049713600644888431 -0.035827222949117631 0 -0.049780619781426116 -0.033795627501046928 0 -0.04870001109436288 -0.03471103608263746 0 -0.049780619781426116 -0.033795627501046928 0 -0.048421504399420827 -0.033280199324776209 0 -0.046482090803277906 -0.033407223321198602 0 -0.047546119346294477 -0.03467585770158544 0 -0.048421504399420827 -0.033280199324776209 0 -0.04870001109436288 -0.03471103608263746 0 -0.047546119346294477 -0.03467585770158544 0 -0.048421504399420827 -0.033280199324776209 0 -0.046482090803277906 -0.033407223321198602 0 -0.047546119346294477 -0.03467585770158544 0 -0.046330395048323189 -0.035933299291851309 0 -0.046482090803277906 -0.033407223321198602 0 -0.044999772044618566 -0.0349440869290083 0 -0.046330395048323189 -0.035933299291851309 0 -0.044999853443183156 -0.037518174707237679 0 -0.044999772044618566 -0.0349440869290083 0 -0.046330395048323189 -0.035933299291851309 0 -0.04811899861113221 -0.036038057700507026 0 -0.047546119346294477 -0.03467585770158544 0 -0.046330395048323189 -0.035933299291851309 0 -0.021792397407389207 -0.009591596391483409 0 -0.021763320715032421 -0.0098796323722555816 0 -0.021631147527867153 -0.0097318538602639386 0 -0.021792397407389207 -0.009591596391483409 0 -0.021763320715032421 -0.0098796323722555816 0 -0.021325598175154812 -0.0099410799088608531 0 -0.018084832851720998 -0.010893262958320176 0 -0.021325598175154812 -0.0099410799088608531 0 -0.017293728480362338 -0.013266940188228367 0 -0.021792397407389207 -0.009591596391483409 0 -0.021325598175154812 -0.0099410799088608531 0 -0.022266347526544435 -0.0092348098787564219 0 -0.021279226531162109 -0.0099829507933900229 0 -0.019738689241415808 -0.011171580810937087 0 -0.022084265657910759 -0.0089498125553143498 0 -0.022266347526544435 -0.0092348098787564219 0 -0.022162305893548423 -0.0089295058513979425 0 -0.021792397407389207 -0.009591596391483409 0 -0.022084265657910759 -0.0089498125553143498 0 -0.022266347526544435 -0.0092348098787564219 0 -0.022125756805092035 -0.0089549706609189476 0 -0.022186934146984794 -0.0090848754973114065 0 -0.022479206110527106 -0.0087884940557856547 0 -0.022084265657910759 -0.0089498125553143498 0 -0.022706539608574081 -0.0084308335627768898 0 -0.021792397407389207 -0.009591596391483409 0 -0.022084265657910759 -0.0089498125553143498 0 -0.021631147527867153 -0.0097318538602639386 0 -0.02291287781999524 -0.0086050616770629411 0 -0.022706539608574081 -0.0084308335627768898 0 -0.022735737538648396 -0.0087543281422513535 0 -0.022479206110527106 -0.0087884940557856547 0 -0.022706539608574081 -0.0084308335627768898 0 -0.022735737538648396 -0.0087543281422513535 0 -0.02291287781999524 -0.0086050616770629411 0 -0.022997411923462021 -0.0085038886218064564 0 -0.022706539608574081 -0.0084308335627768898 0 -0.023052586487354088 -0.0085939698688656477 0 -0.02291287781999524 -0.0086050616770629411 0 -0.022997411923462021 -0.0085038886218064564 0 -0.021433932143245571 -0.010467768890226582 0 -0.021716715855545646 -0.010053793963931286 0 -0.021603495609923487 -0.010463437613156702 0 -0.022277254641417752 -0.0094144386637554679 0 -0.022186934146984794 -0.0090848754973114065 0 -0.022997411923462021 -0.0085038886218064564 0 -0.023041300307443682 -0.0083899372045414238 0 -0.023085737640941479 -0.008469528237087855 0 -0.022997411923462021 -0.0085038886218064564 0 -0.023041300307443682 -0.0083899372045414238 0 -0.022706539608574081 -0.0084308335627768898 0 -0.021433932143245571 -0.010467768890226582 0 -0.021631147527867153 -0.0097318538602639386 0 -0.021716715855545646 -0.010053793963931286 0 -0.021763320715032421 -0.0098796323722555816 0 -0.021631147527867153 -0.0097318538602639386 0 -0.021716715855545646 -0.010053793963931286 0 -0.021789354369777903 -0.010903374298166704 0 -0.021603495609923487 -0.010463437613156702 0 -0.022004796071750304 -0.010846695414469939 0 -0.021763320715032421 -0.0098796323722555816 0 -0.021716715855545646 -0.010053793963931286 0 -0.022035481979468405 -0.0096227584764463359 0 -0.021716715855545646 -0.010053793963931286 0 -0.021603495609923487 -0.010463437613156702 0 -0.022035481979468405 -0.0096227584764463359 0 -0.021399575777015626 -0.010429328637070918 0 -0.022411262357547028 -0.0099915493491846263 0 -0.021789354369777903 -0.010903374298166704 0 -0.021603495609923487 -0.010463437613156702 0 -0.021614420661865138 -0.010850261484693605 0 -0.021789354369777903 -0.010903374298166704 0 -0.021932561678370665 -0.011044413893366656 0 -0.022004796071750304 -0.010846695414469939 0 -0.021433932143245571 -0.010467768890226582 0 -0.021603495609923487 -0.010463437613156702 0 -0.021492841454086774 -0.010884869297395851 0 -0.021603495609923487 -0.010463437613156702 0 -0.021614420661865138 -0.010850261484693605 0 -0.021492841454086774 -0.010884869297395851 0 -0.021492841454086774 -0.010884869297395851 0 -0.021586343790822259 -0.011090497918448142 0 -0.021446486037386272 -0.011154000646166784 0 -0.021614420661865138 -0.010850261484693605 0 -0.021492841454086774 -0.010884869297395851 0 -0.021586343790822259 -0.011090497918448142 0 -0.021789354369777903 -0.010903374298166704 0 -0.021614420661865138 -0.010850261484693605 0 -0.021586343790822259 -0.011090497918448142 0 -0.021586343790822259 -0.011090497918448142 0 -0.021746550230593499 -0.011150062085818147 0 -0.021560247531211135 -0.011320586219612265 0 -0.021586343790822259 -0.011090497918448142 0 -0.021446486037386272 -0.011154000646166784 0 -0.021560247531211135 -0.011320586219612265 0 -0.021746550230593499 -0.011150062085818147 0 -0.021932561678370665 -0.011044413893366656 0 -0.021854042190370414 -0.011388718931861131 0 -0.021789354369777903 -0.010903374298166704 0 -0.021746550230593499 -0.011150062085818147 0 -0.021932561678370665 -0.011044413893366656 0 -0.021789354369777903 -0.010903374298166704 0 -0.021586343790822259 -0.011090497918448142 0 -0.021746550230593499 -0.011150062085818147 0 -0.022057155405556944 -0.011096629360476007 0 -0.021932561678370665 -0.011044413893366656 0 -0.021854042190370414 -0.011388718931861131 0 -0.022057155405556944 -0.011096629360476007 0 -0.022044894839772455 -0.010978115169670529 0 -0.021932561678370665 -0.011044413893366656 0 -0.022044894839772455 -0.010978115169670529 0 -0.022004796071750304 -0.010846695414469939 0 -0.022137661828473685 -0.010968131715486456 0 -0.022044894839772455 -0.010978115169670529 0 -0.021932561678370665 -0.011044413893366656 0 -0.022004796071750304 -0.010846695414469939 0 -0.021325598175154812 -0.0099410799088608531 0 -0.022035481979468405 -0.0096227584764463359 0 -0.019867656714757109 -0.00963576841820038 0 -0.021763320715032421 -0.0098796323722555816 0 -0.021325598175154812 -0.0099410799088608531 0 -0.022035481979468405 -0.0096227584764463359 0 -0.018084832851720998 -0.010893262958320176 0 -0.021325598175154812 -0.0099410799088608531 0 -0.019867656714757109 -0.00963576841820038 0 -0.022411262357547028 -0.0099915493491846263 0 -0.017551294131844281 -0.012488006809313137 0 -0.022035481979468405 -0.0096227584764463359 0 -0.019867656714757109 -0.00963576841820038 0 -0.01820670145655897 -0.0084603365758405373 0 -0.018084832851720998 -0.010893262958320176 0 -0.019867656714757109 -0.00963576841820038 0 -0.01820670145655897 -0.0084603365758405373 0 -0.022057155405556944 -0.011096629360476007 0 -0.022044894839772455 -0.010978115169670529 0 -0.022137661828473685 -0.010968131715486456 0 -0.013061538994414422 -0.019813774145834583 0 -0.014622448042326723 -0.018367623292537591 0 -0.014815530678106995 -0.019841849724184277 0 -0.017419013485046399 -0.015790493808268153 0 -0.017551294131844281 -0.012488006809313137 0 -0.013061538994414422 -0.019813774145834583 0 -0.014815530678106995 -0.019841849724184277 0 -0.014285324368396078 -0.021242367706214096 0 -0.014622448042326723 -0.018367623292537591 0 -0.014815530678106995 -0.019841849724184277 0 -0.016377857346006826 -0.018660550145772937 0 -0.012384648364620917 -0.014319402608812256 0 -0.011621238529681157 -0.014036284907435203 0 -0.014815530678106995 -0.019841849724184277 0 -0.016377857346006826 -0.018660550145772937 0 -0.016067239930594193 -0.020551119124606391 0 -0.006926893619611651 -0.012161269183132341 0 -0.0065222412183412945 -0.011726665915874361 0 -0.006355262381320074 -0.012522458994792521 0 -0.012384648364620917 -0.014319402608812256 0 -0.0094262674213526128 -0.01112267288391048 0 -0.006926893619611651 -0.012161269183132341 0 -0.0065222412183412945 -0.011726665915874361 0 -0.0074793473278816401 -0.011825566031016102 0 -0.013985774242865498 -0.011287474650738767 0 -0.013328372260680387 -0.011822420871076888 0 -0.012362793157418729 -0.011071151314804855 0 -0.012384648364620917 -0.014319402608812256 0 -0.014114725921906601 -0.011279228878762929 0 -0.013985774242865498 -0.011287474650738767 0 -0.013328372260680387 -0.011822420871076888 0 -0.01384569266152638 -0.012412698050315732 0 -0.013328372260680387 -0.011822420871076888 0 -0.012645769842717331 -0.012017043696052162 0 -0.013252739243611008 -0.012325386162747191 0 -0.014500092538582554 -0.011936017892673482 0 -0.01394004731978201 -0.011846851854978991 0 -0.014081032409636981 -0.012263533721167728 0 -0.01394004731978201 -0.011846851854978991 0 -0.014081032409636981 -0.012263533721167728 0 -0.01384569266152638 -0.012412698050315732 0 -0.017551294131844281 -0.012488006809313137 0 -0.012384648364620917 -0.014319402608812256 0 -0.017551294131844281 -0.012488006809313137 0 -0.014978992453268194 -0.011358986437389511 0 -0.018084832851720998 -0.010893262958320176 0 -0.01820670145655897 -0.0084603365758405373 0 -0.015682514083228103 -0.010497619879329029 0 -0.0074793473278816401 -0.011825566031016102 0 -0.0074342656807255738 -0.013073415488977148 0 -0.0083782658638039392 -0.011810975700588665 0 -0.0094262674213526128 -0.01112267288391048 0 -0.009664965893084073 -0.011552072285241672 0 -0.006926893619611651 -0.012161269183132341 0 -0.0074793473278816401 -0.011825566031016102 0 -0.0074342656807255738 -0.013073415488977148 0 -0.012362793157418729 -0.011071151314804855 0 -0.012645769842717331 -0.012017043696052162 0 -0.01140430275242512 -0.012039451902050392 0 -0.013328372260680387 -0.011822420871076888 0 -0.012362793157418729 -0.011071151314804855 0 -0.012645769842717331 -0.012017043696052162 0 -0.012362793157418729 -0.011071151314804855 0 -0.01140430275242512 -0.012039451902050392 0 -0.010641777797021015 -0.011161191477829659 0 -0.01140430275242512 -0.012039451902050392 0 -0.011051734492554361 -0.013186545335259503 0 -0.012535410377350306 -0.012801522466687767 0 -0.012645769842717331 -0.012017043696052162 0 -0.01140430275242512 -0.012039451902050392 0 -0.012535410377350306 -0.012801522466687767 0 -0.012645769842717331 -0.012017043696052162 0 -0.012535410377350306 -0.012801522466687767 0 -0.013252739243611008 -0.012325386162747191 0 -0.012535410377350306 -0.012801522466687767 0 -0.012374032795693107 -0.013944751935002594 0 -0.013449598691832227 -0.013692788085555203 0 -0.011051734492554361 -0.013186545335259503 0 -0.012535410377350306 -0.012801522466687767 0 -0.012374032795693107 -0.013944751935002594 0 -0.011051734492554361 -0.013186545335259503 0 -0.012374032795693107 -0.013944751935002594 0 -0.010768561732778686 -0.014093460406539119 0 -0.015713367515228536 -0.01230670750379693 0 -0.01453115982117727 -0.01343530964682434 0 -0.017293728480362338 -0.013266940188228367 0 -0.018084832851720998 -0.010893262958320176 0 -0.015713367515228536 -0.01230670750379693 0 -0.017293728480362338 -0.013266940188228367 0 -0.018084832851720998 -0.010893262958320176 0 -0.015682514083228103 -0.010497619879329029 0 -0.015713367515228536 -0.01230670750379693 0 -0.015682514083228103 -0.010497619879329029 0 -0.015713367515228536 -0.01230670750379693 0 -0.013708241292651665 -0.012605013612429059 0 -0.014081032409636981 -0.012263533721167728 0 -0.01384569266152638 -0.012412698050315732 0 -0.013708241292651665 -0.012605013612429059 0 -0.014978992453268194 -0.011358986437389511 0 -0.013817422993659382 -0.01244076221061294 0 -0.013328372260680387 -0.011822420871076888 0 -0.01384569266152638 -0.012412698050315732 0 -0.013252739243611008 -0.012325386162747191 0 -0.01384569266152638 -0.012412698050315732 0 -0.013252739243611008 -0.012325386162747191 0 -0.013708241292651665 -0.012605013612429059 0 -0.012535410377350306 -0.012801522466687767 0 -0.013252739243611008 -0.012325386162747191 0 -0.013708241292651665 -0.012605013612429059 0 -0.012535410377350306 -0.012801522466687767 0 -0.013708241292651665 -0.012605013612429059 0 -0.013449598691832227 -0.013692788085555203 0 -0.015713367515228536 -0.01230670750379693 0 -0.013708241292651665 -0.012605013612429059 0 -0.01453115982117727 -0.01343530964682434 0 -0.01453115982117727 -0.01343530964682434 0 -0.013449598691832227 -0.013692788085555203 0 -0.014107651376698541 -0.014971850485845971 0 -0.012374032795693107 -0.013944751935002594 0 -0.013449598691832227 -0.013692788085555203 0 -0.014107651376698541 -0.014971850485845971 0 -0.013708241292651665 -0.012605013612429059 0 -0.01453115982117727 -0.01343530964682434 0 -0.013449598691832227 -0.013692788085555203 0 -0.019738689241415808 -0.011171580810937087 0 -0.018445245134278945 -0.012088852863361199 0 -0.01453115982117727 -0.01343530964682434 0 -0.017293728480362338 -0.013266940188228367 0 -0.014107651376698541 -0.014971850485845971 0 -0.022266347526544435 -0.0092348098787564219 0 -0.022066584046249019 -0.0089654635640110461 0 -0.022162305893548423 -0.0089295058513979425 0 -0.022066584046249019 -0.0089654635640110461 0 -0.022093324119429537 -0.0089793980676323368 0 -0.022162305893548423 -0.0089295058513979425 0 -0.022066584046249019 -0.0089654635640110461 0 -0.022093324119429537 -0.0089793980676323368 0 -0.022025545051127565 -0.0090307723438552406 0 -0.022093324119429537 -0.0089793980676323368 0 -0.022158715125480698 -0.0089741761615575247 0 -0.022162305893548423 -0.0089295058513979425 0 -0.018445245134278945 -0.012088852863361199 0 -0.015113329319244194 -0.01138082588493464 0 -0.022066584046249019 -0.0089654635640110461 0 -0.021948783880225763 -0.0090926538801609797 0 -0.022025545051127565 -0.0090307723438552406 0 -0.022066584046249019 -0.0089654635640110461 0 -0.021948783880225763 -0.0090926538801609797 0 -0.021758609159050965 -0.0090834935126893872 0 -0.020741116977515541 -0.0090121439446296542 0 -0.021643220471766259 -0.0090278668469633231 0 -0.021948783880225763 -0.0090926538801609797 0 -0.022025545051127565 -0.0090307723438552406 0 -0.021988434111101161 -0.0090539860197835983 0 -0.022074401322174902 -0.0090218498458688162 0 -0.022025545051127565 -0.0090307723438552406 0 -0.021988434111101161 -0.0090539860197835983 0 -0.022074401322174902 -0.0090218498458688162 0 -0.022076741566064772 -0.0091270261697611668 0 -0.021988434111101161 -0.0090539860197835983 0 -0.022074401322174902 -0.0090218498458688162 0 -0.022182136147571339 -0.0090360078254166209 0 -0.022158715125480698 -0.0089741761615575247 0 -0.022074401322174902 -0.0090218498458688162 0 -0.022076741566064772 -0.0091270261697611668 0 -0.022182136147571339 -0.0090360078254166209 0 -0.022074401322174902 -0.0090218498458688162 0 -0.022093324119429537 -0.0089793980676323368 0 -0.022158715125480698 -0.0089741761615575247 0 -0.022074401322174902 -0.0090218498458688162 0 -0.022093324119429537 -0.0089793980676323368 0 -0.022025545051127565 -0.0090307723438552406 0 -0.011826541557539361 -0.01491729375941505 0 -0.010768561732778686 -0.014093460406539119 0 -0.010687288745976575 -0.015292315787635725 0 -0.012374032795693107 -0.013944751935002594 0 -0.011826541557539361 -0.01491729375941505 0 -0.010768561732778686 -0.014093460406539119 0 -0.012374032795693107 -0.013944751935002594 0 -0.014107651376698541 -0.014971850485845971 0 -0.011826541557539361 -0.01491729375941505 0 -0.014107651376698541 -0.014971850485845971 0 -0.011826541557539361 -0.01491729375941505 0 -0.012493744363191893 -0.016017734306254632 0 -0.020741116977515541 -0.0090121439446296542 0 -0.015113329319244194 -0.01138082588493464 0 -0.018692056664809747 -0.008452540787553163 0 -0.01519875065000381 -0.0080514965989544295 0 -0.016391215589503291 -0.010695670331211854 0 -0.015113329319244194 -0.01138082588493464 0 -0.010722571009637851 -0.013744220844418129 0 -0.011826541557539361 -0.01491729375941505 0 -0.012493744363191893 -0.016017734306254632 0 -0.010687288745976575 -0.015292315787635725 0 -0.012798043230516429 -0.011676404426844676 0 -0.012448409109545413 -0.012065272698498825 0 -0.01162565932620693 -0.011661227442815426 0 -0.015113329319244194 -0.01138082588493464 0 -0.012488398615038768 -0.011553196368135064 0 -0.01519875065000381 -0.0080514965989544295 0 -0.012448409109545413 -0.012065272698498825 0 -0.016391215589503291 -0.010695670331211854 0 -0.012448409109545413 -0.012065272698498825 0 -0.016391215589503291 -0.010695670331211854 0 -0.016237017296037496 -0.013789606532107512 0 -0.01688393390348962 -0.012187238685558431 0 -0.018990971390581944 -0.011386166144589474 0 -0.012797355989546061 -0.015255320400492017 0 -0.016237017296037496 -0.013789606532107512 0 -0.011746872735119424 -0.013733079390996415 0 -0.012448409109545413 -0.012065272698498825 0 -0.016237017296037496 -0.013789606532107512 0 -0.011746872735119424 -0.013733079390996415 0 -0.021765290993147387 -0.0094722773373697913 0 -0.021595042850981478 -0.0097653001271921312 0 -0.021760440519323711 -0.0092264913200733999 0 -0.021765290993147387 -0.0094722773373697913 0 -0.021921632991433824 -0.0094181870752061449 0 -0.021595042850981478 -0.0097653001271921312 0 -0.021967275565909283 -0.0093184930185724341 0 -0.022002535962815852 -0.0093040676493939146 0 -0.022161638159661406 -0.0091831820136732811 0 -0.021765290993147387 -0.0094722773373697913 0 -0.021967275565909283 -0.0093184930185724341 0 -0.022002535962815852 -0.0093040676493939146 0 -0.021765290993147387 -0.0094722773373697913 0 -0.022002535962815852 -0.0093040676493939146 0 -0.021921632991433824 -0.0094181870752061449 0 -0.022002535962815852 -0.0093040676493939146 0 -0.021921632991433824 -0.0094181870752061449 0 -0.022076741566064772 -0.0091270261697611668 0 -0.022002535962815852 -0.0093040676493939146 0 -0.022076741566064772 -0.0091270261697611668 0 -0.022161026427708241 -0.0091345102554872878 0 -0.021921632991433824 -0.0094181870752061449 0 -0.022076741566064772 -0.0091270261697611668 0 -0.021988434111101161 -0.0090539860197835983 0 -0.021921632991433824 -0.0094181870752061449 0 -0.021988434111101161 -0.0090539860197835983 0 -0.021595042850981478 -0.0097653001271921312 0 -0.018990971390581944 -0.011386166144589474 0 -0.021403501051585293 -0.0098741572336338464 0 -0.016391215589503291 -0.010695670331211854 0 -0.016237017296037496 -0.013789606532107512 0 -0.021595042850981478 -0.0097653001271921312 0 -0.018692056664809747 -0.008452540787553163 0 -0.016391215589503291 -0.010695670331211854 0 -0.021595042850981478 -0.0097653001271921312 0 -0.018692056664809747 -0.008452540787553163 0 -0.021988434111101161 -0.0090539860197835983 0 -0.021595042850981478 -0.0097653001271921312 0 -0.02171520259531249 -0.0090961938104889561 0 -0.021595042850981478 -0.0097653001271921312 0 -0.021760440519323711 -0.0092264913200733999 0 -0.021722161690207631 -0.009346625837858346 0 -0.02171520259531249 -0.0090961938104889561 0 -0.021760440519323711 -0.0092264913200733999 0 -0.021921471582111125 -0.0092628756882057461 0 -0.021860191897496457 -0.0093213843766548534 0 -0.021760440519323711 -0.0092264913200733999 0 -0.021921471582111125 -0.0092628756882057461 0 -0.02186101500233301 -0.00930880120071053 0 -0.021978379572549268 -0.0092595998051388118 0 -0.021921471582111125 -0.0092628756882057461 0 -0.021760440519323711 -0.0092264913200733999 0 -0.02186101500233301 -0.00930880120071053 0 -0.021765290993147387 -0.0094722773373697913 0 -0.021760440519323711 -0.0092264913200733999 0 -0.02186101500233301 -0.00930880120071053 0 -0.02186101500233301 -0.00930880120071053 0 -0.021978379572549268 -0.0092595998051388118 0 -0.022054223584181756 -0.0092415865445997156 0 -0.021967275565909283 -0.0093184930185724341 0 -0.02186101500233301 -0.00930880120071053 0 -0.022054223584181756 -0.0092415865445997156 0 -0.021765290993147387 -0.0094722773373697913 0 -0.021967275565909283 -0.0093184930185724341 0 -0.02186101500233301 -0.00930880120071053 0 -0.021978379572549268 -0.0092595998051388118 0 -0.022098946225755273 -0.009206599647067654 0 -0.022054223584181756 -0.0092415865445997156 0 -0.022001021936414428 -0.0092432513881879133 0 -0.021921471582111125 -0.0092628756882057461 0 -0.021978379572549268 -0.0092595998051388118 0 -0.022001021936414428 -0.0092432513881879133 0 -0.021978379572549268 -0.0092595998051388118 0 -0.022098946225755273 -0.009206599647067654 0 -0.022098946225755273 -0.009206599647067654 0 -0.022230664056380467 -0.009151003043345058 0 -0.022054223584181756 -0.0092415865445997156 0 -0.022254914989665465 -0.009133408176233062 0 -0.022098946225755273 -0.009206599647067654 0 -0.022230664056380467 -0.009151003043345058 0 -0.022254914989665465 -0.009133408176233062 0 -0.022230664056380467 -0.009151003043345058 0 -0.022507364574051499 -0.009033385284301379 0 -0.022230664056380467 -0.009151003043345058 0 -0.022507364574051499 -0.009033385284301379 0 -0.022361282447788192 -0.0090698126760546272 0 -0.022230664056380467 -0.009151003043345058 0 -0.022161638159661406 -0.0091831820136732811 0 -0.022361282447788192 -0.0090698126760546272 0 -0.021967275565909283 -0.0093184930185724341 0 -0.022054223584181756 -0.0092415865445997156 0 -0.022161638159661406 -0.0091831820136732811 0 -0.022230664056380467 -0.009151003043345058 0 -0.022054223584181756 -0.0092415865445997156 0 -0.022161638159661406 -0.0091831820136732811 0 -0.022507364574051499 -0.009033385284301379 0 -0.02255881158789113 -0.0089528835518524613 0 -0.022909336293170351 -0.0089465049453492842 0 -0.022507364574051499 -0.009033385284301379 0 -0.02255881158789113 -0.0089528835518524613 0 -0.022361282447788192 -0.0090698126760546272 0 -0.02255881158789113 -0.0089528835518524613 0 -0.022320937690991176 -0.009034046089494728 0 -0.022295885801443947 -0.0089588152392914688 0 -0.02255881158789113 -0.0089528835518524613 0 -0.022361282447788192 -0.0090698126760546272 0 -0.022320937690991176 -0.009034046089494728 0 -0.022002535962815852 -0.0093040676493939146 0 -0.022161638159661406 -0.0091831820136732811 0 -0.022161026427708241 -0.0091345102554872878 0 -0.022161638159661406 -0.0091831820136732811 0 -0.022361282447788192 -0.0090698126760546272 0 -0.022320937690991176 -0.009034046089494728 0 -0.022320937690991176 -0.009034046089494728 0 -0.022161026427708241 -0.0091345102554872878 0 -0.022182136147571339 -0.0090360078254166209 0 -0.022161638159661406 -0.0091831820136732811 0 -0.022320937690991176 -0.009034046089494728 0 -0.022161026427708241 -0.0091345102554872878 0 -0.022076741566064772 -0.0091270261697611668 0 -0.022161026427708241 -0.0091345102554872878 0 -0.022182136147571339 -0.0090360078254166209 0 -0.022158715125480698 -0.0089741761615575247 0 -0.022295885801443947 -0.0089588152392914688 0 -0.022162305893548423 -0.0089295058513979425 0 -0.022182136147571339 -0.0090360078254166209 0 -0.022158715125480698 -0.0089741761615575247 0 -0.022295885801443947 -0.0089588152392914688 0 -0.022320937690991176 -0.009034046089494728 0 -0.022182136147571339 -0.0090360078254166209 0 -0.022295885801443947 -0.0089588152392914688 0 -0.02255881158789113 -0.0089528835518524613 0 -0.02242845462018548 -0.0088758600609189289 0 -0.022768553309434489 -0.0088330010901546425 0 -0.02255881158789113 -0.0089528835518524613 0 -0.022295885801443947 -0.0089588152392914688 0 -0.02242845462018548 -0.0088758600609189289 0 -0.022084265657910759 -0.0089498125553143498 0 -0.02242845462018548 -0.0088758600609189289 0 -0.022162305893548423 -0.0089295058513979425 0 -0.022479206110527106 -0.0087884940557856547 0 -0.022084265657910759 -0.0089498125553143498 0 -0.02242845462018548 -0.0088758600609189289 0 -0.022295885801443947 -0.0089588152392914688 0 -0.02242845462018548 -0.0088758600609189289 0 -0.022162305893548423 -0.0089295058513979425 0 -0.022997199353406796 -0.0087033797608310759 0 -0.023060345427867248 -0.0087617413401925304 0 -0.023178988378809384 -0.0086969203005448446 0 -0.023052586487354088 -0.0085939698688656477 0 -0.022997199353406796 -0.0087033797608310759 0 -0.02313223357521469 -0.0086393062430943877 0 -0.023052586487354088 -0.0085939698688656477 0 -0.02291287781999524 -0.0086050616770629411 0 -0.022997199353406796 -0.0087033797608310759 0 -0.02291287781999524 -0.0086050616770629411 0 -0.022997199353406796 -0.0087033797608310759 0 -0.022735737538648396 -0.0087543281422513535 0 -0.022479206110527106 -0.0087884940557856547 0 -0.02242845462018548 -0.0088758600609189289 0 -0.022735737538648396 -0.0087543281422513535 0 -0.022997199353406796 -0.0087033797608310759 0 -0.022735737538648396 -0.0087543281422513535 0 -0.022768553309434489 -0.0088330010901546425 0 -0.02242845462018548 -0.0088758600609189289 0 -0.022735737538648396 -0.0087543281422513535 0 -0.022768553309434489 -0.0088330010901546425 0 -0.022768553309434489 -0.0088330010901546425 0 -0.023060345427867248 -0.0087617413401925304 0 -0.022984078017383065 -0.0088726147274966697 0 -0.022997199353406796 -0.0087033797608310759 0 -0.022768553309434489 -0.0088330010901546425 0 -0.023060345427867248 -0.0087617413401925304 0 -0.023060345427867248 -0.0087617413401925304 0 -0.023234508769582794 -0.0087915422227093087 0 -0.023270991576036203 -0.0087276259877906107 0 -0.022984078017383065 -0.0088726147274966697 0 -0.023234508769582794 -0.0087915422227093087 0 -0.023296023650599899 -0.0088935170325320657 0 -0.023060345427867248 -0.0087617413401925304 0 -0.022984078017383065 -0.0088726147274966697 0 -0.023234508769582794 -0.0087915422227093087 0 -0.02255881158789113 -0.0089528835518524613 0 -0.022768553309434489 -0.0088330010901546425 0 -0.022984078017383065 -0.0088726147274966697 0 -0.02255881158789113 -0.0089528835518524613 0 -0.022984078017383065 -0.0088726147274966697 0 -0.022909336293170351 -0.0089465049453492842 0 -0.022933969758226893 -0.0089830969328245375 0 -0.022507364574051499 -0.009033385284301379 0 -0.022909336293170351 -0.0089465049453492842 0 -0.023224689784589102 -0.0088883719183652163 0 -0.022909336293170351 -0.0089465049453492842 0 -0.023296023650599899 -0.0088935170325320657 0 -0.022984078017383065 -0.0088726147274966697 0 -0.022909336293170351 -0.0089465049453492842 0 -0.023296023650599899 -0.0088935170325320657 0 -0.023296023650599899 -0.0088935170325320657 0 -0.023598771004799388 -0.008770742466172838 0 -0.023823050844446542 -0.0088163661072146286 0 -0.023540388766416471 -0.0088702814669218213 0 -0.023296023650599899 -0.0088935170325320657 0 -0.023823050844446542 -0.0088163661072146286 0 -0.023234508769582794 -0.0087915422227093087 0 -0.023296023650599899 -0.0088935170325320657 0 -0.023598771004799388 -0.008770742466172838 0 -0.023234508769582794 -0.0087915422227093087 0 -0.023598771004799388 -0.008770742466172838 0 -0.023270991576036203 -0.0087276259877906107 0 -0.024238141821078602 -0.0087115937455374288 0 -0.024639074840951038 -0.0087030004238801018 0 -0.024542953875883521 -0.0086452261013617252 0 -0.023598771004799388 -0.008770742466172838 0 -0.024238141821078602 -0.0087115937455374288 0 -0.024542953875883521 -0.0086452261013617252 0 -0.023598771004799388 -0.008770742466172838 0 -0.024238141821078602 -0.0087115937455374288 0 -0.023823050844446542 -0.0088163661072146286 0 -0.024238141821078602 -0.0087115937455374288 0 -0.023823050844446542 -0.0088163661072146286 0 -0.024375032002872284 -0.008668801774574398 0 -0.023823050844446542 -0.0088163661072146286 0 -0.023923544457529561 -0.0088232275530831048 0 -0.024375032002872284 -0.008668801774574398 0 -0.023540388766416471 -0.0088702814669218213 0 -0.023823050844446542 -0.0088163661072146286 0 -0.023923544457529561 -0.0088232275530831048 0 -0.024083214409916575 -0.009013195175470343 0 -0.024351562307941575 -0.0086940746925493213 0 -0.024826783320814838 -0.0084818715479446933 0 -0.023923544457529561 -0.0088232275530831048 0 -0.024351562307941575 -0.0086940746925493213 0 -0.024375032002872284 -0.008668801774574398 0 -0.024351562307941575 -0.0086940746925493213 0 -0.024587335571413793 -0.0085972967313598346 0 -0.024375032002872284 -0.008668801774574398 0 -0.024351562307941575 -0.0086940746925493213 0 -0.024587335571413793 -0.0085972967313598346 0 -0.024826783320814838 -0.0084818715479446933 0 -0.024587335571413793 -0.0085972967313598346 0 -0.024826783320814838 -0.0084818715479446933 0 -0.024759491117908903 -0.0086101247533072363 0 -0.024826783320814838 -0.0084818715479446933 0 -0.024759491117908903 -0.0086101247533072363 0 -0.024921894283844288 -0.0085209461874774517 0 -0.024759491117908903 -0.0086101247533072363 0 -0.024805308854261788 -0.0088780852724496141 0 -0.024827656596781905 -0.0089658804422391193 0 -0.024759491117908903 -0.0086101247533072363 0 -0.024827656596781905 -0.0089658804422391193 0 -0.024921894283844288 -0.0085209461874774517 0 -0.024238141821078602 -0.0087115937455374288 0 -0.024375032002872284 -0.008668801774574398 0 -0.024639074840951038 -0.0087030004238801018 0 -0.024587335571413793 -0.0085972967313598346 0 -0.024375032002872284 -0.008668801774574398 0 -0.024759491117908903 -0.0086101247533072363 0 -0.024375032002872284 -0.008668801774574398 0 -0.024759491117908903 -0.0086101247533072363 0 -0.024639074840951038 -0.0087030004238801018 0 -0.024759491117908903 -0.0086101247533072363 0 -0.024639074840951038 -0.0087030004238801018 0 -0.024805308854261788 -0.0088780852724496141 0 -0.024639074840951038 -0.0087030004238801018 0 -0.024869071421950901 -0.0089981225990898497 0 -0.024542953875883521 -0.0086452261013617252 0 -0.024639074840951038 -0.0087030004238801018 0 -0.024805308854261788 -0.0088780852724496141 0 -0.024869071421950901 -0.0089981225990898497 0 -0.024805308854261788 -0.0088780852724496141 0 -0.024869071421950901 -0.0089981225990898497 0 -0.024863440102280338 -0.0092418372612366045 0 -0.024827656596781905 -0.0089658804422391193 0 -0.024863440102280338 -0.0092418372612366045 0 -0.02471592224493533 -0.0096375669314965572 0 -0.024805308854261788 -0.0088780852724496141 0 -0.024827656596781905 -0.0089658804422391193 0 -0.024863440102280338 -0.0092418372612366045 0 -0.024863440102280338 -0.0092418372612366045 0 -0.02471592224493533 -0.0096375669314965572 0 -0.024910298606669077 -0.0097843050963724362 0 -0.02471592224493533 -0.0096375669314965572 0 -0.024910298606669077 -0.0097843050963724362 0 -0.024677183200875377 -0.010208387911744683 0 -0.024869071421950901 -0.0089981225990898497 0 -0.025013982706788 -0.0094401081718176391 0 -0.025305744947909669 -0.0094265707149742764 0 -0.024869071421950901 -0.0089981225990898497 0 -0.024863440102280338 -0.0092418372612366045 0 -0.025013982706788 -0.0094401081718176391 0 -0.024863440102280338 -0.0092418372612366045 0 -0.024910298606669077 -0.0097843050963724362 0 -0.025013982706788 -0.0094401081718176391 0 -0.024910298606669077 -0.0097843050963724362 0 -0.025013982706788 -0.0094401081718176391 0 -0.025136249801985391 -0.0098460666802666318 0 -0.025013982706788 -0.0094401081718176391 0 -0.025305744947909669 -0.0094265707149742764 0 -0.025136249801985391 -0.0098460666802666318 0 -0.023842394562718833 -0.0086668525397159482 0 -0.023822564348610648 -0.008358401199957656 0 -0.024523934718547472 -0.0084948924867980277 0 -0.024504732049075554 -0.0085015337925334888 0 -0.024531461393597513 -0.0085326912252963894 0 -0.023194892778912044 -0.0086221570977055538 0 -0.023246219409626404 -0.0087025411674223827 0 -0.023234835137458096 -0.0085558419151489182 0 -0.023194892778912044 -0.0086221570977055538 0 -0.02313223357521469 -0.0086393062430943877 0 -0.023178988378809384 -0.0086969203005448446 0 -0.023194892778912044 -0.0086221570977055538 0 -0.02313223357521469 -0.0086393062430943877 0 -0.023149403279828038 -0.0085836822267480722 0 -0.022997199353406796 -0.0087033797608310759 0 -0.02313223357521469 -0.0086393062430943877 0 -0.023178988378809384 -0.0086969203005448446 0 -0.023194892778912044 -0.0086221570977055538 0 -0.023178988378809384 -0.0086969203005448446 0 -0.023246219409626404 -0.0087025411674223827 0 -0.023598771004799388 -0.008770742466172838 0 -0.023270991576036203 -0.0087276259877906107 0 -0.023246219409626404 -0.0087025411674223827 0 -0.023178988378809384 -0.0086969203005448446 0 -0.023270991576036203 -0.0087276259877906107 0 -0.023246219409626404 -0.0087025411674223827 0 -0.023060345427867248 -0.0087617413401925304 0 -0.023178988378809384 -0.0086969203005448446 0 -0.023270991576036203 -0.0087276259877906107 0 -0.024869071421950901 -0.0089981225990898497 0 -0.025305744947909669 -0.0094265707149742764 0 -0.024542953875883521 -0.0086452261013617252 0 -0.024867699106277969 -0.0089908808687338779 0 -0.02464098527780223 -0.0087535984707267245 0 -0.023598771004799388 -0.008770742466172838 0 -0.024542953875883521 -0.0086452261013617252 0 -0.024504732049075554 -0.0085015337925334888 0 -0.024523934718547472 -0.0084948924867980277 0 -0.024542953875883521 -0.0086452261013617252 0 -0.024504732049075554 -0.0085015337925334888 0 -0.023624882371750235 -0.0088141265424063336 0 -0.023842394562718833 -0.0086668525397159482 0 -0.023214977721924979 -0.0089017351456652655 0 -0.023144550271894659 -0.0078476874464724847 0 -0.023444567364368465 -0.0083944195746002981 0 -0.022107145408585879 -0.0086140183741794229 0 -0.023214977721924979 -0.0089017351456652655 0 -0.023144550271894659 -0.0078476874464724847 0 -0.022107145408585879 -0.0086140183741794229 0 -0.023214977721924979 -0.0089017351456652655 0 -0.022552298659225721 -0.0095983007118546747 0 -0.029622268345053805 -0.011628776996384604 0 -0.027529562636035638 -0.007390915839032214 0 -0.033466313405880271 -0.012192240439411963 0 -0.033535903887114901 -0.010079114653074641 0 -0.031520537821742516 -0.009316367485901941 0 -0.023144550271894659 -0.0078476874464724847 0 -0.023863656439272719 -0.0072083522008659874 0 -0.023444567364368465 -0.0083944195746002981 0 -0.023863656439272719 -0.0072083522008659874 0 -0.023984027714583769 -0.0083881935067235368 0 -0.024764581295687201 -0.0076676169437775088 0 -0.027822607013440137 -0.0059907802863753473 0 -0.02874082544757673 -0.0036111518253403776 0 -0.027281889458468024 -0.0045498485397587485 0 -0.023863656439272719 -0.0072083522008659874 0 -0.023984027714583769 -0.0083881935067235368 0 -0.023444567364368465 -0.0083944195746002981 0 -0.027529562636035638 -0.007390915839032214 0 -0.025623726683667625 -0.0060277834796174153 0 -0.023214977721924979 -0.0089017351456652655 0 -0.023984027714583769 -0.0083881935067235368 0 -0.024126432556127349 -0.0091746010087046699 0 -0.023214977721924979 -0.0089017351456652655 0 -0.023984027714583769 -0.0083881935067235368 0 -0.023444567364368465 -0.0083944195746002981 0 -0.024575063727902812 -0.0084621848907219226 0 -0.025161783121917417 -0.0079420181513859493 0 -0.02474591784355408 -0.0088813539980505899 0 -0.024575063727902812 -0.0084621848907219226 0 -0.02474591784355408 -0.0088813539980505899 0 -0.024126432556127349 -0.0091746010087046699 0 -0.023984027714583769 -0.0083881935067235368 0 -0.024575063727902812 -0.0084621848907219226 0 -0.024126432556127349 -0.0091746010087046699 0 -0.023984027714583769 -0.0083881935067235368 0 -0.024575063727902812 -0.0084621848907219226 0 -0.024764581295687201 -0.0076676169437775088 0 -0.025500813633051532 -0.0061908513739867216 0 -0.023863656439272719 -0.0072083522008659874 0 -0.024764581295687201 -0.0076676169437775088 0 -0.025457425459358019 -0.0068819291718643693 0 -0.024764581295687201 -0.0076676169437775088 0 -0.025161783121917417 -0.0079420181513859493 0 -0.025457425459358019 -0.0068819291718643693 0 -0.025500813633051532 -0.0061908513739867216 0 -0.024764581295687201 -0.0076676169437775088 0 -0.024575063727902812 -0.0084621848907219226 0 -0.024764581295687201 -0.0076676169437775088 0 -0.025161783121917417 -0.0079420181513859493 0 -0.025457425459358019 -0.0068819291718643693 0 -0.02617368926990182 -0.0065925454349230498 0 -0.025161783121917417 -0.0079420181513859493 0 -0.024759572439238195 -0.0081587095717600821 0 -0.024826783320814838 -0.0084818715479446933 0 -0.025161783121917417 -0.0079420181513859493 0 -0.024826783320814838 -0.0084818715479446933 0 -0.025161783121917417 -0.0079420181513859493 0 -0.024921894283844288 -0.0085209461874774517 0 -0.025463378010056353 -0.0073584178565519812 0 -0.025136550012594586 -0.0079113035258429817 0 -0.024827656596781905 -0.0089658804422391193 0 -0.024921894283844288 -0.0085209461874774517 0 -0.02474591784355408 -0.0088813539980505899 0 -0.025161783121917417 -0.0079420181513859493 0 -0.024921894283844288 -0.0085209461874774517 0 -0.02474591784355408 -0.0088813539980505899 0 -0.024827656596781905 -0.0089658804422391193 0 -0.02471592224493533 -0.0096375669314965572 0 -0.024645367534658309 -0.0093655609410295271 0 -0.024827656596781905 -0.0089658804422391193 0 -0.02474591784355408 -0.0088813539980505899 0 -0.024645367534658309 -0.0093655609410295271 0 -0.02474591784355408 -0.0088813539980505899 0 -0.024645367534658309 -0.0093655609410295271 0 -0.024379913557493506 -0.0095001289862936423 0 -0.02471592224493533 -0.0096375669314965572 0 -0.024339765704707968 -0.010103815561526463 0 -0.024677183200875377 -0.010208387911744683 0 -0.02471592224493533 -0.0096375669314965572 0 -0.024645367534658309 -0.0093655609410295271 0 -0.024339765704707968 -0.010103815561526463 0 -0.024645367534658309 -0.0093655609410295271 0 -0.024339765704707968 -0.010103815561526463 0 -0.024379913557493506 -0.0095001289862936423 0 -0.024339765704707968 -0.010103815561526463 0 -0.023963291368745865 -0.010040537312682857 0 -0.023703705413291625 -0.010863750130611411 0 -0.024339765704707968 -0.010103815561526463 0 -0.024379913557493506 -0.0095001289862936423 0 -0.023963291368745865 -0.010040537312682857 0 -0.024379913557493506 -0.0095001289862936423 0 -0.024126432556127349 -0.0091746010087046699 0 -0.023963291368745865 -0.010040537312682857 0 -0.02474591784355408 -0.0088813539980505899 0 -0.024379913557493506 -0.0095001289862936423 0 -0.024126432556127349 -0.0091746010087046699 0 -0.023214977721924979 -0.0089017351456652655 0 -0.023471502743371925 -0.0097101926716420886 0 -0.024126432556127349 -0.0091746010087046699 0 -0.023471502743371925 -0.0097101926716420886 0 -0.024126432556127349 -0.0091746010087046699 0 -0.023963291368745865 -0.010040537312682857 0 -0.023963291368745865 -0.010040537312682857 0 -0.023240371801372294 -0.010754216564914995 0 -0.023703705413291625 -0.010863750130611411 0 -0.023471502743371925 -0.0097101926716420886 0 -0.023963291368745865 -0.010040537312682857 0 -0.023240371801372294 -0.010754216564914995 0 -0.023307550796031879 -0.0110550367648085 0 -0.023240371801372294 -0.010754216564914995 0 -0.023321341502499753 -0.011037886105644521 0 -0.023329303231358865 -0.01098858271366996 0 -0.022451133113633739 -0.0095938104540168097 0 -0.023471502743371925 -0.0097101926716420886 0 -0.023240371801372294 -0.010754216564914995 0 -0.022552298659225721 -0.0095983007118546747 0 -0.023214977721924979 -0.0089017351456652655 0 -0.023471502743371925 -0.0097101926716420886 0 -0.022552298659225721 -0.0095983007118546747 0 -0.02335338908897425 -0.011797465950370723 0 -0.0233435419204438 -0.011229635593845919 0 -0.02355134806378999 -0.011564701543767673 0 -0.023307550796031879 -0.0110550367648085 0 -0.023240371801372294 -0.010754216564914995 0 -0.0233435419204438 -0.011229635593845919 0 -0.023240371801372294 -0.010754216564914995 0 -0.0233435419204438 -0.011229635593845919 0 -0.023703705413291625 -0.010863750130611411 0 -0.0233435419204438 -0.011229635593845919 0 -0.023703705413291625 -0.010863750130611411 0 -0.02355134806378999 -0.011564701543767673 0 -0.02355134806378999 -0.011564701543767673 0 -0.024042943083521097 -0.011275639944187222 0 -0.023660663245591372 -0.011972928351544421 0 -0.023703705413291625 -0.010863750130611411 0 -0.02355134806378999 -0.011564701543767673 0 -0.024042943083521097 -0.011275639944187222 0 -0.024339765704707968 -0.010103815561526463 0 -0.023703705413291625 -0.010863750130611411 0 -0.024042943083521097 -0.011275639944187222 0 -0.024042943083521097 -0.011275639944187222 0 -0.024677183200875377 -0.010208387911744683 0 -0.024732494207400334 -0.01076792863060951 0 -0.024339765704707968 -0.010103815561526463 0 -0.024042943083521097 -0.011275639944187222 0 -0.024677183200875377 -0.010208387911744683 0 -0.024042943083521097 -0.011275639944187222 0 -0.024562240088918649 -0.011492788724167133 0 -0.024732494207400334 -0.01076792863060951 0 -0.023923364712576188 -0.011256555124654006 0 -0.024454379253276391 -0.011812779992909342 0 -0.024042943083521097 -0.011275639944187222 0 -0.02393889033235197 -0.012108195916953678 0 -0.023798755204222824 -0.012168140117718248 0 -0.02393889033235197 -0.012108195916953678 0 -0.023798755204222824 -0.012168140117718248 0 -0.023717478997707549 -0.012411957679845554 0 -0.02393889033235197 -0.012108195916953678 0 -0.023597183412908847 -0.012484072872458769 0 -0.023717478997707549 -0.012411957679845554 0 -0.023798755204222824 -0.012168140117718248 0 -0.023660663245591372 -0.011972928351544421 0 -0.023629822568354688 -0.012371760082804896 0 -0.023798755204222824 -0.012168140117718248 0 -0.023629822568354688 -0.012371760082804896 0 -0.023717478997707549 -0.012411957679845554 0 -0.024042943083521097 -0.011275639944187222 0 -0.023798755204222824 -0.012168140117718248 0 -0.023660663245591372 -0.011972928351544421 0 -0.02355134806378999 -0.011564701543767673 0 -0.023660663245591372 -0.011972928351544421 0 -0.023434562769149698 -0.012074908024684309 0 -0.023660663245591372 -0.011972928351544421 0 -0.023434562769149698 -0.012074908024684309 0 -0.023629822568354688 -0.012371760082804896 0 -0.023379383796752643 -0.012348946168330065 0 -0.023434562769149698 -0.012074908024684309 0 -0.023629822568354688 -0.012371760082804896 0 -0.02335338908897425 -0.011797465950370723 0 -0.02355134806378999 -0.011564701543767673 0 -0.023434562769149698 -0.012074908024684309 0 -0.023188695866171019 -0.0084877594234726451 0 -0.023169130553139471 -0.0084754030270683886 0 -0.023199929420434511 -0.0085176116069654046 0 -0.023169130553139471 -0.0084754030270683886 0 -0.023148427909834107 -0.0084963817052401153 0 -0.023199929420434511 -0.0085176116069654046 0 -0.02320015124792401 -0.0084919452465868107 0 -0.023188695866171019 -0.0084877594234726451 0 -0.023199929420434511 -0.0085176116069654046 0 -0.02320015124792401 -0.0084919452465868107 0 -0.023188695866171019 -0.0084877594234726451 0 -0.023184710422229259 -0.0084696659671447596 0 -0.02320015124792401 -0.0084919452465868107 0 -0.023190757016618109 -0.0084643843247242355 0 -0.023184710422229259 -0.0084696659671447596 0 -0.023184710422229259 -0.0084696659671447596 0 -0.023169130553139471 -0.0084754030270683886 0 -0.023153980186847712 -0.0084463303905718511 0 -0.023188695866171019 -0.0084877594234726451 0 -0.023184710422229259 -0.0084696659671447596 0 -0.023169130553139471 -0.0084754030270683886 0 -0.023169130553139471 -0.0084754030270683886 0 -0.023124174184486725 -0.0084558971011541549 0 -0.023153980186847712 -0.0084463303905718511 0 -0.023041300307443682 -0.0083899372045414238 0 -0.023124174184486725 -0.0084558971011541549 0 -0.023153980186847712 -0.0084463303905718511 0 -0.023041300307443682 -0.0083899372045414238 0 -0.023124174184486725 -0.0084558971011541549 0 -0.023085737640941479 -0.008469528237087855 0 -0.023169130553139471 -0.0084754030270683886 0 -0.023124174184486725 -0.0084558971011541549 0 -0.023148427909834107 -0.0084963817052401153 0 -0.023124174184486725 -0.0084558971011541549 0 -0.023085737640941479 -0.008469528237087855 0 -0.023148427909834107 -0.0084963817052401153 0 -0.023085737640941479 -0.008469528237087855 0 -0.023148427909834107 -0.0084963817052401153 0 -0.023105775100488425 -0.0085307091912905451 0 -0.023148427909834107 -0.0084963817052401153 0 -0.023105775100488425 -0.0085307091912905451 0 -0.023172231510444001 -0.0085409674930110868 0 -0.023105775100488425 -0.0085307091912905451 0 -0.023149403279828038 -0.0085836822267480722 0 -0.023172231510444001 -0.0085409674930110868 0 -0.023052586487354088 -0.0085939698688656477 0 -0.022997411923462021 -0.0085038886218064564 0 -0.023105775100488425 -0.0085307091912905451 0 -0.022997411923462021 -0.0085038886218064564 0 -0.023085737640941479 -0.008469528237087855 0 -0.023105775100488425 -0.0085307091912905451 0 -0.023052586487354088 -0.0085939698688656477 0 -0.023105775100488425 -0.0085307091912905451 0 -0.023149403279828038 -0.0085836822267480722 0 -0.023052586487354088 -0.0085939698688656477 0 -0.02313223357521469 -0.0086393062430943877 0 -0.023149403279828038 -0.0085836822267480722 0 -0.023194892778912044 -0.0086221570977055538 0 -0.023149403279828038 -0.0085836822267480722 0 -0.023193081733826174 -0.0085698569743665222 0 -0.023149403279828038 -0.0085836822267480722 0 -0.023193081733826174 -0.0085698569743665222 0 -0.023172231510444001 -0.0085409674930110868 0 -0.024867699106277969 -0.0089908808687338779 0 -0.024976755583841256 -0.0095265515429775252 0 -0.023194892778912044 -0.0086221570977055538 0 -0.023193081733826174 -0.0085698569743665222 0 -0.023234835137458096 -0.0085558419151489182 0 -0.024523934718547472 -0.0084948924867980277 0 -0.024531461393597513 -0.0085326912252963894 0 -0.024511050069873763 -0.0085638645935022309 0 -0.023148427909834107 -0.0084963817052401153 0 -0.023172231510444001 -0.0085409674930110868 0 -0.023199929420434511 -0.0085176116069654046 0 -0.023193081733826174 -0.0085698569743665222 0 -0.023172231510444001 -0.0085409674930110868 0 -0.023206750455867255 -0.0085456462396982773 0 -0.023172231510444001 -0.0085409674930110868 0 -0.023206750455867255 -0.0085456462396982773 0 -0.023199929420434511 -0.0085176116069654046 0 -0.02320015124792401 -0.0084919452465868107 0 -0.023199929420434511 -0.0085176116069654046 0 -0.023234835137458096 -0.0085558419151489182 0 -0.023206750455867255 -0.0085456462396982773 0 -0.023199929420434511 -0.0085176116069654046 0 -0.023234835137458096 -0.0085558419151489182 0 -0.023193081733826174 -0.0085698569743665222 0 -0.023206750455867255 -0.0085456462396982773 0 -0.023234835137458096 -0.0085558419151489182 0 -0.025136249801985391 -0.0098460666802666318 0 -0.025061585367204008 -0.010262103274672156 0 -0.025461022061021493 -0.010378946705834247 0 -0.025305744947909669 -0.0094265707149742764 0 -0.025136249801985391 -0.0098460666802666318 0 -0.025461022061021493 -0.010378946705834247 0 -0.024910298606669077 -0.0097843050963724362 0 -0.025136249801985391 -0.0098460666802666318 0 -0.025061585367204008 -0.010262103274672156 0 -0.025061585367204008 -0.010262103274672156 0 -0.025197821279459597 -0.010541476696193149 0 -0.025026419716097884 -0.010743406535548646 0 -0.025061585367204008 -0.010262103274672156 0 -0.025461022061021493 -0.010378946705834247 0 -0.025197821279459597 -0.010541476696193149 0 -0.024910298606669077 -0.0097843050963724362 0 -0.025061585367204008 -0.010262103274672156 0 -0.024677183200875377 -0.010208387911744683 0 -0.025061585367204008 -0.010262103274672156 0 -0.024677183200875377 -0.010208387911744683 0 -0.024732494207400334 -0.01076792863060951 0 -0.024562240088918649 -0.011492788724167133 0 -0.024732494207400334 -0.01076792863060951 0 -0.024944164372236677 -0.011154995015745387 0 -0.025061585367204008 -0.010262103274672156 0 -0.024732494207400334 -0.01076792863060951 0 -0.025026419716097884 -0.010743406535548646 0 -0.024732494207400334 -0.01076792863060951 0 -0.025026419716097884 -0.010743406535548646 0 -0.024944164372236677 -0.011154995015745387 0 -0.02320015124792401 -0.0084919452465868107 0 -0.023234835137458096 -0.0085558419151489182 0 -0.023196157957775916 -0.0084587863058255552 0 -0.023822564348610648 -0.008358401199957656 0 -0.024573708540432337 -0.0095818232117182312 0 -0.024531461393597513 -0.0085326912252963894 0 -0.024511050069873763 -0.0085638645935022309 0 -0.024501088802138065 -0.0087060325518970114 0 -0.025461022061021493 -0.010378946705834247 0 -0.025183761470615573 -0.010858955305014165 0 -0.025332217821180104 -0.011139661255810514 0 -0.024976755583841256 -0.0095265515429775252 0 -0.024573708540432337 -0.0095818232117182312 0 -0.025461022061021493 -0.010378946705834247 0 -0.025197821279459597 -0.010541476696193149 0 -0.025183761470615573 -0.010858955305014165 0 -0.025197821279459597 -0.010541476696193149 0 -0.025026419716097884 -0.010743406535548646 0 -0.025183761470615573 -0.010858955305014165 0 -0.025183761470615573 -0.010858955305014165 0 -0.025147741809394171 -0.011194625205315835 0 -0.024944164372236677 -0.011154995015745387 0 -0.025026419716097884 -0.010743406535548646 0 -0.025183761470615573 -0.010858955305014165 0 -0.024944164372236677 -0.011154995015745387 0 -0.025183761470615573 -0.010858955305014165 0 -0.025332217821180104 -0.011139661255810514 0 -0.025147741809394171 -0.011194625205315835 0 -0.02320015124792401 -0.0084919452465868107 0 -0.023190757016618109 -0.0084643843247242355 0 -0.023196157957775916 -0.0084587863058255552 0 -0.023190757016618109 -0.0084643843247242355 0 -0.023188166415370675 -0.0084623878687686664 0 -0.023196157957775916 -0.0084587863058255552 0 -0.024573708540432337 -0.0095818232117182312 0 -0.022851729675425904 -0.010772544420283053 0 -0.023196157957775916 -0.0084587863058255552 0 -0.023182220417461517 -0.0084755954339541806 0 -0.023167362666573495 -0.00851091092472165 0 -0.025313379613291595 -0.011148646078763284 0 -0.025245795795594245 -0.0113196577334429 0 -0.025125835226613252 -0.011858723305201796 0 -0.023188166415370675 -0.0084623878687686664 0 -0.023196157957775916 -0.0084587863058255552 0 -0.023182220417461517 -0.0084755954339541806 0 -0.025245795795594245 -0.0113196577334429 0 -0.024932839791918855 -0.011559483341145765 0 -0.025125835226613252 -0.011858723305201796 0 -0.024573708540432337 -0.0095818232117182312 0 -0.024588982445981254 -0.010688911232484968 0 -0.025332217821180104 -0.011139661255810514 0 -0.025147741809394171 -0.011194625205315835 0 -0.025245795795594245 -0.0113196577334429 0 -0.025147741809394171 -0.011194625205315835 0 -0.025067763882328276 -0.011307605755049001 0 -0.024944164372236677 -0.011154995015745387 0 -0.025147741809394171 -0.011194625205315835 0 -0.025067763882328276 -0.011307605755049001 0 -0.025245795795594245 -0.0113196577334429 0 -0.025067763882328276 -0.011307605755049001 0 -0.025245795795594245 -0.0113196577334429 0 -0.024932839791918855 -0.011559483341145765 0 -0.023188166415370675 -0.0084623878687686664 0 -0.023182220417461517 -0.0084755954339541806 0 -0.023180762014083221 -0.0084656477239528384 0 -0.025067763882328276 -0.011307605755049001 0 -0.024944164372236677 -0.011154995015745387 0 -0.024932839791918855 -0.011559483341145765 0 -0.024562240088918649 -0.011492788724167133 0 -0.024944164372236677 -0.011154995015745387 0 -0.024932839791918855 -0.011559483341145765 0 -0.024454379253276391 -0.011812779992909342 0 -0.023075556336225173 -0.012349811898710181 0 -0.024562240088918649 -0.011492788724167133 0 -0.025125835226613252 -0.011858723305201796 0 -0.025090639205835728 -0.012008394324881976 0 -0.024562240088918649 -0.011492788724167133 0 -0.024932839791918855 -0.011559483341145765 0 -0.025125835226613252 -0.011858723305201796 0 -0.02393889033235197 -0.012108195916953678 0 -0.023646178089421457 -0.012452852494655541 0 -0.023597183412908847 -0.012484072872458769 0 -0.022851729675425904 -0.010772544420283053 0 -0.022036248342013245 -0.0096789341601267904 0 -0.023182220417461517 -0.0084755954339541806 0 -0.023167362666573495 -0.00851091092472165 0 -0.023180762014083221 -0.0084656477239528384 0 -0.020493588459204772 -0.011601749657973356 0 -0.020405719557027347 -0.011859910070511053 0 -0.020882350879097351 -0.011941583696656672 0 -0.022851729675425904 -0.010772544420283053 0 -0.023075556336225173 -0.012349811898710181 0 -0.020493588459204772 -0.011601749657973356 0 -0.020920685235439326 -0.011718978876526252 0 -0.020882350879097351 -0.011941583696656672 0 -0.020493588459204772 -0.011601749657973356 0 -0.020920685235439326 -0.011718978876526252 0 -0.020993968292537538 -0.011480782182451079 0 -0.023167362666573495 -0.00851091092472165 0 -0.023180762014083221 -0.0084656477239528384 0 -0.02317974485226788 -0.0084496158807023276 0 -0.020920685235439326 -0.011718978876526252 0 -0.021110429073729047 -0.011695527046900966 0 -0.021147659174943424 -0.011969580714961578 0 -0.020493588459204772 -0.011601749657973356 0 -0.020993968292537538 -0.011480782182451079 0 -0.021235369004525505 -0.011043798465147876 0 -0.021110429073729047 -0.011695527046900966 0 -0.021281378225153483 -0.011837167210897562 0 -0.021147659174943424 -0.011969580714961578 0 -0.021110429073729047 -0.011695527046900966 0 -0.021212127584013182 -0.011467113174265223 0 -0.020993968292537538 -0.011480782182451079 0 -0.020920685235439326 -0.011718978876526252 0 -0.021110429073729047 -0.011695527046900966 0 -0.020993968292537538 -0.011480782182451079 0 -0.021281378225153483 -0.011837167210897562 0 -0.021212127584013182 -0.011467113174265223 0 -0.021474437433291051 -0.011870153789438396 0 -0.021110429073729047 -0.011695527046900966 0 -0.021281378225153483 -0.011837167210897562 0 -0.021212127584013182 -0.011467113174265223 0 -0.021212127584013182 -0.011467113174265223 0 -0.020993968292537538 -0.011480782182451079 0 -0.021235369004525505 -0.011043798465147876 0 -0.021212127584013182 -0.011467113174265223 0 -0.021235369004525505 -0.011043798465147876 0 -0.021436924999950552 -0.011138738948603493 0 -0.023180762014083221 -0.0084656477239528384 0 -0.02317974485226788 -0.0084496158807023276 0 -0.02318228053999637 -0.0084553627822568454 0 -0.02317974485226788 -0.0084496158807023276 0 -0.023153980186847712 -0.0084463303905718511 0 -0.02318228053999637 -0.0084553627822568454 0 -0.023184710422229259 -0.0084696659671447596 0 -0.023153980186847712 -0.0084463303905718511 0 -0.02318228053999637 -0.0084553627822568454 0 -0.023190757016618109 -0.0084643843247242355 0 -0.023184710422229259 -0.0084696659671447596 0 -0.02318228053999637 -0.0084553627822568454 0 -0.023190757016618109 -0.0084643843247242355 0 -0.023188166415370675 -0.0084623878687686664 0 -0.02318228053999637 -0.0084553627822568454 0 -0.023188166415370675 -0.0084623878687686664 0 -0.023180762014083221 -0.0084656477239528384 0 -0.02318228053999637 -0.0084553627822568454 0 -0.023041300307443682 -0.0083899372045414238 0 -0.02317974485226788 -0.0084496158807023276 0 -0.023153980186847712 -0.0084463303905718511 0 -0.022277254641417752 -0.0094144386637554679 0 -0.022036248342013245 -0.0096789341601267904 0 -0.021433932143245571 -0.010467768890226582 0 -0.021492841454086774 -0.010884869297395851 0 -0.021436924999950552 -0.011138738948603493 0 -0.021433932143245571 -0.010467768890226582 0 -0.021235369004525505 -0.011043798465147876 0 -0.021436924999950552 -0.011138738948603493 0 -0.021572742721422376 -0.011154700738756561 0 -0.019356019818190379 -0.012322659505130552 0 -0.021446486037386272 -0.011154000646166784 0 -0.021436924999950552 -0.011138738948603493 0 -0.021322313157516429 -0.011308946619139658 0 -0.021492841454086774 -0.010884869297395851 0 -0.021446486037386272 -0.011154000646166784 0 -0.021436924999950552 -0.011138738948603493 0 -0.021436924999950552 -0.011138738948603493 0 -0.021474437433291051 -0.011870153789438396 0 -0.021895177823231034 -0.01220011474891893 0 -0.021212127584013182 -0.011467113174265223 0 -0.021436924999950552 -0.011138738948603493 0 -0.021474437433291051 -0.011870153789438396 0 -0.021474437433291051 -0.011870153789438396 0 -0.021593078920243671 -0.012237069284477787 0 -0.02141202678067914 -0.012148981537026177 0 -0.021083423403972779 -0.012594002900146206 0 -0.019356019818190379 -0.012322659505130552 0 -0.014170290677977555 -0.01851426393209114 0 -0.015413152926289329 -0.025870337668361602 0 -0.018690963007804845 -0.025542989870979315 0 -0.012321635803058215 -0.050475034508072031 0 -0.013847632896600338 -0.050581639034384451 0 -0.01224833078850966 -0.050192169534696525 0 -0.021593078920243671 -0.012237069284477787 0 -0.021361308629087472 -0.012596769761235064 0 -0.021526554120510032 -0.012571818771403681 0 -0.019356019818190379 -0.012322659505130552 0 -0.017108985395872668 -0.029613079912873 0 -0.017108985395872668 -0.029613079912873 0 -0.012895364479979472 -0.047695931931842073 0 -0.017108985395872668 -0.029613079912873 0 -0.017856223968905068 -0.031684421650734845 0 -0.021361308629087472 -0.012596769761235064 0 -0.021526554120510032 -0.012571818771403681 0 -0.021938310281375984 -0.012194222197751734 0 -0.021593078920243671 -0.012237069284477787 0 -0.021526554120510032 -0.012571818771403681 0 -0.02141202678067914 -0.012148981537026177 0 -0.021526554120510032 -0.012571818771403681 0 -0.02141202678067914 -0.012148981537026177 0 -0.021147659174943424 -0.011969580714961578 0 -0.021526554120510032 -0.012571818771403681 0 -0.021147659174943424 -0.011969580714961578 0 -0.020882350879097351 -0.011941583696656672 0 -0.021281378225153483 -0.011837167210897562 0 -0.02141202678067914 -0.012148981537026177 0 -0.021147659174943424 -0.011969580714961578 0 -0.021281378225153483 -0.011837167210897562 0 -0.021474437433291051 -0.011870153789438396 0 -0.02141202678067914 -0.012148981537026177 0 -0.020920685235439326 -0.011718978876526252 0 -0.021147659174943424 -0.011969580714961578 0 -0.020882350879097351 -0.011941583696656672 0 -0.020405719557027347 -0.011859910070511053 0 -0.021526554120510032 -0.012571818771403681 0 -0.020882350879097351 -0.011941583696656672 0 -0.023075556336225173 -0.012349811898710181 0 -0.021042693366411895 -0.012641331779208769 0 -0.022690639819238963 -0.013933611422395893 0 -0.023064498894077929 -0.012536871674380478 0 -0.022291538468318165 -0.012764921217221481 0 -0.023075556336225173 -0.012349811898710181 0 -0.023093960499463492 -0.012865852432413985 0 -0.022690639819238963 -0.013933611422395893 0 -0.021526554120510032 -0.012571818771403681 0 -0.022291538468318165 -0.012764921217221481 0 -0.023646178089421457 -0.012452852494655541 0 -0.023597183412908847 -0.012484072872458769 0 -0.023064498894077929 -0.012536871674380478 0 -0.023064498894077929 -0.012536871674380478 0 -0.021938310281375984 -0.012194222197751734 0 -0.023645145608187097 -0.012309684876115456 0 -0.023597183412908847 -0.012484072872458769 0 -0.023064498894077929 -0.012536871674380478 0 -0.023593983018891714 -0.012489153185235103 0 -0.023064498894077929 -0.012536871674380478 0 -0.023645145608187097 -0.012309684876115456 0 -0.023593983018891714 -0.012489153185235103 0 -0.023064498894077929 -0.012536871674380478 0 -0.022291538468318165 -0.012764921217221481 0 -0.021938310281375984 -0.012194222197751734 0 -0.021526554120510032 -0.012571818771403681 0 -0.022291538468318165 -0.012764921217221481 0 -0.021938310281375984 -0.012194222197751734 0 -0.013847632896600338 -0.050581639034384451 0 -0.015934813298983858 -0.050625253510561054 0 -0.014242034883599951 -0.049625123013875082 0 -0.017856223968905068 -0.031684421650734845 0 -0.019784541604919877 -0.031472471018387349 0 -0.015934813298983858 -0.050625253510561054 0 -0.015128091337543347 -0.048738555773106637 0 -0.014242034883599951 -0.049625123013875082 0 -0.015934813298983858 -0.050625253510561054 0 -0.015128091337543347 -0.048738555773106637 0 -0.016737320915960419 -0.04861512646873932 0 -0.015128091337543347 -0.048738555773106637 0 -0.014242034883599951 -0.049625123013875082 0 -0.013830751585548806 -0.048476851248549141 0 -0.014242034883599951 -0.049625123013875082 0 -0.013025824101732112 -0.049613271752059936 0 -0.013830751585548806 -0.048476851248549141 0 -0.013025824101732112 -0.049613271752059936 0 -0.012575298132473628 -0.048449173010526425 0 -0.013830751585548806 -0.048476851248549141 0 -0.013025824101732112 -0.049613271752059936 0 -0.01201001918431089 -0.0490392354656429 0 -0.011423457005080488 -0.049694276647728033 0 -0.013025824101732112 -0.049613271752059936 0 -0.01201001918431089 -0.0490392354656429 0 -0.012575298132473628 -0.048449173010526425 0 -0.01201001918431089 -0.0490392354656429 0 -0.011141125014364824 -0.048613876473791985 0 -0.011423457005080488 -0.049694276647728033 0 -0.013025824101732112 -0.049613271752059936 0 -0.011641616734139418 -0.050846574937506363 0 -0.011423457005080488 -0.049694276647728033 0 -0.01234335108516311 -0.050561877297387169 0 -0.012895364479979472 -0.047695931931842073 0 -0.012895364479979472 -0.047695931931842073 0 -0.011393529050850342 -0.049771414134776093 0 -0.013847632896600338 -0.050581639034384451 0 -0.013025824101732112 -0.049613271752059936 0 -0.01224833078850966 -0.050192169534696525 0 -0.013847632896600338 -0.050581639034384451 0 -0.014242034883599951 -0.049625123013875082 0 -0.013025824101732112 -0.049613271752059936 0 -0.023379383796752643 -0.012348946168330065 0 -0.023479829927417432 -0.012539399506653408 0 -0.023629822568354688 -0.012371760082804896 0 -0.023479829927417432 -0.012539399506653408 0 -0.023629822568354688 -0.012371760082804896 0 -0.023647224692162509 -0.01268382866454131 0 -0.023629822568354688 -0.012371760082804896 0 -0.023694518068455486 -0.01248848871517421 0 -0.023647224692162509 -0.01268382866454131 0 -0.023629822568354688 -0.012371760082804896 0 -0.023717478997707549 -0.012411957679845554 0 -0.023694518068455486 -0.01248848871517421 0 -0.023717478997707549 -0.012411957679845554 0 -0.023593983018891714 -0.012489153185235103 0 -0.023694518068455486 -0.01248848871517421 0 -0.023597183412908847 -0.012484072872458769 0 -0.023717478997707549 -0.012411957679845554 0 -0.023593983018891714 -0.012489153185235103 0 -0.023645145608187097 -0.012309684876115456 0 -0.023694518068455486 -0.01248848871517421 0 -0.023647224692162509 -0.01268382866454131 0 -0.023645145608187097 -0.012309684876115456 0 -0.023593983018891714 -0.012489153185235103 0 -0.023694518068455486 -0.01248848871517421 0 -0.019784541604919877 -0.031472471018387349 0 -0.020962820902546527 -0.031360841800747268 0 -0.015934813298983858 -0.050625253510561054 0 -0.017411226510794207 -0.049694579450293735 0 -0.016737320915960419 -0.04861512646873932 0 -0.017411226510794207 -0.049694579450293735 0 -0.018323332779782861 -0.050637988554249086 0 -0.01848645055640296 -0.049121911530282121 0 -0.017411226510794207 -0.049694579450293735 0 -0.01848645055640296 -0.049121911530282121 0 -0.016737320915960419 -0.04861512646873932 0 -0.015934813298983858 -0.050625253510561054 0 -0.017411226510794207 -0.049694579450293735 0 -0.018323332779782861 -0.050637988554249086 0 -0.018323332779782861 -0.050637988554249086 0 -0.01848645055640296 -0.049121911530282121 0 -0.020070092582737831 -0.049988421033029647 0 -0.018323332779782861 -0.050637988554249086 0 -0.020070092582737831 -0.049988421033029647 0 -0.020860402966966767 -0.050522203736590256 0 -0.020962820902546527 -0.031360841800747268 0 -0.022303762201161877 -0.033674690582675589 0 -0.01848645055640296 -0.049121911530282121 0 -0.019602569938073272 -0.049043059890636405 0 -0.020070092582737831 -0.049988421033029647 0 -0.020070092582737831 -0.049988421033029647 0 -0.020302093473530267 -0.049379837786516979 0 -0.021205039900293141 -0.049957620068486371 0 -0.023240902380704937 -0.049775641021276622 0 -0.021916590412842902 -0.049954094724849712 0 -0.0221395325701523 -0.049724395776313268 0 -0.019602569938073272 -0.049043059890636405 0 -0.020070092582737831 -0.049988421033029647 0 -0.020302093473530267 -0.049379837786516979 0 -0.019602569938073272 -0.049043059890636405 0 -0.020302093473530267 -0.049379837786516979 0 -0.020483138324498645 -0.048549359198332302 0 -0.020302093473530267 -0.049379837786516979 0 -0.020483138324498645 -0.048549359198332302 0 -0.021205039900293141 -0.049957620068486371 0 -0.023479829927417432 -0.012539399506653408 0 -0.023647224692162509 -0.01268382866454131 0 -0.02343315789652204 -0.012823950479686421 0 -0.020070092582737831 -0.049988421033029647 0 -0.021205039900293141 -0.049957620068486371 0 -0.021405412284423914 -0.051210677555393713 0 -0.024024294332129135 -0.048649896849850466 0 -0.022303762201161877 -0.033674690582675589 0 -0.021916590412842902 -0.049954094724849712 0 -0.021630561174090387 -0.048297051270153608 0 -0.0221395325701523 -0.049724395776313268 0 -0.021742443565623461 -0.048281957143152796 0 -0.022087922071546546 -0.04961751323101421 0 -0.023394870326031124 -0.048575701157598149 0 -0.021836482587184083 -0.048212071810259619 0 -0.0221395325701523 -0.049724395776313268 0 -0.021219352443022404 -0.04928635098952161 0 -0.019099818116308429 -0.048222515040096607 0 -0.019602569938073272 -0.049043059890636405 0 -0.020483138324498645 -0.048549359198332302 0 -0.01832929638119862 -0.047537427032182333 0 -0.021916590412842902 -0.049954094724849712 0 -0.021630561174090387 -0.048297051270153608 0 -0.019857027270781504 -0.048931660023364354 0 -0.01848645055640296 -0.049121911530282121 0 -0.019602569938073272 -0.049043059890636405 0 -0.01832929638119862 -0.047537427032182333 0 -0.021630561174090387 -0.048297051270153608 0 -0.019857027270781504 -0.048931660023364354 0 -0.019597565308515492 -0.047289450426702385 0 -0.019099818116308429 -0.048222515040096607 0 -0.01718298726171659 -0.047182090718450566 0 -0.019857027270781504 -0.048931660023364354 0 -0.017800989959603896 -0.047729425775681275 0 -0.019597565308515492 -0.047289450426702385 0 -0.01848645055640296 -0.049121911530282121 0 -0.01832929638119862 -0.047537427032182333 0 -0.016737320915960419 -0.04861512646873932 0 -0.01832929638119862 -0.047537427032182333 0 -0.016737320915960419 -0.04861512646873932 0 -0.016550829177687111 -0.046629006436355855 0 -0.016737320915960419 -0.04861512646873932 0 -0.016550829177687111 -0.046629006436355855 0 -0.015828508026587727 -0.047806852894622574 0 -0.017800989959603896 -0.047729425775681275 0 -0.01781680949400858 -0.046229072298794062 0 -0.015734587554589057 -0.046403605592211024 0 -0.01781680949400858 -0.046229072298794062 0 -0.018509897925992544 -0.044999931067872381 0 -0.016108750739349181 -0.044999949389525923 0 -0.019625957661417399 -0.046050887690176387 0 -0.018509897925992544 -0.044999931067872381 0 -0.020910693474991918 -0.044999949157650154 0 -0.01781680949400858 -0.046229072298794062 0 -0.019625957661417399 -0.046050887690176387 0 -0.018509897925992544 -0.044999931067872381 0 -0.017800989959603896 -0.047729425775681275 0 -0.01781680949400858 -0.046229072298794062 0 -0.019597565308515492 -0.047289450426702385 0 -0.01781680949400858 -0.046229072298794062 0 -0.019625957661417399 -0.046050887690176387 0 -0.019597565308515492 -0.047289450426702385 0 -0.021630561174090387 -0.048297051270153608 0 -0.019597565308515492 -0.047289450426702385 0 -0.021231513119536451 -0.046693463832474379 0 -0.019625957661417399 -0.046050887690176387 0 -0.019597565308515492 -0.047289450426702385 0 -0.021231513119536451 -0.046693463832474379 0 -0.019625957661417399 -0.046050887690176387 0 -0.020910693474991918 -0.044999949157650154 0 -0.021231513119536451 -0.046693463832474379 0 -0.020910942222258172 -0.04500037562506122 0 -0.021320290640718463 -0.046658217039484182 0 -0.022796403776811958 -0.046375425945453137 0 -0.022952023285318854 -0.044999876035810418 0 -0.020911135322735482 -0.045000003754752903 0 -0.022796403776811958 -0.046375425945453137 0 -0.020911135322735482 -0.045000003754752903 0 -0.021411312631341186 -0.046660177601356871 0 -0.022679392232437024 -0.047412910347214746 0 -0.022796403776811958 -0.046375425945453137 0 -0.021411312631341186 -0.046660177601356871 0 -0.021742443565623461 -0.048281957143152796 0 -0.021320290640718463 -0.046658217039484182 0 -0.022679392232437024 -0.047412910347214746 0 -0.021836482587184083 -0.048212071810259619 0 -0.021411312631341186 -0.046660177601356871 0 -0.013355700521819057 -0.047389809152731867 0 -0.012344168250842591 -0.046963927346931438 0 -0.011681974256740807 -0.047767060450071716 0 -0.012344168250842591 -0.046963927346931438 0 -0.011681974256740807 -0.047767060450071716 0 -0.010821049464090592 -0.046838161338966997 0 -0.013355700521819057 -0.047389809152731867 0 -0.011681974256740807 -0.047767060450071716 0 -0.012575298132473628 -0.048449173010526425 0 -0.011681974256740807 -0.047767060450071716 0 -0.012575298132473628 -0.048449173010526425 0 -0.011141125014364824 -0.048613876473791985 0 -0.01201001918431089 -0.0490392354656429 0 -0.012575298132473628 -0.048449173010526425 0 -0.011141125014364824 -0.048613876473791985 0 -0.013355700521819057 -0.047389809152731867 0 -0.012575298132473628 -0.048449173010526425 0 -0.013830751585548806 -0.048476851248549141 0 -0.015128091337543347 -0.048738555773106637 0 -0.013830751585548806 -0.048476851248549141 0 -0.014926804078673427 -0.047245663575544716 0 -0.015128091337543347 -0.048738555773106637 0 -0.015828508026587727 -0.047806852894622574 0 -0.014926804078673427 -0.047245663575544716 0 -0.015128091337543347 -0.048738555773106637 0 -0.016737320915960419 -0.04861512646873932 0 -0.015828508026587727 -0.047806852894622574 0 -0.016550829177687111 -0.046629006436355855 0 -0.015828508026587727 -0.047806852894622574 0 -0.014926804078673427 -0.047245663575544716 0 -0.013355700521819057 -0.047389809152731867 0 -0.014926804078673427 -0.047245663575544716 0 -0.014283565389684257 -0.04662262117091405 0 -0.013355700521819057 -0.047389809152731867 0 -0.013830751585548806 -0.048476851248549141 0 -0.014926804078673427 -0.047245663575544716 0 -0.014926804078673427 -0.047245663575544716 0 -0.014283565389684257 -0.04662262117091405 0 -0.014945540996497999 -0.045812716625251416 0 -0.013355700521819057 -0.047389809152731867 0 -0.014283565389684257 -0.04662262117091405 0 -0.013647484474072481 -0.046207017013867271 0 -0.014283565389684257 -0.04662262117091405 0 -0.014945540996497999 -0.045812716625251416 0 -0.013647484474072481 -0.046207017013867271 0 -0.01718298726171659 -0.047182090718450566 0 -0.015352817518529327 -0.046102394964067615 0 -0.016550829177687111 -0.046629006436355855 0 -0.014926804078673427 -0.047245663575544716 0 -0.014945540996497999 -0.045812716625251416 0 -0.01781680949400858 -0.046229072298794062 0 -0.015734587554589057 -0.046403605592211024 0 -0.016108750739349181 -0.044999949389525923 0 -0.015352817518529327 -0.046102394964067615 0 -0.013707924885882402 -0.045000194379976509 0 -0.014945540996497999 -0.045812716625251416 0 -0.013706484695834719 -0.044999651194338006 0 -0.013647484474072481 -0.046207017013867271 0 -0.015734587554589057 -0.046403605592211024 0 -0.016108750739349181 -0.044999949389525923 0 -0.01370764337519738 -0.045000014054420188 0 -0.013706484695834719 -0.044999651194338006 0 -0.013647484474072481 -0.046207017013867271 0 -0.012188718428829154 -0.046078710703903077 0 -0.012344168250842591 -0.046963927346931438 0 -0.013647484474072481 -0.046207017013867271 0 -0.012188718428829154 -0.046078710703903077 0 -0.013355700521819057 -0.047389809152731867 0 -0.012344168250842591 -0.046963927346931438 0 -0.013647484474072481 -0.046207017013867271 0 -0.012344168250842591 -0.046963927346931438 0 -0.012188718428829154 -0.046078710703903077 0 -0.010821049464090592 -0.046838161338966997 0 -0.013706484695834719 -0.044999651194338006 0 -0.012188718428829154 -0.046078710703903077 0 -0.011645751949098837 -0.044999776827892003 0 -0.012188718428829154 -0.046078710703903077 0 -0.011645751949098837 -0.044999776827892003 0 -0.010765410146638663 -0.045839924411697965 0 -0.011645751949098837 -0.044999776827892003 0 -0.010765410146638663 -0.045839924411697965 0 -0.0095831266589280432 -0.04499980651042515 0 -0.010765410146638663 -0.045839924411697965 0 -0.0095831266589280432 -0.04499980651042515 0 -0.0097957344122649725 -0.045969660554391598 0 -0.0084903409412117326 -0.045000037894040751 0 -0.0097957344122649725 -0.045969660554391598 0 -0.009196249100641353 -0.046904529982240359 0 -0.0095831266589280432 -0.04499980651042515 0 -0.0084903409412117326 -0.045000037894040751 0 -0.0097957344122649725 -0.045969660554391598 0 -0.0097957344122649725 -0.045969660554391598 0 -0.010821049464090592 -0.046838161338966997 0 -0.009196249100641353 -0.046904529982240359 0 -0.010765410146638663 -0.045839924411697965 0 -0.0097957344122649725 -0.045969660554391598 0 -0.010821049464090592 -0.046838161338966997 0 -0.012188718428829154 -0.046078710703903077 0 -0.010765410146638663 -0.045839924411697965 0 -0.010821049464090592 -0.046838161338966997 0 -0.0062825818114725877 -0.04500000083240914 0 -0.006220732572757218 -0.04537029547186263 0 -0.0044261712553294681 -0.045881312721419695 0 -0.0074520400662832879 -0.045246284602469697 0 -0.0075238087490829726 -0.044999475488771076 0 -0.0076424885096259805 -0.045454367651962965 0 -0.0062815118359642163 -0.045000149581264338 0 -0.0057838910267099765 -0.045159799372265469 0 -0.0057838910267099765 -0.045159799372265469 0 -0.0075211789113088833 -0.044999874598185781 0 -0.0062825976298898044 -0.044999997300641678 0 -0.0062216910101537586 -0.045370087234897889 0 -0.0075207365241409859 -0.044999998857983607 0 -0.0084864799223852202 -0.045000459382628484 0 -0.0077269933096557886 -0.045569427903859594 0 -0.0076424885096259805 -0.045454367651962965 0 -0.0084933026000152036 -0.04500755176014979 0 -0.0084612842674181704 -0.046124821263415453 0 -0.0084864799223852202 -0.045000459382628484 0 -0.0075238087490829726 -0.044999475488771076 0 -0.0076424885096259805 -0.045454367651962965 0 -0.0077269933096557886 -0.045569427903859594 0 -0.0076424885096259805 -0.045454367651962965 0 -0.0077511130853446216 -0.045393609583382483 0 -0.0076424885096259805 -0.045454367651962965 0 -0.0077473131003426539 -0.045495082025632703 0 -0.0077511130853446216 -0.045393609583382483 0 -0.0057838910267099765 -0.045159799372265469 0 -0.0053842143230615723 -0.04629886001637213 0 -0.0033551399832715888 -0.045669296406928531 0 -0.0031465996322349618 -0.046745117914034802 0 -0.0027769022698837403 -0.046391813099390493 0 -0.0074520400662832879 -0.045246284602469697 0 -0.0076424885096259805 -0.045454367651962965 0 -0.0077473131003426539 -0.045495082025632703 0 -0.0053842143230615723 -0.04629886001637213 0 -0.0056847502286887369 -0.04578940688377587 0 -0.0077473131003426539 -0.045495082025632703 0 -0.0077511130853446216 -0.045393609583382483 0 -0.0081560862343071205 -0.045172421558120485 0 -0.0077269933096557886 -0.045569427903859594 0 -0.0077511130853446216 -0.045393609583382483 0 -0.0074616874016304067 -0.045071781500768252 0 -0.0084612842674181704 -0.046124821263415453 0 -0.0085502044732760352 -0.04685627018435682 0 -0.0077511130853446216 -0.045393609583382483 0 -0.0074616874016304067 -0.045071781500768252 0 -0.0078466756733388092 -0.044668358668995732 0 -0.0077511130853446216 -0.045393609583382483 0 -0.0078466756733388092 -0.044668358668995732 0 -0.0081560862343071205 -0.045172421558120485 0 -0.011681974256740807 -0.047767060450071716 0 -0.010821049464090592 -0.046838161338966997 0 -0.010302235763213367 -0.047783684147524146 0 -0.009196249100641353 -0.046904529982240359 0 -0.009537108143231646 -0.048403066752187765 0 -0.010302235763213367 -0.047783684147524146 0 -0.010821049464090592 -0.046838161338966997 0 -0.009196249100641353 -0.046904529982240359 0 -0.010302235763213367 -0.047783684147524146 0 -0.009537108143231646 -0.048403066752187765 0 -0.010302235763213367 -0.047783684147524146 0 -0.010378914813520729 -0.048825211101791985 0 -0.011681974256740807 -0.047767060450071716 0 -0.010302235763213367 -0.047783684147524146 0 -0.011141125014364824 -0.048613876473791985 0 -0.010302235763213367 -0.047783684147524146 0 -0.011141125014364824 -0.048613876473791985 0 -0.010378914813520729 -0.048825211101791985 0 -0.011105141586377447 -0.049221461751409852 0 -0.010366736127868008 -0.049428813322011475 0 -0.010378914813520729 -0.048825211101791985 0 -0.011135359989056019 -0.048605775227498177 0 -0.011393529050850342 -0.049771414134776093 0 -0.011141125014364824 -0.048613876473791985 0 -0.011105141586377447 -0.049221461751409852 0 -0.010378914813520729 -0.048825211101791985 0 -0.010771324282402019 -0.049671240948668656 0 -0.010366736127868008 -0.049428813322011475 0 -0.010423219721050916 -0.050054325949337355 0 -0.011105141586377447 -0.049221461751409852 0 -0.010771324282402019 -0.049671240948668656 0 -0.010366736127868008 -0.049428813322011475 0 -0.011158708812588526 -0.049754196406264384 0 -0.011105141586377447 -0.049221461751409852 0 -0.010771324282402019 -0.049671240948668656 0 -0.011158708812588526 -0.049754196406264384 0 -0.010771324282402019 -0.049671240948668656 0 -0.010827255322894816 -0.050012290845515464 0 -0.010366736127868008 -0.049428813322011475 0 -0.010000063082242666 -0.049067063941087598 0 -0.009688835658065378 -0.049565450029843902 0 -0.010366736127868008 -0.049428813322011475 0 -0.009688835658065378 -0.049565450029843902 0 -0.010423219721050916 -0.050054325949337355 0 -0.0070424623217738022 -0.043648779341399199 0 -0.0070522775828612168 -0.043203390543342927 0 -0.0063481937178584595 -0.043016034805193538 0 -0.0082024914779282778 -0.046370470084680294 0 -0.010989237221153575 -0.036658370558681215 0 -0.009537108143231646 -0.048403066752187765 0 -0.010000063082242666 -0.049067063941087598 0 -0.009688835658065378 -0.049565450029843902 0 -0.009537108143231646 -0.048403066752187765 0 -0.010000063082242666 -0.049067063941087598 0 -0.010378914813520729 -0.048825211101791985 0 -0.010366736127868008 -0.049428813322011475 0 -0.010000063082242666 -0.049067063941087598 0 -0.010378914813520729 -0.048825211101791985 0 -0.0085502044732760352 -0.04685627018435682 0 -0.0082024914779282778 -0.046370470084680294 0 -0.0072530873976493276 -0.043921069161529727 0 -0.0082024914779282778 -0.046370470084680294 0 -0.0074616874016304067 -0.045071781500768252 0 -0.0078466756733388092 -0.044668358668995732 0 -0.0074709860145078478 -0.04438686013356425 0 -0.0078466756733388092 -0.044668358668995732 0 -0.0086185471555587125 -0.044176458573025039 0 -0.0081560862343071205 -0.045172421558120485 0 -0.0078466756733388092 -0.044668358668995732 0 -0.0077834507846001955 -0.043746923673881236 0 -0.0086185471555587125 -0.044176458573025039 0 -0.0078466756733388092 -0.044668358668995732 0 -0.0077834507846001955 -0.043746923673881236 0 -0.0069583015022248408 -0.043815095275480623 0 -0.0077834507846001955 -0.043746923673881236 0 -0.0069583015022248408 -0.043815095275480623 0 -0.0073202540785665344 -0.043406261276995393 0 -0.0069583015022248408 -0.043815095275480623 0 -0.0073202540785665344 -0.043406261276995393 0 -0.0070522775828612168 -0.043203390543342927 0 -0.0082024914779282778 -0.046370470084680294 0 -0.0074953817625623628 -0.043010646679187352 0 -0.0070522775828612168 -0.043203390543342927 0 -0.0074797581732316439 -0.042897641080746389 0 -0.0063481937178584595 -0.043016034805193538 0 -0.0077834507846001955 -0.043746923673881236 0 -0.0073202540785665344 -0.043406261276995393 0 -0.0074797581732316439 -0.042897641080746389 0 -0.0073202540785665344 -0.043406261276995393 0 -0.0070522775828612168 -0.043203390543342927 0 -0.0074797581732316439 -0.042897641080746389 0 -0.013051661827152047 -0.022715241770404297 0 -0.014285324368396078 -0.021242367706214096 0 -0.015716929903091762 -0.022465504289341437 0 -0.0077834507846001955 -0.043746923673881236 0 -0.0074797581732316439 -0.042897641080746389 0 -0.0088892118921734282 -0.042705746977334688 0 -0.010780925853240652 -0.032263096914975767 0 -0.0075104285013429259 -0.033018443947723977 0 -0.013051661827152047 -0.022715241770404297 0 -0.014285324368396078 -0.021242367706214096 0 -0.011542310394918574 -0.02124589462734176 0 -0.013061538994414422 -0.019813774145834583 0 -0.014285324368396078 -0.021242367706214096 0 -0.011542310394918574 -0.02124589462734176 0 -0.017419013485046399 -0.015790493808268153 0 -0.017116263732988943 -0.015448090130708974 0 -0.021854042190370414 -0.011388718931861131 0 -0.021560247531211135 -0.011320586219612265 0 -0.02156130290555108 -0.011695300433293507 0 -0.017116263732988943 -0.015448090130708974 0 -0.016535793421242725 -0.024542694884240025 0 -0.021746550230593499 -0.011150062085818147 0 -0.021854042190370414 -0.011388718931861131 0 -0.021560247531211135 -0.011320586219612265 0 -0.019356019818190379 -0.012322659505130552 0 -0.016535793421242725 -0.024542694884240025 0 -0.021446486037386272 -0.011154000646166784 0 -0.021322313157516429 -0.011308946619139658 0 -0.021560247531211135 -0.011320586219612265 0 -0.021322313157516429 -0.011308946619139658 0 -0.021560247531211135 -0.011320586219612265 0 -0.02156130290555108 -0.011695300433293507 0 -0.014170290677977555 -0.01851426393209114 0 -0.020500604274923062 -0.023963818587091661 0 -0.018690963007804845 -0.025542989870979315 0 -0.012895364479979472 -0.047695931931842073 0 -0.014374310094420226 -0.035846345955549024 0 -0.017108985395872668 -0.029613079912873 0 -0.014374310094420226 -0.035846345955549024 0 -0.015309074207029765 -0.039009718223210407 0 -0.015521350467107163 -0.04024622217354723 0 -0.017111295725522051 -0.038804792286391214 0 -0.010771324282402019 -0.049671240948668656 0 -0.010827255322894816 -0.050012290845515464 0 -0.010423219721050916 -0.050054325949337355 0 -0.013912307675679612 -0.035192702998720078 0 -0.01532578467807452 -0.033983769658563541 0 -0.012757800888355006 -0.034232636746982154 0 -0.014374310094420226 -0.035846345955549024 0 -0.010989237221153575 -0.036658370558681215 0 -0.016535793421242725 -0.024542694884240025 0 -0.010989237221153575 -0.036658370558681215 0 -0.016535793421242725 -0.024542694884240025 0 -0.014374310094420226 -0.035846345955549024 0 -0.011542310394918574 -0.02124589462734176 0 -0.010062832364653836 -0.022649026165964863 0 -0.010471956479909141 -0.023009996033692644 0 -0.013051661827152047 -0.022715241770404297 0 -0.011542310394918574 -0.02124589462734176 0 -0.010471956479909141 -0.023009996033692644 0 -0.010780925853240652 -0.032263096914975767 0 -0.010989237221153575 -0.036658370558681215 0 -0.00069566157794881845 -0.051009796342076884 0 -0.0015415907240229699 -0.04960205574376305 0 0.00042082044869186917 -0.049746736031776831 0 -0.00069566157794881845 -0.051009796342076884 0 0.00042082044869186917 -0.049746736031776831 0 0.0015012997329808154 -0.051391418634103077 0 -0.0033442130751295649 -0.031928301846233541 0 -0.0036124784468570424 -0.031974882843542968 0 -0.0074342656807255738 -0.013073415488977148 0 -0.0084938932830091445 -0.01256321263287888 0 -0.0083782658638039392 -0.011810975700588665 0 -0.006926893619611651 -0.012161269183132341 0 -0.0074342656807255738 -0.013073415488977148 0 -0.006355262381320074 -0.012522458994792521 0 -0.0074342656807255738 -0.013073415488977148 0 -0.006355262381320074 -0.012522458994792521 0 -0.0061936354422800471 -0.013454401624491177 0 -0.014815530678106995 -0.019841849724184277 0 -0.014285324368396078 -0.021242367706214096 0 -0.016067239930594193 -0.020551119124606391 0 -0.011621238529681157 -0.014036284907435203 0 -0.0075104285013429259 -0.033018443947723977 0 -0.014285324368396078 -0.021242367706214096 0 -0.016067239930594193 -0.020551119124606391 0 -0.015716929903091762 -0.022465504289341437 0 -0.00069566157794881845 -0.051009796342076884 0 -0.0026913096096569198 -0.050627258756198584 0 -0.0015415907240229699 -0.04960205574376305 0 -0.0033442130751295649 -0.031928301846233541 0 -0.0075104285013429259 -0.033018443947723977 0 -0.0015415907240229699 -0.04960205574376305 0 -0.00288672011299491 -0.049070919288343284 0 -0.0020393203046743399 -0.048409296515297233 0 -0.0075104285013429259 -0.033018443947723977 0 -0.0053078543011020026 -0.049605822823806676 0 -0.0077834507846001955 -0.043746923673881236 0 -0.0088892118921734282 -0.042705746977334688 0 -0.0086185471555587125 -0.044176458573025039 0 -0.0026913096096569198 -0.050627258756198584 0 -0.0015415907240229699 -0.04960205574376305 0 -0.00288672011299491 -0.049070919288343284 0 -0.00288672011299491 -0.049070919288343284 0 -0.0020393203046743399 -0.048409296515297233 0 -0.0029880604562440515 -0.0477765451938875 0 -0.0053078543011020026 -0.049605822823806676 0 -0.0056847502286887369 -0.04578940688377587 0 -0.0015415907240229699 -0.04960205574376305 0 -0.0020393203046743399 -0.048409296515297233 0 -0.00079604539663245843 -0.048370781653068892 0 -0.0020393203046743399 -0.048409296515297233 0 -0.00079604539663245843 -0.048370781653068892 0 -0.00029417340468918061 -0.047261378780715131 0 -0.00079604539663245843 -0.048370781653068892 0 0.00044070952930031919 -0.048189600913406072 0 -0.00011419583217387132 -0.047866508048250531 0 -0.0015415907240229699 -0.04960205574376305 0 -0.00079604539663245843 -0.048370781653068892 0 0.00042082044869186917 -0.049746736031776831 0 0.00042082044869186917 -0.049746736031776831 0 0.00044070952930031919 -0.048189600913406072 0 0.002014187351151879 -0.048958454188826932 0 -0.00079604539663245843 -0.048370781653068892 0 0.00042082044869186917 -0.049746736031776831 0 0.00044070952930031919 -0.048189600913406072 0 0.00044070952930031919 -0.048189600913406072 0 0.00084738233689184551 -0.047168517337459866 0 0.0018487795689798698 -0.047672576598983572 0 0.00084738233689184551 -0.047168517337459866 0 -0.00029417340468918061 -0.047261378780715131 0 0.0014558526935024977 -0.046204908385395385 0 0.00084738233689184551 -0.047168517337459866 0 0.00019059550504772646 -0.047642506824252015 0 -0.00029417340468918061 -0.047261378780715131 0 0.00044070952930031919 -0.048189600913406072 0 0.00084738233689184551 -0.047168517337459866 0 0.00019059550504772646 -0.047642506824252015 0 0.00044070952930031919 -0.048189600913406072 0 0.00019059550504772646 -0.047642506824252015 0 -0.00011419583217387132 -0.047866508048250531 0 -0.0020393203046743399 -0.048409296515297233 0 -0.001461992663135182 -0.047723313167765138 0 -0.0010843411862122179 -0.047732419733740344 0 -0.00079604539663245843 -0.048370781653068892 0 -0.00011419583217387132 -0.047866508048250531 0 -0.00029417340468918061 -0.047261378780715131 0 -0.001461992663135182 -0.047723313167765138 0 -0.0010843411862122179 -0.047732419733740344 0 -0.00054994325954551291 -0.047174187071692908 0 -0.0014001888876535617 -0.047687329279911796 0 -0.00060771432291098677 -0.047247590683583592 0 -0.0019667304768841705 -0.04835442817528366 0 -0.00071634641351182719 -0.047535318107760967 0 0.00019059550504772646 -0.047642506824252015 0 -0.00011419583217387132 -0.047866508048250531 0 -0.00029417340468918061 -0.047261378780715131 0 -0.001461992663135182 -0.047723313167765138 0 -0.0013331367220590345 -0.047345488540276086 0 -0.0017971490592688269 -0.047445366004856583 0 -0.001461992663135182 -0.047723313167765138 0 -0.0013331367220590345 -0.047345488540276086 0 -0.00071378676756088247 -0.047331265610129181 0 -0.0013331367220590345 -0.047345488540276086 0 -0.0011372807481098062 -0.047090190537266548 0 -0.00071378676756088247 -0.047331265610129181 0 -0.0013331367220590345 -0.047345488540276086 0 -0.0015574025376249331 -0.047133619778592623 0 -0.0017971490592688269 -0.047445366004856583 0 -0.0013331367220590345 -0.047345488540276086 0 -0.0015574025376249331 -0.047133619778592623 0 -0.0011372807481098062 -0.047090190537266548 0 -0.0015574025376249331 -0.047133619778592623 0 -0.0014728980879114039 -0.046889931341261654 0 -0.0011372807481098062 -0.047090190537266548 0 -0.0015574025376249331 -0.047133619778592623 0 -0.0014728980879114039 -0.046889931341261654 0 -0.0017881928073428942 -0.046887423814412292 0 -0.0014728980879114039 -0.046889931341261654 0 -0.0011372807481098062 -0.047090190537266548 0 -0.0010865034892735886 -0.046759944329256835 0 -0.0011372807481098062 -0.047090190537266548 0 -0.00066818153928293147 -0.046881866571423229 0 -0.0010865034892735886 -0.046759944329256835 0 -0.00071634641351182719 -0.047535318107760967 0 0.00086134553311808734 -0.046429382209683998 0 -0.0010843411862122179 -0.047732419733740344 0 -0.00054994325954551291 -0.047174187071692908 0 0.00017752563578807856 -0.046915213749956552 0 -0.0011372807481098062 -0.047090190537266548 0 -0.00066818153928293147 -0.046881866571423229 0 -0.00071378676756088247 -0.047331265610129181 0 -0.00039931500335759114 -0.046883712795375773 0 -0.00071378676756088247 -0.047331265610129181 0 0.00019406524141722949 -0.046876728003906583 0 -0.00066818153928293147 -0.046881866571423229 0 -0.00039931500335759114 -0.046883712795375773 0 -0.00071378676756088247 -0.047331265610129181 0 -0.0020393203046743399 -0.048409296515297233 0 -0.0029880604562440515 -0.0477765451938875 0 -0.0023186713864530657 -0.047523599034611175 0 -0.0020393203046743399 -0.048409296515297233 0 -0.0023186713864530657 -0.047523599034611175 0 -0.0017971490592688269 -0.047445366004856583 0 -0.0020393203046743399 -0.048409296515297233 0 -0.001461992663135182 -0.047723313167765138 0 -0.0017971490592688269 -0.047445366004856583 0 -0.0015574025376249331 -0.047133619778592623 0 -0.0017971490592688269 -0.047445366004856583 0 -0.002096695671877472 -0.046965747179297308 0 -0.0015574025376249331 -0.047133619778592623 0 -0.0017881928073428942 -0.046887423814412292 0 -0.002096695671877472 -0.046965747179297308 0 -0.0023186713864530657 -0.047523599034611175 0 -0.002096695671877472 -0.046965747179297308 0 -0.002592083128135074 -0.046983485151034149 0 -0.0023186713864530657 -0.047523599034611175 0 -0.0017971490592688269 -0.047445366004856583 0 -0.002096695671877472 -0.046965747179297308 0 -0.0031465996322349618 -0.046745117914034802 0 -0.0029880604562440515 -0.0477765451938875 0 -0.002592083128135074 -0.046983485151034149 0 -0.0029880604562440515 -0.0477765451938875 0 -0.0023186713864530657 -0.047523599034611175 0 -0.002592083128135074 -0.046983485151034149 0 -0.0031465996322349618 -0.046745117914034802 0 -0.002592083128135074 -0.046983485151034149 0 -0.0027769022698837403 -0.046391813099390493 0 -0.002592083128135074 -0.046983485151034149 0 -0.0027769022698837403 -0.046391813099390493 0 -0.0022456692313670332 -0.046517754636753374 0 -0.0027769022698837403 -0.046391813099390493 0 -0.0022456692313670332 -0.046517754636753374 0 -0.0024761047394248818 -0.045926469556345988 0 -0.0022456692313670332 -0.046517754636753374 0 -0.0024761047394248818 -0.045926469556345988 0 -0.0016284485087112251 -0.046221533405281859 0 -0.002096695671877472 -0.046965747179297308 0 -0.0022456692313670332 -0.046517754636753374 0 -0.0017827733454434771 -0.046582467019748462 0 -0.002096695671877472 -0.046965747179297308 0 -0.002592083128135074 -0.046983485151034149 0 -0.0022456692313670332 -0.046517754636753374 0 -0.0017881928073428942 -0.046887423814412292 0 -0.002096695671877472 -0.046965747179297308 0 -0.0017827733454434771 -0.046582467019748462 0 -0.0022456692313670332 -0.046517754636753374 0 -0.0017827733454434771 -0.046582467019748462 0 -0.0016284485087112251 -0.046221533405281859 0 -0.0033054044737300917 -0.045683444306234069 0 -0.0039521881308984264 -0.04499998847311943 0 -0.0024424941373146721 -0.045574866394455085 0 -0.0032582628854148669 -0.045965493748381415 0 -0.0021496018241691783 -0.046302226236569786 0 -0.0033054044737300917 -0.045683444306234069 0 -0.0044261712553294681 -0.045881312721419695 0 -0.0026182572402753969 -0.046388307829493727 0 -0.0033054044737300917 -0.045683444306234069 0 -0.0039521881308984264 -0.04499998847311943 0 -0.0044261712553294681 -0.045881312721419695 0 -0.0062825818114725877 -0.04500000083240914 0 -0.0039521881308984264 -0.04499998847311943 0 -0.0044261712553294681 -0.045881312721419695 0 -0.0057838910267099765 -0.045159799372265469 0 -0.0032582628854148669 -0.045965493748381415 0 -0.0033551399832715888 -0.045669296406928531 0 -0.0027769022698837403 -0.046391813099390493 0 -0.0024761047394248818 -0.045926469556345988 0 -0.0017827733454434771 -0.046582467019748462 0 -0.00068626260144459149 -0.046770780330464022 0 -0.00033764430889072355 -0.04694957114180192 0 -0.00068626260144459149 -0.046770780330464022 0 -0.00033764430889072355 -0.04694957114180192 0 -0.00042809852324594702 -0.046007142041069725 0 -0.00066818153928293147 -0.046881866571423229 0 -0.00039931500335759114 -0.046883712795375773 0 -0.00040720706360001808 -0.046431727485636842 0 -0.00066818153928293147 -0.046881866571423229 0 -0.00040720706360001808 -0.046431727485636842 0 -0.0010865034892735886 -0.046759944329256835 0 -0.0016536285201950972 -0.046593426972045694 0 -0.00046455787228600682 -0.046722032169113949 0 -0.0017827733454434771 -0.046582467019748462 0 -0.00040720706360001808 -0.046431727485636842 0 -0.0010865034892735886 -0.046759944329256835 0 -0.00068626260144459149 -0.046770780330464022 0 -0.0015090429317190616 -0.04594015712794907 0 -0.0026182572402753969 -0.046388307829493727 0 -0.00082418941400253247 -0.046716578226093569 0 -0.0021496018241691783 -0.046302226236569786 0 -0.0017827733454434771 -0.046582467019748462 0 -0.00068626260144459149 -0.046770780330464022 0 -0.0016284485087112251 -0.046221533405281859 0 -0.0014728980879114039 -0.046889931341261654 0 -0.0017827733454434771 -0.046582467019748462 0 -0.0010865034892735886 -0.046759944329256835 0 -0.0014728980879114039 -0.046889931341261654 0 -0.0017881928073428942 -0.046887423814412292 0 -0.0017827733454434771 -0.046582467019748462 0 -0.0039521881308984264 -0.04499998847311943 0 -0.0024424941373146721 -0.045574866394455085 0 -0.001621624061321651 -0.044999965062647064 0 -0.0015090429317190616 -0.04594015712794907 0 -0.0026182572402753969 -0.046388307829493727 0 -0.0024424941373146721 -0.045574866394455085 0 -0.0033054044737300917 -0.045683444306234069 0 -0.0026182572402753969 -0.046388307829493727 0 -0.0024424941373146721 -0.045574866394455085 0 -0.0015090429317190616 -0.04594015712794907 0 -0.0024424941373146721 -0.045574866394455085 0 -0.001621624061321651 -0.044999965062647064 0 -0.001621624061321651 -0.044999965062647064 0 -0.00042809852324594702 -0.046007142041069725 0 0.00070854858774610822 -0.044999971640609621 0 -0.0015090429317190616 -0.04594015712794907 0 -0.001621624061321651 -0.044999965062647064 0 -0.00042809852324594702 -0.046007142041069725 0 -0.00068626260144459149 -0.046770780330464022 0 -0.0015090429317190616 -0.04594015712794907 0 -0.00042809852324594702 -0.046007142041069725 0 0.00070854858774610822 -0.044999971640609621 0 0.00092376359689065124 -0.046081080002071416 0 0.0021088415740822789 -0.045962899790952937 0 -0.00042809852324594702 -0.046007142041069725 0 0.00070854858774610822 -0.044999971640609621 0 0.00092376359689065124 -0.046081080002071416 0 -0.00033764430889072355 -0.04694957114180192 0 -0.00042809852324594702 -0.046007142041069725 0 0.00092376359689065124 -0.046081080002071416 0 0.0015654255526578369 -0.046046142233938672 0 0.00017752563578807856 -0.046915213749956552 0 0.00045913211605425302 -0.046627081162059672 0 -0.00033764430889072355 -0.04694957114180192 0 0.00092376359689065124 -0.046081080002071416 0 0.0025422124415744119 -0.046881217558297966 0 -0.00046455787228600682 -0.046722032169113949 0 0.0022956319500919589 -0.046317732706506791 0 -0.00040720706360001808 -0.046431727485636842 0 0.0011962840741594045 -0.046311688024225604 0 0.00019406524141722949 -0.046876728003906583 0 -0.00039931500335759114 -0.046883712795375773 0 -0.00040720706360001808 -0.046431727485636842 0 0.00019406524141722949 -0.046876728003906583 0 0.0031567874724566882 -0.045120089148032297 0 0.0038161736056443562 -0.045804725425246891 0 0.0026791764781904882 -0.046192689185774481 0 0.0022956319500919589 -0.046317732706506791 0 0.00086134553311808734 -0.046429382209683998 0 0.0022956319500919589 -0.046317732706506791 0 0.00017341588570393411 -0.046785766317683171 0 0.00092376359689065124 -0.046081080002071416 0 0.0025422124415744119 -0.046881217558297966 0 0.0021088415740822789 -0.045962899790952937 0 0.00070854858774610822 -0.044999971640609621 0 0.0021088415740822789 -0.045962899790952937 0 0.0030390447213529972 -0.044999978347330778 0 0.0025422124415744119 -0.046881217558297966 0 0.0021088415740822789 -0.045962899790952937 0 0.0029130163523802739 -0.045943622046918958 0 0.0021088415740822789 -0.045962899790952937 0 0.0030390447213529972 -0.044999978347330778 0 0.0029130163523802739 -0.045943622046918958 0 0.0025422124415744119 -0.046881217558297966 0 0.0039585016883377363 -0.045937902942193853 0 0.0029130163523802739 -0.045943622046918958 0 0.0030390447213529972 -0.044999978347330778 0 0.0039585016883377363 -0.045937902942193853 0 0.0053694588783156829 -0.045000003082157763 0 0.0025556181229199879 -0.046830923580161041 0 0.0039622038168098533 -0.045926040822873403 0 0.0042206115779314709 -0.04592863452034162 0 0.0030390447213529972 -0.044999978347330778 0 0.0039585016883377363 -0.045937902942193853 0 0.0029130163523802739 -0.045943622046918958 0 0.0042565017271133411 -0.045925541694017614 0 0.0058884289985542916 -0.044999988496402438 0 0.0060937939280595183 -0.046758437899087194 0 0.0053694890835746314 -0.044999964783488007 0 0.0042206115779314709 -0.04592863452034162 0 0.0058883615412677424 -0.045000030251376472 0 0.0039542269019494812 -0.045954017340001534 0 0.0053691034816296581 -0.045000234225347352 0 0.0039622038168098533 -0.045926040822873403 0 0.0053694890835746314 -0.044999964783488007 0 0.0042206115779314709 -0.04592863452034162 0 0.0042586100171474921 -0.045957146840569174 0 0.0058879953143022761 -0.045000207613961167 0 0.0042565017271133411 -0.045925541694017614 0 0.0043138846271814661 -0.046825568176374219 0 0.0060937939280595183 -0.046758437899087194 0 0.0045115328692991487 -0.045945783155454549 0 0.0059398423535161338 -0.04591845326832647 0 0.0044805125218549844 -0.045111330377271622 0 0.0054586471167689353 -0.045882123129503481 0 0.005877425183654336 -0.04505623706966512 0 0.0044805125218549844 -0.045111330377271622 0 0.0038161736056443562 -0.045804725425246891 0 0.0054586471167689353 -0.045882123129503481 0 0.0022956319500919589 -0.046317732706506791 0 0.0045115328692991487 -0.045945783155454549 0 0.002626864257406652 -0.046839596625181903 0 0.0042565017271133411 -0.045925541694017614 0 0.0043138846271814661 -0.046825568176374219 0 0.0022956319500919589 -0.046317732706506791 0 0.0042586100171474921 -0.045957146840569174 0 0.0022956319500919589 -0.046317732706506791 0 0.0039542269019494812 -0.045954017340001534 0 0.0031567874724566882 -0.045120089148032297 0 0.0044805125218549844 -0.045111330377271622 0 0.0038161736056443562 -0.045804725425246891 0 0.0038161736056443562 -0.045804725425246891 0 0.003652184708042541 -0.046749877376857978 0 0.0054586471167689353 -0.045882123129503481 0 0.0038161736056443562 -0.045804725425246891 0 0.003652184708042541 -0.046749877376857978 0 0.0026791764781904882 -0.046192689185774481 0 0.0039545640198422804 -0.046938018573383748 0 0.0060192188752015655 -0.046251279639596674 0 0.0054714454122277035 -0.047255228374908829 0 0.0037670245282302927 -0.046869081363415568 0 0.0057424311916789731 -0.046017267053909398 0 0.0054714454122277035 -0.047255228374908829 0 0.0046996898927488106 -0.048168649666106178 0 0.0060356335702998641 -0.047948069717266076 0 0.0039545640198422804 -0.046938018573383748 0 0.0046996898927488106 -0.048168649666106178 0 0.0033388978829473649 -0.048163442466568097 0 0.0039545640198422804 -0.046938018573383748 0 0.0054714454122277035 -0.047255228374908829 0 0.0046996898927488106 -0.048168649666106178 0 0.0037670245282302927 -0.046869081363415568 0 0.0019364838606166974 -0.047647327535954027 0 0.0039545640198422804 -0.046938018573383748 0 0.0018487795689798698 -0.047672576598983572 0 0.0033388978829473649 -0.048163442466568097 0 0.003652184708042541 -0.046749877376857978 0 0.0018487795689798698 -0.047672576598983572 0 0.0022189431605387777 -0.046729991758137704 0 0.00084738233689184551 -0.047168517337459866 0 0.0018487795689798698 -0.047672576598983572 0 0.0015950304737098085 -0.046939641934945639 0 0.0018487795689798698 -0.047672576598983572 0 0.0015950304737098085 -0.046939641934945639 0 0.0022189431605387777 -0.046729991758137704 0 -0.00054994325954551291 -0.047174187071692908 0 0.00017752563578807856 -0.046915213749956552 0 0.00045913211605425302 -0.046627081162059672 0 0.0015950304737098085 -0.046939641934945639 0 0.0022189431605387777 -0.046729991758137704 0 0.0014558526935024977 -0.046204908385395385 0 -0.00060771432291098677 -0.047247590683583592 0 0.00017341588570393411 -0.046785766317683171 0 0.0022189431605387777 -0.046729991758137704 0 0.0014558526935024977 -0.046204908385395385 0 0.0026791764781904882 -0.046192689185774481 0 0.00084738233689184551 -0.047168517337459866 0 0.0015950304737098085 -0.046939641934945639 0 0.0014558526935024977 -0.046204908385395385 0 0.003652184708042541 -0.046749877376857978 0 0.0022189431605387777 -0.046729991758137704 0 0.0026791764781904882 -0.046192689185774481 0 0.0031567874724566882 -0.045120089148032297 0 0.0014558526935024977 -0.046204908385395385 0 0.0026791764781904882 -0.046192689185774481 0 0.010078233350306323 -0.046425330502282758 0 0.010791154764658601 -0.047562975960577923 0 0.011901818557349711 -0.046265575464284607 0 0.010078233350306323 -0.046425330502282758 0 0.010813851413978092 -0.045717556110895265 0 0.011901818557349711 -0.046265575464284607 0 0.010078233350306323 -0.046425330502282758 0 0.010813851413978092 -0.045717556110895265 0 0.0098219805783354812 -0.04521826305172378 0 0.010813851413978092 -0.045717556110895265 0 0.0098219805783354812 -0.04521826305172378 0 0.011387325339541825 -0.044998822590978538 0 0.0097312679073102287 -0.045584393218558741 0 0.011386571423419343 -0.04500010161365648 0 0.0096465092391389545 -0.045850551620209214 0 0.0095541717150001287 -0.044999992514684582 0 0.011387063434122366 -0.045000000246242046 0 0.0095541717150001287 -0.044999992514684582 0 0.0086546700160007161 -0.04555706291404843 0 0.0077212608611001935 -0.044999992980600818 0 0.0097312679073102287 -0.045584393218558741 0 0.0077219290225357942 -0.045671156139117028 0 0.0096465092391389545 -0.045850551620209214 0 0.0086546700160007161 -0.04555706291404843 0 0.0079038468863161914 -0.046685525750505621 0 0.0096465092391389545 -0.045850551620209214 0 0.0095541717150001287 -0.044999992514684582 0 0.0086546700160007161 -0.04555706291404843 0 0.010078233350306323 -0.046425330502282758 0 0.0081524576963904454 -0.045612023952418188 0 0.0086093329341544698 -0.046689293909554376 0 0.010078233350306323 -0.046425330502282758 0 0.0098219805783354812 -0.04521826305172378 0 0.0081524576963904454 -0.045612023952418188 0 0.0081524576963904454 -0.045612023952418188 0 0.0074894154895869579 -0.046556564446058046 0 0.0086093329341544698 -0.046689293909554376 0 0.0086546700160007161 -0.04555706291404843 0 0.0079038468863161914 -0.046685525750505621 0 0.0077212608611001935 -0.044999992980600818 0 0.0079038468863161914 -0.046685525750505621 0 0.0077212608611001935 -0.044999992980600818 0 0.0060937939280595183 -0.046758437899087194 0 0.0077212608611001935 -0.044999992980600818 0 0.0058884289985542916 -0.044999988496402438 0 0.0060937939280595183 -0.046758437899087194 0 0.0057424311916789731 -0.046017267053909398 0 0.0077219290225357942 -0.045671156139117028 0 0.0060192188752015655 -0.046251279639596674 0 0.0081524576963904454 -0.045612023952418188 0 0.0074894154895869579 -0.046556564446058046 0 0.0054586471167689353 -0.045882123129503481 0 0.0072821620942395268 -0.045006441696759908 0 0.005877425183654336 -0.04505623706966512 0 0.0077219290225357942 -0.045671156139117028 0 0.0059398423535161338 -0.04591845326832647 0 0.0060192188752015655 -0.046251279639596674 0 0.0054714454122277035 -0.047255228374908829 0 0.0066955739090655397 -0.04719924142053411 0 0.0060192188752015655 -0.046251279639596674 0 0.0066955739090655397 -0.04719924142053411 0 0.0074894154895869579 -0.046556564446058046 0 0.0066955739090655397 -0.04719924142053411 0 0.0060356335702998641 -0.047948069717266076 0 0.0072728228388407676 -0.048361390258423821 0 0.0054714454122277035 -0.047255228374908829 0 0.0066955739090655397 -0.04719924142053411 0 0.0060356335702998641 -0.047948069717266076 0 0.0072728228388407676 -0.048361390258423821 0 0.0079522839056836315 -0.047301340748120799 0 0.008752972749719307 -0.048034677783026107 0 0.0066955739090655397 -0.04719924142053411 0 0.0072728228388407676 -0.048361390258423821 0 0.0079522839056836315 -0.047301340748120799 0 0.0066955739090655397 -0.04719924142053411 0 0.0079522839056836315 -0.047301340748120799 0 0.0074894154895869579 -0.046556564446058046 0 0.0079522839056836315 -0.047301340748120799 0 0.0074894154895869579 -0.046556564446058046 0 0.0086093329341544698 -0.046689293909554376 0 0.010078233350306323 -0.046425330502282758 0 0.0086093329341544698 -0.046689293909554376 0 0.009450642025130962 -0.047549795016338055 0 0.0079522839056836315 -0.047301340748120799 0 0.0086093329341544698 -0.046689293909554376 0 0.009450642025130962 -0.047549795016338055 0 0.0081771977329854594 -0.047316000086700352 0 0.0092949183617191764 -0.047293465396518304 0 0.0079522839056836315 -0.047301340748120799 0 0.0092327176157298366 -0.047046546427982269 0 0.008752972749719307 -0.048034677783026107 0 0.008752972749719307 -0.048034677783026107 0 0.010088991279915017 -0.04779902994268044 0 0.0095510717059569487 -0.048883694127741566 0 0.0092327176157298366 -0.047046546427982269 0 0.008752972749719307 -0.048034677783026107 0 0.010088991279915017 -0.04779902994268044 0 0.010088991279915017 -0.04779902994268044 0 0.010682612618123003 -0.048641264300673462 0 0.0095510717059569487 -0.048883694127741566 0 0.010088991279915017 -0.04779902994268044 0 0.010682612618123003 -0.048641264300673462 0 0.011295422551335262 -0.047827696521035981 0 0.010345099256671399 -0.047628969250736397 0 0.010985911252276825 -0.047457480666429727 0 0.010088991279915017 -0.04779902994268044 0 0.010810292754743381 -0.046796112790254592 0 0.011295422551335262 -0.047827696521035981 0 0.0092327176157298366 -0.047046546427982269 0 0.010088991279915017 -0.04779902994268044 0 0.010655610903332093 -0.046922694890023646 0 0.0092949183617191764 -0.047293465396518304 0 0.010985911252276825 -0.047457480666429727 0 0.010078233350306323 -0.046425330502282758 0 0.009450642025130962 -0.047549795016338055 0 0.010791154764658601 -0.047562975960577923 0 0.010045541611457751 -0.051065806532952604 0 0.010480182901933354 -0.04969637601444965 0 0.0089562207291542673 -0.049982466596955433 0 0.010045541611457751 -0.051065806532952604 0 0.010480182901933354 -0.04969637601444965 0 0.011292564292514353 -0.050690980137669095 0 0.010480182901933354 -0.04969637601444965 0 0.0095510717059569487 -0.048883694127741566 0 0.0089562207291542673 -0.049982466596955433 0 0.010480182901933354 -0.04969637601444965 0 0.010682612618123003 -0.048641264300673462 0 0.012043226054604924 -0.048968921826487044 0 0.010480182901933354 -0.04969637601444965 0 0.010682612618123003 -0.048641264300673462 0 0.0095510717059569487 -0.048883694127741566 0 0.008752972749719307 -0.048034677783026107 0 0.0095510717059569487 -0.048883694127741566 0 0.0083363909830336692 -0.049069639725912065 0 0.0095510717059569487 -0.048883694127741566 0 0.0083363909830336692 -0.049069639725912065 0 0.0089562207291542673 -0.049982466596955433 0 0.010045541611457751 -0.051065806532952604 0 0.0089562207291542673 -0.049982466596955433 0 0.0081081318970327824 -0.051068872043150512 0 0.0083363909830336692 -0.049069639725912065 0 0.0089562207291542673 -0.049982466596955433 0 0.0073920424693844477 -0.050022697174685611 0 0.0089562207291542673 -0.049982466596955433 0 0.0073920424693844477 -0.050022697174685611 0 0.0081081318970327824 -0.051068872043150512 0 0.0072728228388407676 -0.048361390258423821 0 0.008752972749719307 -0.048034677783026107 0 0.0083363909830336692 -0.049069639725912065 0 0.0072728228388407676 -0.048361390258423821 0 0.0083363909830336692 -0.049069639725912065 0 0.0073920424693844477 -0.050022697174685611 0 0.0072728228388407676 -0.048361390258423821 0 0.0073920424693844477 -0.050022697174685611 0 0.0058540194824626248 -0.049249999395838927 0 0.0060356335702998641 -0.047948069717266076 0 0.0072728228388407676 -0.048361390258423821 0 0.0058540194824626248 -0.049249999395838927 0 0.0073920424693844477 -0.050022697174685611 0 0.0062775964181351332 -0.05060397361797947 0 0.0058540194824626248 -0.049249999395838927 0 0.0062775964181351332 -0.05060397361797947 0 0.0060548189582128242 -0.051909613228093197 0 0.0071644409069518437 -0.051197683314238691 0 0.0073920424693844477 -0.050022697174685611 0 0.0062775964181351332 -0.05060397361797947 0 0.0071644409069518437 -0.051197683314238691 0 -0.0078069294992614263 -0.011126292360452228 0 -0.0058460848458819796 -0.01081707298558038 0 -0.0074202185562885388 -0.011965361629551773 0 0.0060548189582128242 -0.051909613228093197 0 0.0078302335803512365 -0.051705550604285479 0 0.0071644409069518437 -0.051197683314238691 0 -0.00075022529992694112 -0.031660945418707689 0 0.0005101197727170265 -0.030237347504412995 0 0.0078302335803512365 -0.051705550604285479 0 0.0071644409069518437 -0.051197683314238691 0 0.0081081318970327824 -0.051068872043150512 0 0.0073920424693844477 -0.050022697174685611 0 0.0071644409069518437 -0.051197683314238691 0 0.0081081318970327824 -0.051068872043150512 0 0.0078302335803512365 -0.051705550604285479 0 0.0081081318970327824 -0.051068872043150512 0 0.0081417153357249868 -0.051395371469484245 0 0.010045541611457751 -0.051065806532952604 0 0.0081081318970327824 -0.051068872043150512 0 0.0095510898837253243 -0.052641666837399431 0 0.007488713612078003 -0.050545216725042981 0 0.010614688006899834 -0.053894818502834362 0 0.0005101197727170265 -0.030237347504412995 0 0.0042929301562477599 -0.038250365156565005 0 0.0078302335803512365 -0.051705550604285479 0 0.0081417153357249868 -0.051395371469484245 0 0.0082690857846797212 -0.051370275895087497 0 0.010614688006899834 -0.053894818502834362 0 0.0042929301562477599 -0.038250365156565005 0 0.0095510898837253243 -0.052641666837399431 0 0.010855741107371666 -0.0538394573424026 0 0.011500503915594474 -0.052008937470647103 0 0.010045541611457751 -0.051065806532952604 0 0.0095510898837253243 -0.052641666837399431 0 0.011500503915594474 -0.052008937470647103 0 0.010045541611457751 -0.051065806532952604 0 0.011500503915594474 -0.052008937470647103 0 0.011292564292514353 -0.050690980137669095 0 0.002014187351151879 -0.048958454188826932 0 0.0036819003500273284 -0.049565212156889193 0 0.00239712934217814 -0.050384952784788571 0 0.00042082044869186917 -0.049746736031776831 0 0.002014187351151879 -0.048958454188826932 0 0.00239712934217814 -0.050384952784788571 0 0.00044070952930031919 -0.048189600913406072 0 0.0018487795689798698 -0.047672576598983572 0 0.002014187351151879 -0.048958454188826932 0 0.0018487795689798698 -0.047672576598983572 0 0.002014187351151879 -0.048958454188826932 0 0.0033388978829473649 -0.048163442466568097 0 0.002014187351151879 -0.048958454188826932 0 0.0033388978829473649 -0.048163442466568097 0 0.0036819003500273284 -0.049565212156889193 0 0.0046996898927488106 -0.048168649666106178 0 0.0033388978829473649 -0.048163442466568097 0 0.0036819003500273284 -0.049565212156889193 0 0.0046996898927488106 -0.048168649666106178 0 0.0058540194824626248 -0.049249999395838927 0 0.0036819003500273284 -0.049565212156889193 0 0.0046996898927488106 -0.048168649666106178 0 0.0060356335702998641 -0.047948069717266076 0 0.0058540194824626248 -0.049249999395838927 0 0.0062775964181351332 -0.05060397361797947 0 0.0058540194824626248 -0.049249999395838927 0 0.0049514804780982939 -0.050515906251139921 0 0.0058540194824626248 -0.049249999395838927 0 0.0036819003500273284 -0.049565212156889193 0 0.0049514804780982939 -0.050515906251139921 0 0.0036819003500273284 -0.049565212156889193 0 0.0049514804780982939 -0.050515906251139921 0 0.0037734095773096152 -0.051711789768392573 0 0.0060548189582128242 -0.051909613228093197 0 0.0049514804780982939 -0.050515906251139921 0 0.0037734095773096152 -0.051711789768392573 0 0.0062775964181351332 -0.05060397361797947 0 0.0060548189582128242 -0.051909613228093197 0 0.0049514804780982939 -0.050515906251139921 0 -0.0078069294992614263 -0.011126292360452228 0 -0.0090039153380316612 -0.011668651345840981 0 -0.0087488172959055595 -0.011759019500687227 0 -0.00075022529992694112 -0.031660945418707689 0 -0.0025531808770773469 -0.031679237557980411 0 -0.0090039153380316612 -0.011668651345840981 0 -0.0091088569734777414 -0.011623892301437825 0 -0.0087488172959055595 -0.011759019500687227 0 -0.0025531808770773469 -0.031679237557980411 0 -0.0036124784468570424 -0.031974882843542968 0 0.0036819003500273284 -0.049565212156889193 0 0.0037734095773096152 -0.051711789768392573 0 0.00239712934217814 -0.050384952784788571 0 -0.0090039153380316612 -0.011668651345840981 0 -0.0084938932830091445 -0.01256321263287888 0 -0.0091088569734777414 -0.011623892301437825 0 0.0037734095773096152 -0.051711789768392573 0 0.00239712934217814 -0.050384952784788571 0 0.0015012997329808154 -0.051391418634103077 0 0.00042082044869186917 -0.049746736031776831 0 0.00239712934217814 -0.050384952784788571 0 0.0015012997329808154 -0.051391418634103077 0 -0.0084938932830091445 -0.01256321263287888 0 -0.0083782658638039392 -0.011810975700588665 0 -0.0091088569734777414 -0.011623892301437825 0 -0.010641777797021015 -0.011161191477829659 0 -0.0091088569734777414 -0.011623892301437825 0 -0.0097709769519794872 -0.012098754461698417 0 -0.009664965893084073 -0.011552072285241672 0 -0.0091448616472116669 -0.011580989799730747 0 -0.0091088569734777414 -0.011623892301437825 0 -0.0097709769519794872 -0.012098754461698417 0 -0.0089918790702330064 -0.012082712037302828 0 -0.0097709769519794872 -0.012098754461698417 0 -0.0090501625414455035 -0.012824117074677349 0 -0.0089918790702330064 -0.012082712037302828 0 -0.01140430275242512 -0.012039451902050392 0 -0.0097709769519794872 -0.012098754461698417 0 -0.010019913764911948 -0.012850927530100991 0 -0.01140430275242512 -0.012039451902050392 0 -0.010641777797021015 -0.011161191477829659 0 -0.0097709769519794872 -0.012098754461698417 0 -0.01140430275242512 -0.012039451902050392 0 -0.011051734492554361 -0.013186545335259503 0 -0.010019913764911948 -0.012850927530100991 0 -0.011051734492554361 -0.013186545335259503 0 -0.010019913764911948 -0.012850927530100991 0 -0.0097481464879827923 -0.013458902893932031 0 -0.010019913764911948 -0.012850927530100991 0 -0.0097481464879827923 -0.013458902893932031 0 -0.0090501625414455035 -0.012824117074677349 0 -0.0097709769519794872 -0.012098754461698417 0 -0.010019913764911948 -0.012850927530100991 0 -0.0090501625414455035 -0.012824117074677349 0 -0.0097481464879827923 -0.013458902893932031 0 -0.00883322847523107 -0.013428813963381121 0 -0.0091655659207257999 -0.014378728049462209 0 -0.0097481464879827923 -0.013458902893932031 0 -0.00883322847523107 -0.013428813963381121 0 -0.0090501625414455035 -0.012824117074677349 0 -0.011051734492554361 -0.013186545335259503 0 -0.0097481464879827923 -0.013458902893932031 0 -0.010768561732778686 -0.014093460406539119 0 -0.0083370294211204087 -0.013193366604172453 0 -0.007957517593408809 -0.013159350336703738 0 -0.0084826348804510326 -0.013180315444371923 0 -0.0083370294211204087 -0.013193366604172453 0 -0.00883322847523107 -0.013428813963381121 0 -0.0084826348804510326 -0.013180315444371923 0 -0.0083370294211204087 -0.013193366604172453 0 -0.00883322847523107 -0.013428813963381121 0 -0.0090501625414455035 -0.012824117074677349 0 -0.0083370294211204087 -0.013193366604172453 0 -0.0090501625414455035 -0.012824117074677349 0 -0.0083582735640909643 -0.012308914714177596 0 -0.0083370294211204087 -0.013193366604172453 0 -0.0083582735640909643 -0.012308914714177596 0 -0.0077317911216547852 -0.013250419834411732 0 -0.0090501625414455035 -0.012824117074677349 0 -0.0083582735640909643 -0.012308914714177596 0 -0.0089918790702330064 -0.012082712037302828 0 -0.0083582735640909643 -0.012308914714177596 0 -0.0089918790702330064 -0.012082712037302828 0 -0.0087488172959055595 -0.011759019500687227 0 -0.0091088569734777414 -0.011623892301437825 0 -0.0089918790702330064 -0.012082712037302828 0 -0.0087488172959055595 -0.011759019500687227 0 -0.0078069294992614263 -0.011126292360452228 0 -0.0083582735640909643 -0.012308914714177596 0 -0.0087488172959055595 -0.011759019500687227 0 -0.0078069294992614263 -0.011126292360452228 0 -0.0083582735640909643 -0.012308914714177596 0 -0.0074202185562885388 -0.011965361629551773 0 -0.0058460848458819796 -0.01081707298558038 0 -0.0074202185562885388 -0.011965361629551773 0 -0.00625902368374624 -0.012545584956157827 0 -0.0074202185562885388 -0.011965361629551773 0 -0.00625902368374624 -0.012545584956157827 0 -0.0077317911216547852 -0.013250419834411732 0 -0.0083582735640909643 -0.012308914714177596 0 -0.0074202185562885388 -0.011965361629551773 0 -0.0077317911216547852 -0.013250419834411732 0 -0.0032497216391637763 -0.010819414959799064 0 -0.0039068180572446026 -0.011647408335352929 0 -0.0024421385871663671 -0.01170486219738889 0 -0.0058460848458819796 -0.01081707298558038 0 -0.0032497216391637763 -0.010819414959799064 0 -0.0039068180572446026 -0.011647408335352929 0 -0.0039068180572446026 -0.011647408335352929 0 -0.0032060295526609942 -0.012770176301852109 0 -0.0024421385871663671 -0.01170486219738889 0 -0.0058460848458819796 -0.01081707298558038 0 -0.0039068180572446026 -0.011647408335352929 0 -0.0046403002931083067 -0.012290472120057743 0 -0.0058460848458819796 -0.01081707298558038 0 -0.00625902368374624 -0.012545584956157827 0 -0.0046403002931083067 -0.012290472120057743 0 -0.00625902368374624 -0.012545584956157827 0 -0.0052265990467059613 -0.013245137999403248 0 -0.0046403002931083067 -0.012290472120057743 0 -0.0052265990467059613 -0.013245137999403248 0 -0.0046403002931083067 -0.012290472120057743 0 -0.0042453225740279807 -0.01384038826264221 0 -0.0046403002931083067 -0.012290472120057743 0 -0.0032060295526609942 -0.012770176301852109 0 -0.0042453225740279807 -0.01384038826264221 0 -0.0039068180572446026 -0.011647408335352929 0 -0.0046403002931083067 -0.012290472120057743 0 -0.0032060295526609942 -0.012770176301852109 0 -0.0032060295526609942 -0.012770176301852109 0 -0.0030520426465390276 -0.014159331620729097 0 -0.0042453225740279807 -0.01384038826264221 0 -0.0030520426465390276 -0.014159331620729097 0 -0.0042453225740279807 -0.01384038826264221 0 -0.0036602144160119655 -0.015164343078396519 0 -0.0041074186553905602 -0.014307033506024547 0 -0.0045281273373566694 -0.014197426395079702 0 -0.0052265990467059613 -0.013245137999403248 0 -0.0042453225740279807 -0.01384038826264221 0 -0.0057468726992336919 -0.014288181234841947 0 -0.00625902368374624 -0.012545584956157827 0 -0.0052265990467059613 -0.013245137999403248 0 -0.0057468726992336919 -0.014288181234841947 0 -0.0042453225740279807 -0.01384038826264221 0 -0.0057468726992336919 -0.014288181234841947 0 -0.0038007688552049129 -0.014875346320860489 0 -0.0077509561513162501 -0.013036881724116274 0 -0.0076297226205378852 -0.013121539523359441 0 -0.0073609530158723494 -0.012967836794873504 0 -0.0069537854063435271 -0.013588874712584702 0 -0.0045281273373566694 -0.014197426395079702 0 -0.0076297226205378852 -0.013121539523359441 0 -0.0073609530158723494 -0.012967836794873504 0 -0.0073958013613596102 -0.013228491780613952 0 -0.0045281273373566694 -0.014197426395079702 0 -0.0044054015484971693 -0.014984966204763483 0 -0.0069537854063435271 -0.013588874712584702 0 -0.0075317962450705562 -0.013342004290421369 0 -0.00625902368374624 -0.012545584956157827 0 -0.0057468726992336919 -0.014288181234841947 0 -0.0077317911216547852 -0.013250419834411732 0 -0.0077509561513162501 -0.013036881724116274 0 -0.0077317911216547852 -0.013250419834411732 0 -0.007957517593408809 -0.013159350336703738 0 -0.0077509561513162501 -0.013036881724116274 0 -0.0076297226205378852 -0.013121539523359441 0 -0.007957517593408809 -0.013159350336703738 0 -0.0083370294211204087 -0.013193366604172453 0 -0.0077317911216547852 -0.013250419834411732 0 -0.007957517593408809 -0.013159350336703738 0 -0.007957517593408809 -0.013159350336703738 0 -0.0084166156682507036 -0.013234827808943563 0 -0.0084826348804510326 -0.013180315444371923 0 -0.007957517593408809 -0.013159350336703738 0 -0.0080161469403431541 -0.01340994247198992 0 -0.0084166156682507036 -0.013234827808943563 0 -0.007957517593408809 -0.013159350336703738 0 -0.0080161469403431541 -0.01340994247198992 0 -0.007684803895110298 -0.01328868405525022 0 -0.0076297226205378852 -0.013121539523359441 0 -0.007957517593408809 -0.013159350336703738 0 -0.007684803895110298 -0.01328868405525022 0 -0.0080161469403431541 -0.01340994247198992 0 -0.0084166156682507036 -0.013234827808943563 0 -0.0086423317839342904 -0.0134970683585634 0 -0.0073609530158723494 -0.012967836794873504 0 -0.0073958013613596102 -0.013228491780613952 0 -0.0070592975962004813 -0.01331159681073792 0 -0.0076297226205378852 -0.013121539523359441 0 -0.0073958013613596102 -0.013228491780613952 0 -0.007684803895110298 -0.01328868405525022 0 -0.0073958013613596102 -0.013228491780613952 0 -0.007684803895110298 -0.01328868405525022 0 -0.0074013654412744484 -0.013667211347525111 0 -0.0080161469403431541 -0.01340994247198992 0 -0.007684803895110298 -0.01328868405525022 0 -0.0074013654412744484 -0.013667211347525111 0 -0.0073958013613596102 -0.013228491780613952 0 -0.0074013654412744484 -0.013667211347525111 0 -0.0070592975962004813 -0.01331159681073792 0 -0.007226958722867092 -0.014330542714462817 0 -0.0079516743552463381 -0.013948704965699688 0 -0.0074013654412744484 -0.013667211347525111 0 -0.007415140973838546 -0.014398664277808866 0 -0.0079371949770407919 -0.013955876195057129 0 -0.0073010510216384708 -0.014113552798943501 0 -0.0079371949770407919 -0.013955876195057129 0 -0.0078110274641767612 -0.014421463527429635 0 -0.0074013654412744484 -0.013667211347525111 0 -0.007415140973838546 -0.014398664277808866 0 -0.0069150425856056531 -0.014228773811822252 0 -0.0080161469403431541 -0.01340994247198992 0 -0.0079371949770407919 -0.013955876195057129 0 -0.0086423317839342904 -0.0134970683585634 0 -0.0080161469403431541 -0.01340994247198992 0 -0.0074013654412744484 -0.013667211347525111 0 -0.0079371949770407919 -0.013955876195057129 0 -0.0079371949770407919 -0.013955876195057129 0 -0.0087090604504954025 -0.014099320299950834 0 -0.0083428520246715196 -0.014494781766866346 0 -0.0079371949770407919 -0.013955876195057129 0 -0.0087090604504954025 -0.014099320299950834 0 -0.0086423317839342904 -0.0134970683585634 0 -0.0087090604504954025 -0.014099320299950834 0 -0.0086423317839342904 -0.0134970683585634 0 -0.0092335184482496106 -0.013888973115279221 0 -0.0087090604504954025 -0.014099320299950834 0 -0.0092335184482496106 -0.013888973115279221 0 -0.0093644080181717448 -0.014523636498411832 0 -0.0086423317839342904 -0.0134970683585634 0 -0.0097181577904685307 -0.013195071373405679 0 -0.0090120496310378082 -0.012954955898199618 0 -0.0086423317839342904 -0.0134970683585634 0 -0.0097181577904685307 -0.013195071373405679 0 -0.0092335184482496106 -0.013888973115279221 0 -0.0097181577904685307 -0.013195071373405679 0 -0.0092335184482496106 -0.013888973115279221 0 -0.0098405537937181035 -0.014211214876080456 0 -0.0092335184482496106 -0.013888973115279221 0 -0.0098405537937181035 -0.014211214876080456 0 -0.0093644080181717448 -0.014523636498411832 0 -0.0097181577904685307 -0.013195071373405679 0 -0.0098405537937181035 -0.014211214876080456 0 -0.01060322652690116 -0.013922484608323649 0 -0.0098405537937181035 -0.014211214876080456 0 -0.01060322652690116 -0.013922484608323649 0 -0.010416903977410462 -0.01491364032111228 0 -0.01060322652690116 -0.013922484608323649 0 -0.011746872735119424 -0.013733079390996415 0 -0.011200871308462881 -0.014714394894066656 0 -0.01060322652690116 -0.013922484608323649 0 -0.011746872735119424 -0.013733079390996415 0 -0.010950228432093301 -0.012662685489021358 0 -0.012448409109545413 -0.012065272698498825 0 -0.011746872735119424 -0.013733079390996415 0 -0.010950228432093301 -0.012662685489021358 0 -0.0097181577904685307 -0.013195071373405679 0 -0.01060322652690116 -0.013922484608323649 0 -0.010950228432093301 -0.012662685489021358 0 -0.0097181577904685307 -0.013195071373405679 0 -0.010950228432093301 -0.012662685489021358 0 -0.0098161656296796469 -0.012109183829889719 0 -0.012448409109545413 -0.012065272698498825 0 -0.010950228432093301 -0.012662685489021358 0 -0.01162565932620693 -0.011661227442815426 0 -0.010950228432093301 -0.012662685489021358 0 -0.01162565932620693 -0.011661227442815426 0 -0.0098161656296796469 -0.012109183829889719 0 -0.010768561732778686 -0.014093460406539119 0 -0.010687288745976575 -0.015292315787635725 0 -0.0091655659207257999 -0.014378728049462209 0 -0.010722571009637851 -0.013744220844418129 0 -0.0096865757765625844 -0.013253558490143947 0 -0.0097481464879827923 -0.013458902893932031 0 -0.010768561732778686 -0.014093460406539119 0 -0.0091655659207257999 -0.014378728049462209 0 -0.0098161656296796469 -0.012109183829889719 0 -0.0084826348804510326 -0.013180315444371923 0 -0.0090120496310378082 -0.012954955898199618 0 -0.0096865757765625844 -0.013253558490143947 0 -0.0086152913664701829 -0.013188735555794754 0 -0.00883322847523107 -0.013428813963381121 0 -0.0091655659207257999 -0.014378728049462209 0 -0.0084826348804510326 -0.013180315444371923 0 -0.0084166156682507036 -0.013234827808943563 0 -0.0084826348804510326 -0.013180315444371923 0 -0.0090120496310378082 -0.012954955898199618 0 -0.0084166156682507036 -0.013234827808943563 0 -0.0086423317839342904 -0.0134970683585634 0 -0.0090120496310378082 -0.012954955898199618 0 -0.0097181577904685307 -0.013195071373405679 0 -0.0098161656296796469 -0.012109183829889719 0 -0.0090120496310378082 -0.012954955898199618 0 0.0038091826201593956 -0.016930433970990814 0 0.0036685423243400972 -0.016572222624286381 0 0.0054353856088863841 -0.017795989987900884 0 0.020403377610451759 -0.026039544760066573 0 0.018682321100894156 -0.026122019369695351 0 0.018727568893247115 -0.024319195871100922 0 0.0097727391352664793 -0.02221358728917968 0 0.011771886100289996 -0.020912848414398125 0 0.0038091826201593956 -0.016930433970990814 0 0.0042260564259843855 -0.017795092625421026 0 0.0033073640371737057 -0.017664919046304513 0 0.0038091826201593956 -0.016930433970990814 0 0.0042260564259843855 -0.017795092625421026 0 0.0054353856088863841 -0.017795989987900884 0 0.0042260564259843855 -0.017795092625421026 0 0.0033073640371737057 -0.017664919046304513 0 0.003386430991657799 -0.018358930572154288 0 0.0033073640371737057 -0.017664919046304513 0 0.0029352353650168952 -0.017003496137754381 0 0.0024077137522212503 -0.018155582752141224 0 0.0033073640371737057 -0.017664919046304513 0 0.003386430991657799 -0.018358930572154288 0 0.0024077137522212503 -0.018155582752141224 0 0.0038091826201593956 -0.016930433970990814 0 0.0033073640371737057 -0.017664919046304513 0 0.0029352353650168952 -0.017003496137754381 0 0.0038091826201593956 -0.016930433970990814 0 0.0029352353650168952 -0.017003496137754381 0 0.0036994767374363886 -0.016687666767328996 0 0.0029352353650168952 -0.017003496137754381 0 0.0036994767374363886 -0.016687666767328996 0 0.0024028905228327545 -0.015628267020640661 0 0.0097727391352664793 -0.02221358728917968 0 0.015555248102234593 -0.027473425709119152 0 0.0097727391352664793 -0.02221358728917968 0 0.0048343576536876275 -0.019721430875904326 0 0.020403377610451759 -0.026039544760066573 0 0.018682321100894156 -0.026122019369695351 0 0.019227912599439994 -0.027680121102240052 0 0.0081361318733681673 -0.019112897484430909 0 0.0097727391352664793 -0.02221358728917968 0 0.018682321100894156 -0.026122019369695351 0 0.016521193102369162 -0.026353140420350574 0 0.017588548496609627 -0.027593644574122059 0 0.018682321100894156 -0.026122019369695351 0 0.019227912599439994 -0.027680121102240052 0 0.017588548496609627 -0.027593644574122059 0 0.018682321100894156 -0.026122019369695351 0 0.016521193102369162 -0.026353140420350574 0 0.017095387304614906 -0.024280722951797323 0 0.026101931803388011 -0.023859151748082563 0 0.021937377002183258 -0.023809490001950425 0 0.035272724653880816 -0.02282430548312403 0 0.034765877980905559 -0.024230068612048516 0 0.035703241526491611 -0.023474419645090918 0 0.016934075669932065 -0.025638769070481345 0 0.021937377002183258 -0.023809490001950425 0 0.018682321100894156 -0.026122019369695351 0 0.018727568893247115 -0.024319195871100922 0 0.016561656564283479 -0.023762165959122124 0 0.0074875568290686022 -0.019527974870073208 0 0.0071865077107353247 -0.020746545080186359 0 0.0051582893873754043 -0.019584335513005969 0 0.0054353856088863841 -0.017795989987900884 0 0.0074875568290686022 -0.019527974870073208 0 0.0051582893873754043 -0.019584335513005969 0 0.018727568893247115 -0.024319195871100922 0 0.016561656564283479 -0.023762165959122124 0 0.016873957433882571 -0.022510274167065431 0 0.011771886100289996 -0.020912848414398125 0 0.016572127060938614 -0.020405089526770739 0 0.034765877980905559 -0.024230068612048516 0 0.035387555149216314 -0.024947685361879642 0 0.035703241526491611 -0.023474419645090918 0 0.021937377002183258 -0.023809490001950425 0 0.031454626422819119 -0.023587805640826017 0 0.021937377002183258 -0.023809490001950425 0 0.016572127060938614 -0.020405089526770739 0 0.023277008289242188 -0.021590130598370186 0 0.023139643118823727 -0.022100602748431449 0 0.023798182802487949 -0.022138282122273905 0 0.023139643118823727 -0.022100602748431449 0 0.023798182802487949 -0.022138282122273905 0 0.02373433641490167 -0.022628151763317977 0 0.031454626422819119 -0.023587805640826017 0 0.02482804768550918 -0.020406925638168288 0 0.016572127060938614 -0.020405089526770739 0 0.013146759590080305 -0.018198699545170626 0 0.018377616711048182 -0.017766139952984469 0 0.020016684930720084 -0.019277992763146637 0 0.018013620114287837 -0.019160138250771706 0 0.016572127060938614 -0.020405089526770739 0 0.02482804768550918 -0.020406925638168288 0 0.02236887797174978 -0.016559640366070751 0 0.013146759590080305 -0.018198699545170626 0 0.020016684930720084 -0.019277992763146637 0 0.019897173484065014 -0.020221521957837968 0 0.018013620114287837 -0.019160138250771706 0 0.02482804768550918 -0.020406925638168288 0 0.02236887797174978 -0.016559640366070751 0 0.013146759590080305 -0.018198699545170626 0 0.003790630610345274 -0.018805637498685038 0 0.0044330903526170889 -0.019534432658507933 0 0.0052231951036805337 -0.019314964430435847 0 0.0048930526076421989 -0.020489450362988906 0 0.0044330903526170889 -0.019534432658507933 0 0.0052231951036805337 -0.019314964430435847 0 0.0042278584830351866 -0.018806277418538121 0 0.0044330903526170889 -0.019534432658507933 0 0.003439097028814563 -0.019152699689645485 0 0.0037438694783026812 -0.019936902301918021 0 0.0044330903526170889 -0.019534432658507933 0 0.003439097028814563 -0.019152699689645485 0 0.0042278584830351866 -0.018806277418538121 0 0.003439097028814563 -0.019152699689645485 0 0.0042278584830351866 -0.018806277418538121 0 0.003386430991657799 -0.018358930572154288 0 0.003790630610345274 -0.018805637498685038 0 0.0038247831841788059 -0.018629724622675481 0 0.0042260564259843855 -0.017795092625421026 0 0.0054353856088863841 -0.017795989987900884 0 0.0051582893873754043 -0.019584335513005969 0 0.0042260564259843855 -0.017795092625421026 0 0.0051582893873754043 -0.019584335513005969 0 0.003386430991657799 -0.018358930572154288 0 0.003386430991657799 -0.018358930572154288 0 0.0025010810074873827 -0.019040735496621455 0 0.0024077137522212503 -0.018155582752141224 0 0.003439097028814563 -0.019152699689645485 0 0.003386430991657799 -0.018358930572154288 0 0.0025010810074873827 -0.019040735496621455 0 0.003439097028814563 -0.019152699689645485 0 0.0025603735651285381 -0.02006022926175894 0 0.0037438694783026812 -0.019936902301918021 0 0.003439097028814563 -0.019152699689645485 0 0.0025010810074873827 -0.019040735496621455 0 0.0025603735651285381 -0.02006022926175894 0 0.0025010810074873827 -0.019040735496621455 0 0.0017104222704243254 -0.019547889330522348 0 0.0025603735651285381 -0.02006022926175894 0 0.0025010810074873827 -0.019040735496621455 0 0.0017104222704243254 -0.019547889330522348 0 0.0014513329070816527 -0.018853033972698812 0 0.00081842052541553848 -0.019496005986145828 0 -3.0247515126702209e-05 -0.019854534110914444 0 0.0012546717981280378 -0.020244745176524522 0 0.0017104222704243254 -0.019547889330522348 0 0.00081842052541553848 -0.019496005986145828 0 0.0012546717981280378 -0.020244745176524522 0 0.00081842052541553848 -0.019496005986145828 0 0.00037434663882581051 -0.01869056064935638 0 -3.0247515126702209e-05 -0.019854534110914444 0 0.00081842052541553848 -0.019496005986145828 0 0.00037434663882581051 -0.01869056064935638 0 0.0014513329070816527 -0.018853033972698812 0 0.0017104222704243254 -0.019547889330522348 0 0.00081842052541553848 -0.019496005986145828 0 0.0014513329070816527 -0.018853033972698812 0 0.00037434663882581051 -0.01869056064935638 0 0.0014513329070816527 -0.018853033972698812 0 0.0011780304957396421 -0.017818304521725285 0 0.0024077137522212503 -0.018155582752141224 0 0.0014513329070816527 -0.018853033972698812 0 0.0011780304957396421 -0.017818304521725285 0 0.0025010810074873827 -0.019040735496621455 0 0.0024077137522212503 -0.018155582752141224 0 0.0014513329070816527 -0.018853033972698812 0 -0.0069150425856056531 -0.014228773811822252 0 -0.0062297909847914756 -0.014501636657040084 0 -0.0066764462364038392 -0.013808489584150178 0 0.00037434663882581051 -0.01869056064935638 0 -3.0247515126702209e-05 -0.019854534110914444 0 -0.00085718805998337953 -0.018320309238399762 0 -0.0029052331172204912 -0.017558742927143461 0 -0.003801556553428917 -0.015989486374835112 0 0.00037434663882581051 -0.01869056064935638 0 -0.00085718805998337953 -0.018320309238399762 0 0.00027222527800579928 -0.017275890318776584 0 -0.0074013654412744484 -0.013667211347525111 0 -0.0069150425856056531 -0.014228773811822252 0 -0.0066764462364038392 -0.013808489584150178 0 -0.0074013654412744484 -0.013667211347525111 0 -0.0066764462364038392 -0.013808489584150178 0 -0.0070592975962004813 -0.01331159681073792 0 -0.00085718805998337953 -0.018320309238399762 0 -0.0005832113670084213 -0.016550933151206447 0 -0.0016678637443514543 -0.016706312835587274 0 -0.003801556553428917 -0.015989486374835112 0 -0.0044054015484971693 -0.014984966204763483 0 -0.00085718805998337953 -0.018320309238399762 0 -0.0005832113670084213 -0.016550933151206447 0 0.00027222527800579928 -0.017275890318776584 0 -0.0005832113670084213 -0.016550933151206447 0 0.00027222527800579928 -0.017275890318776584 0 0.00084562263998039537 -0.016372784407120027 0 -0.0005832113670084213 -0.016550933151206447 0 0.00084562263998039537 -0.016372784407120027 0 -0.00029307698036647374 -0.015604355367221391 0 -0.0005832113670084213 -0.016550933151206447 0 -0.0016678637443514543 -0.016706312835587274 0 -0.0013044741568581228 -0.015337509939371743 0 0.0019812348700856499 -0.016984246157978118 0 0.0011780304957396421 -0.017818304521725285 0 0.00084562263998039537 -0.016372784407120027 0 0.0024077137522212503 -0.018155582752141224 0 0.0019812348700856499 -0.016984246157978118 0 0.0011780304957396421 -0.017818304521725285 0 0.0029352353650168952 -0.017003496137754381 0 0.0024077137522212503 -0.018155582752141224 0 0.0019812348700856499 -0.016984246157978118 0 0.0011780304957396421 -0.017818304521725285 0 0.00027222527800579928 -0.017275890318776584 0 0.00084562263998039537 -0.016372784407120027 0 0.00037434663882581051 -0.01869056064935638 0 0.0011780304957396421 -0.017818304521725285 0 0.00027222527800579928 -0.017275890318776584 0 0.0029352353650168952 -0.017003496137754381 0 0.0019812348700856499 -0.016984246157978118 0 0.0024028905228327545 -0.015628267020640661 0 0.0019812348700856499 -0.016984246157978118 0 0.00084562263998039537 -0.016372784407120027 0 0.0024028905228327545 -0.015628267020640661 0 0.008538646728459269 -0.024680431028489321 0 0.0079940442750572709 -0.02430329717758541 0 0.0084464610807294116 -0.024293279364193468 0 0.0048343576536876275 -0.019721430875904326 0 0.0047593656179467743 -0.019574166325193872 0 0.00084562263998039537 -0.016372784407120027 0 0.0024028905228327545 -0.015628267020640661 0 0.0011599363247376824 -0.014480509850171415 0 0.00084562263998039537 -0.016372784407120027 0 0.0011599363247376824 -0.014480509850171415 0 -0.00029307698036647374 -0.015604355367221391 0 0.0079940442750572709 -0.02430329717758541 0 0.0073444857727742461 -0.023818883219378348 0 0.0081309561385304718 -0.023838212671350296 0 0.0047593656179467743 -0.019574166325193872 0 0.0032097310902167802 -0.017888649882995503 0 0.0079940442750572709 -0.02430329717758541 0 0.0084464610807294116 -0.024293279364193468 0 0.0081309561385304718 -0.023838212671350296 0 0.0084464610807294116 -0.024293279364193468 0 0.0081309561385304718 -0.023838212671350296 0 0.0086840535130455927 -0.023982623368593168 0 -0.0030520426465390276 -0.014159331620729097 0 -0.0036602144160119655 -0.015164343078396519 0 -0.0019700911620056756 -0.015464398021021583 0 -0.0045281273373566694 -0.014197426395079702 0 -0.0013446631881613646 -0.015450620849595465 0 -0.0024126857918335791 -0.015088600863836746 0 -0.0016678637443514543 -0.016706312835587274 0 -0.0013044741568581228 -0.015337509939371743 0 -0.0019700911620056756 -0.015464398021021583 0 -0.00029307698036647374 -0.015604355367221391 0 -0.0010716510463979632 -0.014360102755761588 0 -0.0005832113670084213 -0.016550933151206447 0 -0.0013044741568581228 -0.015337509939371743 0 -0.00029307698036647374 -0.015604355367221391 0 -0.0013446631881613646 -0.015450620849595465 0 -0.00057162540387405538 -0.015573747798950639 0 0.0011599363247376824 -0.014480509850171415 0 -0.0010716510463979632 -0.014360102755761588 0 -0.00036889472131122281 -0.013049441938500673 0 -0.0010716510463979632 -0.014360102755761588 0 -0.0022918321385191217 -0.013400263310462011 0 -0.00036889472131122281 -0.013049441938500673 0 0.0011599363247376824 -0.014480509850171415 0 -0.00029307698036647374 -0.015604355367221391 0 -0.0010716510463979632 -0.014360102755761588 0 -0.0030520426465390276 -0.014159331620729097 0 -0.0010716510463979632 -0.014360102755761588 0 -0.0022918321385191217 -0.013400263310462011 0 -0.0030520426465390276 -0.014159331620729097 0 -0.0019700911620056756 -0.015464398021021583 0 -0.0010716510463979632 -0.014360102755761588 0 -0.0021986135550368445 -0.012513107939911438 0 -0.00036889472131122281 -0.013049441938500673 0 -0.00207648588128079 -0.011667140844051611 0 -0.0022918321385191217 -0.013400263310462011 0 -0.0021986135550368445 -0.012513107939911438 0 -0.00036889472131122281 -0.013049441938500673 0 -0.0032060295526609942 -0.012770176301852109 0 -0.0030520426465390276 -0.014159331620729097 0 -0.0022918321385191217 -0.013400263310462011 0 -0.0032060295526609942 -0.012770176301852109 0 -0.0021986135550368445 -0.012513107939911438 0 -0.0024421385871663671 -0.01170486219738889 0 -0.0032060295526609942 -0.012770176301852109 0 -0.0022918321385191217 -0.013400263310462011 0 -0.0021986135550368445 -0.012513107939911438 0 0.0032097310902167802 -0.017888649882995503 0 0.0025868551013390534 -0.020823526285562791 0 0.006184374672125569 -0.037382644645668858 0 0.010895707185036661 -0.037309124030304945 0 0.0076934296127436361 -0.035622839220286528 0 0.0073444857727742461 -0.023818883219378348 0 0.0066144066332181782 -0.02319557191901922 0 0.0076484393205989171 -0.023232456496899447 0 0.01301293730905189 -0.044972857385135942 0 0.010943024617520803 -0.045228076288537693 0 0.0025868551013390534 -0.020823526285562791 0 0.0095500876656829034 -0.030971839792032014 0 0.0115593473421988 -0.036034752329773191 0 0.010895707185036661 -0.037309124030304945 0 0.0076934296127436361 -0.035622839220286528 0 0.0038990756901238631 -0.035251631561566896 0 0.006184374672125569 -0.037382644645668858 0 0.0076934296127436361 -0.035622839220286528 0 -0.0021986135550368445 -0.012513107939911438 0 -0.00207648588128079 -0.011667140844051611 0 -0.0024421385871663671 -0.01170486219738889 0 0.0025868551013390534 -0.020823526285562791 0 0.00063733077921469242 -0.019670032525313731 0 -0.0032497216391637763 -0.010819414959799064 0 -0.002102697773461205 -0.011699635498172775 0 -0.0024421385871663671 -0.01170486219738889 0 0.0042929301562477599 -0.038250365156565005 0 0.0025868551013390534 -0.020823526285562791 0 0.0081309561385304718 -0.023838212671350296 0 0.0085374258280091382 -0.023304594957460113 0 0.0086840535130455927 -0.023982623368593168 0 0.0073444857727742461 -0.023818883219378348 0 0.0081309561385304718 -0.023838212671350296 0 0.0076484393205989171 -0.023232456496899447 0 0.0115593473421988 -0.036034752329773191 0 0.010895707185036661 -0.037309124030304945 0 0.015716980075872005 -0.03722122976235593 0 0.0081309561385304718 -0.023838212671350296 0 0.0076484393205989171 -0.023232456496899447 0 0.0085374258280091382 -0.023304594957460113 0 0.0115593473421988 -0.036034752329773191 0 0.015716980075872005 -0.03722122976235593 0 0.015500487251087774 -0.036468044720831948 0 0.0095500876656829034 -0.030971839792032014 0 0.01448508319014611 -0.033019489163469244 0 0.01301293730905189 -0.044972857385135942 0 0.015723708532781995 -0.047588338040186862 0 0.01448508319014611 -0.033019489163469244 0 0.015723708532781995 -0.047588338040186862 0 0.01448508319014611 -0.033019489163469244 0 0.02024875601942621 -0.046507865903570221 0 0.021957951350176915 -0.032787908863642606 0 0.019755636050759695 -0.032702421245918621 0 0.020811234871437278 -0.031851679493660988 0 0.013860026259421794 -0.043738164785568398 0 0.013590981204758391 -0.042802322141063449 0 0.020726250255050059 -0.0435880131596664 0 0.015723708532781995 -0.047588338040186862 0 0.02024875601942621 -0.046507865903570221 0 0.019755636050759695 -0.032702421245918621 0 0.01991405841926408 -0.032089625572741885 0 0.020811234871437278 -0.031851679493660988 0 0.019755636050759695 -0.032702421245918621 0 0.01991405841926408 -0.032089625572741885 0 0.019630610904940428 -0.03238431838432649 0 0.01991405841926408 -0.032089625572741885 0 0.020232631541860294 -0.030546442349964419 0 0.01847891069768131 -0.030913499175352962 0 0.019805413381591013 -0.032070794409598403 0 0.019126139304073989 -0.03161150576468541 0 0.01991405841926408 -0.032089625572741885 0 0.020811234871437278 -0.031851679493660988 0 0.020232631541860294 -0.030546442349964419 0 0.01448508319014611 -0.033019489163469244 0 0.014974324357503538 -0.026194011871718999 0 0.021957951350176915 -0.032787908863642606 0 0.020811234871437278 -0.031851679493660988 0 0.021622640200712924 -0.030749657461530897 0 0.020811234871437278 -0.031851679493660988 0 0.021622640200712924 -0.030749657461530897 0 0.020232631541860294 -0.030546442349964419 0 0.021622640200712924 -0.030749657461530897 0 0.020232631541860294 -0.030546442349964419 0 0.021060944557642586 -0.028373877572440569 0 0.0084464610807294116 -0.024293279364193468 0 0.0086840535130455927 -0.023982623368593168 0 0.0088078272000981575 -0.02455664736121824 0 0.014974324357503538 -0.026194011871718999 0 0.015555248102234593 -0.027473425709119152 0 0.020232631541860294 -0.030546442349964419 0 0.019214137819933488 -0.02921939437945589 0 0.021060944557642586 -0.028373877572440569 0 0.020232631541860294 -0.030546442349964419 0 0.019214137819933488 -0.02921939437945589 0 0.01847891069768131 -0.030913499175352962 0 0.020403377610451759 -0.026039544760066573 0 0.019227912599439994 -0.027680121102240052 0 0.021060944557642586 -0.028373877572440569 0 0.019214137819933488 -0.02921939437945589 0 0.019227912599439994 -0.027680121102240052 0 0.021060944557642586 -0.028373877572440569 0 0.008949650744324314 -0.02497184922306829 0 0.008538646728459269 -0.024680431028489321 0 0.0088078272000981575 -0.02455664736121824 0 0.008538646728459269 -0.024680431028489321 0 0.0084464610807294116 -0.024293279364193468 0 0.0088078272000981575 -0.02455664736121824 0 0.016521193102369162 -0.026353140420350574 0 0.017588548496609627 -0.027593644574122059 0 0.015972372165965046 -0.028565213438066544 0 0.026101931803388011 -0.023859151748082563 0 0.028790197292338369 -0.029124925107651717 0 0.017394085729957268 -0.028700520802924286 0 0.017588548496609627 -0.027593644574122059 0 0.015972372165965046 -0.028565213438066544 0 0.019227912599439994 -0.027680121102240052 0 0.017588548496609627 -0.027593644574122059 0 0.018259425543758836 -0.028495889172875283 0 0.019214137819933488 -0.02921939437945589 0 0.019227912599439994 -0.027680121102240052 0 0.018259425543758836 -0.028495889172875283 0 0.017394085729957268 -0.028700520802924286 0 0.018259425543758836 -0.028495889172875283 0 0.017911046288946558 -0.029303499422770676 0 0.017394085729957268 -0.028700520802924286 0 0.017588548496609627 -0.027593644574122059 0 0.018259425543758836 -0.028495889172875283 0 0.019214137819933488 -0.02921939437945589 0 0.017911046288946558 -0.029303499422770676 0 0.01847891069768131 -0.030913499175352962 0 0.017394085729957268 -0.028700520802924286 0 0.017911046288946558 -0.029303499422770676 0 0.017251786166354959 -0.029674804604455918 0 0.018026231766185691 -0.030029483150298051 0 0.01882621877588312 -0.030328110131681549 0 0.019214137819933488 -0.02921939437945589 0 0.018259425543758836 -0.028495889172875283 0 0.017911046288946558 -0.029303499422770676 0 0.017911046288946558 -0.029303499422770676 0 0.017132548045555775 -0.029769092034389759 0 0.01847891069768131 -0.030913499175352962 0 0.01882621877588312 -0.030328110131681549 0 0.019126139304073989 -0.03161150576468541 0 0.017394085729957268 -0.028700520802924286 0 0.017251786166354959 -0.029674804604455918 0 0.015972372165965046 -0.028565213438066544 0 0.01882621877588312 -0.030328110131681549 0 0.027611035768365103 -0.033857979911703945 0 0.024520050245298852 -0.031201195411432375 0 0.025218392352201704 -0.031735186394762707 0 0.02550734591104872 -0.030661248397300771 0 0.01882621877588312 -0.030328110131681549 0 0.028790197292338369 -0.029124925107651717 0 0.019584868916122107 -0.032301431032367385 0 0.019562008521122946 -0.032406388457474601 0 0.019527871175871767 -0.032431376099411005 0 0.019584868916122107 -0.032301431032367385 0 0.019562008521122946 -0.032406388457474601 0 0.019647124872985502 -0.032295740956898224 0 0.019562008521122946 -0.032406388457474601 0 0.019630610904940428 -0.03238431838432649 0 0.019548836248042677 -0.032502880032486997 0 0.019562008521122946 -0.032406388457474601 0 0.019647124872985502 -0.032295740956898224 0 0.019630610904940428 -0.03238431838432649 0 0.01991405841926408 -0.032089625572741885 0 0.019647124872985502 -0.032295740956898224 0 0.019630610904940428 -0.03238431838432649 0 0.01929725936684315 -0.054679942328698335 0 0.020963962453436374 -0.054569740024341798 0 0.020077126675342179 -0.053952499160023377 0 0.019444426058512491 -0.054378630159769063 0 0.020963962453436374 -0.054569740024341798 0 0.021384738740791741 -0.054848665284812317 0 0.02024875601942621 -0.046507865903570221 0 0.020060595698036164 -0.043173007419799507 0 0.02024875601942621 -0.046507865903570221 0 0.020389406283734157 -0.054916516312710155 0 0.019755636050759695 -0.032702421245918621 0 0.019630610904940428 -0.03238431838432649 0 0.019548836248042677 -0.032502880032486997 0 0.019562008521122946 -0.032406388457474601 0 0.019548836248042677 -0.032502880032486997 0 0.01951814541513975 -0.032568685487814393 0 0.020060595698036164 -0.043173007419799507 0 0.022716642347068994 -0.046046431929191091 0 0.021384738740791741 -0.054848665284812317 0 0.022661024177447392 -0.05393482225654872 0 0.023557010893570058 -0.055059259029631588 0 0.020963962453436374 -0.054569740024341798 0 0.021384738740791741 -0.054848665284812317 0 0.021666028647557543 -0.053909838622221602 0 0.021384738740791741 -0.054848665284812317 0 0.021666028647557543 -0.053909838622221602 0 0.022661024177447392 -0.05393482225654872 0 0.021666028647557543 -0.053909838622221602 0 0.021879040067697773 -0.052670991095814551 0 0.022661024177447392 -0.05393482225654872 0 0.020963962453436374 -0.054569740024341798 0 0.021666028647557543 -0.053909838622221602 0 0.020912233892350515 -0.053433867876935603 0 0.021666028647557543 -0.053909838622221602 0 0.021879040067697773 -0.052670991095814551 0 0.020912233892350515 -0.053433867876935603 0 0.021879040067697773 -0.052670991095814551 0 0.020808101480406311 -0.052254014181879201 0 0.020912233892350515 -0.053433867876935603 0 0.021904742726796378 -0.051651531483083331 0 0.020808101480406311 -0.052254014181879201 0 0.021196546190924724 -0.050778184033423414 0 0.021879040067697773 -0.052670991095814551 0 0.021904742726796378 -0.051651531483083331 0 0.020808101480406311 -0.052254014181879201 0 0.021879040067697773 -0.052670991095814551 0 0.021904742726796378 -0.051651531483083331 0 0.023001497603384598 -0.051843836162366548 0 0.02001962841766464 -0.051475608291522069 0 0.020808101480406311 -0.052254014181879201 0 0.021196546190924724 -0.050778184033423414 0 0.02001962841766464 -0.051475608291522069 0 0.020808101480406311 -0.052254014181879201 0 0.01933270914175703 -0.052441562052525731 0 0.020808101480406311 -0.052254014181879201 0 0.020065148841618582 -0.053216462615907068 0 0.01933270914175703 -0.052441562052525731 0 0.020808101480406311 -0.052254014181879201 0 0.020065148841618582 -0.053216462615907068 0 0.020912233892350515 -0.053433867876935603 0 0.020963962453436374 -0.054569740024341798 0 0.020912233892350515 -0.053433867876935603 0 0.020077126675342179 -0.053952499160023377 0 0.020065148841618582 -0.053216462615907068 0 0.020912233892350515 -0.053433867876935603 0 0.020077126675342179 -0.053952499160023377 0 0.020065148841618582 -0.053216462615907068 0 0.020077126675342179 -0.053952499160023377 0 0.019365046919484971 -0.053467442125762377 0 0.01929725936684315 -0.054679942328698335 0 0.020077126675342179 -0.053952499160023377 0 0.019365046919484971 -0.053467442125762377 0 0.01929725936684315 -0.054679942328698335 0 0.019365046919484971 -0.053467442125762377 0 0.018049973344647679 -0.053061602935263928 0 0.019365046919484971 -0.053467442125762377 0 0.018049973344647679 -0.053061602935263928 0 0.01933270914175703 -0.052441562052525731 0 0.020065148841618582 -0.053216462615907068 0 0.019365046919484971 -0.053467442125762377 0 0.01933270914175703 -0.052441562052525731 0 0.016616485110943355 -0.05442738920414833 0 0.01929725936684315 -0.054679942328698335 0 0.018049973344647679 -0.053061602935263928 0 0.018049973344647679 -0.053061602935263928 0 0.017802309017285606 -0.051251288202120833 0 0.015944701119682211 -0.052311057878417805 0 0.01933270914175703 -0.052441562052525731 0 0.019151145336195829 -0.050850539595964639 0 0.017802309017285606 -0.051251288202120833 0 0.02001962841766464 -0.051475608291522069 0 0.01933270914175703 -0.052441562052525731 0 0.019151145336195829 -0.050850539595964639 0 0.018049973344647679 -0.053061602935263928 0 0.01933270914175703 -0.052441562052525731 0 0.017802309017285606 -0.051251288202120833 0 0.019151145336195829 -0.050850539595964639 0 0.017802309017285606 -0.051251288202120833 0 0.018434743043605734 -0.049524785567200108 0 0.017802309017285606 -0.051251288202120833 0 0.017120937027674896 -0.049924214726038724 0 0.018434743043605734 -0.049524785567200108 0 0.017802309017285606 -0.051251288202120833 0 0.017120937027674896 -0.049924214726038724 0 0.016165546383217475 -0.050760250217948971 0 0.017120937027674896 -0.049924214726038724 0 0.018434743043605734 -0.049524785567200108 0 0.016858426333884825 -0.048708931664679697 0 0.019151145336195829 -0.050850539595964639 0 0.018434743043605734 -0.049524785567200108 0 0.020211684677219271 -0.049938033670177656 0 0.018434743043605734 -0.049524785567200108 0 0.020211684677219271 -0.049938033670177656 0 0.019634357246585243 -0.048596577775927068 0 0.020211684677219271 -0.049938033670177656 0 0.0213739976133498 -0.048823755996949596 0 0.019634357246585243 -0.048596577775927068 0 0.020211684677219271 -0.049938033670177656 0 0.021625210359758881 -0.049930413876523125 0 0.0213739976133498 -0.048823755996949596 0 0.021625210359758881 -0.049930413876523125 0 0.022654417836191466 -0.05070915625603975 0 0.022768039460329268 -0.049376765177885029 0 0.021625210359758881 -0.049930413876523125 0 0.0213739976133498 -0.048823755996949596 0 0.022768039460329268 -0.049376765177885029 0 0.021625210359758881 -0.049930413876523125 0 0.021196546190924724 -0.050778184033423414 0 0.022654417836191466 -0.05070915625603975 0 0.021904742726796378 -0.051651531483083331 0 0.021196546190924724 -0.050778184033423414 0 0.022654417836191466 -0.05070915625603975 0 0.021904742726796378 -0.051651531483083331 0 0.023001497603384598 -0.051843836162366548 0 0.022654417836191466 -0.05070915625603975 0 0.02001962841766464 -0.051475608291522069 0 0.019151145336195829 -0.050850539595964639 0 0.020211684677219271 -0.049938033670177656 0 0.02001962841766464 -0.051475608291522069 0 0.020211684677219271 -0.049938033670177656 0 0.021196546190924724 -0.050778184033423414 0 0.020211684677219271 -0.049938033670177656 0 0.021625210359758881 -0.049930413876523125 0 0.021196546190924724 -0.050778184033423414 0 0.011500503915594474 -0.052008937470647103 0 0.013696973703763021 -0.052332225293599106 0 0.012669334134474419 -0.050637049457393453 0 0.0042929301562477599 -0.038250365156565005 0 0.010943024617520803 -0.045228076288537693 0 0.010855741107371666 -0.0538394573424026 0 0.011500503915594474 -0.052008937470647103 0 0.012819711836868915 -0.054045355107016711 0 0.014711824190871898 -0.054206479336475072 0 0.012819711836868915 -0.054045355107016711 0 0.013696973703763021 -0.052332225293599106 0 0.011500503915594474 -0.052008937470647103 0 0.012819711836868915 -0.054045355107016711 0 0.013696973703763021 -0.052332225293599106 0 0.013696973703763021 -0.052332225293599106 0 0.015944701119682211 -0.052311057878417805 0 0.014530391250774643 -0.050848274710188622 0 0.014711824190871898 -0.054206479336475072 0 0.013696973703763021 -0.052332225293599106 0 0.015944701119682211 -0.052311057878417805 0 0.016616485110943355 -0.05442738920414833 0 0.018049973344647679 -0.053061602935263928 0 0.015944701119682211 -0.052311057878417805 0 0.015723708532781995 -0.047588338040186862 0 0.016521643725625625 -0.055202773171557085 0 0.014711824190871898 -0.054206479336475072 0 0.016459382296704052 -0.054331658165676013 0 0.015944701119682211 -0.052311057878417805 0 0.017802309017285606 -0.051251288202120833 0 0.015944701119682211 -0.052311057878417805 0 0.016165546383217475 -0.050760250217948971 0 0.015944701119682211 -0.052311057878417805 0 0.016165546383217475 -0.050760250217948971 0 0.014530391250774643 -0.050848274710188622 0 0.017120937027674896 -0.049924214726038724 0 0.015402179114218118 -0.049507586143457197 0 0.016858426333884825 -0.048708931664679697 0 0.017120937027674896 -0.049924214726038724 0 0.016165546383217475 -0.050760250217948971 0 0.015402179114218118 -0.049507586143457197 0 0.015402179114218118 -0.049507586143457197 0 0.014530391250774643 -0.050848274710188622 0 0.013572510178941604 -0.049613929239905118 0 0.015402179114218118 -0.049507586143457197 0 0.013572510178941604 -0.049613929239905118 0 0.01398592267536365 -0.048438238691186374 0 0.016165546383217475 -0.050760250217948971 0 0.015402179114218118 -0.049507586143457197 0 0.014530391250774643 -0.050848274710188622 0 0.013696973703763021 -0.052332225293599106 0 0.014530391250774643 -0.050848274710188622 0 0.012669334134474419 -0.050637049457393453 0 0.014530391250774643 -0.050848274710188622 0 0.012669334134474419 -0.050637049457393453 0 0.013572510178941604 -0.049613929239905118 0 0.012669334134474419 -0.050637049457393453 0 0.013572510178941604 -0.049613929239905118 0 0.012043226054604924 -0.048968921826487044 0 0.013572510178941604 -0.049613929239905118 0 0.012043226054604924 -0.048968921826487044 0 0.01398592267536365 -0.048438238691186374 0 0.010480182901933354 -0.04969637601444965 0 0.012043226054604924 -0.048968921826487044 0 0.011292564292514353 -0.050690980137669095 0 0.011500503915594474 -0.052008937470647103 0 0.012669334134474419 -0.050637049457393453 0 0.011292564292514353 -0.050690980137669095 0 0.012669334134474419 -0.050637049457393453 0 0.012043226054604924 -0.048968921826487044 0 0.011292564292514353 -0.050690980137669095 0 0.010985911252276825 -0.047457480666429727 0 0.012286435734918586 -0.046419311399543937 0 0.010985911252276825 -0.047457480666429727 0 0.012993456288583234 -0.047409688172176521 0 0.010810292754743381 -0.046796112790254592 0 0.011295422551335262 -0.047827696521035981 0 0.012797637502810155 -0.046820405712886426 0 0.011588201344990307 -0.04808306300658495 0 0.013136682836058955 -0.047987881489813762 0 0.01260145304958298 -0.046509372408290249 0 0.012043226054604924 -0.048968921826487044 0 0.011295422551335262 -0.047827696521035981 0 0.012797637502810155 -0.046820405712886426 0 0.010682612618123003 -0.048641264300673462 0 0.012043226054604924 -0.048968921826487044 0 0.011295422551335262 -0.047827696521035981 0 0.012043226054604924 -0.048968921826487044 0 0.01398592267536365 -0.048438238691186374 0 0.012797637502810155 -0.046820405712886426 0 0.01398592267536365 -0.048438238691186374 0 0.012797637502810155 -0.046820405712886426 0 0.014776270025972614 -0.046988769969706315 0 0.012993456288583234 -0.047409688172176521 0 0.014768584074121592 -0.047426212800320056 0 0.013136682836058955 -0.047987881489813762 0 0.014792600820672741 -0.04785799266450938 0 0.014182887088018332 -0.046402635497605836 0 0.014776270025972614 -0.046988769969706315 0 0.015474602325453002 -0.048271693577607709 0 0.016567983256227693 -0.047446732401662729 0 0.01398592267536365 -0.048438238691186374 0 0.014776270025972614 -0.046988769969706315 0 0.015474602325453002 -0.048271693577607709 0 0.015402179114218118 -0.049507586143457197 0 0.01398592267536365 -0.048438238691186374 0 0.015474602325453002 -0.048271693577607709 0 0.015402179114218118 -0.049507586143457197 0 0.015474602325453002 -0.048271693577607709 0 0.016858426333884825 -0.048708931664679697 0 0.015474602325453002 -0.048271693577607709 0 0.016858426333884825 -0.048708931664679697 0 0.016567983256227693 -0.047446732401662729 0 0.014768584074121592 -0.047426212800320056 0 0.016355077633531234 -0.047424246818895996 0 0.014792600820672741 -0.04785799266450938 0 0.016567983256227693 -0.047446732401662729 0 0.016082819601534817 -0.046380749641990585 0 0.016567983256227693 -0.047446732401662729 0 0.016082819601534817 -0.046380749641990585 0 0.01782774818445346 -0.046680626258586932 0 0.016082819601534817 -0.046380749641990585 0 0.015594122853444753 -0.04499974238813334 0 0.017819683076268251 -0.044999740726609533 0 0.016082819601534817 -0.046380749641990585 0 0.015594122853444753 -0.04499974238813334 0 0.014182887088018332 -0.046402635497605836 0 0.015594122853444753 -0.04499974238813334 0 0.014182887088018332 -0.046402635497605836 0 0.01336950946735864 -0.04499980190082762 0 0.014792600820672741 -0.04785799266450938 0 0.016082819601534817 -0.046380749641990585 0 0.014182887088018332 -0.046402635497605836 0 0.013136682836058955 -0.047987881489813762 0 0.014182887088018332 -0.046402635497605836 0 0.01260145304958298 -0.046509372408290249 0 0.013368436885999311 -0.045000082280137632 0 0.012286435734918586 -0.046419311399543937 0 0.014182887088018332 -0.046402635497605836 0 0.01336950946735864 -0.04499980190082762 0 0.01260145304958298 -0.046509372408290249 0 0.010813851413978092 -0.045717556110895265 0 0.011387325339541825 -0.044998822590978538 0 0.011901818557349711 -0.046265575464284607 0 0.013367852864379859 -0.045000396559155956 0 0.011387325339541825 -0.044998822590978538 0 0.011901818557349711 -0.046265575464284607 0 0.020382041247131489 -0.047928745392095712 0 0.019634357246585243 -0.048596577775927068 0 0.019341395683582726 -0.04741338062195917 0 0.020382041247131489 -0.047928745392095712 0 0.02044739714912976 -0.047250838722107023 0 0.021270897444745241 -0.048000418780579542 0 0.020382041247131489 -0.047928745392095712 0 0.02044739714912976 -0.047250838722107023 0 0.019341395683582726 -0.04741338062195917 0 0.021737470881839211 -0.048166436059413217 0 0.021800769617975085 -0.046881089467347654 0 0.02044739714912976 -0.047250838722107023 0 0.021270897444745241 -0.048000418780579542 0 0.021621877119366126 -0.046614652564843644 0 0.021719262224174092 -0.049051283683225762 0 0.02200322078423389 -0.047046211217513283 0 0.023629492199374373 -0.047724391149138221 0 0.021737470881839211 -0.048166436059413217 0 0.021428650925659206 -0.048582086642485284 0 0.020382041247131489 -0.047928745392095712 0 0.021270897444745241 -0.048000418780579542 0 0.0213739976133498 -0.048823755996949596 0 0.021749187730412588 -0.047384686732634275 0 0.0213739976133498 -0.048823755996949596 0 0.022893552197992013 -0.048028284586292783 0 0.0213739976133498 -0.048823755996949596 0 0.022893552197992013 -0.048028284586292783 0 0.022768039460329268 -0.049376765177885029 0 0.020382041247131489 -0.047928745392095712 0 0.0213739976133498 -0.048823755996949596 0 0.019634357246585243 -0.048596577775927068 0 0.019634357246585243 -0.048596577775927068 0 0.018083880135380925 -0.048083428588662082 0 0.019341395683582726 -0.04741338062195917 0 0.018434743043605734 -0.049524785567200108 0 0.019634357246585243 -0.048596577775927068 0 0.018083880135380925 -0.048083428588662082 0 0.016858426333884825 -0.048708931664679697 0 0.016567983256227693 -0.047446732401662729 0 0.018083880135380925 -0.048083428588662082 0 0.018434743043605734 -0.049524785567200108 0 0.016858426333884825 -0.048708931664679697 0 0.018083880135380925 -0.048083428588662082 0 0.016567983256227693 -0.047446732401662729 0 0.018083880135380925 -0.048083428588662082 0 0.01782774818445346 -0.046680626258586932 0 0.018083880135380925 -0.048083428588662082 0 0.019341395683582726 -0.04741338062195917 0 0.01782774818445346 -0.046680626258586932 0 0.019341395683582726 -0.04741338062195917 0 0.019556966372515795 -0.046343142224950236 0 0.01782774818445346 -0.046680626258586932 0 0.016082819601534817 -0.046380749641990585 0 0.01782774818445346 -0.046680626258586932 0 0.017819683076268251 -0.044999740726609533 0 0.019556966372515795 -0.046343142224950236 0 0.01782774818445346 -0.046680626258586932 0 0.017819683076268251 -0.044999740726609533 0 0.019556966372515795 -0.046343142224950236 0 0.017819683076268251 -0.044999740726609533 0 0.020045191066073553 -0.04499980305036172 0 0.019556966372515795 -0.046343142224950236 0 0.020045191066073553 -0.04499980305036172 0 0.021621877119366126 -0.046614652564843644 0 0.02044739714912976 -0.047250838722107023 0 0.019556966372515795 -0.046343142224950236 0 0.021621877119366126 -0.046614652564843644 0 0.02044739714912976 -0.047250838722107023 0 0.019341395683582726 -0.04741338062195917 0 0.019556966372515795 -0.046343142224950236 0 0.021800769617975085 -0.046881089467347654 0 0.022270591083873716 -0.045000205284974254 0 0.020045191066073553 -0.04499980305036172 0 0.021621877119366126 -0.046614652564843644 0 0.022269867353814577 -0.044999773732140695 0 0.02200322078423389 -0.047046211217513283 0 0.022270783794658657 -0.044999994432510598 0 0.023678880132597616 -0.046234105218957544 0 0.022270783794658657 -0.044999994432510598 0 0.023678880132597616 -0.046234105218957544 0 0.024921384421916902 -0.044999978898620931 0 0.023678880132597616 -0.046234105218957544 0 0.024921384421916902 -0.044999978898620931 0 0.025594124073340968 -0.046377009625847183 0 0.023678880132597616 -0.046234105218957544 0 0.023629492199374373 -0.047724391149138221 0 0.025594124073340968 -0.046377009625847183 0 0.023995693496977593 -0.046169143838982352 0 0.025933573605932785 -0.046856304368710987 0 0.026080830956472952 -0.045267626525200368 0 0.023798614728585705 -0.046971208897912946 0 0.025808131698224771 -0.045849550527723229 0 0.02200322078423389 -0.047046211217513283 0 0.023678880132597616 -0.046234105218957544 0 0.023629492199374373 -0.047724391149138221 0 0.021749187730412588 -0.047384686732634275 0 0.023995693496977593 -0.046169143838982352 0 0.022893552197992013 -0.048028284586292783 0 0.021737470881839211 -0.048166436059413217 0 0.023798614728585705 -0.046971208897912946 0 0.023995693496977593 -0.046169143838982352 0 0.024399360072306784 -0.048517999738127641 0 0.025933573605932785 -0.046856304368710987 0 0.024399360072306784 -0.048517999738127641 0 0.026253406022814809 -0.048507782713940142 0 0.025933573605932785 -0.046856304368710987 0 0.023995693496977593 -0.046169143838982352 0 0.024399360072306784 -0.048517999738127641 0 0.022893552197992013 -0.048028284586292783 0 0.024399360072306784 -0.048517999738127641 0 0.022893552197992013 -0.048028284586292783 0 0.022768039460329268 -0.049376765177885029 0 0.027779644911319592 -0.048465608552556265 0 0.026253406022814809 -0.048507782713940142 0 0.027434095206976455 -0.047085777528655372 0 0.026253406022814809 -0.048507782713940142 0 0.025933573605932785 -0.046856304368710987 0 0.027434095206976455 -0.047085777528655372 0 0.025933573605932785 -0.046856304368710987 0 0.027434095206976455 -0.047085777528655372 0 0.027430794268566826 -0.045740324032815867 0 0.027434095206976455 -0.047085777528655372 0 0.027430794268566826 -0.045740324032815867 0 0.028495516881282983 -0.046289962256158383 0 0.025933573605932785 -0.046856304368710987 0 0.027430794268566826 -0.045740324032815867 0 0.026080830956472952 -0.045267626525200368 0 0.024921384421916902 -0.044999978898620931 0 0.025594124073340968 -0.046377009625847183 0 0.027572138065269151 -0.045000000298300272 0 0.025808131698224771 -0.045849550527723229 0 0.027571704152498936 -0.045000151773454983 0 0.027430794268566826 -0.045740324032815867 0 0.026080830956472952 -0.045267626525200368 0 0.027572426209357494 -0.044998353709591224 0 0.027430794268566826 -0.045740324032815867 0 0.027572426209357494 -0.044998353709591224 0 0.027887757633886897 -0.04525665985527233 0 0.027430794268566826 -0.045740324032815867 0 0.027887757633886897 -0.04525665985527233 0 0.028531120684998357 -0.045535642557040318 0 0.027887757633886897 -0.04525665985527233 0 0.030243750097776016 -0.045000077847650713 0 0.030192906354435455 -0.046037264822446369 0 0.027572426209357494 -0.044998353709591224 0 0.027887757633886897 -0.04525665985527233 0 0.030243750097776016 -0.045000077847650713 0 0.027887757633886897 -0.04525665985527233 0 0.029787460624337663 -0.044697943089780846 0 0.028531120684998357 -0.045535642557040318 0 0.028086001260069288 -0.04523280337225731 0 0.030008743278231619 -0.04538297491333803 0 0.029787460624337663 -0.044697943089780846 0 0.029300996374370409 -0.045677419114190286 0 0.030141288111103358 -0.046239924984459772 0 0.029300996374370409 -0.045677419114190286 0 0.028495516881282983 -0.046289962256158383 0 0.030141288111103358 -0.046239924984459772 0 0.029300996374370409 -0.045677419114190286 0 0.028495516881282983 -0.046289962256158383 0 0.028531120684998357 -0.045535642557040318 0 0.029787460624337663 -0.044697943089780846 0 0.029300996374370409 -0.045677419114190286 0 0.028531120684998357 -0.045535642557040318 0 0.027430794268566826 -0.045740324032815867 0 0.028495516881282983 -0.046289962256158383 0 0.028531120684998357 -0.045535642557040318 0 0.030243750097776016 -0.045000077847650713 0 0.03248807106336931 -0.046469220494644393 0 0.03381726783243675 -0.045000378986621938 0 0.03248807106336931 -0.046469220494644393 0 0.03381726783243675 -0.045000378986621938 0 0.035013577013983242 -0.046643483637360761 0 0.030008743278231619 -0.04538297491333803 0 0.03233959451863324 -0.045534208914037588 0 0.030243750097776016 -0.045000077847650713 0 0.030192906354435455 -0.046037264822446369 0 0.03248807106336931 -0.046469220494644393 0 0.032134355559703509 -0.044624329116916515 0 0.03251466338893462 -0.046504822171064157 0 0.030141288111103358 -0.046239924984459772 0 0.029787460624337663 -0.044697943089780846 0 0.032134355559703509 -0.044624329116916515 0 0.030141288111103358 -0.046239924984459772 0 0.03233959451863324 -0.045534208914037588 0 0.034955880950342806 -0.045612384985214798 0 0.032134355559703509 -0.044624329116916515 0 0.03251466338893462 -0.046504822171064157 0 0.03485652948477367 -0.044569124406059847 0 0.03251466338893462 -0.046504822171064157 0 0.033039632798862899 -0.048092959649553194 0 0.034490306461201346 -0.047436858032580735 0 0.03251466338893462 -0.046504822171064157 0 0.031260917642516699 -0.047849371959486221 0 0.030141288111103358 -0.046239924984459772 0 0.03251466338893462 -0.046504822171064157 0 0.031260917642516699 -0.047849371959486221 0 0.033039632798862899 -0.048092959649553194 0 0.031260917642516699 -0.047849371959486221 0 0.033039632798862899 -0.048092959649553194 0 0.03284546992883941 -0.049689750776803869 0 0.027434095206976455 -0.047085777528655372 0 0.028495516881282983 -0.046289962256158383 0 0.029199195097979712 -0.04785041825092378 0 0.028495516881282983 -0.046289962256158383 0 0.030141288111103358 -0.046239924984459772 0 0.029199195097979712 -0.04785041825092378 0 0.031260917642516699 -0.047849371959486221 0 0.030141288111103358 -0.046239924984459772 0 0.029199195097979712 -0.04785041825092378 0 0.031260917642516699 -0.047849371959486221 0 0.029199195097979712 -0.04785041825092378 0 0.030588359108695749 -0.049727565698059049 0 0.027779644911319592 -0.048465608552556265 0 0.029199195097979712 -0.04785041825092378 0 0.028677923831628198 -0.049604610630170978 0 0.027779644911319592 -0.048465608552556265 0 0.027434095206976455 -0.047085777528655372 0 0.029199195097979712 -0.04785041825092378 0 0.029199195097979712 -0.04785041825092378 0 0.028677923831628198 -0.049604610630170978 0 0.030588359108695749 -0.049727565698059049 0 0.030588359108695749 -0.049727565698059049 0 0.029030228394629053 -0.051098219485696594 0 0.030446665787657957 -0.051796828339701166 0 0.028677923831628198 -0.049604610630170978 0 0.029030228394629053 -0.051098219485696594 0 0.027906173241980622 -0.050808938472976593 0 0.028677923831628198 -0.049604610630170978 0 0.030588359108695749 -0.049727565698059049 0 0.029030228394629053 -0.051098219485696594 0 0.033039632798862899 -0.048092959649553194 0 0.03284546992883941 -0.049689750776803869 0 0.034210504910199301 -0.048898268706247576 0 0.031260917642516699 -0.047849371959486221 0 0.030588359108695749 -0.049727565698059049 0 0.03284546992883941 -0.049689750776803869 0 0.030588359108695749 -0.049727565698059049 0 0.032087367443038542 -0.051823323312564638 0 0.030446665787657957 -0.051796828339701166 0 0.030588359108695749 -0.049727565698059049 0 0.03284546992883941 -0.049689750776803869 0 0.032087367443038542 -0.051823323312564638 0 0.03284546992883941 -0.049689750776803869 0 0.032087367443038542 -0.051823323312564638 0 0.033833391145120566 -0.051471809209129353 0 0.032087367443038542 -0.051823323312564638 0 0.033833391145120566 -0.051471809209129353 0 0.034027941303441105 -0.053236415375323129 0 0.032087367443038542 -0.051823323312564638 0 0.031150880340081778 -0.053245064745014059 0 0.030446665787657957 -0.051796828339701166 0 0.032087367443038542 -0.051823323312564638 0 0.031150880340081778 -0.053245064745014059 0 0.032254766386418131 -0.053139876818057333 0 0.032178907046954572 -0.052647962419739756 0 0.034372932154267892 -0.050400517450392 0 0.032087367443038542 -0.051823323312564638 0 0.03318027362574414 -0.05309510726265719 0 0.033531214163655801 -0.052795934877193654 0 0.032087367443038542 -0.051823323312564638 0 0.032254766386418131 -0.053139876818057333 0 0.03318027362574414 -0.05309510726265719 0 0.029030228394629053 -0.051098219485696594 0 0.027867796696627926 -0.05214991361450759 0 0.027906173241980622 -0.050808938472976593 0 0.029030228394629053 -0.051098219485696594 0 0.029342210908792892 -0.052939484864501681 0 0.027867796696627926 -0.05214991361450759 0 0.029030228394629053 -0.051098219485696594 0 0.030446665787657957 -0.051796828339701166 0 0.029342210908792892 -0.052939484864501681 0 0.031150880340081778 -0.053245064745014059 0 0.030446665787657957 -0.051796828339701166 0 0.029342210908792892 -0.052939484864501681 0 0.031150880340081778 -0.053245064745014059 0 0.029342210908792892 -0.052939484864501681 0 0.030103665032270008 -0.053941728207596615 0 0.029342210908792892 -0.052939484864501681 0 0.027489500857405556 -0.053695224080320597 0 0.028558440251329979 -0.054113308487767124 0 0.029342210908792892 -0.052939484864501681 0 0.027489500857405556 -0.053695224080320597 0 0.027867796696627926 -0.05214991361450759 0 0.027489500857405556 -0.053695224080320597 0 0.027867796696627926 -0.05214991361450759 0 0.026006455584029128 -0.052553776115202011 0 0.026901193752079406 -0.051367694361466772 0 0.027867796696627926 -0.05214991361450759 0 0.027906173241980622 -0.050808938472976593 0 0.026901193752079406 -0.051367694361466772 0 0.027867796696627926 -0.05214991361450759 0 0.026006455584029128 -0.052553776115202011 0 0.026901193752079406 -0.051367694361466772 0 0.026006455584029128 -0.052553776115202011 0 0.025718101391846736 -0.050977211035569729 0 0.027489500857405556 -0.053695224080320597 0 0.026006455584029128 -0.052553776115202011 0 0.025325062496064393 -0.054996942984032328 0 0.026006455584029128 -0.052553776115202011 0 0.024118707205105051 -0.053174514194430478 0 0.025325062496064393 -0.054996942984032328 0 0.021879040067697773 -0.052670991095814551 0 0.024118707205105051 -0.053174514194430478 0 0.022661024177447392 -0.05393482225654872 0 0.021879040067697773 -0.052670991095814551 0 0.024118707205105051 -0.053174514194430478 0 0.023001497603384598 -0.051843836162366548 0 0.024118707205105051 -0.053174514194430478 0 0.023001497603384598 -0.051843836162366548 0 0.024385905831630843 -0.051472945486771039 0 0.026006455584029128 -0.052553776115202011 0 0.024118707205105051 -0.053174514194430478 0 0.024385905831630843 -0.051472945486771039 0 0.026006455584029128 -0.052553776115202011 0 0.024385905831630843 -0.051472945486771039 0 0.025718101391846736 -0.050977211035569729 0 0.024385905831630843 -0.051472945486771039 0 0.023839522523339915 -0.049963938543275709 0 0.025158099916532697 -0.049875358809593373 0 0.024385905831630843 -0.051472945486771039 0 0.025158099916532697 -0.049875358809593373 0 0.025718101391846736 -0.050977211035569729 0 0.024385905831630843 -0.051472945486771039 0 0.022654417836191466 -0.05070915625603975 0 0.023839522523339915 -0.049963938543275709 0 0.023001497603384598 -0.051843836162366548 0 0.024385905831630843 -0.051472945486771039 0 0.022654417836191466 -0.05070915625603975 0 0.024399360072306784 -0.048517999738127641 0 0.023839522523339915 -0.049963938543275709 0 0.022768039460329268 -0.049376765177885029 0 0.022654417836191466 -0.05070915625603975 0 0.023839522523339915 -0.049963938543275709 0 0.022768039460329268 -0.049376765177885029 0 0.024399360072306784 -0.048517999738127641 0 0.023839522523339915 -0.049963938543275709 0 0.025158099916532697 -0.049875358809593373 0 0.024399360072306784 -0.048517999738127641 0 0.026253406022814809 -0.048507782713940142 0 0.025158099916532697 -0.049875358809593373 0 0.026253406022814809 -0.048507782713940142 0 0.025158099916532697 -0.049875358809593373 0 0.027040251258380926 -0.049823002242776082 0 0.027779644911319592 -0.048465608552556265 0 0.028677923831628198 -0.049604610630170978 0 0.027040251258380926 -0.049823002242776082 0 0.027779644911319592 -0.048465608552556265 0 0.026253406022814809 -0.048507782713940142 0 0.027040251258380926 -0.049823002242776082 0 0.028677923831628198 -0.049604610630170978 0 0.027040251258380926 -0.049823002242776082 0 0.027906173241980622 -0.050808938472976593 0 0.026901193752079406 -0.051367694361466772 0 0.027040251258380926 -0.049823002242776082 0 0.027906173241980622 -0.050808938472976593 0 0.026901193752079406 -0.051367694361466772 0 0.027040251258380926 -0.049823002242776082 0 0.025718101391846736 -0.050977211035569729 0 0.025158099916532697 -0.049875358809593373 0 0.027040251258380926 -0.049823002242776082 0 0.025718101391846736 -0.050977211035569729 0 0.044998428810692839 -0.04499761692088252 0 0.042686800532917478 -0.044527295374340206 0 0.038606656587149957 -0.044996357849612569 0 0.044996865976057135 -0.039884647826925863 0 0.044823384176178378 -0.040854207522293386 0 0.044374160573928921 -0.04316890333828103 0 0.044823384176178378 -0.040854207522293386 0 0.044058599928994822 -0.043098360797713509 0 0.04502504092043922 -0.041468727216934759 0 0.044823384176178378 -0.040854207522293386 0 0.044374160573928921 -0.04316890333828103 0 0.044058599928994822 -0.043098360797713509 0 0.044996865976057135 -0.039884647826925863 0 0.044998428810692839 -0.04499761692088252 0 0.044374160573928921 -0.04316890333828103 0 0.044998428810692839 -0.04499761692088252 0 0.044374160573928921 -0.04316890333828103 0 0.042686800532917478 -0.044527295374340206 0 0.044374160573928921 -0.04316890333828103 0 0.042686800532917478 -0.044527295374340206 0 0.044058599928994822 -0.043098360797713509 0 0.042686800532917478 -0.044527295374340206 0 0.043038691932797662 -0.044183421744579052 0 0.044058599928994822 -0.043098360797713509 0 0.042686800532917478 -0.044527295374340206 0 0.03984593712309998 -0.045217725832209628 0 0.038606656587149957 -0.044996357849612569 0 0.042574980628835586 -0.044899947835493531 0 0.041195005831142259 -0.045280649914606674 0 0.03984593712309998 -0.045217725832209628 0 0.042673668590478178 -0.0444793017207291 0 0.040266497683671555 -0.044974401559864062 0 0.042686800532917478 -0.044527295374340206 0 0.043038691932797662 -0.044183421744579052 0 0.03984593712309998 -0.045217725832209628 0 0.041962136602266477 -0.04471809248586868 0 0.042574980628835586 -0.044899947835493531 0 0.041195005831142259 -0.045280649914606674 0 0.041962136602266477 -0.04471809248586868 0 0.042574980628835586 -0.044899947835493531 0 0.043521037371801817 -0.044101272647287394 0 0.043038691932797662 -0.044183421744579052 0 0.044058599928994822 -0.043098360797713509 0 0.04502504092043922 -0.041468727216934759 0 0.042673668590478178 -0.0444793017207291 0 0.044268151739254184 -0.04189801171443943 0 0.042574980628835586 -0.044899947835493531 0 0.043452668340119308 -0.042395885364647293 0 0.043521037371801817 -0.044101272647287394 0 0.043452668340119308 -0.042395885364647293 0 0.043521037371801817 -0.044101272647287394 0 0.044506012461473225 -0.041116594327172323 0 0.043521037371801817 -0.044101272647287394 0 0.04660235055242546 -0.041298903576851197 0 0.044506012461473225 -0.041116594327172323 0 0.043885822230555961 -0.04413112442035072 0 0.042808229050321008 -0.043503515031909842 0 0.041962136602266477 -0.04471809248586868 0 0.043521037371801817 -0.044101272647287394 0 0.04150790753156422 -0.046653785202305051 0 0.040787224781082237 -0.045871228511329208 0 0.042808229050321008 -0.043503515031909842 0 0.041962136602266477 -0.04471809248586868 0 0.040789439650825675 -0.045106132263474596 0 0.04150790753156422 -0.046653785202305051 0 0.040789439650825675 -0.045106132263474596 0 0.040980410854931607 -0.0450855159274937 0 0.040933170295794311 -0.045054619585748301 0 0.039418197216965253 -0.048846606351460195 0 0.038476532920053402 -0.046653726134689016 0 0.037110846606838388 -0.047821332690950936 0 0.039418197216965253 -0.048846606351460195 0 0.038476532920053402 -0.046653726134689016 0 0.040085727346157791 -0.045152638517802407 0 0.04020703562679153 -0.047065246962042055 0 0.040167282483385865 -0.045173813477174467 0 0.038476532920053402 -0.046653726134689016 0 0.040085727346157791 -0.045152638517802407 0 0.038656539660073944 -0.044802037772771836 0 0.040085727346157791 -0.045152638517802407 0 0.041195005831142259 -0.045280649914606674 0 0.038656539660073944 -0.044802037772771836 0 0.040789439650825675 -0.045106132263474596 0 0.040085727346157791 -0.045152638517802407 0 0.041195005831142259 -0.045280649914606674 0 0.040789439650825675 -0.045106132263474596 0 0.040980410854931607 -0.0450855159274937 0 0.040085727346157791 -0.045152638517802407 0 0.041962136602266477 -0.04471809248586868 0 0.040789439650825675 -0.045106132263474596 0 0.041195005831142259 -0.045280649914606674 0 0.041195005831142259 -0.045280649914606674 0 0.039274511661804901 -0.0456874631504244 0 0.03984593712309998 -0.045217725832209628 0 0.041195005831142259 -0.045280649914606674 0 0.039274511661804901 -0.0456874631504244 0 0.037535160456123561 -0.046587315045862471 0 0.038606656587149957 -0.044996357849612569 0 0.037535160456123561 -0.046587315045862471 0 0.035013577013983242 -0.046643483637360761 0 0.040866685121668363 -0.045427508613659996 0 0.03809311990283825 -0.045624289272311942 0 0.039274511661804901 -0.0456874631504244 0 0.03984593712309998 -0.045217725832209628 0 0.038606656587149957 -0.044996357849612569 0 0.039274511661804901 -0.0456874631504244 0 0.038606656587149957 -0.044996357849612569 0 0.037535160456123561 -0.046587315045862471 0 0.038606656587149957 -0.044996357849612569 0 0.03381726783243675 -0.045000378986621938 0 0.035013577013983242 -0.046643483637360761 0 0.038656539660073944 -0.044802037772771836 0 0.03485652948477367 -0.044569124406059847 0 0.036520638906596264 -0.046283335038450175 0 0.03809311990283825 -0.045624289272311942 0 0.034955880950342806 -0.045612384985214798 0 0.03485652948477367 -0.044569124406059847 0 0.036520638906596264 -0.046283335038450175 0 0.034490306461201346 -0.047436858032580735 0 0.03251466338893462 -0.046504822171064157 0 0.03485652948477367 -0.044569124406059847 0 0.034490306461201346 -0.047436858032580735 0 0.036520638906596264 -0.046283335038450175 0 0.037110846606838388 -0.047821332690950936 0 0.034490306461201346 -0.047436858032580735 0 0.038476532920053402 -0.046653726134689016 0 0.038656539660073944 -0.044802037772771836 0 0.036520638906596264 -0.046283335038450175 0 0.038476532920053402 -0.046653726134689016 0 0.036520638906596264 -0.046283335038450175 0 0.037110846606838388 -0.047821332690950936 0 0.039418197216965253 -0.048846606351460195 0 0.037110846606838388 -0.047821332690950936 0 0.036614015084440274 -0.049901877634600564 0 0.037110846606838388 -0.047821332690950936 0 0.034490306461201346 -0.047436858032580735 0 0.036614015084440274 -0.049901877634600564 0 0.033039632798862899 -0.048092959649553194 0 0.034490306461201346 -0.047436858032580735 0 0.034210504910199301 -0.048898268706247576 0 0.034528927760513389 -0.047421819767273506 0 0.035993904336552092 -0.04983404038072177 0 0.034490306461201346 -0.047436858032580735 0 0.034210504910199301 -0.048898268706247576 0 0.035420426462811731 -0.048926450125796675 0 0.03284546992883941 -0.049689750776803869 0 0.034210504910199301 -0.048898268706247576 0 0.035182025105967497 -0.050277215954099994 0 0.035420426462811731 -0.048926450125796675 0 0.035182025105967497 -0.050277215954099994 0 0.036591052830692639 -0.050350712744790221 0 0.034210504910199301 -0.048898268706247576 0 0.035420426462811731 -0.048926450125796675 0 0.035182025105967497 -0.050277215954099994 0 0.035993904336552092 -0.04983404038072177 0 0.039154983133369903 -0.047973988169634114 0 0.035182025105967497 -0.050277215954099994 0 0.036495739507412327 -0.050781499362814973 0 0.036591052830692639 -0.050350712744790221 0 0.035182025105967497 -0.050277215954099994 0 0.035283199204457327 -0.051989550453374604 0 0.036495739507412327 -0.050781499362814973 0 0.03284546992883941 -0.049689750776803869 0 0.035182025105967497 -0.050277215954099994 0 0.033833391145120566 -0.051471809209129353 0 0.033833391145120566 -0.051471809209129353 0 0.034027941303441105 -0.053236415375323129 0 0.035283199204457327 -0.051989550453374604 0 0.035182025105967497 -0.050277215954099994 0 0.033833391145120566 -0.051471809209129353 0 0.035283199204457327 -0.051989550453374604 0 0.038135871464308885 -0.045043730891869846 0 0.038337098584883676 -0.045037850917215079 0 0.038384419732972436 -0.044903856377231356 0 0.034372932154267892 -0.050400517450392 0 0.036926959693153259 -0.048394014819038288 0 0.034372932154267892 -0.050400517450392 0 0.034281156876614871 -0.048677088985809497 0 0.03318027362574414 -0.05309510726265719 0 0.033097158614797645 -0.053011162932556886 0 0.033531214163655801 -0.052795934877193654 0 0.032815960421140107 -0.052555760009632517 0 0.034372932154267892 -0.050400517450392 0 0.038517780230415917 -0.045097779041321756 0 0.038727050496078157 -0.044262849516414605 0 0.038529575888333646 -0.045013638220489642 0 0.038424112117413173 -0.044963122309585823 0 0.038423933733316082 -0.044921696761447166 0 0.038337098584883676 -0.045037850917215079 0 0.038424112117413173 -0.044963122309585823 0 0.038384419732972436 -0.044903856377231356 0 0.038529575888333646 -0.045013638220489642 0 0.038337098584883676 -0.045037850917215079 0 0.038424112117413173 -0.044963122309585823 0 0.038135871464308885 -0.045043730891869846 0 0.038337098584883676 -0.045037850917215079 0 0.038338534011513041 -0.045229457252021009 0 0.038529575888333646 -0.045013638220489642 0 0.038337098584883676 -0.045037850917215079 0 0.038338534011513041 -0.045229457252021009 0 0.038424112117413173 -0.044963122309585823 0 0.038384419732972436 -0.044903856377231356 0 0.038423933733316082 -0.044921696761447166 0 0.038384419732972436 -0.044903856377231356 0 0.038423933733316082 -0.044921696761447166 0 0.038423870711817576 -0.044931142916732898 0 0.036926959693153259 -0.048394014819038288 0 0.038346728136109648 -0.04662900608367726 0 0.038971260877833307 -0.044135645563034676 0 0.038876109707322914 -0.044235512328739152 0 0.038881453563482035 -0.044902807885098373 0 0.038727050496078157 -0.044262849516414605 0 0.038346728136109648 -0.04662900608367726 0 0.038971260877833307 -0.044135645563034676 0 0.038897524929114406 -0.043837735847471075 0 0.038642649793234021 -0.043961735965421793 0 0.038971260877833307 -0.044135645563034676 0 0.038642649793234021 -0.043961735965421793 0 0.038986082166243614 -0.044167971450793007 0 0.038971260877833307 -0.044135645563034676 0 0.038876109707322914 -0.044235512328739152 0 0.038999658825092001 -0.044132790811510697 0 0.038980932322588438 -0.04415671920392631 0 0.039088212537782135 -0.044125215528465753 0 0.038529575888333646 -0.045013638220489642 0 0.038876109707322914 -0.044235512328739152 0 0.038881453563482035 -0.044902807885098373 0 0.038971260877833307 -0.044135645563034676 0 0.038897524929114406 -0.043837735847471075 0 0.039169850664166166 -0.043581932879044258 0 0.038897524929114406 -0.043837735847471075 0 0.03886702602443802 -0.043549970007948274 0 0.039169850664166166 -0.043581932879044258 0 0.038642649793234021 -0.043961735965421793 0 0.038073811876208938 -0.043243303755712489 0 0.038667441768279173 -0.043283634873747256 0 0.03886702602443802 -0.043549970007948274 0 0.038642649793234021 -0.043961735965421793 0 0.038667441768279173 -0.043283634873747256 0 0.038897524929114406 -0.043837735847471075 0 0.03886702602443802 -0.043549970007948274 0 0.038642649793234021 -0.043961735965421793 0 0.039999511392352124 -0.042701556600265277 0 0.039795117107571026 -0.045094883431964342 0 0.041996566233715775 -0.041803984848155333 0 0.042557640741504914 -0.042560366363192256 0 0.041644747594782421 -0.042226468727014098 0 0.042557640741504914 -0.042560366363192256 0 0.041953109655428478 -0.043171399579228616 0 0.041644747594782421 -0.042226468727014098 0 0.042808229050321008 -0.043503515031909842 0 0.043651719426517736 -0.040569169713526386 0 0.038971260877833307 -0.044135645563034676 0 0.038999658825092001 -0.044132790811510697 0 0.038986082166243614 -0.044167971450793007 0 0.038346728136109648 -0.04662900608367726 0 0.039154983133369903 -0.047973988169634114 0 0.038621377382703458 -0.046204854401640127 0 0.038694905947402616 -0.045905376595316599 0 0.038797500406788102 -0.046033142931151017 0 0.038346728136109648 -0.04662900608367726 0 0.039795117107571026 -0.045094883431964342 0 0.039154983133369903 -0.047973988169634114 0 0.039795117107571026 -0.045094883431964342 0 0.040943228438729724 -0.045078661992588712 0 0.040949173821137622 -0.045079755148548756 0 0.040951612125444757 -0.045073535696223813 0 0.040980410854931607 -0.0450855159274937 0 0.040943228438729724 -0.045078661992588712 0 0.040951612125444757 -0.045073535696223813 0 0.040949173821137622 -0.045079755148548756 0 0.040951612125444757 -0.045073535696223813 0 0.040933170295794311 -0.045054619585748301 0 0.04020703562679153 -0.047065246962042055 0 0.039154983133369903 -0.047973988169634114 0 0.039418197216965253 -0.048846606351460195 0 0.036614015084440274 -0.049901877634600564 0 0.038595336304370918 -0.052293854145728229 0 0.040980410854931607 -0.0450855159274937 0 0.040951612125444757 -0.045073535696223813 0 0.040933170295794311 -0.045054619585748301 0 0.039795117107571026 -0.045094883431964342 0 0.042808229050321008 -0.043503515031909842 0 0.04660235055242546 -0.041298903576851197 0 0.044506012461473225 -0.041116594327172323 0 0.044926996575949209 -0.039755292672198857 0 0.043452668340119308 -0.042395885364647293 0 0.044423677680496612 -0.04049427146217506 0 0.044601011389966083 -0.039880077533779895 0 0.043452668340119308 -0.042395885364647293 0 0.044506012461473225 -0.041116594327172323 0 0.044423677680496612 -0.04049427146217506 0 0.044423677680496612 -0.04049427146217506 0 0.044680878388072137 -0.040149877468946785 0 0.044884794455927406 -0.039360849132329054 0 0.044423677680496612 -0.04049427146217506 0 0.044884794455927406 -0.039360849132329054 0 0.044601011389966083 -0.039880077533779895 0 0.044506012461473225 -0.041116594327172323 0 0.044680878388072137 -0.040149877468946785 0 0.044926996575949209 -0.039755292672198857 0 0.044506012461473225 -0.041116594327172323 0 0.044423677680496612 -0.04049427146217506 0 0.044680878388072137 -0.040149877468946785 0 0.044884794455927406 -0.039360849132329054 0 0.045269374831605431 -0.038615766586591459 0 0.045250111308059691 -0.038651426923723357 0 0.044884794455927406 -0.039360849132329054 0 0.044926996575949209 -0.039755292672198857 0 0.044828000958639661 -0.038921954107278667 0 0.044680878388072137 -0.040149877468946785 0 0.044884794455927406 -0.039360849132329054 0 0.044926996575949209 -0.039755292672198857 0 0.044849506419384552 -0.039386525415192046 0 0.045197043752157058 -0.038538222531667818 0 0.04660235055242546 -0.041298903576851197 0 0.044926996575949209 -0.039755292672198857 0 0.045580267287723984 -0.039096000434367867 0 0.044926996575949209 -0.039755292672198857 0 0.045580267287723984 -0.039096000434367867 0 0.044828000958639661 -0.038921954107278667 0 0.041996566233715775 -0.041803984848155333 0 0.041644747594782421 -0.042226468727014098 0 0.041345246555498316 -0.041265474959401138 0 0.045580267287723984 -0.039096000434367867 0 0.045131130498420345 -0.038147105127491823 0 0.044828000958639661 -0.038921954107278667 0 0.043651719426517736 -0.040569169713526386 0 0.044438911076241566 -0.039020279521458701 0 0.041996566233715775 -0.041803984848155333 0 0.041345246555498316 -0.041265474959401138 0 0.041436460038839211 -0.041039617404973167 0 0.039999511392352124 -0.042701556600265277 0 0.042553709523001117 -0.040907131040523466 0 0.045123026177756417 -0.038066799341707071 0 0.045269374831605431 -0.038615766586591459 0 0.044945269734727768 -0.038406773477362585 0 0.045629746166574663 -0.037998283798561079 0 0.045377958425934783 -0.037947652918475079 0 0.045269374831605431 -0.038615766586591459 0 0.044438911076241566 -0.039020279521458701 0 0.045197043752157058 -0.038538222531667818 0 0.045123026177756417 -0.038066799341707071 0 0.045377958425934783 -0.037947652918475079 0 0.045269374831605431 -0.038615766586591459 0 0.045699014178252027 -0.036718901939155592 0 0.045373556340823407 -0.038469432713680106 0 0.046600109853333536 -0.035285515621231063 0 0.044998626481820736 -0.035934557651604297 0 0.046795902998502253 -0.033041811532099133 0 0.045269374831605431 -0.038615766586591459 0 0.044945269734727768 -0.038406773477362585 0 0.045250111308059691 -0.038651426923723357 0 0.045699014178252027 -0.036718901939155592 0 0.04579788650772694 -0.035764295892111012 0 0.045123026177756417 -0.038066799341707071 0 0.044945269734727768 -0.038406773477362585 0 0.044707082080914375 -0.037564134191720396 0 0.046600109853333536 -0.035285515621231063 0 0.044998626481820736 -0.035934557651604297 0 0.045250111308059691 -0.038651426923723357 0 0.044998626481820736 -0.035934557651604297 0 0.045250111308059691 -0.038651426923723357 0 0.045057938010342108 -0.038877179191266334 0 0.044996865976057135 -0.039884647826925863 0 0.044998626481820736 -0.035934557651604297 0 0.045057938010342108 -0.038877179191266334 0 0.044884794455927406 -0.039360849132329054 0 0.045250111308059691 -0.038651426923723357 0 0.044601011389966083 -0.039880077533779895 0 0.045250111308059691 -0.038651426923723357 0 0.045057938010342108 -0.038877179191266334 0 0.044601011389966083 -0.039880077533779895 0 0.044268151739254184 -0.04189801171443943 0 0.044845118612497542 -0.039313858754929466 0 0.044823384176178378 -0.040854207522293386 0 0.04502504092043922 -0.041468727216934759 0 0.045057938010342108 -0.038877179191266334 0 0.043452668340119308 -0.042395885364647293 0 0.045057938010342108 -0.038877179191266334 0 0.044601011389966083 -0.039880077533779895 0 0.044996865976057135 -0.039884647826925863 0 0.044823384176178378 -0.040854207522293386 0 0.045057938010342108 -0.038877179191266334 0 0.044999177195680314 -0.028479176625243359 0 0.04635621307943856 -0.028897626699191964 0 0.045698931132919701 -0.027066480627576547 0 0.044999177195680314 -0.028479176625243359 0 0.04635621307943856 -0.028897626699191964 0 0.045000026928588677 -0.030541924042832819 0 0.045922679162224284 -0.027381344443431641 0 0.045774741266773951 -0.027396136259072754 0 0.045535461608096899 -0.026873595087719415 0 0.045465883684006968 -0.026891164637944748 0 0.045698931132919701 -0.027066480627576547 0 0.045535461608096899 -0.026873595087719415 0 0.045486893340547174 -0.026895916540207156 0 0.045465883684006968 -0.026891164637944748 0 0.045922679162224284 -0.027381344443431641 0 0.045407294995753827 -0.031461270769714819 0 0.045535461608096899 -0.026873595087719415 0 0.04548854989252147 -0.026923582095738141 0 0.045486893340547174 -0.026895916540207156 0 0.04635621307943856 -0.028897626699191964 0 0.046484939128407919 -0.030481748940228058 0 0.045000026928588677 -0.030541924042832819 0 0.045407294995753827 -0.031461270769714819 0 0.045001774584543769 -0.030542153263112871 0 0.046852565820551868 -0.030822811575549152 0 0.045000323636983627 -0.030541971474792061 0 0.046795902998502253 -0.033041811532099133 0 0.044998626481820736 -0.035934557651604297 0 0.045000323636983627 -0.030541971474792061 0 0.046795902998502253 -0.033041811532099133 0 0.045123026177756417 -0.038066799341707071 0 0.044707082080914375 -0.037564134191720396 0 0.045228461299419438 -0.037710559747513403 0 0.045407294995753827 -0.031461270769714819 0 0.04579788650772694 -0.035764295892111012 0 0.044662471832754923 -0.036573435984165355 0 0.044707082080914375 -0.037564134191720396 0 0.04535909659169679 -0.037196146695743608 0 0.04535909659169679 -0.037196146695743608 0 0.045737368395256828 -0.037723975146357509 0 0.045636202764926546 -0.036786175971165312 0 0.044662471832754923 -0.036573435984165355 0 0.04535909659169679 -0.037196146695743608 0 0.04563599566924742 -0.036703924032372409 0 0.04535909659169679 -0.037196146695743608 0 0.04563599566924742 -0.036703924032372409 0 0.045636202764926546 -0.036786175971165312 0 0.044707082080914375 -0.037564134191720396 0 0.04535909659169679 -0.037196146695743608 0 0.045228461299419438 -0.037710559747513403 0 0.04535909659169679 -0.037196146695743608 0 0.045573164801513272 -0.037731886222513882 0 0.045780746420533494 -0.037784875559533415 0 0.045358647142701519 -0.037086360302929507 0 0.042553709523001117 -0.040907131040523466 0 0.04535909659169679 -0.037196146695743608 0 0.045573164801513272 -0.037731886222513882 0 0.045228461299419438 -0.037710559747513403 0 0.045377958425934783 -0.037947652918475079 0 0.045573164801513272 -0.037731886222513882 0 0.045228461299419438 -0.037710559747513403 0 0.045629746166574663 -0.037998283798561079 0 0.045377958425934783 -0.037947652918475079 0 0.045573164801513272 -0.037731886222513882 0 0.045123026177756417 -0.038066799341707071 0 0.045377958425934783 -0.037947652918475079 0 0.045228461299419438 -0.037710559747513403 0 0.044438911076241566 -0.039020279521458701 0 0.044851745218513622 -0.038116175171979218 0 0.044438911076241566 -0.039020279521458701 0 0.042553709523001117 -0.040907131040523466 0 0.045670921227369064 -0.038067388641309888 0 0.045573164801513272 -0.037731886222513882 0 0.045780746420533494 -0.037784875559533415 0 0.045737368395256828 -0.037723975146357509 0 0.045636202764926546 -0.036786175971165312 0 0.046103979861715667 -0.036756191993470286 0 0.038073811876208938 -0.043243303755712489 0 0.038388022901391414 -0.04239031893472428 0 0.038602923663155625 -0.042857395439735615 0 0.042553709523001117 -0.040907131040523466 0 0.042264457295141722 -0.035003837452889534 0 0.045632677659363297 -0.036706247192313184 0 0.045636202764926546 -0.036786175971165312 0 0.046103979861715667 -0.036756191993470286 0 0.045240028166332533 -0.030616006775146993 0 0.045275744518540072 -0.031569663924280157 0 0.045240028166332533 -0.030616006775146993 0 0.042264457295141722 -0.035003837452889534 0 0.043511245893857471 -0.028047768611792409 0 0.043720686992796694 -0.027754326143196093 0 0.043572960648424142 -0.027369175064045993 0 0.043826139462662603 -0.02807735978456662 0 0.043720686992796694 -0.027754326143196093 0 0.043914135695869508 -0.027764520724002699 0 0.045240028166332533 -0.030616006775146993 0 0.044420525040802766 -0.026447461539535533 0 0.043511245893857471 -0.028047768611792409 0 0.043826139462662603 -0.02807735978456662 0 0.043720686992796694 -0.027754326143196093 0 0.043720686992796694 -0.027754326143196093 0 0.043848394052937244 -0.027524352803331209 0 0.043914135695869508 -0.027764520724002699 0 0.045494358580829723 -0.026931600554504852 0 0.045486893340547174 -0.026895916540207156 0 0.045456509603580761 -0.026887296017110186 0 0.045407294995753827 -0.031461270769714819 0 0.045240028166332533 -0.030616006775146993 0 0.04548854989252147 -0.026923582095738141 0 0.045494358580829723 -0.026931600554504852 0 0.045486893340547174 -0.026895916540207156 0 0.045486893340547174 -0.026895916540207156 0 0.045465883684006968 -0.026891164637944748 0 0.045456509603580761 -0.026887296017110186 0 0.043572960648424142 -0.027369175064045993 0 0.043848394052937244 -0.027524352803331209 0 0.044004042252632651 -0.027175339241560528 0 0.043720686992796694 -0.027754326143196093 0 0.043572960648424142 -0.027369175064045993 0 0.043848394052937244 -0.027524352803331209 0 0.044036822345691687 -0.02756212750555764 0 0.044411694116147697 -0.027455446261269723 0 0.044004042252632651 -0.027175339241560528 0 0.043848394052937244 -0.027524352803331209 0 0.044036822345691687 -0.02756212750555764 0 0.043914135695869508 -0.027764520724002699 0 0.043848394052937244 -0.027524352803331209 0 0.044036822345691687 -0.02756212750555764 0 0.044004042252632651 -0.027175339241560528 0 0.035616063616952992 -0.024867485798766038 0 0.036648683334846416 -0.02470579517570157 0 0.035598779279120342 -0.02309482977071152 0 0.040576104191008849 -0.025033127367789766 0 0.036422076832865406 -0.034502464565250919 0 0.044411694116147697 -0.027455446261269723 0 0.044115805138942601 -0.027937972133315225 0 0.044442258893275251 -0.028283378809802941 0 0.035616063616952992 -0.024867485798766038 0 0.035626370241532382 -0.026729655404162014 0 0.036318531961598476 -0.025733486924400539 0 0.044036822345691687 -0.02756212750555764 0 0.044411694116147697 -0.027455446261269723 0 0.044115805138942601 -0.027937972133315225 0 0.044115805138942601 -0.027937972133315225 0 0.043908927748948577 -0.028187837879000248 0 0.043968910416245219 -0.028233755671603661 0 0.044036822345691687 -0.02756212750555764 0 0.044115805138942601 -0.027937972133315225 0 0.043914135695869508 -0.027764520724002699 0 0.042264457295141722 -0.035003837452889534 0 0.044698638519049282 -0.026280533164560572 0 0.044115805138942601 -0.027937972133315225 0 0.043914135695869508 -0.027764520724002699 0 0.043908927748948577 -0.028187837879000248 0 0.043667599198609394 -0.028233453839168671 0 0.043914135695869508 -0.027764520724002699 0 0.043908927748948577 -0.028187837879000248 0 0.044115805138942601 -0.027937972133315225 0 0.043968910416245219 -0.028233755671603661 0 0.044442258893275251 -0.028283378809802941 0 0.043667599198609394 -0.028233453839168671 0 0.043908927748948577 -0.028187837879000248 0 0.043992731958495498 -0.028257751582787313 0 0.038388022901391414 -0.04239031893472428 0 0.038675394892082778 -0.042435817335993851 0 0.038602923663155625 -0.042857395439735615 0 0.042264457295141722 -0.035003837452889534 0 0.04122512527617412 -0.03556456529027914 0 0.038675394892082778 -0.042435817335993851 0 0.038602923663155625 -0.042857395439735615 0 0.03920807840143866 -0.042927264975447313 0 0.041094344531937721 -0.034696096603356055 0 0.04122512527617412 -0.03556456529027914 0 0.038602923663155625 -0.042857395439735615 0 0.038667441768279173 -0.043283634873747256 0 0.03920807840143866 -0.042927264975447313 0 0.038073811876208938 -0.043243303755712489 0 0.038602923663155625 -0.042857395439735615 0 0.038667441768279173 -0.043283634873747256 0 0.03886702602443802 -0.043549970007948274 0 0.038667441768279173 -0.043283634873747256 0 0.03920807840143866 -0.042927264975447313 0 0.038529575888333646 -0.045013638220489642 0 0.038881453563482035 -0.044902807885098373 0 0.038838557858204621 -0.045653559859766227 0 0.03886702602443802 -0.043549970007948274 0 0.039169850664166166 -0.043581932879044258 0 0.03920807840143866 -0.042927264975447313 0 0.039088212537782135 -0.044125215528465753 0 0.037101719560593688 -0.044845996349180219 0 0.04122512527617412 -0.03556456529027914 0 0.037101719560593688 -0.044845996349180219 0 0.02856073306256501 -0.050525799062943424 0 0.028516681966425636 -0.048962822564878043 0 0.030068890595746078 -0.050558442570259432 0 0.037815547786887352 -0.038920260697373608 0 0.038575696028344944 -0.039571773876909445 0 0.038560864185156328 -0.03903216658725573 0 0.04122512527617412 -0.03556456529027914 0 0.036422076832865406 -0.034502464565250919 0 0.037101719560593688 -0.044845996349180219 0 0.036422076832865406 -0.034502464565250919 0 0.036422076832865406 -0.034502464565250919 0 0.033395101585573614 -0.038014778301060148 0 0.035626370241532382 -0.026729655404162014 0 0.036883462453559376 -0.026838622950492351 0 0.036318531961598476 -0.025733486924400539 0 0.030993018466254893 -0.049316563267791845 0 0.030068890595746078 -0.050558442570259432 0 0.032174104724259883 -0.051168464045503376 0 0.028516681966425636 -0.048962822564878043 0 0.030993018466254893 -0.049316563267791845 0 0.030068890595746078 -0.050558442570259432 0 0.038529575888333646 -0.045013638220489642 0 0.038838557858204621 -0.045653559859766227 0 0.038338534011513041 -0.045229457252021009 0 0.037101719560593688 -0.044845996349180219 0 0.034281156876614871 -0.048677088985809497 0 0.02856073306256501 -0.050525799062943424 0 0.030068890595746078 -0.050558442570259432 0 0.030478230339977368 -0.052114559878379207 0 0.030068890595746078 -0.050558442570259432 0 0.030478230339977368 -0.052114559878379207 0 0.032174104724259883 -0.051168464045503376 0 0.03239852783006731 -0.053699768423009928 0 0.030478230339977368 -0.052114559878379207 0 0.032174104724259883 -0.051168464045503376 0 0.03318027362574414 -0.05309510726265719 0 0.032174104724259883 -0.051168464045503376 0 0.033592560630397054 -0.049603776420697139 0 0.033097158614797645 -0.053011162932556886 0 0.03239852783006731 -0.053699768423009928 0 0.032174104724259883 -0.051168464045503376 0 0.03318027362574414 -0.05309510726265719 0 0.033097158614797645 -0.053011162932556886 0 0.032174104724259883 -0.051168464045503376 0 0.033395101585573614 -0.038014778301060148 0 0.034486010268992243 -0.042206798940978306 0 0.036883462453559376 -0.026838622950492351 0 0.037512885938325094 -0.02637618836582948 0 0.038166584380690913 -0.027041668223432947 0 0.030993018466254893 -0.049316563267791845 0 0.032174104724259883 -0.051168464045503376 0 0.033592560630397054 -0.049603776420697139 0 0.037823439934339613 -0.026132990221040341 0 0.037512885938325094 -0.02637618836582948 0 0.038166584380690913 -0.027041668223432947 0 0.036883462453559376 -0.026838622950492351 0 0.037054323425296472 -0.025677102240909466 0 0.037512885938325094 -0.02637618836582948 0 0.037823439934339613 -0.026132990221040341 0 0.037697164826661127 -0.0257728951573022 0 0.037512885938325094 -0.02637618836582948 0 0.037823439934339613 -0.026132990221040341 0 0.037697164826661127 -0.0257728951573022 0 0.03819731021874951 -0.025842345773543995 0 0.037697164826661127 -0.0257728951573022 0 0.037433734977104546 -0.024912893719255823 0 0.03819731021874951 -0.025842345773543995 0 0.037697164826661127 -0.0257728951573022 0 0.037054323425296472 -0.025677102240909466 0 0.037433734977104546 -0.024912893719255823 0 0.037697164826661127 -0.0257728951573022 0 0.037054323425296472 -0.025677102240909466 0 0.037512885938325094 -0.02637618836582948 0 0.036883462453559376 -0.026838622950492351 0 0.037054323425296472 -0.025677102240909466 0 0.036318531961598476 -0.025733486924400539 0 0.037054323425296472 -0.025677102240909466 0 0.036318531961598476 -0.025733486924400539 0 0.036648683334846416 -0.02470579517570157 0 0.036648683334846416 -0.02470579517570157 0 0.037433734977104546 -0.024912893719255823 0 0.03711442268847874 -0.023828448620474865 0 0.037054323425296472 -0.025677102240909466 0 0.036648683334846416 -0.02470579517570157 0 0.037433734977104546 -0.024912893719255823 0 0.035616063616952992 -0.024867485798766038 0 0.036318531961598476 -0.025733486924400539 0 0.036648683334846416 -0.02470579517570157 0 0.037433734977104546 -0.024912893719255823 0 0.03819731021874951 -0.025842345773543995 0 0.037960520210697755 -0.023920613317984937 0 0.03711442268847874 -0.023828448620474865 0 0.037022399789619312 -0.023156743631299336 0 0.037960520210697755 -0.023920613317984937 0 0.037433734977104546 -0.024912893719255823 0 0.03711442268847874 -0.023828448620474865 0 0.037960520210697755 -0.023920613317984937 0 0.035863928915023664 -0.024354949963907139 0 0.038446552598999192 -0.023478235881874844 0 0.036648683334846416 -0.02470579517570157 0 0.03711442268847874 -0.023828448620474865 0 0.036432234735420899 -0.023271333023081965 0 0.037022399789619312 -0.023156743631299336 0 0.036782426113348976 -0.022933984821873355 0 0.036432234735420899 -0.023271333023081965 0 0.03711442268847874 -0.023828448620474865 0 0.037022399789619312 -0.023156743631299336 0 0.036432234735420899 -0.023271333023081965 0 0.037022399789619312 -0.023156743631299336 0 0.037960520210697755 -0.023920613317984937 0 0.037620046328641327 -0.02276523302803422 0 0.037233058821077185 -0.022256670558734461 0 0.036953853676356126 -0.022812663461035991 0 0.037620046328641327 -0.02276523302803422 0 0.037022399789619312 -0.023156743631299336 0 0.036953853676356126 -0.022812663461035991 0 0.037620046328641327 -0.02276523302803422 0 0.037233058821077185 -0.022256670558734461 0 0.036686225239225413 -0.022390290028164866 0 0.036953853676356126 -0.022812663461035991 0 0.036686225239225413 -0.022390290028164866 0 0.036472669242008739 -0.02312637480436382 0 0.035959876867139924 -0.022204442670064245 0 0.037233058821077185 -0.022256670558734461 0 0.036686225239225413 -0.022390290028164866 0 0.03672427925896541 -0.021657258835538807 0 0.036686225239225413 -0.022390290028164866 0 0.035959876867139924 -0.022204442670064245 0 0.036216233623756505 -0.021858770147973293 0 0.036686225239225413 -0.022390290028164866 0 0.036472669242008739 -0.02312637480436382 0 0.036953853676356126 -0.022812663461035991 0 0.036472669242008739 -0.02312637480436382 0 0.036953853676356126 -0.022812663461035991 0 0.036782426113348976 -0.022933984821873355 0 0.037022399789619312 -0.023156743631299336 0 0.036953853676356126 -0.022812663461035991 0 0.036782426113348976 -0.022933984821873355 0 0.03761651687019324 -0.022869340886719897 0 0.040600271271356299 -0.022623001052818125 0 0.03744524899308193 -0.01807989084028928 0 0.036472669242008739 -0.02312637480436382 0 0.036782426113348976 -0.022933984821873355 0 0.03761651687019324 -0.022869340886719897 0 0.036472669242008739 -0.02312637480436382 0 0.03761651687019324 -0.022869340886719897 0 0.040526176920345762 -0.026784057987457803 0 0.036472669242008739 -0.02312637480436382 0 0.035959876867139924 -0.022204442670064245 0 0.034851443635759698 -0.022112380928996169 0 0.036475071550063597 -0.023242938115947097 0 0.037811631080469435 -0.024318975651132935 0 0.040600271271356299 -0.022623001052818125 0 0.043575921327142116 -0.026928777365700034 0 0.040526176920345762 -0.026784057987457803 0 0.03761651687019324 -0.022869340886719897 0 0.040600271271356299 -0.022623001052818125 0 0.040526176920345762 -0.026784057987457803 0 0.043945941437372543 -0.026621531542445492 0 0.044019392397459049 -0.026789849855127529 0 0.044001721596222412 -0.026672884372560355 0 0.04266129888776525 -0.024566948237424478 0 0.038446552598999192 -0.023478235881874844 0 0.043945941437372543 -0.026621531542445492 0 0.044019392397459049 -0.026789849855127529 0 0.04430163752228021 -0.026841206327914084 0 0.036782426113348976 -0.022933984821873355 0 0.03761651687019324 -0.022869340886719897 0 0.036432234735420899 -0.023271333023081965 0 0.037147881702773798 -0.021652926712843204 0 0.038446552598999192 -0.023478235881874844 0 0.044411694116147697 -0.027455446261269723 0 0.04430163752228021 -0.026841206327914084 0 0.044004042252632651 -0.027175339241560528 0 0.040576104191008849 -0.025033127367789766 0 0.038446552598999192 -0.023478235881874844 0 0.044019392397459049 -0.026789849855127529 0 0.04430163752228021 -0.026841206327914084 0 0.044004042252632651 -0.027175339241560528 0 0.043572960648424142 -0.027369175064045993 0 0.044004042252632651 -0.027175339241560528 0 0.043779354135780664 -0.02678278569116007 0 0.044019392397459049 -0.026789849855127529 0 0.044004042252632651 -0.027175339241560528 0 0.043779354135780664 -0.02678278569116007 0 0.044420525040802766 -0.026447461539535533 0 0.044471786931938935 -0.026982451429392339 0 0.045465883684006968 -0.026891164637944748 0 0.045456509603580761 -0.026887296017110186 0 0.045178345025640332 -0.026756738520474881 0 0.045465883684006968 -0.026891164637944748 0 0.045178345025640332 -0.026756738520474881 0 0.045698931132919701 -0.027066480627576547 0 0.045178345025640332 -0.026756738520474881 0 0.045153333371580888 -0.026576846895309567 0 0.045698931132919701 -0.027066480627576547 0 0.044019392397459049 -0.026789849855127529 0 0.043779354135780664 -0.02678278569116007 0 0.044001721596222412 -0.026672884372560355 0 0.043779354135780664 -0.02678278569116007 0 0.044001721596222412 -0.026672884372560355 0 0.044268841491224648 -0.026660926251099771 0 0.043945941437372543 -0.026621531542445492 0 0.044001721596222412 -0.026672884372560355 0 0.044268841491224648 -0.026660926251099771 0 0.04266129888776525 -0.024566948237424478 0 0.043435670596623704 -0.02684134908545736 0 0.043945941437372543 -0.026621531542445492 0 0.044268841491224648 -0.026660926251099771 0 0.043575921327142116 -0.026928777365700034 0 0.044699409887406415 -0.027005763469129581 0 0.044268841491224648 -0.026660926251099771 0 0.043575921327142116 -0.026928777365700034 0 0.044471786931938935 -0.026982451429392339 0 0.044310326944603143 -0.026673364790187015 0 0.044699409887406415 -0.027005763469129581 0 0.044268841491224648 -0.026660926251099771 0 0.045153333371580888 -0.026576846895309567 0 0.045178345025640332 -0.026756738520474881 0 0.044268841491224648 -0.026660926251099771 0 0.045153333371580888 -0.026576846895309567 0 0.044699409887406415 -0.027005763469129581 0 0.045153333371580888 -0.026576846895309567 0 0.045308919651731824 -0.026674200207720222 0 0.044699409887406415 -0.027005763469129581 0 0.045308919651731824 -0.026674200207720222 0 0.045276251849330207 -0.027597408979822251 0 0.045772500587753222 -0.023981473793818566 0 0.044999994435979247 -0.024121055148385275 0 0.044999988101568786 -0.021824039308792086 0 0.045486261440053626 -0.02525332027722758 0 0.04628752573132202 -0.025098770219090204 0 0.045153333371580888 -0.026576846895309567 0 0.045308919651731824 -0.026674200207720222 0 0.045000385017630401 -0.02642005863056851 0 0.045486261440053626 -0.02525332027722758 0 0.04500011099725295 -0.026418082720151673 0 0.045772500587753222 -0.023981473793818566 0 0.044999994435979247 -0.024121055148385275 0 0.04499999958643118 -0.026418065562175207 0 0.045153333371580888 -0.026576846895309567 0 0.045000385017630401 -0.02642005863056851 0 0.045698931132919701 -0.027066480627576547 0 0.044999177195680314 -0.028479176625243359 0 0.045000385017630401 -0.02642005863056851 0 0.045698931132919701 -0.027066480627576547 0 0.03325600865997734 -0.034501571312139497 0 0.033143482802624608 -0.034548742790322148 0 0.033196378273206165 -0.034424395726284196 0 0.033143482802624608 -0.034548742790322148 0 0.033196378273206165 -0.034424395726284196 0 0.033127978593430078 -0.034381847166292862 0 0.033196378273206165 -0.034424395726284196 0 0.033127978593430078 -0.034381847166292862 0 0.033261511809680233 -0.034262058631432758 0 0.03325600865997734 -0.034501571312139497 0 0.033261511809680233 -0.034262058631432758 0 0.033389078572806784 -0.034286248342308485 0 0.03325600865997734 -0.034501571312139497 0 0.033196378273206165 -0.034424395726284196 0 0.033261511809680233 -0.034262058631432758 0 0.03325600865997734 -0.034501571312139497 0 0.033365918196323958 -0.034468383138558205 0 0.033389078572806784 -0.034286248342308485 0 0.036465306059474463 -0.022052160472336602 0 0.035788956980280617 -0.021444151633658717 0 0.036922475836211492 -0.022144515188958533 0 0.028790197292338369 -0.029124925107651717 0 0.036227872674826106 -0.026814570943107317 0 0.033468111247891209 -0.034371660738869124 0 0.033365918196323958 -0.034468383138558205 0 0.033389078572806784 -0.034286248342308485 0 0.035272724653880816 -0.02282430548312403 0 0.036465306059474463 -0.022052160472336602 0 0.035788956980280617 -0.021444151633658717 0 0.033468111247891209 -0.034371660738869124 0 0.033365918196323958 -0.034468383138558205 0 0.033413790243871963 -0.034601616473636784 0 0.028790197292338369 -0.029124925107651717 0 0.027611035768365103 -0.033857979911703945 0 0.033365918196323958 -0.034468383138558205 0 0.033320822257987485 -0.034579359194651417 0 0.033413790243871963 -0.034601616473636784 0 0.03325600865997734 -0.034501571312139497 0 0.033365918196323958 -0.034468383138558205 0 0.033320822257987485 -0.034579359194651417 0 0.033320822257987485 -0.034579359194651417 0 0.033413790243871963 -0.034601616473636784 0 0.033253844555745246 -0.034750178312739251 0 0.027611035768365103 -0.033857979911703945 0 0.028425204259655161 -0.046821157999021909 0 0.03325600865997734 -0.034501571312139497 0 0.033320822257987485 -0.034579359194651417 0 0.033253844555745246 -0.034750178312739251 0 0.027887203391583869 -0.040619850236005631 0 0.027320919634339576 -0.042844836075294157 0 0.02467887506053848 -0.04261069626530304 0 0.019562008521122946 -0.032406388457474601 0 0.019527871175871767 -0.032431376099411005 0 0.01951814541513975 -0.032568685487814393 0 0.027611035768365103 -0.033857979911703945 0 0.022716642347068994 -0.046046431929191091 0 0.024118707205105051 -0.053174514194430478 0 0.022661024177447392 -0.05393482225654872 0 0.023557010893570058 -0.055059259029631588 0 0.023678060236497413 -0.056548973862668987 0 0.022716642347068994 -0.046046431929191091 0 0.022716642347068994 -0.046046431929191091 0 0.028425204259655161 -0.046821157999021909 0 0.024118707205105051 -0.053174514194430478 0 0.023744622105170657 -0.054813146795742611 0 0.025325062496064393 -0.054996942984032328 0 0.027489500857405556 -0.053695224080320597 0 0.026301369561056845 -0.054377437261451639 0 0.027557349154766486 -0.054624645101852845 0 0.025791851290148039 -0.056269438865021865 0 0.028425204259655161 -0.046821157999021909 0 0.028425204259655161 -0.046821157999021909 0 0.030619932643420975 -0.044482038811346575 0 0.03325600865997734 -0.034501571312139497 0 0.033253844555745246 -0.034750178312739251 0 0.033154192099452827 -0.034722882945353188 0 0.03325600865997734 -0.034501571312139497 0 0.033143482802624608 -0.034548742790322148 0 0.033154192099452827 -0.034722882945353188 0 0.027489500857405556 -0.053695224080320597 0 0.027557349154766486 -0.054624645101852845 0 0.028558440251329979 -0.054113308487767124 0 0.028558440251329979 -0.054113308487767124 0 0.030103665032270008 -0.053941728207596615 0 0.02935219406812967 -0.054875027845691968 0 0.029342210908792892 -0.052939484864501681 0 0.028558440251329979 -0.054113308487767124 0 0.030103665032270008 -0.053941728207596615 0 0.027557349154766486 -0.054624645101852845 0 0.028558440251329979 -0.054113308487767124 0 0.02935219406812967 -0.054875027845691968 0 0.030103665032270008 -0.053941728207596615 0 0.02935219406812967 -0.054875027845691968 0 0.031247355771262628 -0.054946305311640915 0 0.03121696425726294 -0.044773728619090181 0 0.031855770287054525 -0.045045013342761717 0 0.033075601825360096 -0.034698175983614452 0 0.03301135269635138 -0.034683279352487918 0 0.033075745472109327 -0.034560970550517149 0 0.030619932643420975 -0.044482038811346575 0 0.03121696425726294 -0.044773728619090181 0 0.033143482802624608 -0.034548742790322148 0 0.033075601825360096 -0.034698175983614452 0 0.033075745472109327 -0.034560970550517149 0 0.033143482802624608 -0.034548742790322148 0 0.033154192099452827 -0.034722882945353188 0 0.033075601825360096 -0.034698175983614452 0 0.032909106841971694 -0.057199467280081143 0 0.034486010268992243 -0.042206798940978306 0 0.032656535096493737 -0.053812653408175037 0 0.032104033319883249 -0.054015645583282777 0 0.033116596859171808 -0.055049168477841755 0 0.03318027362574414 -0.05309510726265719 0 0.032656535096493737 -0.053812653408175037 0 0.033116596859171808 -0.055049168477841755 0 0.032254766386418131 -0.053139876818057333 0 0.03318027362574414 -0.05309510726265719 0 0.032656535096493737 -0.053812653408175037 0 0.032254766386418131 -0.053139876818057333 0 0.032656535096493737 -0.053812653408175037 0 0.032104033319883249 -0.054015645583282777 0 0.031150880340081778 -0.053245064745014059 0 0.032104033319883249 -0.054015645583282777 0 0.031247355771262628 -0.054946305311640915 0 0.031150880340081778 -0.053245064745014059 0 0.030103665032270008 -0.053941728207596615 0 0.031247355771262628 -0.054946305311640915 0 0.031150880340081778 -0.053245064745014059 0 0.032254766386418131 -0.053139876818057333 0 0.032104033319883249 -0.054015645583282777 0 0.034486010268992243 -0.042206798940978306 0 0.035408648182695054 -0.027040780540836633 0 0.032979290392136415 -0.03461528283865016 0 0.032931621788155237 -0.034679528697728654 0 0.032938086752953774 -0.034548563136629906 0 0.031855770287054525 -0.045045013342761717 0 0.034486010268992243 -0.042206798940978306 0 0.032104033319883249 -0.054015645583282777 0 0.031247355771262628 -0.054946305311640915 0 0.033116596859171808 -0.055049168477841755 0 0.03301135269635138 -0.034683279352487918 0 0.032979290392136415 -0.03461528283865016 0 0.032931621788155237 -0.034679528697728654 0 0.032979290392136415 -0.03461528283865016 0 0.032938086752953774 -0.034548563136629906 0 0.03303515743080148 -0.034481612684515016 0 0.037823439934339613 -0.026132990221040341 0 0.038166584380690913 -0.027041668223432947 0 0.03819731021874951 -0.025842345773543995 0 0.035408648182695054 -0.027040780540836633 0 0.03542245101493624 -0.029315282502517297 0 0.03301135269635138 -0.034683279352487918 0 0.032979290392136415 -0.03461528283865016 0 0.03303515743080148 -0.034481612684515016 0 0.035408648182695054 -0.027040780540836633 0 0.038087531403534436 -0.02305224694003858 0 0.037398014448088386 -0.023904365655302962 0 0.037960185175672047 -0.023640800090955535 0 0.037492934099885536 -0.023207182669064397 0 0.033143482802624608 -0.034548742790322148 0 0.033075745472109327 -0.034560970550517149 0 0.033127978593430078 -0.034381847166292862 0 0.03301135269635138 -0.034683279352487918 0 0.03303515743080148 -0.034481612684515016 0 0.033075745472109327 -0.034560970550517149 0 0.03542245101493624 -0.029315282502517297 0 0.035592507177796884 -0.029300416035631278 0 0.03303515743080148 -0.034481612684515016 0 0.033075745472109327 -0.034560970550517149 0 0.033127978593430078 -0.034381847166292862 0 0.037960185175672047 -0.023640800090955535 0 0.03834126588679948 -0.023383471312159555 0 0.038175351512743316 -0.023266635061517108 0 0.037960185175672047 -0.023640800090955535 0 0.038175351512743316 -0.023266635061517108 0 0.038012780550941684 -0.022906984357753929 0 0.03834126588679948 -0.023383471312159555 0 0.03834770874942095 -0.02319839159326401 0 0.038175351512743316 -0.023266635061517108 0 0.03834770874942095 -0.02319839159326401 0 0.038175351512743316 -0.023266635061517108 0 0.038012780550941684 -0.022906984357753929 0 0.038196382728396622 -0.022558070033854221 0 0.038012780550941684 -0.022906984357753929 0 0.038228511013235503 -0.022578424868443244 0 0.038582286435686938 -0.022539614249452715 0 0.03787450427089957 -0.02295946900943904 0 0.038196382728396622 -0.022558070033854221 0 0.038234383841563593 -0.022578228549648947 0 0.038228511013235503 -0.022578424868443244 0 0.037960185175672047 -0.023640800090955535 0 0.037492934099885536 -0.023207182669064397 0 0.038012780550941684 -0.022906984357753929 0 0.038087531403534436 -0.02305224694003858 0 0.03753039499271256 -0.023054110962905133 0 0.037492934099885536 -0.023207182669064397 0 0.038012780550941684 -0.022906984357753929 0 0.037620046328641327 -0.02276523302803422 0 0.037620046328641327 -0.02276523302803422 0 0.038012537899817067 -0.022554124773285632 0 0.037832551276429503 -0.022066609103035834 0 0.038012780550941684 -0.022906984357753929 0 0.037620046328641327 -0.02276523302803422 0 0.038012537899817067 -0.022554124773285632 0 0.038012537899817067 -0.022554124773285632 0 0.037832551276429503 -0.022066609103035834 0 0.038202486343147456 -0.022186781573262638 0 0.037233058821077185 -0.022256670558734461 0 0.037620046328641327 -0.02276523302803422 0 0.037832551276429503 -0.022066609103035834 0 0.038234383841563593 -0.022578228549648947 0 0.038228511013235503 -0.022578424868443244 0 0.038428186979306889 -0.022233661333846577 0 0.038012537899817067 -0.022554124773285632 0 0.038228511013235503 -0.022578424868443244 0 0.038202486343147456 -0.022186781573262638 0 0.038012780550941684 -0.022906984357753929 0 0.038012537899817067 -0.022554124773285632 0 0.038228511013235503 -0.022578424868443244 0 0.038202486343147456 -0.022186781573262638 0 0.038428186979306889 -0.022233661333846577 0 0.038436452768127759 -0.021798550700736323 0 0.038228511013235503 -0.022578424868443244 0 0.038202486343147456 -0.022186781573262638 0 0.038428186979306889 -0.022233661333846577 0 0.038234383841563593 -0.022578228549648947 0 0.038428186979306889 -0.022233661333846577 0 0.038480435724769432 -0.022409220149632203 0 0.038428186979306889 -0.022233661333846577 0 0.038480435724769432 -0.022409220149632203 0 0.038716321891418777 -0.021861006492180996 0 0.037508381339817841 -0.022750758144754895 0 0.037275550406404824 -0.022805415964902261 0 0.037544321804041325 -0.023006896147150277 0 0.037999438915604131 -0.022685866979597173 0 0.038220136412992219 -0.021717052437009981 0 0.037508381339817841 -0.022750758144754895 0 0.037275550406404824 -0.022805415964902261 0 0.037446949564257141 -0.022764057649132207 0 0.037356855150578544 -0.022751625673776726 0 0.037275550406404824 -0.022805415964902261 0 0.037446949564257141 -0.022764057649132207 0 0.037356855150578544 -0.022751625673776726 0 0.037275550406404824 -0.022805415964902261 0 0.037352583794964832 -0.02256254866603194 0 0.037356855150578544 -0.022751625673776726 0 0.037446949564257141 -0.022764057649132207 0 0.037345625242778707 -0.022751501896112691 0 0.037446949564257141 -0.022764057649132207 0 0.037532367722103263 -0.022572436437919199 0 0.037328162732034563 -0.022704190030355956 0 0.037446949564257141 -0.022764057649132207 0 0.037328162732034563 -0.022704190030355956 0 0.037345625242778707 -0.022751501896112691 0 0.037999438915604131 -0.022685866979597173 0 0.03788511768228961 -0.022492137410139647 0 0.037508381339817841 -0.022750758144754895 0 0.037446949564257141 -0.022764057649132207 0 0.037882501433749598 -0.022615944513917807 0 0.038234383841563593 -0.022578228549648947 0 0.038480435724769432 -0.022409220149632203 0 0.037882501433749598 -0.022615944513917807 0 0.038196382728396622 -0.022558070033854221 0 0.038234383841563593 -0.022578228549648947 0 0.037882501433749598 -0.022615944513917807 0 0.037446949564257141 -0.022764057649132207 0 0.037882501433749598 -0.022615944513917807 0 0.037532367722103263 -0.022572436437919199 0 0.037882501433749598 -0.022615944513917807 0 0.037532367722103263 -0.022572436437919199 0 0.03764733164887641 -0.022287544162126798 0 0.037532367722103263 -0.022572436437919199 0 0.037439434006857779 -0.022355018505419426 0 0.037346012869630789 -0.022483172350715244 0 0.037532367722103263 -0.022572436437919199 0 0.037346012869630789 -0.022483172350715244 0 0.037271463976441113 -0.022601637628456767 0 0.037532367722103263 -0.022572436437919199 0 0.037439434006857779 -0.022355018505419426 0 0.03764733164887641 -0.022287544162126798 0 0.037439434006857779 -0.022355018505419426 0 0.0376219054252111 -0.022291629164330098 0 0.037182000042781008 -0.022276857815512141 0 0.038035346770862295 -0.023460031909078451 0 0.036249861861705208 -0.025706751613870826 0 0.038196382728396622 -0.022558070033854221 0 0.037882501433749598 -0.022615944513917807 0 0.03764733164887641 -0.022287544162126798 0 0.038582286435686938 -0.022539614249452715 0 0.036249861861705208 -0.025706751613870826 0 0.035592507177796884 -0.029300416035631278 0 0.036249861861705208 -0.025706751613870826 0 0.03834126588679948 -0.023383471312159555 0 0.03834770874942095 -0.02319839159326401 0 0.038495095928823907 -0.02331570783187446 0 0.036465306059474463 -0.022052160472336602 0 0.036942882180658422 -0.022430333374563981 0 0.037081499885190876 -0.022688494220901027 0 0.035272724653880816 -0.02282430548312403 0 0.036465306059474463 -0.022052160472336602 0 0.035703241526491611 -0.023474419645090918 0 0.036465306059474463 -0.022052160472336602 0 0.035703241526491611 -0.023474419645090918 0 0.036040496183045848 -0.023734412153904826 0 0.036388961936387965 -0.021944747556114714 0 0.036982629392394897 -0.023454598219230901 0 0.036465306059474463 -0.022052160472336602 0 0.036942882180658422 -0.022430333374563981 0 0.03694603040120787 -0.022266524686821998 0 0.036465306059474463 -0.022052160472336602 0 0.036922475836211492 -0.022144515188958533 0 0.03694603040120787 -0.022266524686821998 0 0.0376219054252111 -0.022291629164330098 0 0.0370352273758255 -0.022178126727261875 0 0.037182000042781008 -0.022276857815512141 0 0.036249861861705208 -0.025706751613870826 0 0.036227872674826106 -0.026814570943107317 0 0.036227872674826106 -0.026814570943107317 0 0.035805900680233406 -0.023956862882337952 0 0.036922475836211492 -0.022144515188958533 0 0.03694603040120787 -0.022266524686821998 0 0.037182000042781008 -0.022276857815512141 0 0.037439434006857779 -0.022355018505419426 0 0.037182000042781008 -0.022276857815512141 0 0.037346012869630789 -0.022483172350715244 0 0.037182000042781008 -0.022276857815512141 0 0.037135216693189241 -0.022461294141482162 0 0.037346012869630789 -0.022483172350715244 0 0.036942882180658422 -0.022430333374563981 0 0.03694603040120787 -0.022266524686821998 0 0.037135216693189241 -0.022461294141482162 0 0.03694603040120787 -0.022266524686821998 0 0.037182000042781008 -0.022276857815512141 0 0.037135216693189241 -0.022461294141482162 0 0.036942882180658422 -0.022430333374563981 0 0.037135216693189241 -0.022461294141482162 0 0.037122743333632059 -0.022592660990677846 0 0.037135216693189241 -0.022461294141482162 0 0.037122743333632059 -0.022592660990677846 0 0.037271463976441113 -0.022601637628456767 0 0.037135216693189241 -0.022461294141482162 0 0.037346012869630789 -0.022483172350715244 0 0.037271463976441113 -0.022601637628456767 0 0.037532367722103263 -0.022572436437919199 0 0.037271463976441113 -0.022601637628456767 0 0.037328162732034563 -0.022704190030355956 0 0.037271463976441113 -0.022601637628456767 0 0.037202088255408688 -0.022673316977652857 0 0.037328162732034563 -0.022704190030355956 0 0.037122743333632059 -0.022592660990677846 0 0.037271463976441113 -0.022601637628456767 0 0.037202088255408688 -0.022673316977652857 0 0.035563590912655624 -0.024514451395286227 0 0.035703241526491611 -0.023474419645090918 0 0.036040496183045848 -0.023734412153904826 0 0.037122743333632059 -0.022592660990677846 0 0.037202088255408688 -0.022673316977652857 0 0.037081499885190876 -0.022688494220901027 0 0.036942882180658422 -0.022430333374563981 0 0.037122743333632059 -0.022592660990677846 0 0.037081499885190876 -0.022688494220901027 0 0.037081499885190876 -0.022688494220901027 0 0.037249272197839869 -0.022727033749067455 0 0.037305554839121458 -0.022746732444157761 0 0.035563590912655624 -0.024514451395286227 0 0.036040496183045848 -0.023734412153904826 0 0.035875873546445003 -0.024878953774415413 0 0.031454626422819119 -0.023587805640826017 0 0.036389510918142312 -0.023888625054906777 0 0.036982629392394897 -0.023454598219230901 0 0.033221807756528131 -0.022442118177699824 0 0.037202088255408688 -0.022673316977652857 0 0.037081499885190876 -0.022688494220901027 0 0.037249272197839869 -0.022727033749067455 0 0.037202088255408688 -0.022673316977652857 0 0.037328162732034563 -0.022704190030355956 0 0.037249272197839869 -0.022727033749067455 0 0.037249272197839869 -0.022727033749067455 0 0.037345625242778707 -0.022751501896112691 0 0.037347384667573376 -0.022741072003649474 0 0.037328162732034563 -0.022704190030355956 0 0.037249272197839869 -0.022727033749067455 0 0.037345625242778707 -0.022751501896112691 0 0.037356855150578544 -0.022751625673776726 0 0.037345625242778707 -0.022751501896112691 0 0.037347384667573376 -0.022741072003649474 0 0.037347384667573376 -0.022741072003649474 0 0.037305554839121458 -0.022746732444157761 0 0.037444930809309995 -0.022620348726722101 0 0.037356855150578544 -0.022751625673776726 0 0.037347384667573376 -0.022741072003649474 0 0.037444930809309995 -0.022620348726722101 0 0.029832157649082536 -0.022698572783391956 0 0.03001680015619719 -0.021183934696710996 0 0.028655229832978614 -0.021364291037194529 0 0.031454626422819119 -0.023587805640826017 0 0.033221807756528131 -0.022442118177699824 0 0.037249272197839869 -0.022727033749067455 0 0.037347384667573376 -0.022741072003649474 0 0.037305554839121458 -0.022746732444157761 0 0.033221807756528131 -0.022442118177699824 0 0.034438635422430981 -0.021359876885324348 0 0.031276474779875094 -0.020171375147126355 0 0.031290224318498788 -0.019823909819996786 0 0.030847776042947112 -0.01964591098860425 0 0.024738499953817022 -0.018086053862455962 0 0.02474786898496302 -0.018003152543114093 0 0.024653123314329208 -0.017984067487183251 0 0.02482804768550918 -0.020406925638168288 0 0.027582884372907204 -0.018811669410020045 0 0.033221807756528131 -0.022442118177699824 0 0.027582884372907204 -0.018811669410020045 0 0.03001680015619719 -0.021183934696710996 0 0.028655229832978614 -0.021364291037194529 0 0.028729549306997837 -0.019954251359472264 0 0.02474786898496302 -0.018003152543114093 0 0.024653123314329208 -0.017984067487183251 0 0.024655693584290525 -0.017936505641264863 0 0.02236887797174978 -0.016559640366070751 0 0.024496560718267859 -0.015349728113964876 0 0.02255660774780242 -0.01325932021114103 0 0.023493132355971766 -0.013794161879584767 0 0.022352816089724847 -0.01551942424184106 0 0.027582884372907204 -0.018811669410020045 0 0.024496560718267859 -0.015349728113964876 0 0.027582884372907204 -0.018811669410020045 0 0.026240331552519838 -0.016324862425549154 0 0.031290224318498788 -0.019823909819996786 0 0.030847776042947112 -0.01964591098860425 0 0.0309118337851742 -0.019454229736217146 0 0.024496560718267859 -0.015349728113964876 0 0.026240331552519838 -0.016324862425549154 0 0.0262530966797043 -0.016571047839887977 0 0.026256284330322281 -0.016512426588943079 0 0.026109120150402745 -0.016410635545506827 0 0.037356855150578544 -0.022751625673776726 0 0.037444930809309995 -0.022620348726722101 0 0.037352583794964832 -0.02256254866603194 0 0.030847776042947112 -0.01964591098860425 0 0.0309118337851742 -0.019454229736217146 0 0.030497091708958039 -0.019172145982481594 0 0.037444930809309995 -0.022620348726722101 0 0.037412338504742994 -0.022172310411049369 0 0.037352583794964832 -0.02256254866603194 0 0.026240331552519838 -0.016324862425549154 0 0.032153477648239615 -0.019362944108721646 0 0.034438635422430981 -0.021359876885324348 0 0.032153477648239615 -0.019362944108721646 0 0.025556673841797117 -0.015840892960240296 0 0.02542926520324101 -0.015683986564316865 0 0.025424241366947185 -0.015681513306340465 0 0.024488123109099369 -0.01469686225248233 0 0.023743072483194426 -0.014537794732868998 0 0.024092007321064621 -0.014906442337037806 0 0.026240331552519838 -0.016324862425549154 0 0.024704328679765061 -0.014968583417106489 0 0.023493132355971766 -0.013794161879584767 0 0.024488123109099369 -0.01469686225248233 0 0.023743072483194426 -0.014537794732868998 0 0.023743072483194426 -0.014537794732868998 0 0.023603940878663618 -0.015275739620711319 0 0.024092007321064621 -0.014906442337037806 0 0.023603940878663618 -0.015275739620711319 0 0.02412962436747294 -0.015283094406782261 0 0.0239968956416181 -0.015777485675300563 0 0.023603940878663618 -0.015275739620711319 0 0.024092007321064621 -0.014906442337037806 0 0.02412962436747294 -0.015283094406782261 0 0.024092007321064621 -0.014906442337037806 0 0.02412962436747294 -0.015283094406782261 0 0.024627433956947803 -0.015349068709985753 0 0.02412962436747294 -0.015283094406782261 0 0.024627433956947803 -0.015349068709985753 0 0.02453566382260115 -0.015727730817425175 0 0.024488123109099369 -0.01469686225248233 0 0.024092007321064621 -0.014906442337037806 0 0.024627433956947803 -0.015349068709985753 0 0.024496560718267859 -0.015349728113964876 0 0.021878802902832922 -0.014603597019602267 0 0.022431893506723855 -0.013505878730174246 0 0.022352816089724847 -0.01551942424184106 0 0.021488910516969092 -0.014874769802342204 0 0.023743072483194426 -0.014537794732868998 0 0.023603940878663618 -0.015275739620711319 0 0.022352816089724847 -0.01551942424184106 0 0.023493132355971766 -0.013794161879584767 0 0.023743072483194426 -0.014537794732868998 0 0.022352816089724847 -0.01551942424184106 0 0.022352816089724847 -0.01551942424184106 0 0.02200026187999524 -0.016220023818350519 0 0.022915058076316146 -0.016362628371162462 0 0.02200026187999524 -0.016220023818350519 0 0.022915058076316146 -0.016362628371162462 0 0.022444747260546859 -0.017108380473393376 0 0.022352816089724847 -0.01551942424184106 0 0.022915058076316146 -0.016362628371162462 0 0.02335532166363976 -0.015861998464937316 0 0.023603940878663618 -0.015275739620711319 0 0.022352816089724847 -0.01551942424184106 0 0.02335532166363976 -0.015861998464937316 0 0.023603940878663618 -0.015275739620711319 0 0.02335532166363976 -0.015861998464937316 0 0.0239968956416181 -0.015777485675300563 0 0.02335532166363976 -0.015861998464937316 0 0.0239968956416181 -0.015777485675300563 0 0.023902304086347161 -0.016364638778528607 0 0.02412962436747294 -0.015283094406782261 0 0.02453566382260115 -0.015727730817425175 0 0.0239968956416181 -0.015777485675300563 0 0.0239968956416181 -0.015777485675300563 0 0.024446010735108548 -0.016134225277214188 0 0.023902304086347161 -0.016364638778528607 0 0.02453566382260115 -0.015727730817425175 0 0.0239968956416181 -0.015777485675300563 0 0.024446010735108548 -0.016134225277214188 0 0.024446010735108548 -0.016134225277214188 0 0.023902304086347161 -0.016364638778528607 0 0.024699651617004097 -0.016568847343157764 0 0.023902304086347161 -0.016364638778528607 0 0.024279523828892449 -0.016893329058290683 0 0.024699651617004097 -0.016568847343157764 0 0.022915058076316146 -0.016362628371162462 0 0.023902304086347161 -0.016364638778528607 0 0.023533233262770806 -0.017125957186535937 0 0.022915058076316146 -0.016362628371162462 0 0.02335532166363976 -0.015861998464937316 0 0.023902304086347161 -0.016364638778528607 0 0.023902304086347161 -0.016364638778528607 0 0.023533233262770806 -0.017125957186535937 0 0.024279523828892449 -0.016893329058290683 0 0.023533233262770806 -0.017125957186535937 0 0.024279523828892449 -0.016893329058290683 0 0.024364605617939752 -0.017396612835542346 0 0.024279523828892449 -0.016893329058290683 0 0.024832878317075084 -0.017025406829254457 0 0.024699651617004097 -0.016568847343157764 0 0.024279523828892449 -0.016893329058290683 0 0.024364605617939752 -0.017396612835542346 0 0.024832878317075084 -0.017025406829254457 0 0.024364605617939752 -0.017396612835542346 0 0.024607742798619568 -0.017795153432862518 0 0.023947338885628944 -0.017942810853244638 0 0.023533233262770806 -0.017125957186535937 0 0.024364605617939752 -0.017396612835542346 0 0.023947338885628944 -0.017942810853244638 0 0.023533233262770806 -0.017125957186535937 0 0.023947338885628944 -0.017942810853244638 0 0.022836042390589152 -0.017697525134654755 0 0.022836042390589152 -0.017697525134654755 0 0.021900516450360959 -0.017753011457833801 0 0.022353077684415471 -0.018778213351108484 0 0.022836042390589152 -0.017697525134654755 0 0.021900516450360959 -0.017753011457833801 0 0.022444747260546859 -0.017108380473393376 0 0.023533233262770806 -0.017125957186535937 0 0.022836042390589152 -0.017697525134654755 0 0.022444747260546859 -0.017108380473393376 0 0.022915058076316146 -0.016362628371162462 0 0.023533233262770806 -0.017125957186535937 0 0.022444747260546859 -0.017108380473393376 0 0.025941830561507562 -0.017150223573345589 0 0.02662737087244826 -0.017008948427333706 0 0.02589920631664009 -0.017410441366891051 0 0.025941830561507562 -0.017150223573345589 0 0.025850981005263795 -0.016724716346959087 0 0.02662737087244826 -0.017008948427333706 0 0.025941830561507562 -0.017150223573345589 0 0.025963792099914885 -0.017391344628488119 0 0.025750150584370805 -0.017052686951692951 0 0.025941830561507562 -0.017150223573345589 0 0.025850981005263795 -0.016724716346959087 0 0.025750150584370805 -0.017052686951692951 0 0.029500954519409171 -0.014052223230990707 0 0.02900674643428466 -0.014441665414577514 0 0.0297068592021291 -0.014421424708630174 0 0.031910407535292139 -0.017611370579428454 0 0.027826038838660219 -0.016339340751438058 0 0.02900674643428466 -0.014441665414577514 0 0.0297068592021291 -0.014421424708630174 0 0.029586527129071685 -0.015041233143395441 0 0.025941830561507562 -0.017150223573345589 0 0.02589920631664009 -0.017410441366891051 0 0.025963792099914885 -0.017391344628488119 0 0.025963792099914885 -0.017391344628488119 0 0.025031880041861059 -0.017418103751398604 0 0.025409481236300147 -0.017124907393021783 0 0.024607742798619568 -0.017795153432862518 0 0.025963792099914885 -0.017391344628488119 0 0.025031880041861059 -0.017418103751398604 0 0.024364605617939752 -0.017396612835542346 0 0.024607742798619568 -0.017795153432862518 0 0.025031880041861059 -0.017418103751398604 0 0.024364605617939752 -0.017396612835542346 0 0.025031880041861059 -0.017418103751398604 0 0.024832878317075084 -0.017025406829254457 0 0.025031880041861059 -0.017418103751398604 0 0.024832878317075084 -0.017025406829254457 0 0.025409481236300147 -0.017124907393021783 0 0.024832878317075084 -0.017025406829254457 0 0.025409481236300147 -0.017124907393021783 0 0.025186515944338489 -0.016680588334081221 0 0.024832878317075084 -0.017025406829254457 0 0.024699651617004097 -0.016568847343157764 0 0.025186515944338489 -0.016680588334081221 0 0.025750150584370805 -0.017052686951692951 0 0.025409481236300147 -0.017124907393021783 0 0.025533007251721043 -0.016813889185070287 0 0.025963792099914885 -0.017391344628488119 0 0.025750150584370805 -0.017052686951692951 0 0.025409481236300147 -0.017124907393021783 0 0.025409481236300147 -0.017124907393021783 0 0.025533007251721043 -0.016813889185070287 0 0.025186515944338489 -0.016680588334081221 0 0.025850981005263795 -0.016724716346959087 0 0.025750150584370805 -0.017052686951692951 0 0.025533007251721043 -0.016813889185070287 0 0.025850981005263795 -0.016724716346959087 0 0.025457727185844901 -0.016382203200545127 0 0.025681646710302469 -0.015878082843772637 0 0.025850981005263795 -0.016724716346959087 0 0.025533007251721043 -0.016813889185070287 0 0.025457727185844901 -0.016382203200545127 0 0.025533007251721043 -0.016813889185070287 0 0.025457727185844901 -0.016382203200545127 0 0.025186515944338489 -0.016680588334081221 0 0.024699651617004097 -0.016568847343157764 0 0.025186515944338489 -0.016680588334081221 0 0.025010080708819431 -0.016173232797389921 0 0.025457727185844901 -0.016382203200545127 0 0.025186515944338489 -0.016680588334081221 0 0.025010080708819431 -0.016173232797389921 0 0.025457727185844901 -0.016382203200545127 0 0.025010080708819431 -0.016173232797389921 0 0.025361864407641849 -0.016042807110599744 0 0.024446010735108548 -0.016134225277214188 0 0.024699651617004097 -0.016568847343157764 0 0.025010080708819431 -0.016173232797389921 0 0.024627433956947803 -0.015349068709985753 0 0.025022864419206068 -0.015841494220981325 0 0.025533431414494837 -0.01582269453323263 0 0.02453566382260115 -0.015727730817425175 0 0.024446010735108548 -0.016134225277214188 0 0.025010080708819431 -0.016173232797389921 0 0.02453566382260115 -0.015727730817425175 0 0.025010080708819431 -0.016173232797389921 0 0.025022864419206068 -0.015841494220981325 0 0.025010080708819431 -0.016173232797389921 0 0.025022864419206068 -0.015841494220981325 0 0.025361864407641849 -0.016042807110599744 0 0.025022864419206068 -0.015841494220981325 0 0.025361864407641849 -0.016042807110599744 0 0.025533431414494837 -0.01582269453323263 0 0.024627433956947803 -0.015349068709985753 0 0.02453566382260115 -0.015727730817425175 0 0.025022864419206068 -0.015841494220981325 0 0.025457727185844901 -0.016382203200545127 0 0.025361864407641849 -0.016042807110599744 0 0.025681646710302469 -0.015878082843772637 0 0.025361864407641849 -0.016042807110599744 0 0.025533431414494837 -0.01582269453323263 0 0.025681646710302469 -0.015878082843772637 0 0.035895140444982924 -0.021194435476568945 0 0.03627968947463759 -0.021267340948730062 0 0.035875885184816152 -0.020872784084402414 0 0.031910407535292139 -0.017611370579428454 0 0.030517237672974311 -0.018426693029315058 0 0.025850981005263795 -0.016724716346959087 0 0.02662737087244826 -0.017008948427333706 0 0.025681646710302469 -0.015878082843772637 0 0.036226158198718036 -0.021322811434562595 0 0.035895140444982924 -0.021194435476568945 0 0.036210672726097314 -0.021253019218856486 0 0.035895140444982924 -0.021194435476568945 0 0.036210672726097314 -0.021253019218856486 0 0.03627968947463759 -0.021267340948730062 0 0.03627968947463759 -0.021267340948730062 0 0.036555016628153192 -0.021692601990632977 0 0.036131888427021093 -0.02163352698025436 0 0.036555016628153192 -0.021692601990632977 0 0.036605284836041738 -0.02200828967926996 0 0.036131888427021093 -0.02163352698025436 0 0.036605284836041738 -0.02200828967926996 0 0.036382225685496851 -0.022423194853764476 0 0.036131888427021093 -0.02163352698025436 0 0.036555016628153192 -0.021692601990632977 0 0.036923894298686311 -0.021987069727687693 0 0.037019093986917218 -0.021691526583741745 0 0.036100056731528503 -0.021135695119925597 0 0.037047306216976043 -0.021680636803420309 0 0.03627968947463759 -0.021267340948730062 0 0.036555016628153192 -0.021692601990632977 0 0.037019093986917218 -0.021691526583741745 0 0.036923894298686311 -0.021987069727687693 0 0.036605284836041738 -0.02200828967926996 0 0.037071923285359625 -0.022339878294167188 0 0.036555016628153192 -0.021692601990632977 0 0.036923894298686311 -0.021987069727687693 0 0.036605284836041738 -0.02200828967926996 0 0.025533431414494837 -0.01582269453323263 0 0.025681646710302469 -0.015878082843772637 0 0.025424241366947185 -0.015681513306340465 0 0.035895140444982924 -0.021194435476568945 0 0.035875885184816152 -0.020872784084402414 0 0.035114332759819671 -0.020498166425383955 0 0.030517237672974311 -0.018426693029315058 0 0.032153477648239615 -0.019362944108721646 0 0.02542926520324101 -0.015683986564316865 0 0.025533431414494837 -0.01582269453323263 0 0.025424241366947185 -0.015681513306340465 0 0.024704328679765061 -0.014968583417106489 0 0.025541219412288232 -0.015798905361379793 0 0.024488123109099369 -0.01469686225248233 0 0.024627433956947803 -0.015349068709985753 0 0.025533431414494837 -0.01582269453323263 0 0.037019093986917218 -0.021691526583741745 0 0.037148264479928909 -0.022116527135448417 0 0.037412338504742994 -0.022172310411049369 0 0.037047306216976043 -0.021680636803420309 0 0.032153477648239615 -0.019362944108721646 0 0.036923894298686311 -0.021987069727687693 0 0.037019093986917218 -0.021691526583741745 0 0.037148264479928909 -0.022116527135448417 0 0.036923894298686311 -0.021987069727687693 0 0.037148264479928909 -0.022116527135448417 0 0.037071923285359625 -0.022339878294167188 0 0.037148264479928909 -0.022116527135448417 0 0.037412338504742994 -0.022172310411049369 0 0.037264156144523455 -0.022320039772636132 0 0.037275550406404824 -0.022805415964902261 0 0.037071923285359625 -0.022339878294167188 0 0.037352583794964832 -0.02256254866603194 0 0.037412338504742994 -0.022172310411049369 0 0.037264156144523455 -0.022320039772636132 0 0.037352583794964832 -0.02256254866603194 0 0.037264156144523455 -0.022320039772636132 0 0.037071923285359625 -0.022339878294167188 0 0.037352583794964832 -0.02256254866603194 0 0.037148264479928909 -0.022116527135448417 0 0.037264156144523455 -0.022320039772636132 0 0.037071923285359625 -0.022339878294167188 0 0.037275550406404824 -0.022805415964902261 0 0.037071923285359625 -0.022339878294167188 0 0.036382225685496851 -0.022423194853764476 0 0.036605284836041738 -0.02200828967926996 0 0.037071923285359625 -0.022339878294167188 0 0.036382225685496851 -0.022423194853764476 0 0.036976771170633881 -0.022884684199369319 0 0.038220136412992219 -0.021717052437009981 0 0.038716321891418777 -0.021861006492180996 0 0.038436452768127759 -0.021798550700736323 0 0.03854272090517049 -0.02119050083545191 0 0.038428186979306889 -0.022233661333846577 0 0.038716321891418777 -0.021861006492180996 0 0.038436452768127759 -0.021798550700736323 0 0.038202486343147456 -0.022186781573262638 0 0.038436452768127759 -0.021798550700736323 0 0.038214458793754631 -0.021515350696608485 0 0.038436452768127759 -0.021798550700736323 0 0.03854272090517049 -0.02119050083545191 0 0.038214458793754631 -0.021515350696608485 0 0.038893545820815861 -0.01927951859838109 0 0.039351040628522162 -0.019324414476995636 0 0.039268834954940893 -0.018836050883524445 0 0.038220136412992219 -0.021717052437009981 0 0.038854833589356701 -0.020133307343280074 0 0.039351040628522162 -0.019324414476995636 0 0.039624931931302558 -0.019322353549796362 0 0.039268834954940893 -0.018836050883524445 0 0.038220136412992219 -0.021717052437009981 0 0.037941861230117016 -0.02078348889371455 0 0.039757804080308705 -0.020024764712355071 0 0.039351040628522162 -0.019324414476995636 0 0.039624931931302558 -0.019322353549796362 0 0.039757804080308705 -0.020024764712355071 0 0.038893545820815861 -0.01927951859838109 0 0.039351040628522162 -0.019324414476995636 0 0.037233058821077185 -0.022256670558734461 0 0.037832551276429503 -0.022066609103035834 0 0.037313683790511191 -0.021445457581741802 0 0.037832551276429503 -0.022066609103035834 0 0.037825806216292064 -0.021234194499899776 0 0.037313683790511191 -0.021445457581741802 0 0.037832551276429503 -0.022066609103035834 0 0.038202486343147456 -0.022186781573262638 0 0.038214458793754631 -0.021515350696608485 0 0.037832551276429503 -0.022066609103035834 0 0.038214458793754631 -0.021515350696608485 0 0.037825806216292064 -0.021234194499899776 0 0.038214458793754631 -0.021515350696608485 0 0.037825806216292064 -0.021234194499899776 0 0.038202788300480572 -0.020208944739985482 0 0.03854272090517049 -0.02119050083545191 0 0.038214458793754631 -0.021515350696608485 0 0.038202788300480572 -0.020208944739985482 0 0.037825806216292064 -0.021234194499899776 0 0.037313683790511191 -0.021445457581741802 0 0.037364039948604107 -0.020388490341340573 0 0.037825806216292064 -0.021234194499899776 0 0.038202788300480572 -0.020208944739985482 0 0.037364039948604107 -0.020388490341340573 0 0.038854833589356701 -0.020133307343280074 0 0.038070991193861314 -0.019378120705458423 0 0.03803097011346214 -0.018568615282726433 0 0.038648280540520837 -0.0175947325227667 0 0.037847758891980388 -0.0173591415682521 0 0.038202788300480572 -0.020208944739985482 0 0.037364039948604107 -0.020388490341340573 0 0.037488145751436448 -0.018896441641513186 0 0.038070991193861314 -0.019378120705458423 0 0.037273524716678989 -0.018369473587850804 0 0.03803097011346214 -0.018568615282726433 0 0.037847758891980388 -0.0173591415682521 0 0.037139620001775994 -0.017882959361857905 0 0.037941861230117016 -0.02078348889371455 0 0.035411425018765055 -0.018014767330849151 0 0.039624931931302558 -0.019322353549796362 0 0.039471389570509309 -0.018630817932425148 0 0.039268834954940893 -0.018836050883524445 0 0.03627968947463759 -0.021267340948730062 0 0.036131888427021093 -0.02163352698025436 0 0.036153142524593042 -0.02117982037115463 0 0.039489862702953557 -0.018621413693092836 0 0.039268834954940893 -0.018836050883524445 0 0.038940389072585908 -0.018444822522981939 0 0.035411425018765055 -0.018014767330849151 0 0.037773499761416501 -0.017527067567780469 0 0.031910407535292139 -0.017611370579428454 0 0.035411425018765055 -0.018014767330849151 0 0.036210672726097314 -0.021253019218856486 0 0.03627968947463759 -0.021267340948730062 0 0.036153142524593042 -0.02117982037115463 0 0.036226158198718036 -0.021322811434562595 0 0.036210672726097314 -0.021253019218856486 0 0.036153142524593042 -0.02117982037115463 0 0.038893545820815861 -0.01927951859838109 0 0.039268834954940893 -0.018836050883524445 0 0.038940389072585908 -0.018444822522981939 0 0.038893545820815861 -0.01927951859838109 0 0.03803097011346214 -0.018568615282726433 0 0.038940389072585908 -0.018444822522981939 0 0.03803097011346214 -0.018568615282726433 0 0.038940389072585908 -0.018444822522981939 0 0.038648280540520837 -0.0175947325227667 0 0.038940389072585908 -0.018444822522981939 0 0.039334945695198457 -0.017707891307701749 0 0.038648280540520837 -0.0175947325227667 0 0.035411425018765055 -0.018014767330849151 0 0.034671215234144862 -0.015758319389529565 0 0.029500954519409171 -0.014052223230990707 0 0.029995812956045774 -0.013635373347313056 0 0.0297068592021291 -0.014421424708630174 0 0.039489862702953557 -0.018621413693092836 0 0.038940389072585908 -0.018444822522981939 0 0.039334945695198457 -0.017707891307701749 0 0.029995812956045774 -0.013635373347313056 0 0.0297068592021291 -0.014421424708630174 0 0.030223663356358978 -0.014729043115383603 0 0.0297068592021291 -0.014421424708630174 0 0.029586527129071685 -0.015041233143395441 0 0.030223663356358978 -0.014729043115383603 0 0.034671215234144862 -0.015758319389529565 0 0.034834399134434806 -0.016739622163345767 0 0.029586527129071685 -0.015041233143395441 0 0.030223663356358978 -0.014729043115383603 0 0.030497341976879488 -0.015883109418622893 0 0.039334945695198457 -0.017707891307701749 0 0.038648280540520837 -0.0175947325227667 0 0.039194034875653212 -0.016759094314757007 0 0.038648280540520837 -0.0175947325227667 0 0.039194034875653212 -0.016759094314757007 0 0.038558321900521511 -0.01664028943531538 0 0.039194034875653212 -0.016759094314757007 0 0.038558321900521511 -0.01664028943531538 0 0.039024483523525659 -0.015770347992050994 0 0.030497341976879488 -0.015883109418622893 0 0.029668109806977046 -0.016549387568265083 0 0.029268325820524563 -0.015798827462514299 0 0.029586527129071685 -0.015041233143395441 0 0.030497341976879488 -0.015883109418622893 0 0.029268325820524563 -0.015798827462514299 0 0.037847758891980388 -0.0173591415682521 0 0.037139620001775994 -0.017882959361857905 0 0.037054289405349543 -0.016851050155865483 0 0.038648280540520837 -0.0175947325227667 0 0.037847758891980388 -0.0173591415682521 0 0.038558321900521511 -0.01664028943531538 0 0.037847758891980388 -0.0173591415682521 0 0.038558321900521511 -0.01664028943531538 0 0.037772566876626182 -0.016306932934401681 0 0.037847758891980388 -0.0173591415682521 0 0.037772566876626182 -0.016306932934401681 0 0.037054289405349543 -0.016851050155865483 0 0.037772566876626182 -0.016306932934401681 0 0.037054289405349543 -0.016851050155865483 0 0.036941336050251398 -0.015599069260240451 0 0.037772566876626182 -0.016306932934401681 0 0.037759834580923392 -0.015202620019748984 0 0.036941336050251398 -0.015599069260240451 0 0.038558321900521511 -0.01664028943531538 0 0.037772566876626182 -0.016306932934401681 0 0.03845826998273362 -0.015919931372236351 0 0.037772566876626182 -0.016306932934401681 0 0.03845826998273362 -0.015919931372236351 0 0.037759834580923392 -0.015202620019748984 0 0.038517328322356235 -0.015098004727165578 0 0.037759834580923392 -0.015202620019748984 0 0.038164884801394135 -0.014176390025119867 0 0.03845826998273362 -0.015919931372236351 0 0.038517328322356235 -0.015098004727165578 0 0.037759834580923392 -0.015202620019748984 0 0.037759834580923392 -0.015202620019748984 0 0.036941336050251398 -0.015599069260240451 0 0.037252606949543611 -0.014210725058200724 0 0.029668109806977046 -0.016549387568265083 0 0.030793514559516819 -0.017067535361923656 0 0.02941720967632571 -0.017415393279867446 0 0.030497341976879488 -0.015883109418622893 0 0.029668109806977046 -0.016549387568265083 0 0.030793514559516819 -0.017067535361923656 0 0.034834399134434806 -0.016739622163345767 0 0.035901109117237186 -0.014558353338021418 0 0.038558321900521511 -0.01664028943531538 0 0.03845826998273362 -0.015919931372236351 0 0.039024483523525659 -0.015770347992050994 0 0.039210612759074157 -0.015429605739922369 0 0.035901109117237186 -0.014558353338021418 0 0.03845826998273362 -0.015919931372236351 0 0.038517328322356235 -0.015098004727165578 0 0.03924286648757163 -0.015696258164378259 0 0.035901109117237186 -0.014558353338021418 0 0.038307017361132782 -0.011302826789575983 0 0.038517328322356235 -0.015098004727165578 0 0.03924286648757163 -0.015696258164378259 0 0.038996168511723162 -0.014459496059345187 0 0.037106496457906861 -0.0076876068674821343 0 0.03653121734687502 -0.008531383325355503 0 0.037450150364881807 -0.0091499520994512782 0 0.03653121734687502 -0.008531383325355503 0 0.035414617737625928 -0.0080542468859500834 0 0.036132250201248307 -0.0092192252755725398 0 0.035901109117237186 -0.014558353338021418 0 0.032106492380762595 -0.012555951863270362 0 0.037106496457906861 -0.0076876068674821343 0 0.03653121734687502 -0.008531383325355503 0 0.035414617737625928 -0.0080542468859500834 0 0.035414617737625928 -0.0080542468859500834 0 0.033674740623487277 -0.0084636550968299092 0 0.034762434090285801 -0.0095022413657723862 0 0.032106492380762595 -0.012555951863270362 0 0.030761455016826283 -0.013059371902333758 0 0.029668109806977046 -0.016549387568265083 0 0.02941720967632571 -0.017415393279867446 0 0.028346148252024854 -0.016600454707751056 0 0.028346148252024854 -0.016600454707751056 0 0.028048642839450189 -0.017685835859568531 0 0.026960591137887575 -0.017107636692165442 0 0.02941720967632571 -0.017415393279867446 0 0.028346148252024854 -0.016600454707751056 0 0.028048642839450189 -0.017685835859568531 0 0.028048642839450189 -0.017685835859568531 0 0.026960591137887575 -0.017107636692165442 0 0.02682560532620604 -0.017833483900477794 0 0.030761455016826283 -0.013059371902333758 0 0.030315708237438531 -0.013789294899611696 0 0.026364499253251159 -0.0171360294133991 0 0.02682560532620604 -0.017833483900477794 0 0.025982847619826093 -0.017478781781429881 0 0.026364499253251159 -0.0171360294133991 0 0.026960591137887575 -0.017107636692165442 0 0.02682560532620604 -0.017833483900477794 0 0.026456518137296207 -0.016677457367834256 0 0.026960591137887575 -0.017107636692165442 0 0.026866772159485915 -0.016345237420481759 0 0.026364499253251159 -0.0171360294133991 0 0.026456518137296207 -0.016677457367834256 0 0.026960591137887575 -0.017107636692165442 0 0.028346148252024854 -0.016600454707751056 0 0.026960591137887575 -0.017107636692165442 0 0.026866772159485915 -0.016345237420481759 0 0.026866772159485915 -0.016345237420481759 0 0.027948149439096487 -0.015305513274599369 0 0.027910993162255 -0.016017368686092496 0 0.026866772159485915 -0.016345237420481759 0 0.02680941867810616 -0.016450301966545153 0 0.026385337731629734 -0.016492496937562925 0 0.026867302703280419 -0.016315203248139818 0 0.027147832806303573 -0.015895528368135927 0 0.025055439719196472 -0.017538742676034447 0 0.024771034713661225 -0.01897953063943441 0 0.026456518137296207 -0.016677457367834256 0 0.026866772159485915 -0.016345237420481759 0 0.026186325572818445 -0.016238723804295863 0 0.026866772159485915 -0.016345237420481759 0 0.02680941867810616 -0.016450301966545153 0 0.026186325572818445 -0.016238723804295863 0 0.022507600717374635 -0.018644402822371189 0 0.023737954383145059 -0.018841675512581525 0 0.02134259231436015 -0.019961675317917673 0 0.023947338885628944 -0.017942810853244638 0 0.022291314042933528 -0.018531953430837189 0 0.022507600717374635 -0.018644402822371189 0 0.023947338885628944 -0.017942810853244638 0 0.022836042390589152 -0.017697525134654755 0 0.022353077684415471 -0.018778213351108484 0 0.022284821832513919 -0.018525642311047967 0 0.022507600717374635 -0.018644402822371189 0 0.02134259231436015 -0.019961675317917673 0 0.023984697281235961 -0.01797994464868781 0 0.021571252616606078 -0.018277653830164432 0 0.021571252616606078 -0.018277653830164432 0 0.021772217992144596 -0.018369717257962454 0 0.023947338885628944 -0.017942810853244638 0 0.022507600717374635 -0.018644402822371189 0 0.023737954383145059 -0.018841675512581525 0 0.024607742798619568 -0.017795153432862518 0 0.023947338885628944 -0.017942810853244638 0 0.023737954383145059 -0.018841675512581525 0 0.02589920631664009 -0.017410441366891051 0 0.025963792099914885 -0.017391344628488119 0 0.026385337731629734 -0.016492496937562925 0 0.027826038838660219 -0.016339340751438058 0 0.027147832806303573 -0.015895528368135927 0 0.02900674643428466 -0.014441665414577514 0 0.027948149439096487 -0.015305513274599369 0 0.028873833418940863 -0.01525619251648812 0 0.025981368264437144 -0.017426702341407932 0 0.025055439719196472 -0.017538742676034447 0 0.024607742798619568 -0.017795153432862518 0 0.025963792099914885 -0.017391344628488119 0 0.023737954383145059 -0.018841675512581525 0 0.025963792099914885 -0.017391344628488119 0 0.02680941867810616 -0.016450301966545153 0 0.026385337731629734 -0.016492496937562925 0 0.027948149439096487 -0.015305513274599369 0 0.028873833418940863 -0.01525619251648812 0 0.028467345938273728 -0.015802061116485851 0 0.02900674643428466 -0.014441665414577514 0 0.029586527129071685 -0.015041233143395441 0 0.028873833418940863 -0.01525619251648812 0 0.029586527129071685 -0.015041233143395441 0 0.028873833418940863 -0.01525619251648812 0 0.029268325820524563 -0.015798827462514299 0 0.029668109806977046 -0.016549387568265083 0 0.028346148252024854 -0.016600454707751056 0 0.029268325820524563 -0.015798827462514299 0 0.028873833418940863 -0.01525619251648812 0 0.029268325820524563 -0.015798827462514299 0 0.028467345938273728 -0.015802061116485851 0 0.028346148252024854 -0.016600454707751056 0 0.029268325820524563 -0.015798827462514299 0 0.028467345938273728 -0.015802061116485851 0 0.028346148252024854 -0.016600454707751056 0 0.026866772159485915 -0.016345237420481759 0 0.027910993162255 -0.016017368686092496 0 0.028346148252024854 -0.016600454707751056 0 0.027910993162255 -0.016017368686092496 0 0.028467345938273728 -0.015802061116485851 0 0.027948149439096487 -0.015305513274599369 0 0.027910993162255 -0.016017368686092496 0 0.028467345938273728 -0.015802061116485851 0 0.046049177620925918 -0.018063444223611454 0 0.044999894670851477 -0.017229721287247847 0 0.046370278793195857 -0.016541254794130402 0 0.04631950304955787 -0.018384064704271303 0 0.045000110636499481 -0.017230067734151793 0 0.046049177620925918 -0.018063444223611454 0 0.047114039561143572 -0.018957081093440964 0 0.047882542959381262 -0.016583636104667423 0 0.046049177620925918 -0.018063444223611454 0 0.047882542959381262 -0.016583636104667423 0 0.046370278793195857 -0.016541254794130402 0 0.042836427573712997 -0.02111530754364874 0 0.039873464301389598 -0.017157085681906863 0 0.04631950304955787 -0.018384064704271303 0 0.042836427573712997 -0.02111530754364874 0 0.04614867217817905 -0.018178106286462579 0 0.047283664217412494 -0.019122229389295673 0 0.046140276465189284 -0.020084288950058822 0 0.04614867217817905 -0.018178106286462579 0 0.044999979771648164 -0.019527018967423707 0 0.046140276465189284 -0.020084288950058822 0 0.04614867217817905 -0.018178106286462579 0 0.044999995103237031 -0.017229996149042845 0 0.044999979771648164 -0.019527018967423707 0 0.044999979771648164 -0.019527018967423707 0 0.046140276465189284 -0.020084288950058822 0 0.044999988101568786 -0.021824039308792086 0 0.044909661888911954 -0.028668801496607561 0 0.045276251849330207 -0.027597408979822251 0 0.044086670035564317 -0.028261236451681871 0 0.045772500587753222 -0.023981473793818566 0 0.044999988101568786 -0.021824039308792086 0 0.046533943561123503 -0.021553615216966453 0 0.046140276465189284 -0.020084288950058822 0 0.044999988101568786 -0.021824039308792086 0 0.046533943561123503 -0.021553615216966453 0 0.047283664217412494 -0.019122229389295673 0 0.046140276465189284 -0.020084288950058822 0 0.046533943561123503 -0.021553615216966453 0 0.042836427573712997 -0.02111530754364874 0 0.04628752573132202 -0.025098770219090204 0 0.044699409887406415 -0.027005763469129581 0 0.045276251849330207 -0.027597408979822251 0 0.044086670035564317 -0.028261236451681871 0 0.042836427573712997 -0.02111530754364874 0 0.038060858785156221 -0.025029800859291358 0 0.044699409887406415 -0.027005763469129581 0 0.043575921327142116 -0.026928777365700034 0 0.044086670035564317 -0.028261236451681871 0 0.038060858785156221 -0.025029800859291358 0 0.037811631080469435 -0.024318975651132935 0 0.043575921327142116 -0.026928777365700034 0 0.044086670035564317 -0.028261236451681871 0 0.040526176920345762 -0.026784057987457803 0 0.033543146624613815 -0.021055292776053395 0 0.034355666720810883 -0.020436701156207205 0 0.034671119522777565 -0.021182250747010613 0 0.033543146624613815 -0.021055292776053395 0 0.033639527905658315 -0.01957552601029169 0 0.034355666720810883 -0.020436701156207205 0 0.032271388469395319 -0.019968612173639662 0 0.033543146624613815 -0.021055292776053395 0 0.033639527905658315 -0.01957552601029169 0 0.032271388469395319 -0.019968612173639662 0 0.033639527905658315 -0.01957552601029169 0 0.032700080408106735 -0.018305051736945185 0 0.033639527905658315 -0.01957552601029169 0 0.034217615246480843 -0.018604939404216817 0 0.032700080408106735 -0.018305051736945185 0 0.033639527905658315 -0.01957552601029169 0 0.034217615246480843 -0.018604939404216817 0 0.035050118316195353 -0.019686839919930806 0 0.034217615246480843 -0.018604939404216817 0 0.035407089063227912 -0.018516577872309918 0 0.035050118316195353 -0.019686839919930806 0 0.035407089063227912 -0.018516577872309918 0 0.035050118316195353 -0.019686839919930806 0 0.03636087505042402 -0.019487179195404387 0 0.035860298303486034 -0.020372534784864366 0 0.035050118316195353 -0.019686839919930806 0 0.03636087505042402 -0.019487179195404387 0 0.035860298303486034 -0.020372534784864366 0 0.035050118316195353 -0.019686839919930806 0 0.035207242804319472 -0.020759400496620402 0 0.033639527905658315 -0.01957552601029169 0 0.035050118316195353 -0.019686839919930806 0 0.034355666720810883 -0.020436701156207205 0 0.035050118316195353 -0.019686839919930806 0 0.034355666720810883 -0.020436701156207205 0 0.035207242804319472 -0.020759400496620402 0 0.034355666720810883 -0.020436701156207205 0 0.034671119522777565 -0.021182250747010613 0 0.035207242804319472 -0.020759400496620402 0 0.034671119522777565 -0.021182250747010613 0 0.035491608395235519 -0.021533061663154975 0 0.035207242804319472 -0.020759400496620402 0 0.034671119522777565 -0.021182250747010613 0 0.034851443635759698 -0.022112380928996169 0 0.035491608395235519 -0.021533061663154975 0 0.033543146624613815 -0.021055292776053395 0 0.034671119522777565 -0.021182250747010613 0 0.034851443635759698 -0.022112380928996169 0 0.035959876867139924 -0.022204442670064245 0 0.034851443635759698 -0.022112380928996169 0 0.035491608395235519 -0.021533061663154975 0 0.035959876867139924 -0.022204442670064245 0 0.035491608395235519 -0.021533061663154975 0 0.036216233623756505 -0.021858770147973293 0 0.035491608395235519 -0.021533061663154975 0 0.036045939249678409 -0.021162652169441541 0 0.036216233623756505 -0.021858770147973293 0 0.035491608395235519 -0.021533061663154975 0 0.036045939249678409 -0.021162652169441541 0 0.035207242804319472 -0.020759400496620402 0 0.035860298303486034 -0.020372534784864366 0 0.036045939249678409 -0.021162652169441541 0 0.035207242804319472 -0.020759400496620402 0 0.036045939249678409 -0.021162652169441541 0 0.036658849234999444 -0.020770057262449279 0 0.03672427925896541 -0.021657258835538807 0 0.035860298303486034 -0.020372534784864366 0 0.036045939249678409 -0.021162652169441541 0 0.036658849234999444 -0.020770057262449279 0 0.036045939249678409 -0.021162652169441541 0 0.03672427925896541 -0.021657258835538807 0 0.036216233623756505 -0.021858770147973293 0 0.036686225239225413 -0.022390290028164866 0 0.03672427925896541 -0.021657258835538807 0 0.036216233623756505 -0.021858770147973293 0 0.037233058821077185 -0.022256670558734461 0 0.03672427925896541 -0.021657258835538807 0 0.037313683790511191 -0.021445457581741802 0 0.036658849234999444 -0.020770057262449279 0 0.037313683790511191 -0.021445457581741802 0 0.037364039948604107 -0.020388490341340573 0 0.036658849234999444 -0.020770057262449279 0 0.03672427925896541 -0.021657258835538807 0 0.037313683790511191 -0.021445457581741802 0 0.036658849234999444 -0.020770057262449279 0 0.037364039948604107 -0.020388490341340573 0 0.03636087505042402 -0.019487179195404387 0 0.035860298303486034 -0.020372534784864366 0 0.036658849234999444 -0.020770057262449279 0 0.03636087505042402 -0.019487179195404387 0 0.037364039948604107 -0.020388490341340573 0 0.03636087505042402 -0.019487179195404387 0 0.037488145751436448 -0.018896441641513186 0 0.037273524716678989 -0.018369473587850804 0 0.036277569593857452 -0.017442190771158432 0 0.037139620001775994 -0.017882959361857905 0 0.036248703139433999 -0.017398895456124188 0 0.037054289405349543 -0.016851050155865483 0 0.03636087505042402 -0.019487179195404387 0 0.037488145751436448 -0.018896441641513186 0 0.036248703139433999 -0.017398895456124188 0 0.035407089063227912 -0.018516577872309918 0 0.03636087505042402 -0.019487179195404387 0 0.036248703139433999 -0.017398895456124188 0 0.036248703139433999 -0.017398895456124188 0 0.037054289405349543 -0.016851050155865483 0 0.036250206793754666 -0.016206221906074941 0 0.036248703139433999 -0.017398895456124188 0 0.036250206793754666 -0.016206221906074941 0 0.035056564074145695 -0.015967414209853613 0 0.037054289405349543 -0.016851050155865483 0 0.036941336050251398 -0.015599069260240451 0 0.036250206793754666 -0.016206221906074941 0 0.036941336050251398 -0.015599069260240451 0 0.03582174273202559 -0.015218408267550295 0 0.036356965582293961 -0.014239282171201498 0 0.036941336050251398 -0.015599069260240451 0 0.03582174273202559 -0.015218408267550295 0 0.036250206793754666 -0.016206221906074941 0 0.03582174273202559 -0.015218408267550295 0 0.036250206793754666 -0.016206221906074941 0 0.035056564074145695 -0.015967414209853613 0 0.03582174273202559 -0.015218408267550295 0 0.035056564074145695 -0.015967414209853613 0 0.035238659407469279 -0.014288848910549731 0 0.035056564074145695 -0.015967414209853613 0 0.033711683923561199 -0.015014450246096598 0 0.035238659407469279 -0.014288848910549731 0 0.035056564074145695 -0.015967414209853613 0 0.034797695383003306 -0.017409192347541042 0 0.033178431243217496 -0.016609616518648122 0 0.036248703139433999 -0.017398895456124188 0 0.035056564074145695 -0.015967414209853613 0 0.034797695383003306 -0.017409192347541042 0 0.035407089063227912 -0.018516577872309918 0 0.036248703139433999 -0.017398895456124188 0 0.034797695383003306 -0.017409192347541042 0 0.034217615246480843 -0.018604939404216817 0 0.035407089063227912 -0.018516577872309918 0 0.034797695383003306 -0.017409192347541042 0 0.034217615246480843 -0.018604939404216817 0 0.032700080408106735 -0.018305051736945185 0 0.033178431243217496 -0.016609616518648122 0 0.034217615246480843 -0.018604939404216817 0 0.034797695383003306 -0.017409192347541042 0 0.033178431243217496 -0.016609616518648122 0 0.039873464301389598 -0.017157085681906863 0 0.040953252021690242 -0.01541342193657067 0 0.047882542959381262 -0.016583636104667423 0 0.04861767801289426 -0.014118105428515475 0 0.047099870657928679 -0.015090766348210343 0 0.040953252021690242 -0.01541342193657067 0 0.041478305059480164 -0.013370988147601601 0 0.035056564074145695 -0.015967414209853613 0 0.033178431243217496 -0.016609616518648122 0 0.033711683923561199 -0.015014450246096598 0 0.04861767801289426 -0.014118105428515475 0 0.049277802992102347 -0.011673114990321263 0 0.047157617068886118 -0.011672286627927695 0 0.04861767801289426 -0.014118105428515475 0 0.046614840614699067 -0.013552071099690382 0 0.047157617068886118 -0.011672286627927695 0 0.047157617068886118 -0.011672286627927695 0 0.044999915269063794 -0.012276231290686836 0 0.046218593443455157 -0.010543624847459071 0 0.046614840614699067 -0.013552071099690382 0 0.047157617068886118 -0.011672286627927695 0 0.044999915269063794 -0.012276231290686836 0 0.046614840614699067 -0.013552071099690382 0 0.044999915269063794 -0.012276231290686836 0 0.044999910448706458 -0.014753158224055081 0 0.046614840614699067 -0.013552071099690382 0 0.044999910448706458 -0.014753158224055081 0 0.047099870657928679 -0.015090766348210343 0 0.04861767801289426 -0.014118105428515475 0 0.046614840614699067 -0.013552071099690382 0 0.047099870657928679 -0.015090766348210343 0 0.047882542959381262 -0.016583636104667423 0 0.047099870657928679 -0.015090766348210343 0 0.046370278793195857 -0.016541254794130402 0 0.044999910448706458 -0.014753158224055081 0 0.047099870657928679 -0.015090766348210343 0 0.046370278793195857 -0.016541254794130402 0 0.044999894670851477 -0.017229721287247847 0 0.044999910448706458 -0.014753158224055081 0 0.046370278793195857 -0.016541254794130402 0 0.04617388051086329 -0.0071980883843144614 0 0.046106534144266409 -0.0050829976429114356 0 0.046262401572366878 -0.0070003607536711391 0 0.045627187567480604 -0.0060130108705447405 0 0.04624835885295743 -0.0048827929741015724 0 0.045627187567480604 -0.0060130108705447405 0 0.044999962846971803 -0.0073226018989444282 0 0.044999998024284567 -0.0048456991684800409 0 0.046262401572366878 -0.0070003607536711391 0 0.045627187567480604 -0.0060130108705447405 0 0.044999962846971803 -0.0073226018989444282 0 0.046096281623727815 -0.0073608246615207342 0 0.047283453579755448 -0.006319037929680249 0 0.045955261646344663 -0.0052983785026722869 0 0.046096281623727815 -0.0073608246615207342 0 0.047283453579755448 -0.006319037929680249 0 0.047460831115351029 -0.0074889462746426626 0 0.046096281623727815 -0.0073608246615207342 0 0.047460831115351029 -0.0074889462746426626 0 0.047020489750591934 -0.0084068512962839643 0 0.046096281623727815 -0.0073608246615207342 0 0.047020489750591934 -0.0084068512962839643 0 0.046206526643319423 -0.0091832763849140422 0 0.047460831115351029 -0.0074889462746426626 0 0.047020489750591934 -0.0084068512962839643 0 0.048072708620390467 -0.0083153394048553816 0 0.046262401572366878 -0.0070003607536711391 0 0.044999962846971803 -0.0073226018989444282 0 0.046206526643319423 -0.0091832763849140422 0 0.04617388051086329 -0.0071980883843144614 0 0.046203584586182553 -0.0090359526627636771 0 0.046206526643319423 -0.0091832763849140422 0 0.044999929780689743 -0.0097995605085458674 0 0.046218593443455157 -0.010543624847459071 0 0.044999962846971803 -0.0073226018989444282 0 0.046206526643319423 -0.0091832763849140422 0 0.044999929780689743 -0.0097995605085458674 0 0.044999915269063794 -0.012276231290686836 0 0.044999929780689743 -0.0097995605085458674 0 0.046218593443455157 -0.010543624847459071 0 0.047157617068886118 -0.011672286627927695 0 0.046218593443455157 -0.010543624847459071 0 0.047657900331910946 -0.0098328159781941905 0 0.046206526643319423 -0.0091832763849140422 0 0.046218593443455157 -0.010543624847459071 0 0.047657900331910946 -0.0098328159781941905 0 0.047020489750591934 -0.0084068512962839643 0 0.046206526643319423 -0.0091832763849140422 0 0.047657900331910946 -0.0098328159781941905 0 0.047657900331910946 -0.0098328159781941905 0 0.049874581147515848 -0.0093221834864833514 0 0.048072708620390467 -0.0083153394048553816 0 0.047020489750591934 -0.0084068512962839643 0 0.047657900331910946 -0.0098328159781941905 0 0.048072708620390467 -0.0083153394048553816 0 0.049277802992102347 -0.011673114990321263 0 0.047157617068886118 -0.011672286627927695 0 0.047657900331910946 -0.0098328159781941905 0 0.049277802992102347 -0.011673114990321263 0 0.047657900331910946 -0.0098328159781941905 0 0.049874581147515848 -0.0093221834864833514 0 0.041478305059480164 -0.013370988147601601 0 0.042101866605325521 -0.011342544585248747 0 0.049874581147515848 -0.0093221834864833514 0 0.048072708620390467 -0.0083153394048553816 0 0.048805999546916293 -0.0070252925938747183 0 0.049874581147515848 -0.0093221834864833514 0 0.048805999546916293 -0.0070252925938747183 0 0.050407293930249224 -0.0071396828098397869 0 0.047460831115351029 -0.0074889462746426626 0 0.048072708620390467 -0.0083153394048553816 0 0.048805999546916293 -0.0070252925938747183 0 0.047283453579755448 -0.006319037929680249 0 0.047460831115351029 -0.0074889462746426626 0 0.048805999546916293 -0.0070252925938747183 0 0.047283453579755448 -0.006319037929680249 0 0.048805999546916293 -0.0070252925938747183 0 0.048342553985284538 -0.0055132252694219909 0 0.048805999546916293 -0.0070252925938747183 0 0.050407293930249224 -0.0071396828098397869 0 0.049682159749573462 -0.0054311964900346588 0 0.034839797590109044 -0.012287915701171446 0 0.035827367984626164 -0.012251064561154388 0 0.035312314580338344 -0.011178787698994261 0 0.034839797590109044 -0.012287915701171446 0 0.035827367984626164 -0.012251064561154388 0 0.035186323109591293 -0.013119799363290096 0 0.035827367984626164 -0.012251064561154388 0 0.035186323109591293 -0.013119799363290096 0 0.036038854998911365 -0.013155816944875002 0 0.034269460853235269 -0.013568695536122206 0 0.034839797590109044 -0.012287915701171446 0 0.035186323109591293 -0.013119799363290096 0 0.042101866605325521 -0.011342544585248747 0 0.042495501653507864 -0.010255589538423817 0 0.034269460853235269 -0.013568695536122206 0 0.035186323109591293 -0.013119799363290096 0 0.035238659407469279 -0.014288848910549731 0 0.033711683923561199 -0.015014450246096598 0 0.034269460853235269 -0.013568695536122206 0 0.035238659407469279 -0.014288848910549731 0 0.035186323109591293 -0.013119799363290096 0 0.035238659407469279 -0.014288848910549731 0 0.036038854998911365 -0.013155816944875002 0 0.035238659407469279 -0.014288848910549731 0 0.036356965582293961 -0.014239282171201498 0 0.036038854998911365 -0.013155816944875002 0 0.03582174273202559 -0.015218408267550295 0 0.035238659407469279 -0.014288848910549731 0 0.036356965582293961 -0.014239282171201498 0 0.036941336050251398 -0.015599069260240451 0 0.036356965582293961 -0.014239282171201498 0 0.037252606949543611 -0.014210725058200724 0 0.036356965582293961 -0.014239282171201498 0 0.036855400548197893 -0.01306085116561922 0 0.036038854998911365 -0.013155816944875002 0 0.036356965582293961 -0.014239282171201498 0 0.036855400548197893 -0.01306085116561922 0 0.037252606949543611 -0.014210725058200724 0 0.036855400548197893 -0.01306085116561922 0 0.036038854998911365 -0.013155816944875002 0 0.036553487704632341 -0.012430889299907637 0 0.036855400548197893 -0.01306085116561922 0 0.036553487704632341 -0.012430889299907637 0 0.037058371370093268 -0.012299662466826235 0 0.035827367984626164 -0.012251064561154388 0 0.036038854998911365 -0.013155816944875002 0 0.036553487704632341 -0.012430889299907637 0 0.035827367984626164 -0.012251064561154388 0 0.036553487704632341 -0.012430889299907637 0 0.036514927371317646 -0.011924931511898098 0 0.035827367984626164 -0.012251064561154388 0 0.036514927371317646 -0.011924931511898098 0 0.036084605000780971 -0.011633502659947717 0 0.036888945003965841 -0.011996819162204712 0 0.036553487704632341 -0.012430889299907637 0 0.036514927371317646 -0.011924931511898098 0 0.036888945003965841 -0.011996819162204712 0 0.036553487704632341 -0.012430889299907637 0 0.037058371370093268 -0.012299662466826235 0 0.036528041282832997 -0.011420539741097307 0 0.036807168327413431 -0.011658348364536865 0 0.036748912631927338 -0.011474683539054547 0 0.036528041282832997 -0.011420539741097307 0 0.036807168327413431 -0.011658348364536865 0 0.036514927371317646 -0.011924931511898098 0 0.036807168327413431 -0.011658348364536865 0 0.036748912631927338 -0.011474683539054547 0 0.036924761904620761 -0.011457347650294946 0 0.036807168327413431 -0.011658348364536865 0 0.037026510217727238 -0.011624448209613582 0 0.037049364825858459 -0.011794072131653767 0 0.036807168327413431 -0.011658348364536865 0 0.036924761904620761 -0.011457347650294946 0 0.037026510217727238 -0.011624448209613582 0 0.036888945003965841 -0.011996819162204712 0 0.036807168327413431 -0.011658348364536865 0 0.036514927371317646 -0.011924931511898098 0 0.036888945003965841 -0.011996819162204712 0 0.036807168327413431 -0.011658348364536865 0 0.037049364825858459 -0.011794072131653767 0 0.036528041282832997 -0.011420539741097307 0 0.036514927371317646 -0.011924931511898098 0 0.036084605000780971 -0.011633502659947717 0 0.036528041282832997 -0.011420539741097307 0 0.036084605000780971 -0.011633502659947717 0 0.036020318519573054 -0.011123155663497973 0 0.036298673268464671 -0.0067845673068863766 0 0.036331981660166879 -0.0044150968968621734 0 0.038585170867240746 -0.001862561862239587 0 0.039187225871396364 -0.0017247121336772307 0 0.038566141265269083 -0.0013304206769023381 0 0.036528041282832997 -0.011420539741097307 0 0.036020318519573054 -0.011123155663497973 0 0.036820547538795961 -0.010950788776534796 0 0.035919760723710781 -0.011035059689800258 0 0.036469284235357412 -0.008234365423487721 0 0.036528041282832997 -0.011420539741097307 0 0.036820547538795961 -0.010950788776534796 0 0.036918891048332507 -0.011062636093386492 0 0.036528041282832997 -0.011420539741097307 0 0.036748912631927338 -0.011474683539054547 0 0.036841258508633942 -0.01134918539599377 0 0.036748912631927338 -0.011474683539054547 0 0.036924761904620761 -0.011457347650294946 0 0.036841258508633942 -0.01134918539599377 0 0.037074598506662018 -0.0093194695390343765 0 0.036469284235357412 -0.008234365423487721 0 0.036331981660166879 -0.0044150968968621734 0 0.036469284235357412 -0.008234365423487721 0 0.036924761904620761 -0.011457347650294946 0 0.03690265275491153 -0.011416019471723158 0 0.037009755605213947 -0.011377525704848623 0 0.036924761904620761 -0.011457347650294946 0 0.037009755605213947 -0.011377525704848623 0 0.03703497301947601 -0.011511486314594182 0 0.036469284235357412 -0.008234365423487721 0 0.034819671812519062 -0.004704138084019832 0 0.036331981660166879 -0.0044150968968621734 0 0.034819671812519062 -0.004704138084019832 0 0.036801301007123567 -0.0048754423041740338 0 0.036240351720507442 -0.0042355615417228008 0 0.034958536737666281 -0.0053039455386314537 0 0.033492421476038668 0.00039812388259338348 0 0.03357142253420644 0.00042177086307692413 0 0.033535901062551013 0.00068191306805136026 0 0.033492421476038668 0.00039812388259338348 0 0.033535901062551013 0.00068191306805136026 0 0.033263327645672428 0.0007074524296094536 0 0.031276493976544507 0.006091126612815973 0 0.034582032980327485 0.0029194755620900663 0 0.030339212207058076 0.010224735558617283 0 0.030429872459614656 0.010212685399462986 0 0.030550073766238479 0.010188463770585045 0 0.030256893174692923 0.010251623348542321 0 0.030339212207058076 0.010224735558617283 0 0.030429872459614656 0.010212685399462986 0 0.030605905391010369 0.010197674122142297 0 0.030545512197215841 0.010164428868418878 0 0.030522904199388436 0.010086611081082695 0 0.030605905391010369 0.010197674122142297 0 0.030429872459614656 0.010212685399462986 0 0.030545512197215841 0.010164428868418878 0 0.030362914914504775 0.010232584050845843 0 0.030605905391010369 0.010197674122142297 0 0.030429872459614656 0.010212685399462986 0 0.030429872459614656 0.010212685399462986 0 0.030545512197215841 0.010164428868418878 0 0.030550073766238479 0.010188463770585045 0 0.030545512197215841 0.010164428868418878 0 0.030550073766238479 0.010188463770585045 0 0.030522904199388436 0.010086611081082695 0 0.034582032980327485 0.0029194755620900663 0 0.042009726417218583 0.0039238033631357038 0 0.034582032980327485 0.0029194755620900663 0 0.036694357264659895 0.0021806301734757019 0 0.038601801506493373 -0.00089150082637554074 0 0.038439447687982388 -0.0008938938494181634 0 0.038367966177193111 -0.00060887389067614678 0 0.036331981660166879 -0.0044150968968621734 0 0.034582032980327485 0.0029194755620900663 0 0.039187225871396364 -0.0017247121336772307 0 0.03858166240588045 -0.00091146647676480189 0 0.038566141265269083 -0.0013304206769023381 0 0.03858166240588045 -0.00091146647676480189 0 0.038566141265269083 -0.0013304206769023381 0 0.038439447687982388 -0.0008938938494181634 0 0.045548965499174698 -0.0021287204222759024 0 0.042009726417218583 0.0039238033631357038 0 0.038173654838213375 -0.0013530762310421539 0 0.038439447687982388 -0.0008938938494181634 0 0.038367966177193111 -0.00060887389067614678 0 0.052423262600112035 -0.0026130960937157822 0 0.052950319860625525 -0.00075923898612640609 0 0.051022208797359137 -0.0012457357309076872 0 0.038566141265269083 -0.0013304206769023381 0 0.038173654838213375 -0.0013530762310421539 0 0.038439447687982388 -0.0008938938494181634 0 0.051526834873311819 0.00091687315567287391 0 0.052950319860625525 -0.00075923898612640609 0 0.051022208797359137 -0.0012457357309076872 0 0.051526834873311819 0.00091687315567287391 0 0.051022208797359137 -0.0012457357309076872 0 0.049563464813444341 -0.00019737007650570852 0 0.052423262600112035 -0.0026130960937157822 0 0.051022208797359137 -0.0012457357309076872 0 0.050653861119697108 -0.0030574137737209347 0 0.052423262600112035 -0.0026130960937157822 0 0.050653861119697108 -0.0030574137737209347 0 0.051864625264282732 -0.0044754221609688153 0 0.050653861119697108 -0.0030574137737209347 0 0.051864625264282732 -0.0044754221609688153 0 0.050173943521236594 -0.004937662810507764 0 0.038585170867240746 -0.001862561862239587 0 0.038173654838213375 -0.0013530762310421539 0 0.038009525290292084 -0.0020300983097243648 0 0.045548965499174698 -0.0021287204222759024 0 0.043503342363154889 -0.0058875694104897989 0 0.036298673268464671 -0.0067845673068863766 0 0.043503342363154889 -0.0058875694104897989 0 0.038585170867240746 -0.001862561862239587 0 0.038566141265269083 -0.0013304206769023381 0 0.038173654838213375 -0.0013530762310421539 0 0.035827367984626164 -0.012251064561154388 0 0.036084605000780971 -0.011633502659947717 0 0.035312314580338344 -0.011178787698994261 0 0.036084605000780971 -0.011633502659947717 0 0.036020318519573054 -0.011123155663497973 0 0.035312314580338344 -0.011178787698994261 0 0.042495501653507864 -0.010255589538423817 0 0.043503342363154889 -0.0058875694104897989 0 0.050407293930249224 -0.0071396828098397869 0 0.050873147743528788 -0.0052433746803536713 0 0.049682159749573462 -0.0054311964900346588 0 0.043503342363154889 -0.0058875694104897989 0 0.051384025788661969 -0.0048698017891403295 0 0.048805999546916293 -0.0070252925938747183 0 0.049682159749573462 -0.0054311964900346588 0 0.048342553985284538 -0.0055132252694219909 0 0.051384025788661969 -0.0048698017891403295 0 0.04792599094725989 -0.0056204672828086069 0 0.050173943521236594 -0.004937662810507764 0 0.048342553985284538 -0.0055132252694219909 0 0.049248223537330146 -0.0037173897004623545 0 0.048342553985284538 -0.0055132252694219909 0 0.047744569318365182 -0.0035289669255008714 0 0.047196871911902187 -0.00498417028041426 0 0.047283453579755448 -0.006319037929680249 0 0.048342553985284538 -0.0055132252694219909 0 0.047196871911902187 -0.00498417028041426 0 0.048342553985284538 -0.0055132252694219909 0 0.047744569318365182 -0.0035289669255008714 0 0.049248223537330146 -0.0037173897004623545 0 0.050653861119697108 -0.0030574137737209347 0 0.050173943521236594 -0.004937662810507764 0 0.049248223537330146 -0.0037173897004623545 0 0.050653861119697108 -0.0030574137737209347 0 0.049248223537330146 -0.0037173897004623545 0 0.048998311460716357 -0.0018148982922153044 0 0.051022208797359137 -0.0012457357309076872 0 0.050653861119697108 -0.0030574137737209347 0 0.048998311460716357 -0.0018148982922153044 0 0.051022208797359137 -0.0012457357309076872 0 0.049563464813444341 -0.00019737007650570852 0 0.048998311460716357 -0.0018148982922153044 0 0.049563464813444341 -0.00019737007650570852 0 0.047749632952355694 -0.0004385861608074434 0 0.048998311460716357 -0.0018148982922153044 0 0.047749632952355694 -0.0004385861608074434 0 0.048998311460716357 -0.0018148982922153044 0 0.047238859730026873 -0.0018569057763989801 0 0.047744569318365182 -0.0035289669255008714 0 0.049248223537330146 -0.0037173897004623545 0 0.048998311460716357 -0.0018148982922153044 0 0.047744569318365182 -0.0035289669255008714 0 0.048998311460716357 -0.0018148982922153044 0 0.047238859730026873 -0.0018569057763989801 0 0.047744569318365182 -0.0035289669255008714 0 0.047238859730026873 -0.0018569057763989801 0 0.045929882006514836 -0.0029814884368761009 0 0.047238859730026873 -0.0018569057763989801 0 0.046113571871636581 -0.00067945769224477426 0 0.045929882006514836 -0.0029814884368761009 0 0.046527822296833658 0.00095606784642355126 0 0.047749632952355694 -0.0004385861608074434 0 0.046113571871636581 -0.00067945769224477426 0 0.047749632952355694 -0.0004385861608074434 0 0.047238859730026873 -0.0018569057763989801 0 0.046113571871636581 -0.00067945769224477426 0 0.044999868935651083 0.00010792631742217724 0 0.046113571871636581 -0.00067945769224477426 0 0.044999975098377942 -0.0023688080521241423 0 0.046100824785089867 -0.0008491512840580551 0 0.046079260685022556 -0.0028537588909634923 0 0.046113571871636581 -0.00067945769224477426 0 0.046211475834709324 -0.0027682143771998596 0 0.044999975098377942 -0.0023688080521241423 0 0.044999975098377942 -0.0023688080521241423 0 0.045614009504050132 -0.0037148424240651414 0 0.044999998024284567 -0.0048456991684800409 0 0.046211475834709324 -0.0027682143771998596 0 0.044999975098377942 -0.0023688080521241423 0 0.045614009504050132 -0.0037148424240651414 0 0.046211475834709324 -0.0027682143771998596 0 0.045614009504050132 -0.0037148424240651414 0 0.04624835885295743 -0.0048827929741015724 0 0.046079260685022556 -0.0028537588909634923 0 0.046106534144266409 -0.0050829976429114356 0 0.047744569318365182 -0.0035289669255008714 0 0.045929882006514836 -0.0029814884368761009 0 0.046666177076336517 -0.0041420218857123499 0 0.045929882006514836 -0.0029814884368761009 0 0.046666177076336517 -0.0041420218857123499 0 0.045955261646344663 -0.0052983785026722869 0 0.047744569318365182 -0.0035289669255008714 0 0.046666177076336517 -0.0041420218857123499 0 0.047196871911902187 -0.00498417028041426 0 0.046666177076336517 -0.0041420218857123499 0 0.047196871911902187 -0.00498417028041426 0 0.045955261646344663 -0.0052983785026722869 0 0.047283453579755448 -0.006319037929680249 0 0.047196871911902187 -0.00498417028041426 0 0.045955261646344663 -0.0052983785026722869 0 0.045627187567480604 -0.0060130108705447405 0 0.044999998024284567 -0.0048456991684800409 0 0.04624835885295743 -0.0048827929741015724 0 0.045614009504050132 -0.0037148424240651414 0 0.044999998024284567 -0.0048456991684800409 0 0.04624835885295743 -0.0048827929741015724 0 0.033783682742567725 -0.01175992181108277 0 0.033193354777793796 -0.011216923870135183 0 0.034421534919913337 -0.010949183885941797 0 0.033783682742567725 -0.01175992181108277 0 0.032932029346153156 -0.012274053825680642 0 0.033193354777793796 -0.011216923870135183 0 0.034631150157834571 -0.012488663045594279 0 0.034426311910843499 -0.011025903610715862 0 0.034421534919913337 -0.010949183885941797 0 0.035828020949699023 -0.0104820105724004 0 0.035664618150286938 -0.01262879486450097 0 0.033783682742567725 -0.01175992181108277 0 0.034365380892182218 -0.012145705367503217 0 0.034421534919913337 -0.010949183885941797 0 0.035052424500408214 -0.012880118687283969 0 0.034421534919913337 -0.010949183885941797 0 0.035664618150286938 -0.01262879486450097 0 0.035052424500408214 -0.012880118687283969 0 0.035664618150286938 -0.01262879486450097 0 0.035578373165050498 -0.014637206153933097 0 0.034365380892182218 -0.012145705367503217 0 0.033809777221962267 -0.012394312125336643 0 0.034098084252494811 -0.012637046596367735 0 0.033783682742567725 -0.01175992181108277 0 0.033809777221962267 -0.012394312125336643 0 0.032932029346153156 -0.012274053825680642 0 0.033783682742567725 -0.01175992181108277 0 0.034365380892182218 -0.012145705367503217 0 0.033809777221962267 -0.012394312125336643 0 0.025339368286917126 -0.0060806434844956755 0 0.021506654970647777 -0.005344430202011718 0 0.022511936295479019 -0.008048539507502929 0 0.025339368286917126 -0.0060806434844956755 0 0.021506654970647777 -0.005344430202011718 0 0.022539960553485627 -0.0019330246434316454 0 0.029021792848858318 -0.0091373569573961564 0 0.027254228619172417 -0.0055919698772349822 0 0.032932029346153156 -0.012274053825680642 0 0.031633228512572331 -0.010943846749957223 0 0.033193354777793796 -0.011216923870135183 0 0.031633228512572331 -0.010943846749957223 0 0.033193354777793796 -0.011216923870135183 0 0.033190979880634651 -0.0099549432580156288 0 0.031633228512572331 -0.010943846749957223 0 0.033190979880634651 -0.0099549432580156288 0 0.032009140386617882 -0.0088871603666791071 0 0.031633228512572331 -0.010943846749957223 0 0.032009140386617882 -0.0088871603666791071 0 0.030316998419134239 -0.0092790645966533674 0 0.030315708237438531 -0.013789294899611696 0 0.022924555058035853 -0.0082015439637470114 0 0.033674740623487277 -0.0084636550968299092 0 0.033190979880634651 -0.0099549432580156288 0 0.032009140386617882 -0.0088871603666791071 0 0.033674740623487277 -0.0084636550968299092 0 0.033190979880634651 -0.0099549432580156288 0 0.034762434090285801 -0.0095022413657723862 0 0.033190979880634651 -0.0099549432580156288 0 0.034421534919913337 -0.010949183885941797 0 0.034762434090285801 -0.0095022413657723862 0 0.033193354777793796 -0.011216923870135183 0 0.033190979880634651 -0.0099549432580156288 0 0.034421534919913337 -0.010949183885941797 0 0.034421534919913337 -0.010949183885941797 0 0.034762434090285801 -0.0095022413657723862 0 0.035828020949699023 -0.0104820105724004 0 0.035414617737625928 -0.0080542468859500834 0 0.034762434090285801 -0.0095022413657723862 0 0.036132250201248307 -0.0092192252755725398 0 0.034762434090285801 -0.0095022413657723862 0 0.036132250201248307 -0.0092192252755725398 0 0.035828020949699023 -0.0104820105724004 0 0.03653121734687502 -0.008531383325355503 0 0.036132250201248307 -0.0092192252755725398 0 0.037450150364881807 -0.0091499520994512782 0 0.036132250201248307 -0.0092192252755725398 0 0.036829868432089234 -0.010071371160092605 0 0.035828020949699023 -0.0104820105724004 0 0.037450150364881807 -0.0091499520994512782 0 0.036829868432089234 -0.010071371160092605 0 0.037745100407516829 -0.01058617791459953 0 0.038307017361132782 -0.011302826789575983 0 0.038130622545256392 -0.011974918092707166 0 0.036132250201248307 -0.0092192252755725398 0 0.037450150364881807 -0.0091499520994512782 0 0.036829868432089234 -0.010071371160092605 0 0.037745100407516829 -0.01058617791459953 0 0.03691317214463867 -0.010869753995984711 0 0.03738371874272696 -0.011341757978130775 0 0.036829868432089234 -0.010071371160092605 0 0.037745100407516829 -0.01058617791459953 0 0.03691317214463867 -0.010869753995984711 0 0.03691317214463867 -0.010869753995984711 0 0.035828020949699023 -0.0104820105724004 0 0.03664665177359671 -0.011343924373559123 0 0.036829868432089234 -0.010071371160092605 0 0.03691317214463867 -0.010869753995984711 0 0.035828020949699023 -0.0104820105724004 0 0.037759834580923392 -0.015202620019748984 0 0.037252606949543611 -0.014210725058200724 0 0.038164884801394135 -0.014176390025119867 0 0.038996168511723162 -0.014459496059345187 0 0.03859389850737488 -0.013115672291322754 0 0.038164884801394135 -0.014176390025119867 0 0.038517328322356235 -0.015098004727165578 0 0.038996168511723162 -0.014459496059345187 0 0.038164884801394135 -0.014176390025119867 0 0.03859389850737488 -0.013115672291322754 0 0.038164884801394135 -0.014176390025119867 0 0.03774134779711958 -0.012741196337796421 0 0.037252606949543611 -0.014210725058200724 0 0.038164884801394135 -0.014176390025119867 0 0.03774134779711958 -0.012741196337796421 0 0.037254595438204911 -0.014110797766068718 0 0.03766369687784462 -0.012942617999188758 0 0.036855400548197893 -0.01306085116561922 0 0.037252606949543611 -0.014210725058200724 0 0.037628134518430133 -0.01312827591491258 0 0.036855400548197893 -0.01306085116561922 0 0.037333476130094391 -0.012615510693401652 0 0.037058371370093268 -0.012299662466826235 0 0.036855400548197893 -0.01306085116561922 0 0.037628134518430133 -0.01312827591491258 0 0.037333476130094391 -0.012615510693401652 0 0.037628134518430133 -0.01312827591491258 0 0.037719187867175125 -0.012208147451931335 0 0.037522522441957515 -0.012444523151741891 0 0.03766369687784462 -0.012942617999188758 0 0.03770256235109614 -0.011993353108526547 0 0.03774134779711958 -0.012741196337796421 0 0.037766784367157746 -0.011992823791609198 0 0.037695340721504406 -0.011731597127907492 0 0.03859389850737488 -0.013115672291322754 0 0.03774134779711958 -0.012741196337796421 0 0.037766784367157746 -0.011992823791609198 0 0.038130622545256392 -0.011974918092707166 0 0.037870356330533192 -0.011945436932965828 0 0.037628134518430133 -0.01312827591491258 0 0.037333476130094391 -0.012615510693401652 0 0.037522522441957515 -0.012444523151741891 0 0.037719187867175125 -0.012208147451931335 0 0.037520919059344737 -0.012128413493790355 0 0.037522522441957515 -0.012444523151741891 0 0.037719187867175125 -0.012208147451931335 0 0.037520919059344737 -0.012128413493790355 0 0.037532741771874892 -0.01190486305059103 0 0.037520919059344737 -0.012128413493790355 0 0.037374234854498929 -0.012215025226404337 0 0.03741378287524931 -0.011962314066877609 0 0.037520919059344737 -0.012128413493790355 0 0.03741378287524931 -0.011962314066877609 0 0.037532741771874892 -0.01190486305059103 0 0.037520919059344737 -0.012128413493790355 0 0.037522522441957515 -0.012444523151741891 0 0.037374234854498929 -0.012215025226404337 0 0.037333476130094391 -0.012615510693401652 0 0.037522522441957515 -0.012444523151741891 0 0.037374234854498929 -0.012215025226404337 0 0.037333476130094391 -0.012615510693401652 0 0.037374234854498929 -0.012215025226404337 0 0.037058371370093268 -0.012299662466826235 0 0.037374234854498929 -0.012215025226404337 0 0.037236384801708343 -0.01194690553854452 0 0.03741378287524931 -0.011962314066877609 0 0.037374234854498929 -0.012215025226404337 0 0.037058371370093268 -0.012299662466826235 0 0.037236384801708343 -0.01194690553854452 0 0.036888945003965841 -0.011996819162204712 0 0.037058371370093268 -0.012299662466826235 0 0.037236384801708343 -0.01194690553854452 0 0.03586360495191579 -0.010563575623775044 0 0.036194191997335923 -0.012119170252954534 0 0.035828020949699023 -0.0104820105724004 0 0.03664665177359671 -0.011343924373559123 0 0.036572496332286729 -0.011863693758027679 0 0.03664665177359671 -0.011343924373559123 0 0.037095909985820179 -0.011599354615685929 0 0.0368139855129841 -0.01173128112419612 0 0.03664665177359671 -0.011343924373559123 0 0.0368139855129841 -0.01173128112419612 0 0.036572496332286729 -0.011863693758027679 0 0.03691317214463867 -0.010869753995984711 0 0.03664665177359671 -0.011343924373559123 0 0.037095909985820179 -0.011599354615685929 0 0.03691317214463867 -0.010869753995984711 0 0.03738371874272696 -0.011341757978130775 0 0.037095909985820179 -0.011599354615685929 0 0.037745100407516829 -0.01058617791459953 0 0.037766784367157746 -0.011992823791609198 0 0.03738371874272696 -0.011341757978130775 0 0.037766784367157746 -0.011992823791609198 0 0.03738371874272696 -0.011341757978130775 0 0.037444950307048558 -0.011724492459676206 0 0.03738371874272696 -0.011341757978130775 0 0.037444950307048558 -0.011724492459676206 0 0.037095909985820179 -0.011599354615685929 0 0.037695340721504406 -0.011731597127907492 0 0.037288634679427411 -0.011838422788657195 0 0.037053567157688531 -0.012157587982216583 0 0.037095909985820179 -0.011599354615685929 0 0.037288634679427411 -0.011838422788657195 0 0.037034362886475852 -0.011920970223090761 0 0.037444950307048558 -0.011724492459676206 0 0.037095909985820179 -0.011599354615685929 0 0.037288634679427411 -0.011838422788657195 0 0.037288634679427411 -0.011838422788657195 0 0.037034362886475852 -0.011920970223090761 0 0.037053567157688531 -0.012157587982216583 0 0.037695340721504406 -0.011731597127907492 0 0.037444950307048558 -0.011724492459676206 0 0.037288634679427411 -0.011838422788657195 0 0.037766784367157746 -0.011992823791609198 0 0.037695340721504406 -0.011731597127907492 0 0.037444950307048558 -0.011724492459676206 0 0.037034362886475852 -0.011920970223090761 0 0.036842296066497235 -0.011903597337997883 0 0.036969889117203156 -0.012044532838313061 0 0.036842296066497235 -0.011903597337997883 0 0.036572496332286729 -0.011863693758027679 0 0.036969889117203156 -0.012044532838313061 0 0.037034362886475852 -0.011920970223090761 0 0.036842296066497235 -0.011903597337997883 0 0.0368139855129841 -0.01173128112419612 0 0.037095909985820179 -0.011599354615685929 0 0.037034362886475852 -0.011920970223090761 0 0.0368139855129841 -0.01173128112419612 0 0.036842296066497235 -0.011903597337997883 0 0.0368139855129841 -0.01173128112419612 0 0.036572496332286729 -0.011863693758027679 0 0.036194191997335923 -0.012119170252954534 0 0.035655114724376602 -0.01356967944297709 0 0.036969889117203156 -0.012044532838313061 0 0.037053567157688531 -0.012157587982216583 0 0.037082526418055602 -0.01207228620222817 0 0.037034362886475852 -0.011920970223090761 0 0.036969889117203156 -0.012044532838313061 0 0.037053567157688531 -0.012157587982216583 0 0.036572496332286729 -0.011863693758027679 0 0.036969889117203156 -0.012044532838313061 0 0.037082526418055602 -0.01207228620222817 0 0.037719187867175125 -0.012208147451931335 0 0.037533408633850941 -0.011702019929156062 0 0.037532741771874892 -0.01190486305059103 0 0.037533408633850941 -0.011702019929156062 0 0.037532741771874892 -0.01190486305059103 0 0.037476973871570674 -0.011690139325012363 0 0.03770256235109614 -0.011993353108526547 0 0.03731551457268957 -0.011936903706449909 0 0.037533408633850941 -0.011702019929156062 0 0.037402718932868249 -0.011729080681014909 0 0.037476973871570674 -0.011690139325012363 0 0.037402718932868249 -0.011729080681014909 0 0.037476973871570674 -0.011690139325012363 0 0.037451984383087458 -0.011613631519816443 0 0.037251909620551124 -0.011790701106561576 0 0.037216921667592391 -0.011839573848499124 0 0.037082526418055602 -0.01207228620222817 0 0.037533408633850941 -0.011702019929156062 0 0.037402718932868249 -0.011729080681014909 0 0.037216921667592391 -0.011839573848499124 0 0.035409830010879037 -0.0069122527531336828 0 0.035655114724376602 -0.01356967944297709 0 0.03731551457268957 -0.011936903706449909 0 0.037222372271439194 -0.011862576256221183 0 0.037053567157688531 -0.012157587982216583 0 0.037216921667592391 -0.011839573848499124 0 0.037082526418055602 -0.01207228620222817 0 0.037026510217727238 -0.011624448209613582 0 0.037049364825858459 -0.011794072131653767 0 0.037209566588162622 -0.011761328809064702 0 0.037026510217727238 -0.011624448209613582 0 0.037209566588162622 -0.011761328809064702 0 0.037171404487517781 -0.011606858038969731 0 0.036888945003965841 -0.011996819162204712 0 0.037049364825858459 -0.011794072131653767 0 0.037236384801708343 -0.01194690553854452 0 0.037049364825858459 -0.011794072131653767 0 0.037236384801708343 -0.01194690553854452 0 0.037209566588162622 -0.011761328809064702 0 0.037236384801708343 -0.01194690553854452 0 0.037209566588162622 -0.011761328809064702 0 0.037365766731668082 -0.011787156929493055 0 0.037236384801708343 -0.01194690553854452 0 0.037365766731668082 -0.011787156929493055 0 0.03741378287524931 -0.011962314066877609 0 0.037365766731668082 -0.011787156929493055 0 0.037346557188908731 -0.011628802577792056 0 0.037171404487517781 -0.011606858038969731 0 0.037209566588162622 -0.011761328809064702 0 0.037365766731668082 -0.011787156929493055 0 0.037171404487517781 -0.011606858038969731 0 0.037365766731668082 -0.011787156929493055 0 0.037476973871570674 -0.011690139325012363 0 0.037346557188908731 -0.011628802577792056 0 0.037365766731668082 -0.011787156929493055 0 0.03741378287524931 -0.011962314066877609 0 0.037532741771874892 -0.01190486305059103 0 0.037365766731668082 -0.011787156929493055 0 0.037532741771874892 -0.01190486305059103 0 0.037476973871570674 -0.011690139325012363 0 0.037476973871570674 -0.011690139325012363 0 0.037346557188908731 -0.011628802577792056 0 0.037451984383087458 -0.011613631519816443 0 0.037009755605213947 -0.011377525704848623 0 0.037346557188908731 -0.011628802577792056 0 0.037171404487517781 -0.011606858038969731 0 0.037009755605213947 -0.011377525704848623 0 0.037346557188908731 -0.011628802577792056 0 0.037451984383087458 -0.011613631519816443 0 0.034819671812519062 -0.004704138084019832 0 0.035202084259209697 -0.0069637177803428324 0 0.037009755605213947 -0.011377525704848623 0 0.037171404487517781 -0.011606858038969731 0 0.03703497301947601 -0.011511486314594182 0 0.036924761904620761 -0.011457347650294946 0 0.037026510217727238 -0.011624448209613582 0 0.03703497301947601 -0.011511486314594182 0 0.037026510217727238 -0.011624448209613582 0 0.037171404487517781 -0.011606858038969731 0 0.03703497301947601 -0.011511486314594182 0 0.034819671812519062 -0.004704138084019832 0 0.032478269960014738 0.00178231588462209 0 0.031276493976544507 0.006091126612815973 0 0.032478269960014738 0.00178231588462209 0 0.03357142253420644 0.00042177086307692413 0 0.033535901062551013 0.00068191306805136026 0 0.033800967842693312 0.00067148339423181078 0 0.032564311719409739 -0.0019827987422806853 0 0.032926736369386388 -0.0015608726138265521 0 0.03303427764781524 -0.001819121922730132 0 0.030303511312781459 0.010153650006171442 0 0.030296111986169855 0.010180296139968271 0 0.030294360674560167 0.010133148000111175 0 0.03029229528128859 0.010140971346972 0 0.030296111986169855 0.010180296139968271 0 0.030294360674560167 0.010133148000111175 0 0.032478269960014738 0.00178231588462209 0 0.031802505907002315 0.0050213140190835765 0 0.030339212207058076 0.010224735558617283 0 0.030303511312781459 0.010153650006171442 0 0.030296111986169855 0.010180296139968271 0 0.030256893174692923 0.010251623348542321 0 0.030339212207058076 0.010224735558617283 0 0.030296111986169855 0.010180296139968271 0 0.033582854820717711 -0.0079073635636993152 0 0.035255949955081592 -0.0075166098510806214 0 0.03511019778641207 -0.013073490161599243 0 0.033751494802354405 -0.0014373428756325141 0 0.033746895678618605 -0.001654765656823369 0 0.033442389758942891 -0.001495860894515647 0 0.034156498779456139 -0.0027210075231191406 0 0.035409830010879037 -0.0069122527531336828 0 0.033751494802354405 -0.0014373428756325141 0 0.03424172545953727 -0.0013349913993670485 0 0.034237540922285106 -0.0016821064763862662 0 0.033751494802354405 -0.0014373428756325141 0 0.033840807948563673 -0.0017781034418807309 0 0.034237540922285106 -0.0016821064763862662 0 0.035409830010879037 -0.0069122527531336828 0 0.03272653324699628 -0.0081168355240823914 0 0.037402718932868249 -0.011729080681014909 0 0.037251909620551124 -0.011790701106561576 0 0.037216921667592391 -0.011839573848499124 0 0.035202084259209697 -0.0069637177803428324 0 0.035409830010879037 -0.0069122527531336828 0 0.032926736369386388 -0.0015608726138265521 0 0.03303427764781524 -0.001819121922730132 0 0.033442389758942891 -0.001495860894515647 0 0.032478269960014738 0.00178231588462209 0 0.033439023846682091 -0.0020899039179860901 0 0.032116657266964353 -0.0013950191573469256 0 0.033442389758942891 -0.001495860894515647 0 0.032972881665654333 -0.0011464701057145976 0 0.037402718932868249 -0.011729080681014909 0 0.037451984383087458 -0.011613631519816443 0 0.037251909620551124 -0.011790701106561576 0 0.03303427764781524 -0.001819121922730132 0 0.033746895678618605 -0.001654765656823369 0 0.033442389758942891 -0.001495860894515647 0 0.033442389758942891 -0.001495860894515647 0 0.032972881665654333 -0.0011464701057145976 0 0.033427069898027288 -0.00090918180176480798 0 0.032972881665654333 -0.0011464701057145976 0 0.032868272296217305 -0.00080312991890649525 0 0.033427069898027288 -0.00090918180176480798 0 0.032116657266964353 -0.0013950191573469256 0 0.032972881665654333 -0.0011464701057145976 0 0.032868272296217305 -0.00080312991890649525 0 0.030432033233479767 0.0038670860861834497 0 0.031802505907002315 0.0050213140190835765 0 0.033604917072778899 -0.00024857744962725534 0 0.032868272296217305 -0.00080312991890649525 0 0.033427069898027288 -0.00090918180176480798 0 0.033594257917825547 -0.00030457266359314156 0 0.033427069898027288 -0.00090918180176480798 0 0.03424172545953727 -0.0013349913993670485 0 0.030432033233479767 0.0038670860861834497 0 0.032237652065209968 -0.0010074077804809085 0 0.030432033233479767 0.0038670860861834497 0 0.029292246511572494 -0.0030606426848532394 0 0.033751494802354405 -0.0014373428756325141 0 0.033427069898027288 -0.00090918180176480798 0 0.03424172545953727 -0.0013349913993670485 0 0.026446781888208669 0.0010781685793773666 0 0.024428963878762869 0.001606295285868901 0 0.026410832530200996 -0.0012421101404960194 0 0.033751494802354405 -0.0014373428756325141 0 0.033442389758942891 -0.001495860894515647 0 0.033427069898027288 -0.00090918180176480798 0 0.026666463898249431 0.0012866466734640298 0 0.029292246511572494 -0.0030606426848532394 0 0.026446781888208669 0.0010781685793773666 0 0.028429182320310283 -0.00013782073938056267 0 0.026390119633183728 -0.001224922448349882 0 0.028429182320310283 -0.00013782073938056267 0 0.026390119633183728 -0.001224922448349882 0 0.026936702007549673 -0.0020102130525188147 0 0.030982391442162197 0.0012856741573338201 0 0.028429182320310283 -0.00013782073938056267 0 0.030482996124637281 -0.0011472261539094155 0 0.028429182320310283 -0.00013782073938056267 0 0.030482996124637281 -0.0011472261539094155 0 0.026936702007549673 -0.0020102130525188147 0 0.026624194037566211 -0.01400501772511826 0 0.027296219984660218 -0.012154451901169684 0 0.030131510576902994 -0.013242457876328145 0 0.027296219984660218 -0.012154451901169684 0 0.030131510576902994 -0.013242457876328145 0 0.027844727166901628 -0.0098576541748301803 0 0.028458439492261844 -0.0074254652141473284 0 0.030622814437630614 -0.0095005717821321882 0 0.026624194037566211 -0.01400501772511826 0 0.027296219984660218 -0.012154451901169684 0 0.025462775404253714 -0.012813492399141006 0 0.034210956255236229 -0.013433032697869177 0 0.034292068777450696 -0.013409986626872282 0 0.034378402807627099 -0.012918837218405891 0 0.030622814437630614 -0.0095005717821321882 0 0.03272653324699628 -0.0081168355240823914 0 0.030296822140789034 -0.0058154016557729702 0 0.03190014660182916 -0.0081246795943166004 0 0.030224339915017676 -0.0085149892269912909 0 0.029292246511572494 -0.0030606426848532394 0 0.030622814437630614 -0.0095005717821321882 0 0.029292246511572494 -0.0030606426848532394 0 0.03272653324699628 -0.0081168355240823914 0 0.030622814437630614 -0.0095005717821321882 0 0.031228839252665536 -0.012224084142690151 0 0.03272653324699628 -0.0081168355240823914 0 0.035655114724376602 -0.01356967944297709 0 0.034210956255236229 -0.013433032697869177 0 0.033815199217454926 -0.01300200006110875 0 0.034378402807627099 -0.012918837218405891 0 0.027296219984660218 -0.012154451901169684 0 0.027844727166901628 -0.0098576541748301803 0 0.026255196073457519 -0.011123548043401498 0 0.029021792848858318 -0.0091373569573961564 0 0.031228839252665536 -0.012224084142690151 0 0.033809777221962267 -0.012394312125336643 0 0.032932029346153156 -0.012274053825680642 0 0.033815199217454926 -0.01300200006110875 0 0.033809777221962267 -0.012394312125336643 0 0.033815199217454926 -0.01300200006110875 0 0.034098084252494811 -0.012637046596367735 0 0.033815199217454926 -0.01300200006110875 0 0.034378402807627099 -0.012918837218405891 0 0.034098084252494811 -0.012637046596367735 0 0.034631150157834571 -0.012488663045594279 0 0.035655114724376602 -0.01356967944297709 0 0.034365380892182218 -0.012145705367503217 0 0.034378402807627099 -0.012918837218405891 0 0.034098084252494811 -0.012637046596367735 0 0.025339368286917126 -0.0060806434844956755 0 0.027844727166901628 -0.0098576541748301803 0 0.024392114493684759 -0.0096120853437742029 0 0.025339368286917126 -0.0060806434844956755 0 0.022511936295479019 -0.008048539507502929 0 0.024392114493684759 -0.0096120853437742029 0 0.024392114493684759 -0.0096120853437742029 0 0.026255196073457519 -0.011123548043401498 0 0.025462775404253714 -0.012813492399141006 0 0.027844727166901628 -0.0098576541748301803 0 0.024392114493684759 -0.0096120853437742029 0 0.026255196073457519 -0.011123548043401498 0 0.024392114493684759 -0.0096120853437742029 0 0.025462775404253714 -0.012813492399141006 0 0.021205059220855048 -0.011326844892523599 0 0.022511936295479019 -0.008048539507502929 0 0.024392114493684759 -0.0096120853437742029 0 0.021205059220855048 -0.011326844892523599 0 0.022555903012337758 -0.010652891884281946 0 0.021590922659890419 -0.0099708580895779865 0 0.021716175456266491 -0.0085647413086079888 0 0.025530133496585956 -0.012772876578868038 0 0.021201706067964378 -0.011483936566836836 0 0.027380231682366508 -0.0069366865244964073 0 0.021201706067964378 -0.011483936566836836 0 0.025462775404253714 -0.012813492399141006 0 0.02362164498840719 -0.014542558247463169 0 0.022455100616896428 -0.011487860832496991 0 0.026624194037566211 -0.01400501772511826 0 0.025462775404253714 -0.012813492399141006 0 0.02362164498840719 -0.014542558247463169 0 0.027296219984660218 -0.012154451901169684 0 0.026255196073457519 -0.011123548043401498 0 0.025462775404253714 -0.012813492399141006 0 0.030482996124637281 -0.0011472261539094155 0 0.033428877554471721 -0.0002253021551255137 0 0.033976756918609713 -0.00033163731519811795 0 0.028458439492261844 -0.0074254652141473284 0 0.027380231682366508 -0.0069366865244964073 0 0.030982391442162197 0.0012856741573338201 0 0.030482996124637281 -0.0011472261539094155 0 0.033428877554471721 -0.0002253021551255137 0 0.027380231682366508 -0.0069366865244964073 0 0.027846303100048663 -0.0026556757569312344 0 0.033428877554471721 -0.0002253021551255137 0 0.033976756918609713 -0.00033163731519811795 0 0.033879762947426353 -9.1315982771160149e-05 0 0.029986399131906098 -0.0019092830345141727 0 0.027846303100048663 -0.0026556757569312344 0 0.027380231682366508 -0.0069366865244964073 0 0.022350413699019134 -0.0080017461521504889 0 0.027846303100048663 -0.0026556757569312344 0 0.025767575030670526 -0.0020480453322379751 0 0.027994703232208016 -0.00390711515209838 0 0.028173945905987697 -0.0043795896812105885 0 0.023980442334643994 -0.0056773433011864183 0 0.023980442334643994 -0.0056773433011864183 0 0.023760304968054279 -0.0048819613925880651 0 0.019516514314438516 -0.0058646181825813956 0 0.021289834331555096 -0.010954789122595556 0 0.020800453828276996 -0.0097161487568398069 0 0.021590922659890419 -0.0099708580895779865 0 0.021289834331555096 -0.010954789122595556 0 0.020035201537866615 -0.011247616846786702 0 0.020800453828276996 -0.0097161487568398069 0 0.027994703232208016 -0.00390711515209838 0 0.023980442334643994 -0.0056773433011864183 0 0.023760304968054279 -0.0048819613925880651 0 0.022555903012337758 -0.010652891884281946 0 0.021289834331555096 -0.010954789122595556 0 0.021590922659890419 -0.0099708580895779865 0 0.022350413699019134 -0.0080017461521504889 0 0.019213925760392287 -0.010168813539900307 0 0.019213925760392287 -0.010168813539900307 0 0.017184500327838661 -0.011519164533989023 0 0.019776728028981987 -0.0069813590802534926 0 0.023980442334643994 -0.0056773433011864183 0 0.019516514314438516 -0.0058646181825813956 0 0.020035201537866615 -0.011247616846786702 0 0.019583308749701413 -0.0093737867826544363 0 0.020800453828276996 -0.0097161487568398069 0 0.019583308749701413 -0.0093737867826544363 0 0.020800453828276996 -0.0097161487568398069 0 0.02041861103235406 -0.0080230320620844741 0 0.020800453828276996 -0.0097161487568398069 0 0.021590922659890419 -0.0099708580895779865 0 0.021716175456266491 -0.0085647413086079888 0 0.011908441158255579 -0.016754312441131076 0 0.010393314775052979 -0.014588981697207237 0 0.0088795792296017945 -0.015673899099781535 0 0.011908441158255579 -0.016754312441131076 0 0.010393314775052979 -0.014588981697207237 0 0.012491319865142759 -0.014023308211010894 0 0.015623314540422069 -0.015840482089420564 0 0.014789998838603064 -0.012413784800522375 0 0.012491319865142759 -0.014023308211010894 0 0.011908441158255579 -0.016754312441131076 0 0.015623314540422069 -0.015840482089420564 0 0.012491319865142759 -0.014023308211010894 0 0.014789998838603064 -0.012413784800522375 0 0.012491319865142759 -0.014023308211010894 0 0.012058569168740983 -0.012138860935680144 0 0.010393314775052979 -0.014588981697207237 0 0.012491319865142759 -0.014023308211010894 0 0.010099345666936576 -0.012595594885516407 0 0.012491319865142759 -0.014023308211010894 0 0.012058569168740983 -0.012138860935680144 0 0.010099345666936576 -0.012595594885516407 0 0.012058569168740983 -0.012138860935680144 0 0.010099345666936576 -0.012595594885516407 0 0.010057752908632348 -0.011104147189954987 0 0.010057752908632348 -0.011104147189954987 0 0.01131360687905247 -0.0099880420580607254 0 0.0087891987143717751 -0.0097632768436145632 0 0.012058569168740983 -0.012138860935680144 0 0.010057752908632348 -0.011104147189954987 0 0.01131360687905247 -0.0099880420580607254 0 0.014789998838603064 -0.012413784800522375 0 0.012058569168740983 -0.012138860935680144 0 0.013992492503178491 -0.0090124522976810246 0 0.012058569168740983 -0.012138860935680144 0 0.01131360687905247 -0.0099880420580607254 0 0.013992492503178491 -0.0090124522976810246 0 0.017184500327838661 -0.011519164533989023 0 0.01589130320809513 -0.0084235353983427835 0 0.01589130320809513 -0.0084235353983427835 0 0.010799156461781353 -0.007913500676815349 0 0.01507755215680893 -0.0096095302442322297 0 0.014583083665136793 -0.007476726746849835 0 0.011008440533976337 -0.0077141542156216247 0 0.01589130320809513 -0.0084235353983427835 0 0.015012467789716337 -0.0080091393742509499 0 0.015072151923622009 -0.0094874686045195444 0 0.014583083665136793 -0.007476726746849835 0 0.016730195623104425 -0.0080628607106531022 0 0.01131360687905247 -0.0099880420580607254 0 0.011008440533976337 -0.0077141542156216247 0 0.0087891987143717751 -0.0097632768436145632 0 0.01131360687905247 -0.0099880420580607254 0 0.013992492503178491 -0.0090124522976810246 0 0.011008440533976337 -0.0077141542156216247 0 0.021201706067964378 -0.011483936566836836 0 0.019246673972347892 -0.0093836508248897384 0 0.020663553496879091 -0.011855791035998178 0 0.017883106224547911 -0.010670328794800699 0 0.018998556984536303 -0.0074580512402282291 0 0.020800453828276996 -0.0097161487568398069 0 0.021716175456266491 -0.0085647413086079888 0 0.02041861103235406 -0.0080230320620844741 0 0.01589130320809513 -0.0084235353983427835 0 0.019246673972347892 -0.0093836508248897384 0 0.019583308749701413 -0.0093737867826544363 0 0.019109983680018778 -0.0074817952290612806 0 0.02041861103235406 -0.0080230320620844741 0 0.017883106224547911 -0.010670328794800699 0 0.016730195623104425 -0.0080628607106531022 0 0.018998556984536303 -0.0074580512402282291 0 0.015072151923622009 -0.0094874686045195444 0 0.017883106224547911 -0.010670328794800699 0 0.016730195623104425 -0.0080628607106531022 0 0.021201706067964378 -0.011483936566836836 0 0.019154876148113061 -0.0073631964952474132 0 0.022511936295479019 -0.008048539507502929 0 0.021205059220855048 -0.011326844892523599 0 0.019433818813862243 -0.0073801864954571497 0 0.021506654970647777 -0.005344430202011718 0 0.022511936295479019 -0.008048539507502929 0 0.019433818813862243 -0.0073801864954571497 0 0.021506654970647777 -0.005344430202011718 0 0.019433818813862243 -0.0073801864954571497 0 0.017459996680394017 -0.0030907544717480406 0 0.021506654970647777 -0.005344430202011718 0 0.022539960553485627 -0.0019330246434316454 0 0.017459996680394017 -0.0030907544717480406 0 0.016730195623104425 -0.0080628607106531022 0 0.018998556984536303 -0.0074580512402282291 0 0.015776871873565929 -0.0057511153409395095 0 0.018998556984536303 -0.0074580512402282291 0 0.017459996680394017 -0.0030907544717480406 0 0.015776871873565929 -0.0057511153409395095 0 0.019154876148113061 -0.0073631964952474132 0 0.017567588846011221 -0.003293657903909879 0 0.014583083665136793 -0.007476726746849835 0 0.016730195623104425 -0.0080628607106531022 0 0.015776871873565929 -0.0057511153409395095 0 0.015776871873565929 -0.0057511153409395095 0 0.01268322644581087 -0.0059420951458142484 0 0.012777910800852827 -0.0030607603528540949 0 0.014583083665136793 -0.007476726746849835 0 0.015776871873565929 -0.0057511153409395095 0 0.01268322644581087 -0.0059420951458142484 0 0.014583083665136793 -0.007476726746849835 0 0.011008440533976337 -0.0077141542156216247 0 0.01268322644581087 -0.0059420951458142484 0 0.01268322644581087 -0.0059420951458142484 0 0.012777910800852827 -0.0030607603528540949 0 0.0098296358081409897 -0.0053201773718590745 0 0.011008440533976337 -0.0077141542156216247 0 0.01268322644581087 -0.0059420951458142484 0 0.0098296358081409897 -0.0053201773718590745 0 0.012777910800852827 -0.0030607603528540949 0 0.0084894881138111375 -0.0026920690362543563 0 0.0098296358081409897 -0.0053201773718590745 0 0.012777910800852827 -0.0030607603528540949 0 0.010070315414166208 -0.00017604811855958936 0 0.0084894881138111375 -0.0026920690362543563 0 0.017459996680394017 -0.0030907544717480406 0 0.015776871873565929 -0.0057511153409395095 0 0.012777910800852827 -0.0030607603528540949 0 0.017459996680394017 -0.0030907544717480406 0 0.012777910800852827 -0.0030607603528540949 0 0.014746651570679087 0.0011255662210939959 0 0.013649798956939458 -0.0041887977018186693 0 0.010286102942825441 -0.0059307851888087109 0 0.012777910800852827 -0.0030607603528540949 0 0.014746651570679087 0.0011255662210939959 0 0.010070315414166208 -0.00017604811855958936 0 0.011037495678620344 -0.009497038136587312 0 0.014192592717376164 -0.010511872240831823 0 0.010452740592932528 -0.01151603586611283 0 0.011037495678620344 -0.009497038136587312 0 0.014192592717376164 -0.010511872240831823 0 0.013375066343077304 -0.0086532647201316808 0 0.014192592717376164 -0.010511872240831823 0 0.013375066343077304 -0.0086532647201316808 0 0.015241168093999198 -0.0088067522963169616 0 0.017459996680394017 -0.0030907544717480406 0 0.014746651570679087 0.0011255662210939959 0 0.01950519486136992 0.002325631169151467 0 0.022539960553485627 -0.0019330246434316454 0 0.017459996680394017 -0.0030907544717480406 0 0.01950519486136992 0.002325631169151467 0 0.013649798956939458 -0.0041887977018186693 0 0.022924555058035853 -0.0082015439637470114 0 0.015241168093999198 -0.0088067522963169616 0 0.017552170247481399 -0.0095821813949379889 0 0.016198965296542123 -0.0079021391658777931 0 0.014192592717376164 -0.010511872240831823 0 0.015241168093999198 -0.0088067522963169616 0 0.017552170247481399 -0.0095821813949379889 0 0.02682560532620604 -0.017833483900477794 0 0.025807444944203343 -0.017994862234874093 0 0.025982847619826093 -0.017478781781429881 0 0.027254228619172417 -0.0055919698772349822 0 0.022924555058035853 -0.0082015439637470114 0 0.0035654911132508862 -0.011472217203414603 0 0.0063941773158878749 -0.012560433539370879 0 0.0022400617958232396 -0.013596023590478188 0 0.0035654911132508862 -0.011472217203414603 0 0.0064421996997731205 -0.0099316997846193248 0 0.0063941773158878749 -0.012560433539370879 0 -0.0018460501435854119 -0.0090763747789912533 0 0.0049642363131365951 -0.0095715832347808439 0 -0.0018460501435854119 -0.0090763747789912533 0 -0.0079330997699389259 -0.0086483857607586815 0 -0.0018460501435854119 -0.0090763747789912533 0 -0.0013058018734672318 -0.0088361933141359802 0 -0.0052363181225282629 -0.00685672184853592 0 -0.007835961277761835 -0.0083108195155728679 0 -0.0068495547687422728 -0.0094391703437231352 0 -0.0056002010430902536 -0.0070057671046127217 0 -0.007835961277761835 -0.0083108195155728679 0 -0.0078749716078094726 -0.0071683015048424241 0 -0.0086047473813848207 -0.0080029043060092977 0 -0.008945456322106882 -0.0065187695157729736 0 -0.0070373607116190557 -0.0049300139114973884 0 -0.0060163329546021925 -0.005763930985079233 0 -0.010399561624792582 -0.0060770028421473291 0 -0.0056002010430902536 -0.0070057671046127217 0 -0.0078749716078094726 -0.0071683015048424241 0 -0.0061044393297168273 -0.0038794216789577599 0 -0.0082687018345027896 -0.0074066469586437141 0 -0.0060163329546021925 -0.005763930985079233 0 -0.0064066463499796254 -0.0058925984243886655 0 -0.0098824347725630906 -0.0068917815564858674 0 -0.0060499368950644563 -0.0051919229375091544 0 -0.008945456322106882 -0.0065187695157729736 0 -0.0070373607116190557 -0.0049300139114973884 0 -0.010151472511225949 -0.0058332407416392526 0 -0.010399561624792582 -0.0060770028421473291 0 -0.0056846530215062885 -0.0064494250730008388 0 -7.8585500009070058e-05 -0.01092110672603123 0 0.0025911185273623828 -0.0094252539028009327 0 0.0020774758315496443 -0.0072495129180141712 0 -0.0056002010430902536 -0.0070057671046127217 0 -0.0061044393297168273 -0.0038794216789577599 0 -0.0032795424093021068 -0.003076388195340203 0 -0.0018460501435854119 -0.0090763747789912533 0 -0.0012190882319270213 -0.005982218864698464 0 0.0064421996997731205 -0.0099316997846193248 0 0.0085838116790703696 -0.01042813485490981 0 0.0092497532160939738 -0.0084319115287585129 0 0.0025911185273623828 -0.0094252539028009327 0 0.0033722337652269266 -0.0068744998619944082 0 0.0020774758315496443 -0.0072495129180141712 0 0.0049642363131365951 -0.0095715832347808439 0 0.007767063678644482 -0.0096208697482807557 0 0.0025911185273623828 -0.0094252539028009327 0 0.005271585860263891 -0.0079264953614408794 0 0.0033722337652269266 -0.0068744998619944082 0 0.011037495678620344 -0.009497038136587312 0 0.0085838116790703696 -0.01042813485490981 0 0.0092497532160939738 -0.0084319115287585129 0 0.011037495678620344 -0.009497038136587312 0 0.0085838116790703696 -0.01042813485490981 0 0.010452740592932528 -0.01151603586611283 0 0.010776414384297469 -0.0096974945955611014 0 0.007767063678644482 -0.0096208697482807557 0 0.010286102942825441 -0.0059307851888087109 0 0.0066747193177422838 -0.0068538413824184678 0 0.010070315414166208 -0.00017604811855958936 0 0.0056406092136698635 -0.001492516615418807 0 0.0084894881138111375 -0.0026920690362543563 0 0.0085838116790703696 -0.01042813485490981 0 0.010452740592932528 -0.01151603586611283 0 0.0063941773158878749 -0.012560433539370879 0 0.0064421996997731205 -0.0099316997846193248 0 0.0085838116790703696 -0.01042813485490981 0 0.0063941773158878749 -0.012560433539370879 0 0.0056406092136698635 -0.001492516615418807 0 0.0084894881138111375 -0.0026920690362543563 0 0.0070241535958392252 -0.0045165004140008567 0 0.0056406092136698635 -0.001492516615418807 0 0.0070241535958392252 -0.0045165004140008567 0 0.0039382236887932909 -0.0055646685712580947 0 0.0084894881138111375 -0.0026920690362543563 0 0.0098296358081409897 -0.0053201773718590745 0 0.0070241535958392252 -0.0045165004140008567 0 0.011008440533976337 -0.0077141542156216247 0 0.0098296358081409897 -0.0053201773718590745 0 0.0074605832875485247 -0.0073482185244344482 0 0.0098296358081409897 -0.0053201773718590745 0 0.0070241535958392252 -0.0045165004140008567 0 0.0074605832875485247 -0.0073482185244344482 0 0.0070241535958392252 -0.0045165004140008567 0 0.0039382236887932909 -0.0055646685712580947 0 0.0074605832875485247 -0.0073482185244344482 0 0.0066747193177422838 -0.0068538413824184678 0 -0.0013058018734672318 -0.0088361933141359802 0 0.0056406092136698635 -0.001492516615418807 0 0.0039382236887932909 -0.0055646685712580947 0 0.001267100301062006 -0.0027420819851118124 0 -0.0084104584235356415 -0.0097861311836146565 0 -0.0069044215488803917 -0.0093624801496275615 0 -0.0087451874039342521 -0.012055152798857823 0 -0.007835961277761835 -0.0083108195155728679 0 -0.0078749716078094726 -0.0071683015048424241 0 -0.0099816157047065285 -0.010953174337958053 0 -0.0013058018734672318 -0.0088361933141359802 0 -0.0045451138827946784 -0.0086875043607047946 0 -0.0076446415075719963 -0.010085345737948248 0 -0.0013058018734672318 -0.0088361933141359802 0 -0.007835961277761835 -0.0083108195155728679 0 -0.0084104584235356415 -0.0097861311836146565 0 -0.0068495547687422728 -0.0094391703437231352 0 0.0039382236887932909 -0.0055646685712580947 0 0.001267100301062006 -0.0027420819851118124 0 -0.00028207658906712893 -0.0053128661521035098 0 0.0039382236887932909 -0.0055646685712580947 0 -0.00028207658906712893 -0.0053128661521035098 0 0.0015557960363835009 -0.008314369209541898 0 0.0025726407385983315 -0.0081610662853687978 0 -0.0059462782848595042 -0.0090082153795109799 0 -0.00028207658906712893 -0.0053128661521035098 0 0.0015557960363835009 -0.008314369209541898 0 -0.0018472639305986429 -0.0078892366232049815 0 0.0018590482295997826 -0.0079453729023719246 0 0.0003341136574653308 -0.010586204314867693 0 -0.001345845563399165 -0.0073979469669228515 0 0.0018590482295997826 -0.0079453729023719246 0 0.0049479059027574615 -0.0086156143199900576 0 0.0031503742463567601 -0.010491438830094001 0 0.0025726407385983315 -0.0081610662853687978 0 0.0043236889551874552 -0.0085337661741966397 0 0.0039382236887932909 -0.0055646685712580947 0 0.0015557960363835009 -0.008314369209541898 0 0.0049479059027574615 -0.0086156143199900576 0 0.0031503742463567601 -0.010491438830094001 0 0.0051057454281347083 -0.011154875799712487 0 0.0039157801615902696 -0.012846904053638711 0 0.0049479059027574615 -0.0086156143199900576 0 0.0031503742463567601 -0.010491438830094001 0 0.0051057454281347083 -0.011154875799712487 0 0.0031503742463567601 -0.010491438830094001 0 0.0003341136574653308 -0.010586204314867693 0 0.001437898713645806 -0.013434534772102722 0 0.0018590482295997826 -0.0079453729023719246 0 0.0031503742463567601 -0.010491438830094001 0 0.0003341136574653308 -0.010586204314867693 0 0.011008440533976337 -0.0077141542156216247 0 0.0074605832875485247 -0.0073482185244344482 0 0.0087891987143717751 -0.0097632768436145632 0 0.0074605832875485247 -0.0073482185244344482 0 0.0066288234312596485 -0.0096853722245920475 0 0.0087891987143717751 -0.0097632768436145632 0 0.0049479059027574615 -0.0086156143199900576 0 0.0074605832875485247 -0.0073482185244344482 0 0.0066288234312596485 -0.0096853722245920475 0 0.0039382236887932909 -0.0055646685712580947 0 0.0049479059027574615 -0.0086156143199900576 0 0.0074605832875485247 -0.0073482185244344482 0 0.0049479059027574615 -0.0086156143199900576 0 0.0051057454281347083 -0.011154875799712487 0 0.0066288234312596485 -0.0096853722245920475 0 0.0051057454281347083 -0.011154875799712487 0 0.0070457553018563107 -0.011275805573805328 0 0.0066288234312596485 -0.0096853722245920475 0 0.0070457553018563107 -0.011275805573805328 0 0.0066288234312596485 -0.0096853722245920475 0 0.0087891987143717751 -0.0097632768436145632 0 0.0070457553018563107 -0.011275805573805328 0 0.0087891987143717751 -0.0097632768436145632 0 0.0084995685303722018 -0.011962310288868492 0 0.010057752908632348 -0.011104147189954987 0 0.0087891987143717751 -0.0097632768436145632 0 0.0084995685303722018 -0.011962310288868492 0 0.010099345666936576 -0.012595594885516407 0 0.0084995685303722018 -0.011962310288868492 0 0.0085826021333762787 -0.01391513945443127 0 0.010393314775052979 -0.014588981697207237 0 0.010099345666936576 -0.012595594885516407 0 0.0085826021333762787 -0.01391513945443127 0 0.010099345666936576 -0.012595594885516407 0 0.010057752908632348 -0.011104147189954987 0 0.0084995685303722018 -0.011962310288868492 0 0.0084995685303722018 -0.011962310288868492 0 0.0065263015060342596 -0.013321669844805517 0 0.0085826021333762787 -0.01391513945443127 0 0.0051057454281347083 -0.011154875799712487 0 0.0065263015060342596 -0.013321669844805517 0 0.0039157801615902696 -0.012846904053638711 0 0.0070457553018563107 -0.011275805573805328 0 0.0084995685303722018 -0.011962310288868492 0 0.0065263015060342596 -0.013321669844805517 0 0.0051057454281347083 -0.011154875799712487 0 0.0070457553018563107 -0.011275805573805328 0 0.0065263015060342596 -0.013321669844805517 0 0.0050393149547710648 -0.017684297310512374 0 0.0060772213850681265 -0.015014699400480811 0 0.004528306899621551 -0.015798054463763485 0 0.0065263015060342596 -0.013321669844805517 0 0.0060772213850681265 -0.015014699400480811 0 0.0044319457598764331 -0.014451953704115353 0 0.0060772213850681265 -0.015014699400480811 0 0.006955335374524251 -0.015970209451185699 0 0.0074009976784199013 -0.014786498026976916 0 0.0064512197487512721 -0.016712882473967881 0 0.0060772213850681265 -0.015014699400480811 0 0.006955335374524251 -0.015970209451185699 0 0.0065263015060342596 -0.013321669844805517 0 0.0060772213850681265 -0.015014699400480811 0 0.0074009976784199013 -0.014786498026976916 0 0.0065263015060342596 -0.013321669844805517 0 0.0074009976784199013 -0.014786498026976916 0 0.0085826021333762787 -0.01391513945443127 0 0.0074009976784199013 -0.014786498026976916 0 0.0085826021333762787 -0.01391513945443127 0 0.0088795792296017945 -0.015673899099781535 0 0.006955335374524251 -0.015970209451185699 0 0.0074009976784199013 -0.014786498026976916 0 0.0088795792296017945 -0.015673899099781535 0 0.010393314775052979 -0.014588981697207237 0 0.0085826021333762787 -0.01391513945443127 0 0.0088795792296017945 -0.015673899099781535 0 0.0065263015060342596 -0.013321669844805517 0 0.0039157801615902696 -0.012846904053638711 0 0.0044319457598764331 -0.014451953704115353 0 0.001437898713645806 -0.013434534772102722 0 0.0039157801615902696 -0.012846904053638711 0 0.0028589461938225902 -0.014149330489203003 0 0.0031503742463567601 -0.010491438830094001 0 0.001437898713645806 -0.013434534772102722 0 0.0039157801615902696 -0.012846904053638711 0 0.0039157801615902696 -0.012846904053638711 0 0.0028589461938225902 -0.014149330489203003 0 0.0044319457598764331 -0.014451953704115353 0 0.0028589461938225902 -0.014149330489203003 0 0.0044319457598764331 -0.014451953704115353 0 0.002626849975753675 -0.01565222005857779 0 0.0060772213850681265 -0.015014699400480811 0 0.0044319457598764331 -0.014451953704115353 0 0.004528306899621551 -0.015798054463763485 0 0.0044319457598764331 -0.014451953704115353 0 0.004528306899621551 -0.015798054463763485 0 0.002626849975753675 -0.01565222005857779 0 0.001437898713645806 -0.013434534772102722 0 0.0013375697025207452 -0.014823912138414122 0 -0.0011296171400520334 -0.014115610274746573 0 0.0010282845408592816 -0.016288348159192736 0 0.0013375697025207452 -0.014823912138414122 0 -0.0011296171400520334 -0.014115610274746573 0 0.0010282845408592816 -0.016288348159192736 0 0.002626849975753675 -0.01565222005857779 0 0.0013375697025207452 -0.014823912138414122 0 0.0028589461938225902 -0.014149330489203003 0 0.002626849975753675 -0.01565222005857779 0 0.0013375697025207452 -0.014823912138414122 0 0.001437898713645806 -0.013434534772102722 0 0.0028589461938225902 -0.014149330489203003 0 0.0013375697025207452 -0.014823912138414122 0 -0.0020031397562453356 -0.0096254430007594351 0 -0.0074909312250126129 -0.0088817601108044219 0 -0.0092283622124608999 -0.0039769431521442973 0 -0.0055151437438522213 -0.0025295262811390298 0 -0.008981405707539249 0.0011138100640087202 0 -0.0015390124044509766 -0.014284428164140659 0 -0.0012882300233328771 -0.011899227384482744 0 -0.0040140965946059972 -0.011668960583209901 0 0.001437898713645806 -0.013434534772102722 0 -0.0015390124044509766 -0.014284428164140659 0 -0.0012882300233328771 -0.011899227384482744 0 0.0003341136574653308 -0.010586204314867693 0 0.001437898713645806 -0.013434534772102722 0 -0.0012882300233328771 -0.011899227384482744 0 0.0028199511230581308 -0.013447672795968381 0 -0.0074909312250126129 -0.0088817601108044219 0 -0.0074909312250126129 -0.0088817601108044219 0 -0.014749699216051662 -0.0086191320419314408 0 -0.019484062973899857 -0.0055726600224277993 0 -0.020193556177411677 -0.0052864960485697774 0 -0.020049846734193993 -0.005094576528724303 0 -0.016752156204762503 -0.0073223719316825872 0 -0.014749699216051662 -0.0086191320419314408 0 -0.0092283622124608999 -0.0039769431521442973 0 -0.008981405707539249 0.0011138100640087202 0 -0.013296173146649539 -5.9425681938609783e-05 0 -0.019484062973899857 -0.0055726600224277993 0 -0.020193556177411677 -0.0052864960485697774 0 -0.020112716341582043 -0.0056137903103742493 0 -0.0074909312250126129 -0.0088817601108044219 0 -0.017332245771853143 -0.0027753164448269404 0 -0.020112716341582043 -0.0056137903103742493 0 -0.020473009193735514 -0.0055623931942950251 0 -0.020329130646194089 -0.0053930380001198418 0 -0.020473009193735514 -0.0055623931942950251 0 -0.020477994978029497 -0.0052607641841203876 0 -0.020329130646194089 -0.0053930380001198418 0 -0.017332245771853143 -0.0027753164448269404 0 -0.020402543620325918 -0.0034097259877864119 0 -0.020552257691892974 -0.0035523367388096572 0 -0.021816864792447224 -0.0039571450912979358 0 -0.020603329532282794 -0.005066632141583525 0 -0.020402543620325918 -0.0034097259877864119 0 -0.020769817549316498 -0.0054701660080967475 0 -0.020473009193735514 -0.0055623931942950251 0 -0.020477994978029497 -0.0052607641841203876 0 -0.020603329532282794 -0.005066632141583525 0 -0.020477994978029497 -0.0052607641841203876 0 -0.020525824283747645 -0.0053467953104279044 0 -0.020603329532282794 -0.005066632141583525 0 -0.020193556177411677 -0.0052864960485697774 0 -0.020112716341582043 -0.0056137903103742493 0 -0.020329130646194089 -0.0053930380001198418 0 -0.020477994978029497 -0.0052607641841203876 0 -0.020329130646194089 -0.0053930380001198418 0 -0.020399245667183985 -0.0052706564901969059 0 -0.020193556177411677 -0.0052864960485697774 0 -0.020220285350966736 -0.0052566224418854135 0 -0.020399245667183985 -0.0052706564901969059 0 -0.020193556177411677 -0.0052864960485697774 0 -0.020329130646194089 -0.0053930380001198418 0 -0.020399245667183985 -0.0052706564901969059 0 -0.014749699216051662 -0.0086191320419314408 0 -0.018213358297098407 -0.0071532437490977579 0 -0.020220285350966736 -0.0052566224418854135 0 -0.020399245667183985 -0.0052706564901969059 0 -0.02050195300792286 -0.0053288053655229668 0 -0.020399245667183985 -0.0052706564901969059 0 -0.02050195300792286 -0.0053288053655229668 0 -0.020525824283747645 -0.0053467953104279044 0 -0.020477994978029497 -0.0052607641841203876 0 -0.020399245667183985 -0.0052706564901969059 0 -0.020525824283747645 -0.0053467953104279044 0 -0.02050195300792286 -0.0053288053655229668 0 -0.020525824283747645 -0.0053467953104279044 0 -0.020548718369867592 -0.0056709582287108049 0 -0.020525824283747645 -0.0053467953104279044 0 -0.020548718369867592 -0.0056709582287108049 0 -0.020362663030224413 -0.0056842194670949243 0 -0.018213358297098407 -0.0071532437490977579 0 -0.018842510085793893 -0.0065137830898013014 0 -0.014391191609993484 -0.0081756954506870434 0 -0.012646817456860873 -0.0076016225556093898 0 -0.015940477530600582 -0.007154265728112146 0 -0.012129790309353837 -0.0090706428134497558 0 -0.016053958142845187 -0.0068215162530610293 0 -0.015387856017587718 -0.009309486764786469 0 -0.014391191609993484 -0.0081756954506870434 0 -0.015940477530600582 -0.007154265728112146 0 -0.015387856017587718 -0.009309486764786469 0 -0.017169139100829369 -0.0074320605255606192 0 -0.015940477530600582 -0.007154265728112146 0 -0.015387856017587718 -0.009309486764786469 0 -0.014391191609993484 -0.0081756954506870434 0 -0.013578888355220087 -0.0086260907744063354 0 -0.014391191609993484 -0.0081756954506870434 0 -0.013578888355220087 -0.0086260907744063354 0 -0.012646817456860873 -0.0076016225556093898 0 -0.013578888355220087 -0.0086260907744063354 0 -0.012376752865425306 -0.0079213144141680042 0 -0.012531667449692712 -0.0095140742783172486 0 -0.013578888355220087 -0.0086260907744063354 0 -0.012376752865425306 -0.0079213144141680042 0 -0.012646817456860873 -0.0076016225556093898 0 -0.012336038217389328 -0.0087357106913302663 0 -0.012129790309353837 -0.0090706428134497558 0 -0.012129790309353837 -0.0090706428134497558 0 -0.0059462782848595042 -0.0090082153795109799 0 -0.01167942870091669 -0.014131535923898332 0 -0.01027605718434314 -0.014356045155898712 0 -0.010575878230616207 -0.012763104753052435 0 -0.012376752865425306 -0.0079213144141680042 0 -0.01263929796330133 -0.0076042993799471494 0 -0.01145334527893788 -0.0077881034327470407 0 -0.0059462782848595042 -0.0090082153795109799 0 -0.007583714078569709 -0.009240731328467559 0 -0.012376752865425306 -0.0079213144141680042 0 -0.01145334527893788 -0.0077881034327470407 0 -0.012531667449692712 -0.0095140742783172486 0 0.0003341136574653308 -0.010586204314867693 0 -0.001345845563399165 -0.0073979469669228515 0 -0.0026621112403970317 -0.009531475446352267 0 0.0003341136574653308 -0.010586204314867693 0 -0.0012882300233328771 -0.011899227384482744 0 -0.0026621112403970317 -0.009531475446352267 0 -0.013582113528974152 -0.011217506429287729 0 -0.015387856017587718 -0.009309486764786469 0 -0.013578888355220087 -0.0086260907744063354 0 -0.0012882300233328771 -0.011899227384482744 0 -0.0040140965946059972 -0.011668960583209901 0 -0.0026621112403970317 -0.009531475446352267 0 -0.013582113528974152 -0.011217506429287729 0 -0.013578888355220087 -0.0086260907744063354 0 -0.012531667449692712 -0.0095140742783172486 0 -0.014749699216051662 -0.0086191320419314408 0 -0.007583714078569709 -0.009240731328467559 0 -0.019061837178343082 -0.0048896372595454742 0 -0.019288324188194064 -0.0048350947103059398 0 -0.019387780084835795 -0.0053830288270351684 0 -0.019061837178343082 -0.0048896372595454742 0 -0.019288324188194064 -0.0048350947103059398 0 -0.019060472091398929 -0.0042302644692285502 0 -0.019288324188194064 -0.0048350947103059398 0 -0.019060472091398929 -0.0042302644692285502 0 -0.019740602702119459 -0.0043377946499831791 0 -0.019288324188194064 -0.0048350947103059398 0 -0.019814122324488218 -0.0051378608899957873 0 -0.019740602702119459 -0.0043377946499831791 0 -0.019288324188194064 -0.0048350947103059398 0 -0.019814122324488218 -0.0051378608899957873 0 -0.019387780084835795 -0.0053830288270351684 0 -0.019814122324488218 -0.0051378608899957873 0 -0.019740602702119459 -0.0043377946499831791 0 -0.020603329532282794 -0.005066632141583525 0 -0.020552257691892974 -0.0035523367388096572 0 -0.019740602702119459 -0.0043377946499831791 0 -0.020603329532282794 -0.005066632141583525 0 -0.020525824283747645 -0.0053467953104279044 0 -0.020603329532282794 -0.005066632141583525 0 -0.020227365392186305 -0.0055327002619918533 0 -0.020227365392186305 -0.0055327002619918533 0 -0.020362663030224413 -0.0056842194670949243 0 -0.020135575138809182 -0.0058590803202633549 0 -0.020525824283747645 -0.0053467953104279044 0 -0.020227365392186305 -0.0055327002619918533 0 -0.020362663030224413 -0.0056842194670949243 0 -0.020227365392186305 -0.0055327002619918533 0 -0.019775594851366568 -0.0057962415742939437 0 -0.020135575138809182 -0.0058590803202633549 0 -0.019814122324488218 -0.0051378608899957873 0 -0.020227365392186305 -0.0055327002619918533 0 -0.019775594851366568 -0.0057962415742939437 0 -0.019814122324488218 -0.0051378608899957873 0 -0.020603329532282794 -0.005066632141583525 0 -0.020227365392186305 -0.0055327002619918533 0 -0.019814122324488218 -0.0051378608899957873 0 -0.019775594851366568 -0.0057962415742939437 0 -0.019387780084835795 -0.0053830288270351684 0 -0.019367970175678775 -0.0059203814418292032 0 -0.019775594851366568 -0.0057962415742939437 0 -0.019545786906749109 -0.0063532796216469725 0 -0.019367970175678775 -0.0059203814418292032 0 -0.019775594851366568 -0.0057962415742939437 0 -0.019387780084835795 -0.0053830288270351684 0 -0.019322951196422807 -0.0067009143483772234 0 -0.019545129075926718 -0.0067050209620792235 0 -0.01971624981331193 -0.0069627562728507026 0 -0.019545129075926718 -0.0067050209620792235 0 -0.019545786906749109 -0.0063532796216469725 0 -0.019868082685014402 -0.0068996096724366499 0 -0.019545129075926718 -0.0067050209620792235 0 -0.019868082685014402 -0.0068996096724366499 0 -0.01971624981331193 -0.0069627562728507026 0 -0.019368207741576597 -0.0065268489143635337 0 -0.019545129075926718 -0.0067050209620792235 0 -0.019545786906749109 -0.0063532796216469725 0 -0.019495361682535847 -0.0063697531797784366 0 -0.019948972776215355 -0.0065417847035914977 0 -0.019775594851366568 -0.0057962415742939437 0 -0.019545786906749109 -0.0063532796216469725 0 -0.019928943550185589 -0.0061333951400280385 0 -0.019545786906749109 -0.0063532796216469725 0 -0.019868082685014402 -0.0068996096724366499 0 -0.019891408609529041 -0.0068867122561802729 0 -0.019868082685014402 -0.0068996096724366499 0 -0.019834000559510852 -0.0070341897653550412 0 -0.02004011233248585 -0.0069742353246091361 0 -0.019834000559510852 -0.0070341897653550412 0 -0.019891408609529041 -0.0068867122561802729 0 -0.019638252594228602 -0.0072742996764980925 0 -0.019834000559510852 -0.0070341897653550412 0 -0.019696145600232307 -0.0071239842396390099 0 -0.019744382075721611 -0.0070386880997503325 0 -0.019834000559510852 -0.0070341897653550412 0 -0.019638252594228602 -0.0072742996764980925 0 -0.019696145600232307 -0.0071239842396390099 0 -0.019868082685014402 -0.0068996096724366499 0 -0.019834000559510852 -0.0070341897653550412 0 -0.019891408609529041 -0.0068867122561802729 0 -0.019775594851366568 -0.0057962415742939437 0 -0.019928943550185589 -0.0061333951400280385 0 -0.020135575138809182 -0.0058590803202633549 0 -0.019891408609529041 -0.0068867122561802729 0 -0.019599971826509247 -0.00734854453806413 0 -0.019638252594228602 -0.0072742996764980925 0 -0.019928943550185589 -0.0061333951400280385 0 -0.020135575138809182 -0.0058590803202633549 0 -0.020351431252095292 -0.0060489404569279114 0 -0.019948972776215355 -0.0065417847035914977 0 -0.019570323265951671 -0.0064168293355729416 0 -0.020362663030224413 -0.0056842194670949243 0 -0.020135575138809182 -0.0058590803202633549 0 -0.020351431252095292 -0.0060489404569279114 0 -0.020548718369867592 -0.0056709582287108049 0 -0.020362663030224413 -0.0056842194670949243 0 -0.020351431252095292 -0.0060489404569279114 0 -0.019352395539936434 -0.0073078557090052228 0 -0.019638252594228602 -0.0072742996764980925 0 -0.019526603165701453 -0.0071508599389091014 0 -0.019474110768711271 -0.0075092025505384772 0 -0.019352395539936434 -0.0073078557090052228 0 -0.019638252594228602 -0.0072742996764980925 0 -0.019570323265951671 -0.0064168293355729416 0 -0.019392815340373234 -0.0068502290400711714 0 -0.019638252594228602 -0.0072742996764980925 0 -0.019526603165701453 -0.0071508599389091014 0 -0.019696145600232307 -0.0071239842396390099 0 -0.019526603165701453 -0.0071508599389091014 0 -0.019387674658018089 -0.0070138662950693584 0 -0.019744382075721611 -0.0070386880997503325 0 -0.019526603165701453 -0.0071508599389091014 0 -0.019696145600232307 -0.0071239842396390099 0 -0.019744382075721611 -0.0070386880997503325 0 -0.019526603165701453 -0.0071508599389091014 0 -0.019387674658018089 -0.0070138662950693584 0 -0.019189344362956037 -0.0071975470456368991 0 -0.019352395539936434 -0.0073078557090052228 0 -0.019526603165701453 -0.0071508599389091014 0 -0.019189344362956037 -0.0071975470456368991 0 -0.019387674658018089 -0.0070138662950693584 0 -0.019721179034719382 -0.0068885038009460497 0 -0.019744382075721611 -0.0070386880997503325 0 -0.019721179034719382 -0.0068885038009460497 0 -0.019345228488136992 -0.0067570738352354222 0 -0.019625753032453116 -0.0066938496984968428 0 -0.019387674658018089 -0.0070138662950693584 0 -0.019721179034719382 -0.0068885038009460497 0 -0.019345228488136992 -0.0067570738352354222 0 -0.019618759477455647 -0.0052541040998373935 0 -0.016229425265596398 -0.009143029102912743 0 -0.019345228488136992 -0.0067570738352354222 0 -0.018931484922827892 -0.0061279721761087714 0 -0.019241006400464566 -0.004640657042659444 0 -0.019345228488136992 -0.0067570738352354222 0 -0.019625753032453116 -0.0066938496984968428 0 -0.019375142017771341 -0.0061582745754400038 0 -0.018931484922827892 -0.0061279721761087714 0 -0.01751100671252525 -0.0050517882086995331 0 -0.019241006400464566 -0.004640657042659444 0 -0.019625753032453116 -0.0066938496984968428 0 -0.019784454187072281 -0.0065955827394853462 0 -0.019375142017771341 -0.0061582745754400038 0 -0.021727085778770729 -0.0063419494670652436 0 -0.016229425265596398 -0.009143029102912743 0 -0.019721179034719382 -0.0068885038009460497 0 -0.019625753032453116 -0.0066938496984968428 0 -0.020025503677408137 -0.0068096271189817155 0 -0.020025503677408137 -0.0068096271189817155 0 -0.019784454187072281 -0.0065955827394853462 0 -0.020384138228422187 -0.0067938305230463474 0 -0.019625753032453116 -0.0066938496984968428 0 -0.020025503677408137 -0.0068096271189817155 0 -0.019784454187072281 -0.0065955827394853462 0 -0.019784454187072281 -0.0065955827394853462 0 -0.020384138228422187 -0.0067938305230463474 0 -0.019375142017771341 -0.0061582745754400038 0 -0.020025503677408137 -0.0068096271189817155 0 -0.020384138228422187 -0.0067938305230463474 0 -0.020223468814882063 -0.006855595157917305 0 -0.019834000559510852 -0.0070341897653550412 0 -0.02004011233248585 -0.0069742353246091361 0 -0.019744382075721611 -0.0070386880997503325 0 -0.020025503677408137 -0.0068096271189817155 0 -0.020223468814882063 -0.006855595157917305 0 -0.02004011233248585 -0.0069742353246091361 0 -0.019721179034719382 -0.0068885038009460497 0 -0.020025503677408137 -0.0068096271189817155 0 -0.02004011233248585 -0.0069742353246091361 0 -0.019721179034719382 -0.0068885038009460497 0 -0.02004011233248585 -0.0069742353246091361 0 -0.019744382075721611 -0.0070386880997503325 0 -0.020031348613447474 -0.006967425912316914 0 -0.020056378616662599 -0.0069459423384884422 0 -0.019868082685014402 -0.0068996096724366499 0 -0.02004011233248585 -0.0069742353246091361 0 -0.01971624981331193 -0.0069627562728507026 0 -0.02004011233248585 -0.0069742353246091361 0 -0.02034311770575702 -0.0068559510075448579 0 -0.020409731640624543 -0.0069510693836364835 0 -0.020223468814882063 -0.006855595157917305 0 -0.02004011233248585 -0.0069742353246091361 0 -0.02034311770575702 -0.0068559510075448579 0 -0.021043810096844001 -0.0071842672458012511 0 -0.020891782731476558 -0.0070288771947463607 0 -0.020524885950862 -0.0069676047482072302 0 -0.020672649656814868 -0.0069956796781230242 0 -0.020550813167923537 -0.0069705238168837145 0 -0.020384138228422187 -0.0067938305230463474 0 -0.02034311770575702 -0.0068559510075448579 0 -0.020524885950862 -0.0069676047482072302 0 -0.02034311770575702 -0.0068559510075448579 0 -0.020381138978620646 -0.0068821306566873132 0 -0.020524885950862 -0.0069676047482072302 0 -0.020384138228422187 -0.0067938305230463474 0 -0.020223468814882063 -0.006855595157917305 0 -0.02034311770575702 -0.0068559510075448579 0 -0.021043810096844001 -0.0071842672458012511 0 -0.02107639104706871 -0.0070720318194613715 0 -0.020891782731476558 -0.0070288771947463607 0 -0.021144696015979691 -0.0070827053921772585 0 -0.021043810096844001 -0.0071842672458012511 0 -0.02107639104706871 -0.0070720318194613715 0 -0.019864985617914718 -0.0068215561063771574 0 -0.020056378616662599 -0.0069459423384884422 0 -0.020420518870487601 -0.0069325424866904482 0 -0.020381138978620646 -0.0068821306566873132 0 -0.020408633706915379 -0.0069288500280053154 0 -0.020417207686241182 -0.0069223538143227759 0 -0.020409731640624543 -0.0069510693836364835 0 -0.020408633706915379 -0.0069288500280053154 0 -0.02034311770575702 -0.0068559510075448579 0 -0.020381138978620646 -0.0068821306566873132 0 -0.020409731640624543 -0.0069510693836364835 0 -0.020381138978620646 -0.0068821306566873132 0 -0.020409731640624543 -0.0069510693836364835 0 -0.020408633706915379 -0.0069288500280053154 0 -0.011181253158406037 -0.011229797340328813 0 -0.015178467884138699 -0.0092654321548695986 0 -0.012998189551688279 -0.010326878299543612 0 -0.014219667389782658 -0.011398474351742146 0 -0.013927612922694911 -0.0089909260014177962 0 -0.012998189551688279 -0.010326878299543612 0 -0.011236297775890138 -0.011070271947642268 0 -0.014219667389782658 -0.011398474351742146 0 -0.012998189551688279 -0.010326878299543612 0 -0.012135978433309083 -0.0097114761867274114 0 -0.011236297775890138 -0.011070271947642268 0 -0.012998189551688279 -0.010326878299543612 0 -0.012135978433309083 -0.0097114761867274114 0 -0.013927612922694911 -0.0089909260014177962 0 -0.012135978433309083 -0.0097114761867274114 0 -0.010706596416375769 -0.0097198748390176642 0 -0.011617775761323281 -0.009049136396265197 0 -0.012135978433309083 -0.0097114761867274114 0 -0.010706596416375769 -0.0097198748390176642 0 -0.011236297775890138 -0.011070271947642268 0 -0.0082687018345027896 -0.0074066469586437141 0 -0.009886804968899307 -0.010831513030747749 0 -0.0086047473813848207 -0.0080029043060092977 0 -0.010706596416375769 -0.0097198748390176642 0 -0.0099816157047065285 -0.010953174337958053 0 -0.007835961277761835 -0.0083108195155728679 0 -0.0084104584235356415 -0.0097861311836146565 0 -0.0099816157047065285 -0.010953174337958053 0 -0.0084104584235356415 -0.0097861311836146565 0 -0.0087451874039342521 -0.012055152798857823 0 -0.0099816157047065285 -0.010953174337958053 0 -0.0099816157047065285 -0.010953174337958053 0 -0.011236297775890138 -0.011070271947642268 0 -0.010556500568179002 -0.01172764121480906 0 -0.010706596416375769 -0.0097198748390176642 0 -0.0099816157047065285 -0.010953174337958053 0 -0.011236297775890138 -0.011070271947642268 0 -0.011236297775890138 -0.011070271947642268 0 -0.010556500568179002 -0.01172764121480906 0 -0.011781600637049238 -0.012197550865774775 0 -0.0087451874039342521 -0.012055152798857823 0 -0.01027605718434314 -0.014356045155898712 0 -0.010575878230616207 -0.012763104753052435 0 -0.0045451138827946784 -0.0086875043607047946 0 -0.0059462782848595042 -0.0090082153795109799 0 -0.010556500568179002 -0.01172764121480906 0 -0.010575878230616207 -0.012763104753052435 0 -0.011781600637049238 -0.012197550865774775 0 -0.0087451874039342521 -0.012055152798857823 0 -0.0099816157047065285 -0.010953174337958053 0 -0.010556500568179002 -0.01172764121480906 0 -0.0087451874039342521 -0.012055152798857823 0 -0.010556500568179002 -0.01172764121480906 0 -0.010575878230616207 -0.012763104753052435 0 -0.01167942870091669 -0.014131535923898332 0 -0.010575878230616207 -0.012763104753052435 0 -0.011781600637049238 -0.012197550865774775 0 -0.01167942870091669 -0.014131535923898332 0 -0.011781600637049238 -0.012197550865774775 0 -0.014071691023424062 -0.011221509992034273 0 -0.012129790309353837 -0.0090706428134497558 0 -0.015178467884138699 -0.0092654321548695986 0 -0.011236297775890138 -0.011070271947642268 0 -0.011781600637049238 -0.012197550865774775 0 -0.014071691023424062 -0.011221509992034273 0 -0.015940477530600582 -0.007154265728112146 0 -0.016826570066781375 -0.0054283064881843028 0 -0.014738059886052072 -0.0052996425669533638 0 -0.012780503545568759 -0.0076832226239180188 0 -0.015940477530600582 -0.007154265728112146 0 -0.014738059886052072 -0.0052996425669533638 0 -0.019570323265951671 -0.0064168293355729416 0 -0.017973066039625511 -0.0065027263986650119 0 -0.017169139100829369 -0.0074320605255606192 0 -0.018917320950856849 -0.0055754478774382712 0 -0.016826570066781375 -0.0054283064881843028 0 -0.017169139100829369 -0.0074320605255606192 0 -0.015940477530600582 -0.007154265728112146 0 -0.016826570066781375 -0.0054283064881843028 0 -0.018842510085793893 -0.0065137830898013014 0 -0.019570323265951671 -0.0064168293355729416 0 -0.019474110768711271 -0.0075092025505384772 0 -0.019352395539936434 -0.0073078557090052228 0 -0.018862057904021075 -0.0075573746410387789 0 -0.018862057904021075 -0.0075573746410387789 0 -0.019189344362956037 -0.0071975470456368991 0 -0.018771981544393253 -0.007037464984940893 0 -0.019352395539936434 -0.0073078557090052228 0 -0.018862057904021075 -0.0075573746410387789 0 -0.019189344362956037 -0.0071975470456368991 0 -0.015178467884138699 -0.0092654321548695986 0 -0.017797812534138216 -0.0078316595157550736 0 -0.014219667389782658 -0.011398474351742146 0 -0.013927612922694911 -0.0089909260014177962 0 -0.016498446763479876 -0.0088104956562829444 0 -0.017973066039625511 -0.0065027263986650119 0 -0.015178467884138699 -0.0092654321548695986 0 -0.018862057904021075 -0.0075573746410387789 0 -0.018337278438642877 -0.007544263675532248 0 -0.018771981544393253 -0.007037464984940893 0 -0.013927612922694911 -0.0089909260014177962 0 -0.015204132118953268 -0.007688677264386083 0 -0.016498446763479876 -0.0088104956562829444 0 -0.015204132118953268 -0.007688677264386083 0 -0.016498446763479876 -0.0088104956562829444 0 -0.01600978527574964 -0.0067837310229337776 0 -0.013927612922694911 -0.0089909260014177962 0 -0.015204132118953268 -0.007688677264386083 0 -0.014199775943085366 -0.0075472567666121145 0 -0.013927612922694911 -0.0089909260014177962 0 -0.014199775943085366 -0.0075472567666121145 0 -0.013257731351004554 -0.0078078865180412332 0 -0.015204132118953268 -0.007688677264386083 0 -0.014199775943085366 -0.0075472567666121145 0 -0.014860208871393967 -0.0064069955226084378 0 -0.019387674658018089 -0.0070138662950693584 0 -0.019345228488136992 -0.0067570738352354222 0 -0.018771981544393253 -0.007037464984940893 0 -0.018931484922827892 -0.0061279721761087714 0 -0.016498446763479876 -0.0088104956562829444 0 -0.017139607573221451 -0.0062591243325438896 0 -0.019387674658018089 -0.0070138662950693584 0 -0.019189344362956037 -0.0071975470456368991 0 -0.018771981544393253 -0.007037464984940893 0 -0.018841343734360933 -0.0062638860647958013 0 -0.017797812534138216 -0.0078316595157550736 0 -0.019345228488136992 -0.0067570738352354222 0 -0.018931484922827892 -0.0061279721761087714 0 -0.018771981544393253 -0.007037464984940893 0 -0.016498446763479876 -0.0088104956562829444 0 -0.017139607573221451 -0.0062591243325438896 0 -0.01600978527574964 -0.0067837310229337776 0 -0.017139607573221451 -0.0062591243325438896 0 -0.01600978527574964 -0.0067837310229337776 0 -0.015988569121524118 -0.0055090540896298229 0 -0.017139607573221451 -0.0062591243325438896 0 -0.01751100671252525 -0.0050517882086995331 0 -0.015988569121524118 -0.0055090540896298229 0 -0.018931484922827892 -0.0061279721761087714 0 -0.017139607573221451 -0.0062591243325438896 0 -0.01751100671252525 -0.0050517882086995331 0 -0.014199775943085366 -0.0075472567666121145 0 -0.014860208871393967 -0.0064069955226084378 0 -0.013710749773931769 -0.0068906606842847476 0 -0.014860208871393967 -0.0064069955226084378 0 -0.014066606969307329 -0.0060699904519546412 0 -0.013710749773931769 -0.0068906606842847476 0 -0.014860208871393967 -0.0064069955226084378 0 -0.01600978527574964 -0.0067837310229337776 0 -0.015988569121524118 -0.0055090540896298229 0 -0.015204132118953268 -0.007688677264386083 0 -0.014860208871393967 -0.0064069955226084378 0 -0.01600978527574964 -0.0067837310229337776 0 -0.014860208871393967 -0.0064069955226084378 0 -0.015988569121524118 -0.0055090540896298229 0 -0.014540885873649639 -0.0052172564781191007 0 -0.014860208871393967 -0.0064069955226084378 0 -0.014066606969307329 -0.0060699904519546412 0 -0.014540885873649639 -0.0052172564781191007 0 -0.014066606969307329 -0.0060699904519546412 0 -0.014540885873649639 -0.0052172564781191007 0 -0.013177710469236414 -0.0057641937070634208 0 -0.013710749773931769 -0.0068906606842847476 0 -0.012781344591561652 -0.0070239633816127443 0 -0.0099114780878961223 -0.0056225229884331578 0 -0.013177710469236414 -0.0057641937070634208 0 -0.013710749773931769 -0.0068906606842847476 0 -0.010742580810635553 -0.0060574109017570051 0 -0.014540885873649639 -0.0052172564781191007 0 -0.013177710469236414 -0.0057641937070634208 0 -0.012948397941649004 -0.0044340883349421644 0 -0.013454777781211565 -0.0067633492600202502 0 -0.010399561624792582 -0.0060770028421473291 0 -0.012387223209410072 -0.0068190250706977153 0 -0.010399561624792582 -0.0060770028421473291 0 -0.012781344591561652 -0.0070239633816127443 0 -0.011359561674843496 -0.0074171395177035559 0 -0.010151472511225949 -0.0058332407416392526 0 -0.013177710469236414 -0.0057641937070634208 0 -0.010742580810635553 -0.0060574109017570051 0 -0.012948397941649004 -0.0044340883349421644 0 -0.014066606969307329 -0.0060699904519546412 0 -0.013177710469236414 -0.0057641937070634208 0 -0.013710749773931769 -0.0068906606842847476 0 -0.013710749773931769 -0.0068906606842847476 0 -0.013257731351004554 -0.0078078865180412332 0 -0.012781344591561652 -0.0070239633816127443 0 -0.014199775943085366 -0.0075472567666121145 0 -0.013710749773931769 -0.0068906606842847476 0 -0.013257731351004554 -0.0078078865180412332 0 -0.013257731351004554 -0.0078078865180412332 0 -0.012418947490908269 -0.0076663543531089329 0 -0.012293934123822271 -0.0084190885778708067 0 -0.013257731351004554 -0.0078078865180412332 0 -0.012781344591561652 -0.0070239633816127443 0 -0.012418947490908269 -0.0076663543531089329 0 -0.012781344591561652 -0.0070239633816127443 0 -0.012418947490908269 -0.0076663543531089329 0 -0.011359561674843496 -0.0074171395177035559 0 -0.012418947490908269 -0.0076663543531089329 0 -0.012293934123822271 -0.0084190885778708067 0 -0.011359561674843496 -0.0074171395177035559 0 -0.011617775761323281 -0.009049136396265197 0 -0.012293934123822271 -0.0084190885778708067 0 -0.01085568392081585 -0.0085848673394482034 0 -0.012135978433309083 -0.0097114761867274114 0 -0.011617775761323281 -0.009049136396265197 0 -0.012293934123822271 -0.0084190885778708067 0 -0.012293934123822271 -0.0084190885778708067 0 -0.01085568392081585 -0.0085848673394482034 0 -0.011359561674843496 -0.0074171395177035559 0 -0.012135978433309083 -0.0097114761867274114 0 -0.013927612922694911 -0.0089909260014177962 0 -0.012293934123822271 -0.0084190885778708067 0 -0.013927612922694911 -0.0089909260014177962 0 -0.013257731351004554 -0.0078078865180412332 0 -0.012293934123822271 -0.0084190885778708067 0 -0.0086047473813848207 -0.0080029043060092977 0 -0.01085568392081585 -0.0085848673394482034 0 -0.0099917758040086076 -0.007308073469369852 0 -0.0086047473813848207 -0.0080029043060092977 0 -0.010706596416375769 -0.0097198748390176642 0 -0.01085568392081585 -0.0085848673394482034 0 -0.010706596416375769 -0.0097198748390176642 0 -0.011617775761323281 -0.009049136396265197 0 -0.01085568392081585 -0.0085848673394482034 0 -0.01085568392081585 -0.0085848673394482034 0 -0.011359561674843496 -0.0074171395177035559 0 -0.0099917758040086076 -0.007308073469369852 0 -0.0086047473813848207 -0.0080029043060092977 0 -0.008945456322106882 -0.0065187695157729736 0 -0.0099917758040086076 -0.007308073469369852 0 -0.008945456322106882 -0.0065187695157729736 0 -0.0099917758040086076 -0.007308073469369852 0 -0.010151472511225949 -0.0058332407416392526 0 -0.011359561674843496 -0.0074171395177035559 0 -0.0099917758040086076 -0.007308073469369852 0 -0.010151472511225949 -0.0058332407416392526 0 -0.010742580810635553 -0.0060574109017570051 0 -0.010695334338004535 -0.003743373460436716 0 -0.012948397941649004 -0.0044340883349421644 0 -0.010742580810635553 -0.0060574109017570051 0 -0.010695334338004535 -0.003743373460436716 0 -0.0094127883996261881 -0.0042599251055512434 0 -0.010695334338004535 -0.003743373460436716 0 -0.010030015104081701 -0.0026415442803670764 0 -0.0093195052946631017 -0.0032315417029859803 0 -0.010695334338004535 -0.003743373460436716 0 -0.010030015104081701 -0.0026415442803670764 0 -0.012690025669711225 -0.0023873269661428788 0 -0.01037735793433997 -0.0087535267133579033 0 -0.007819017938063973 -0.013502875657584686 0 -0.010030015104081701 -0.0026415442803670764 0 -0.012690025669711225 -0.0023873269661428788 0 -0.0097446127979099271 -0.0014599656604866707 0 -0.0078865203382521114 -0.016141515419677458 0 -0.0078574968163531711 -0.015890032412688507 0 -0.0076354304093759475 -0.016014046793731047 0 -0.012690025669711225 -0.0023873269661428788 0 -0.012948397941649004 -0.0044340883349421644 0 -0.015883829604080926 -0.003327486656763085 0 -0.010695334338004535 -0.003743373460436716 0 -0.012690025669711225 -0.0023873269661428788 0 -0.012948397941649004 -0.0044340883349421644 0 -0.015988569121524118 -0.0055090540896298229 0 -0.014540885873649639 -0.0052172564781191007 0 -0.015883829604080926 -0.003327486656763085 0 -0.014540885873649639 -0.0052172564781191007 0 -0.012948397941649004 -0.0044340883349421644 0 -0.015883829604080926 -0.003327486656763085 0 -0.01751100671252525 -0.0050517882086995331 0 -0.015988569121524118 -0.0055090540896298229 0 -0.015883829604080926 -0.003327486656763085 0 -0.0083802314397975128 -0.016314452966817539 0 -0.0085945494414428579 -0.016135242936528328 0 -0.0089038914791757726 -0.016416590668741966 0 -0.01751100671252525 -0.0050517882086995331 0 -0.015883829604080926 -0.003327486656763085 0 -0.019241006400464566 -0.004640657042659444 0 -0.011769530394625281 -0.0099699735784552091 0 -0.016229425265596398 -0.009143029102912743 0 -0.0085945494414428579 -0.016135242936528328 0 -0.0081986087534554122 -0.016020078875841847 0 -0.0086062076984878087 -0.015849681371921592 0 -0.0085945494414428579 -0.016135242936528328 0 -0.0086062076984878087 -0.015849681371921592 0 -0.0088690365719572666 -0.016056540767382506 0 -0.01037735793433997 -0.0087535267133579033 0 -0.011769530394625281 -0.0099699735784552091 0 -0.0078865203382521114 -0.016141515419677458 0 -0.0083802314397975128 -0.016314452966817539 0 -0.0081986087534554122 -0.016020078875841847 0 -0.0083802314397975128 -0.016314452966817539 0 -0.0085945494414428579 -0.016135242936528328 0 -0.0081986087534554122 -0.016020078875841847 0 -0.0081986087534554122 -0.016020078875841847 0 -0.0082987198410438019 -0.015807889891463141 0 -0.0086062076984878087 -0.015849681371921592 0 -0.0081986087534554122 -0.016020078875841847 0 -0.0082987198410438019 -0.015807889891463141 0 -0.0078574968163531711 -0.015890032412688507 0 -0.0082987198410438019 -0.015807889891463141 0 -0.0086062076984878087 -0.015849681371921592 0 -0.0087209141720127614 -0.015723161834127058 0 -0.0086062076984878087 -0.015849681371921592 0 -0.0087209141720127614 -0.015723161834127058 0 -0.0089121294751905184 -0.01568025669239018 0 -0.0082987198410438019 -0.015807889891463141 0 -0.0087209141720127614 -0.015723161834127058 0 -0.0083143726571455485 -0.015515661584069635 0 -0.0083143726571455485 -0.015515661584069635 0 -0.008922466444449266 -0.01566621225358223 0 -0.0089443560756853335 -0.015010795828070078 0 -0.0087209141720127614 -0.015723161834127058 0 -0.0083143726571455485 -0.015515661584069635 0 -0.008922466444449266 -0.01566621225358223 0 -0.0082987198410438019 -0.015807889891463141 0 -0.0079268674812255756 -0.015433999321956089 0 -0.0078574968163531711 -0.015890032412688507 0 -0.0082987198410438019 -0.015807889891463141 0 -0.0079268674812255756 -0.015433999321956089 0 -0.0083143726571455485 -0.015515661584069635 0 -0.0079268674812255756 -0.015433999321956089 0 -0.0074702166668901334 -0.015538515044812518 0 -0.0078574968163531711 -0.015890032412688507 0 -0.0074702166668901334 -0.015538515044812518 0 -0.0070087768120472996 -0.015756526200008506 0 -0.0069272215406169513 -0.015365240610394853 0 -0.0074702166668901334 -0.015538515044812518 0 -0.0070087768120472996 -0.015756526200008506 0 -0.0078574968163531711 -0.015890032412688507 0 -0.0078574968163531711 -0.015890032412688507 0 -0.0069172184461040297 -0.01658318117464665 0 -0.0069063415964832958 -0.016126863272891985 0 -0.0074259496701274547 -0.016847188071931474 0 -0.007819017938063973 -0.013502875657584686 0 -0.0070087768120472996 -0.015756526200008506 0 -0.0078574968163531711 -0.015890032412688507 0 -0.0069063415964832958 -0.016126863272891985 0 -0.0078865203382521114 -0.016141515419677458 0 -0.0081986087534554122 -0.016020078875841847 0 -0.0078574968163531711 -0.015890032412688507 0 -0.021137817542470391 -0.0070869938484088854 0 -0.020960413529533001 -0.0070687363502664859 0 -0.021054850926742502 -0.0070598028053794979 0 -0.021137817542470391 -0.0070869938484088854 0 -0.020960413529533001 -0.0070687363502664859 0 -0.021073981854952097 -0.0070847433585044051 0 -0.020960413529533001 -0.0070687363502664859 0 -0.021054850926742502 -0.0070598028053794979 0 -0.020892181668507561 -0.0070353192964591488 0 -0.020960413529533001 -0.0070687363502664859 0 -0.020892181668507561 -0.0070353192964591488 0 -0.020841266159093343 -0.0070532298043391962 0 -0.021054850926742502 -0.0070598028053794979 0 -0.021008451854125802 -0.0070465128801569061 0 -0.020892181668507561 -0.0070353192964591488 0 -0.021121905508020972 -0.007062275726845306 0 -0.021054850926742502 -0.0070598028053794979 0 -0.021008451854125802 -0.0070465128801569061 0 -0.021121905508020972 -0.007062275726845306 0 -0.021008451854125802 -0.0070465128801569061 0 -0.02107639104706871 -0.0070720318194613715 0 -0.021008451854125802 -0.0070465128801569061 0 -0.02107639104706871 -0.0070720318194613715 0 -0.020891782731476558 -0.0070288771947463607 0 -0.020891782731476558 -0.0070288771947463607 0 -0.020892181668507561 -0.0070353192964591488 0 -0.020731283062273658 -0.0070070096033574905 0 -0.021008451854125802 -0.0070465128801569061 0 -0.020891782731476558 -0.0070288771947463607 0 -0.020892181668507561 -0.0070353192964591488 0 -0.020892181668507561 -0.0070353192964591488 0 -0.020731283062273658 -0.0070070096033574905 0 -0.020711789950727647 -0.0070464672900794698 0 -0.020891782731476558 -0.0070288771947463607 0 -0.020731283062273658 -0.0070070096033574905 0 -0.020524885950862 -0.0069676047482072302 0 -0.020731283062273658 -0.0070070096033574905 0 -0.020524885950862 -0.0069676047482072302 0 -0.020601825756143163 -0.0070179825164281328 0 -0.020731283062273658 -0.0070070096033574905 0 -0.020601825756143163 -0.0070179825164281328 0 -0.020711789950727647 -0.0070464672900794698 0 -0.020711789950727647 -0.0070464672900794698 0 -0.020841266159093343 -0.0070532298043391962 0 -0.020797008949596341 -0.0070712053616040224 0 -0.020892181668507561 -0.0070353192964591488 0 -0.020711789950727647 -0.0070464672900794698 0 -0.020841266159093343 -0.0070532298043391962 0 -0.020960413529533001 -0.0070687363502664859 0 -0.020841266159093343 -0.0070532298043391962 0 -0.020797008949596341 -0.0070712053616040224 0 -0.020711789950727647 -0.0070464672900794698 0 -0.020797008949596341 -0.0070712053616040224 0 -0.02070585761756949 -0.007088286523951659 0 -0.02070585761756949 -0.007088286523951659 0 -0.020666480770765293 -0.007113811706814268 0 -0.020701232120060423 -0.0070869627995891749 0 -0.020666480770765293 -0.007113811706814268 0 -0.020638034398632835 -0.0070730683590232704 0 -0.020656191357729201 -0.007096736832282932 0 -0.02070585761756949 -0.007088286523951659 0 -0.020666480770765293 -0.007113811706814268 0 -0.020638034398632835 -0.0070730683590232704 0 -0.020711789950727647 -0.0070464672900794698 0 -0.02070585761756949 -0.007088286523951659 0 -0.020638034398632835 -0.0070730683590232704 0 -0.020601825756143163 -0.0070179825164281328 0 -0.020551851147735816 -0.0069877654503597902 0 -0.020638034398632835 -0.0070730683590232704 0 -0.020384138228422187 -0.0067938305230463474 0 -0.020551851147735816 -0.0069877654503597902 0 -0.020751575986255689 -0.0070088017755927171 0 -0.020601825756143163 -0.0070179825164281328 0 -0.020711789950727647 -0.0070464672900794698 0 -0.020638034398632835 -0.0070730683590232704 0 -0.020384138228422187 -0.0067938305230463474 0 -0.020524885950862 -0.0069676047482072302 0 -0.020551851147735816 -0.0069877654503597902 0 -0.020524885950862 -0.0069676047482072302 0 -0.020601825756143163 -0.0070179825164281328 0 -0.020551851147735816 -0.0069877654503597902 0 -0.020638034398632835 -0.0070730683590232704 0 -0.020643357538326829 -0.007052276577386038 0 -0.020656191357729201 -0.007096736832282932 0 -0.020551851147735816 -0.0069877654503597902 0 -0.020638034398632835 -0.0070730683590232704 0 -0.020643357538326829 -0.007052276577386038 0 -0.020551851147735816 -0.0069877654503597902 0 -0.020643357538326829 -0.007052276577386038 0 -0.020751575986255689 -0.0070088017755927171 0 -0.020643357538326829 -0.007052276577386038 0 -0.020751575986255689 -0.0070088017755927171 0 -0.020656191357729201 -0.007096736832282932 0 -0.020751575986255689 -0.0070088017755927171 0 -0.020656191357729201 -0.007096736832282932 0 -0.020644402738155768 -0.0071452145383545411 0 -0.016229425265596398 -0.009143029102912743 0 -0.014761332833773132 -0.011779694376124958 0 -0.0085945494414428579 -0.016135242936528328 0 -0.0089038914791757726 -0.016416590668741966 0 -0.0088690365719572666 -0.016056540767382506 0 -0.020666480770765293 -0.007113811706814268 0 -0.020656191357729201 -0.007096736832282932 0 -0.020644402738155768 -0.0071452145383545411 0 -0.020666480770765293 -0.007113811706814268 0 -0.020644402738155768 -0.0071452145383545411 0 -0.020659289616617785 -0.0070852533223551345 0 -0.014761332833773132 -0.011779694376124958 0 -0.013323140535629984 -0.012900183883318418 0 -0.020644402738155768 -0.0071452145383545411 0 -0.020576056023028949 -0.0070765278071745572 0 -0.020659289616617785 -0.0070852533223551345 0 -0.0086062076984878087 -0.015849681371921592 0 -0.0088690365719572666 -0.016056540767382506 0 -0.0089157249068192862 -0.015599224566630937 0 -0.0074887604375647471 -0.016807257228660499 0 -0.013323140535629984 -0.012900183883318418 0 -0.0088181647960077283 -0.014939037266257551 0 -0.013323140535629984 -0.012900183883318418 0 -0.012854546971112966 -0.014677344142500952 0 -0.014894333489079429 -0.013096717875270052 0 -0.012866469496744175 -0.012269423140115794 0 -0.013323140535629984 -0.012900183883318418 0 -0.0097493670529593176 -0.014544389323406414 0 -0.01584071451295559 -0.012119980912439897 0 -0.017254953422642615 -0.011695610420667791 0 -0.017385002917588405 -0.010984552275119382 0 -0.013323140535629984 -0.012900183883318418 0 -0.020040751128810933 -0.0089112778248777742 0 -0.013323140535629984 -0.012900183883318418 0 -0.016193473785410424 -0.012138221028510783 0 -0.020576056023028949 -0.0070765278071745572 0 -0.020730508647360736 -0.0069835630404407418 0 -0.020659289616617785 -0.0070852533223551345 0 -0.020730508647360736 -0.0069835630404407418 0 -0.020732931712612111 -0.0070502000551740706 0 -0.020809326972338116 -0.0070249452258474504 0 -0.020732931712612111 -0.0070502000551740706 0 -0.020701232120060423 -0.0070869627995891749 0 -0.020785146454263222 -0.007068584588170973 0 -0.020732931712612111 -0.0070502000551740706 0 -0.020785146454263222 -0.007068584588170973 0 -0.020809326972338116 -0.0070249452258474504 0 -0.020730508647360736 -0.0069835630404407418 0 -0.020732931712612111 -0.0070502000551740706 0 -0.020659289616617785 -0.0070852533223551345 0 -0.020732931712612111 -0.0070502000551740706 0 -0.020659289616617785 -0.0070852533223551345 0 -0.020701232120060423 -0.0070869627995891749 0 -0.020666480770765293 -0.007113811706814268 0 -0.020659289616617785 -0.0070852533223551345 0 -0.020701232120060423 -0.0070869627995891749 0 -0.02070585761756949 -0.007088286523951659 0 -0.020701232120060423 -0.0070869627995891749 0 -0.020785146454263222 -0.007068584588170973 0 -0.020797008949596341 -0.0070712053616040224 0 -0.020785146454263222 -0.007068584588170973 0 -0.020938106161604436 -0.0070683636181543569 0 -0.020797008949596341 -0.0070712053616040224 0 -0.02070585761756949 -0.007088286523951659 0 -0.020785146454263222 -0.007068584588170973 0 -0.020960413529533001 -0.0070687363502664859 0 -0.020797008949596341 -0.0070712053616040224 0 -0.020938106161604436 -0.0070683636181543569 0 -0.020785146454263222 -0.007068584588170973 0 -0.020938106161604436 -0.0070683636181543569 0 -0.020888526815019241 -0.0070408610002097608 0 -0.020938106161604436 -0.0070683636181543569 0 -0.020888526815019241 -0.0070408610002097608 0 -0.02099457072037526 -0.0070366255567227273 0 -0.020785146454263222 -0.007068584588170973 0 -0.020888526815019241 -0.0070408610002097608 0 -0.020809326972338116 -0.0070249452258474504 0 -0.020040751128810933 -0.0089112778248777742 0 -0.019460095878634492 -0.0092312101034256275 0 -0.020730508647360736 -0.0069835630404407418 0 -0.020809326972338116 -0.0070249452258474504 0 -0.020965497746752024 -0.0069559403494250573 0 -0.017254953422642615 -0.011695610420667791 0 -0.01851497689334335 -0.011261379475350664 0 -0.017385002917588405 -0.010984552275119382 0 -0.020888526815019241 -0.0070408610002097608 0 -0.020809326972338116 -0.0070249452258474504 0 -0.020965497746752024 -0.0069559403494250573 0 -0.020888526815019241 -0.0070408610002097608 0 -0.020965497746752024 -0.0069559403494250573 0 -0.02099457072037526 -0.0070366255567227273 0 -0.020965497746752024 -0.0069559403494250573 0 -0.02099457072037526 -0.0070366255567227273 0 -0.021106922695777131 -0.0070571823585583076 0 -0.020965497746752024 -0.0069559403494250573 0 -0.021147964365652552 -0.0070372913020891959 0 -0.0212057914245804 -0.0070128106317781718 0 -0.02099457072037526 -0.0070366255567227273 0 -0.021106922695777131 -0.0070571823585583076 0 -0.021078858739169318 -0.0070785793880642489 0 -0.020965497746752024 -0.0069559403494250573 0 -0.021147964365652552 -0.0070372913020891959 0 -0.021106922695777131 -0.0070571823585583076 0 -0.021261387450451065 -0.0070747309620482479 0 -0.021147964365652552 -0.0070372913020891959 0 -0.0212057914245804 -0.0070128106317781718 0 -0.021203674305325024 -0.0070819917108083351 0 -0.021147964365652552 -0.0070372913020891959 0 -0.021106922695777131 -0.0070571823585583076 0 -0.021203674305325024 -0.0070819917108083351 0 -0.021261387450451065 -0.0070747309620482479 0 -0.021147964365652552 -0.0070372913020891959 0 -0.021203314897614123 -0.0071029715243270232 0 -0.021106922695777131 -0.0070571823585583076 0 -0.021078858739169318 -0.0070785793880642489 0 -0.021203314897614123 -0.0071029715243270232 0 -0.021203674305325024 -0.0070819917108083351 0 -0.021106922695777131 -0.0070571823585583076 0 -0.021203314897614123 -0.0071029715243270232 0 -0.021193722355876504 -0.0071089316814339498 0 -0.021078858739169318 -0.0070785793880642489 0 -0.020938106161604436 -0.0070683636181543569 0 -0.02099457072037526 -0.0070366255567227273 0 -0.021078858739169318 -0.0070785793880642489 0 -0.020938106161604436 -0.0070683636181543569 0 -0.021078858739169318 -0.0070785793880642489 0 -0.021073981854952097 -0.0070847433585044051 0 -0.020960413529533001 -0.0070687363502664859 0 -0.020938106161604436 -0.0070683636181543569 0 -0.021073981854952097 -0.0070847433585044051 0 -0.021193722355876504 -0.0071089316814339498 0 -0.021078858739169318 -0.0070785793880642489 0 -0.021073981854952097 -0.0070847433585044051 0 -0.021193722355876504 -0.0071089316814339498 0 -0.021137817542470391 -0.0070869938484088854 0 -0.021073981854952097 -0.0070847433585044051 0 -0.019758573065594916 -0.010267274159197082 0 -0.018983939442223173 -0.0098611501123851402 0 -0.018688781169520618 -0.010097736431321643 0 -0.019729037037877695 -0.010241516317333476 0 -0.018371765497435823 -0.010501417141338782 0 -0.018949640140566975 -0.0094478427060814604 0 -0.018983939442223173 -0.0098611501123851402 0 -0.018330508985446043 -0.0098226031635378786 0 -0.018983939442223173 -0.0098611501123851402 0 -0.01857826994278446 -0.010265153750944351 0 -0.018330508985446043 -0.0098226031635378786 0 -0.018785458830830031 -0.010128902789395797 0 -0.018371765497435823 -0.010501417141338782 0 -0.019758573065594916 -0.010267274159197082 0 -0.018949640140566975 -0.0094478427060814604 0 -0.018983939442223173 -0.0098611501123851402 0 -0.021250278964016083 -0.0070168028154620242 0 -0.020965497746752024 -0.0069559403494250573 0 -0.0212057914245804 -0.0070128106317781718 0 -0.020727408137039369 -0.0084271063310974587 0 -0.019460095878634492 -0.0092312101034256275 0 -0.019758573065594916 -0.010267274159197082 0 -0.018731583566558296 -0.0099952930106882946 0 -0.019052141023060905 -0.010594313655064412 0 -0.019650586871231817 -0.010863505047238931 0 -0.01851497689334335 -0.011261379475350664 0 -0.019052141023060905 -0.010594313655064412 0 -0.019650586871231817 -0.010863505047238931 0 -0.019758573065594916 -0.010267274159197082 0 -0.019052141023060905 -0.010594313655064412 0 -0.01851497689334335 -0.011261379475350664 0 -0.019052141023060905 -0.010594313655064412 0 -0.018426967489355048 -0.010708752705888881 0 -0.018731583566558296 -0.0099952930106882946 0 -0.019052141023060905 -0.010594313655064412 0 -0.018426967489355048 -0.010708752705888881 0 -0.018731583566558296 -0.0099952930106882946 0 -0.018426967489355048 -0.010708752705888881 0 -0.017385002917588405 -0.010984552275119382 0 -0.01851497689334335 -0.011261379475350664 0 -0.018426967489355048 -0.010708752705888881 0 -0.017385002917588405 -0.010984552275119382 0 -0.016959742971737964 -0.011484470375268554 0 -0.014606939552112889 -0.010995381385103024 0 -0.014894333489079429 -0.013096717875270052 0 -0.018371765497435823 -0.010501417141338782 0 -0.016193473785410424 -0.012138221028510783 0 -0.020008265176126926 -0.0097246409719701065 0 -0.014603553604660723 -0.012467081498234231 0 -0.018949640140566975 -0.0094478427060814604 0 -0.018330508985446043 -0.0098226031635378786 0 -0.01677622761391245 -0.0096644049745698967 0 -0.01857826994278446 -0.010265153750944351 0 -0.018330508985446043 -0.0098226031635378786 0 -0.01677622761391245 -0.0096644049745698967 0 -0.01857826994278446 -0.010265153750944351 0 -0.016519025240913837 -0.0098541141601859762 0 -0.01677622761391245 -0.0096644049745698967 0 -0.018371765497435823 -0.010501417141338782 0 -0.01376996342749239 -0.012553829878378194 0 -0.01011065771323677 -0.014722330764885416 0 -0.0097687945142894261 -0.014651936951901886 0 -0.008991511356744886 -0.01550692507168254 0 -0.01376996342749239 -0.012553829878378194 0 -0.0097493670529593176 -0.014544389323406414 0 -0.014603553604660723 -0.012467081498234231 0 -0.010249068755762985 -0.013930266220077222 0 -0.0097928677002992424 -0.015888858006255009 0 -0.0096026613735743799 -0.015788736721714026 0 -0.0094308027527933158 -0.015902634715144387 0 -0.013211620587632049 -0.013659195489774624 0 -0.014332743624159852 -0.012844878328558932 0 -0.011150198224698692 -0.013214229358828419 0 -0.01376996342749239 -0.012553829878378194 0 -0.014603553604660723 -0.012467081498234231 0 -0.0097928677002992424 -0.015888858006255009 0 -0.0096026613735743799 -0.015788736721714026 0 -0.0097779723683660662 -0.015634838439719283 0 -0.0096026613735743799 -0.015788736721714026 0 -0.0094308027527933158 -0.015902634715144387 0 -0.0092520680898802062 -0.01554737541501966 0 -0.01376996342749239 -0.012553829878378194 0 -0.010249068755762985 -0.013930266220077222 0 -0.014606939552112889 -0.010995381385103024 0 -0.014894333489079429 -0.013096717875270052 0 -0.012866469496744175 -0.012269423140115794 0 -0.008991511356744886 -0.01550692507168254 0 -0.0090870814138358218 -0.014742131930001085 0 -0.0090259939695578311 -0.014727234227846086 0 -0.0094691407057969339 -0.014670261960456054 0 -0.0090259939695578311 -0.014727234227846086 0 -0.0086522721275263479 -0.014561737694088675 0 -0.0094308027527933158 -0.015902634715144387 0 -0.0092520680898802062 -0.01554737541501966 0 -0.0084812458875008351 -0.015466241687270231 0 -0.0097493670529593176 -0.014544389323406414 0 -0.0091347360858486052 -0.015020718124890406 0 -0.0089594590587106782 -0.015142636740546568 0 -0.0090259939695578311 -0.014727234227846086 0 -0.008661279863107536 -0.014897054566179747 0 -0.010249068755762985 -0.013930266220077222 0 -0.0084628643731720458 -0.015130433415675132 0 -0.0097687945142894261 -0.014651936951901886 0 -0.008991511356744886 -0.01550692507168254 0 -0.0090870814138358218 -0.014742131930001085 0 -0.0094691407057969339 -0.014670261960456054 0 -0.0090870814138358218 -0.014742131930001085 0 -0.0090259939695578311 -0.014727234227846086 0 -0.010249068755762985 -0.013930266220077222 0 -0.0090822092992147614 -0.014515429915714599 0 -0.0092520680898802062 -0.01554737541501966 0 -0.0089591174382176262 -0.015242355688534577 0 -0.0084812458875008351 -0.015466241687270231 0 -0.0089591174382176262 -0.015242355688534577 0 -0.0084812458875008351 -0.015466241687270231 0 -0.0085615574573121647 -0.014970819495096236 0 -0.0092520680898802062 -0.01554737541501966 0 -0.0089591174382176262 -0.015242355688534577 0 -0.0095042366400831871 -0.015280630217791498 0 -0.0089591174382176262 -0.015242355688534577 0 -0.008895196278198467 -0.014756250770636657 0 -0.0095042366400831871 -0.015280630217791498 0 -0.0089591174382176262 -0.015242355688534577 0 -0.008895196278198467 -0.014756250770636657 0 -0.0085615574573121647 -0.014970819495096236 0 -0.0087090604504954025 -0.014099320299950834 0 -0.008895196278198467 -0.014756250770636657 0 -0.0093644080181717448 -0.014523636498411832 0 -0.0087090604504954025 -0.014099320299950834 0 -0.008895196278198467 -0.014756250770636657 0 -0.0083428520246715196 -0.014494781766866346 0 -0.0093644080181717448 -0.014523636498411832 0 -0.0098604740121311426 -0.014907462686749279 0 -0.0095042366400831871 -0.015280630217791498 0 -0.008895196278198467 -0.014756250770636657 0 -0.0093644080181717448 -0.014523636498411832 0 -0.0095042366400831871 -0.015280630217791498 0 -0.0098405537937181035 -0.014211214876080456 0 -0.0093644080181717448 -0.014523636498411832 0 -0.0098604740121311426 -0.014907462686749279 0 -0.0098604740121311426 -0.014907462686749279 0 -0.0095042366400831871 -0.015280630217791498 0 -0.010151644994993467 -0.015532913064189401 0 -0.0092520680898802062 -0.01554737541501966 0 -0.0095042366400831871 -0.015280630217791498 0 -0.0095686913285472942 -0.015587246477967151 0 -0.0096026613735743799 -0.015788736721714026 0 -0.0092520680898802062 -0.01554737541501966 0 -0.0095686913285472942 -0.015587246477967151 0 -0.0096026613735743799 -0.015788736721714026 0 -0.0095686913285472942 -0.015587246477967151 0 -0.0097779723683660662 -0.015634838439719283 0 -0.0097928677002992424 -0.015888858006255009 0 -0.0097779723683660662 -0.015634838439719283 0 -0.010151644994993467 -0.015532913064189401 0 -0.0095042366400831871 -0.015280630217791498 0 -0.0097779723683660662 -0.015634838439719283 0 -0.010151644994993467 -0.015532913064189401 0 -0.0095042366400831871 -0.015280630217791498 0 -0.0095686913285472942 -0.015587246477967151 0 -0.0097779723683660662 -0.015634838439719283 0 -0.0097928677002992424 -0.015888858006255009 0 -0.010151644994993467 -0.015532913064189401 0 -0.010841859281566661 -0.015582449091637517 0 -0.019852925700656533 -0.010583402016505483 0 -0.017981552743146209 -0.010861246623999869 0 -0.019564665695435985 -0.0097902169885403997 0 -0.014603553604660723 -0.012467081498234231 0 -0.015065575625806531 -0.01287192651205488 0 -0.010151644994993467 -0.015532913064189401 0 -0.010416903977410462 -0.01491364032111228 0 -0.010841859281566661 -0.015582449091637517 0 -0.01060322652690116 -0.013922484608323649 0 -0.010416903977410462 -0.01491364032111228 0 -0.011200871308462881 -0.014714394894066656 0 -0.0098604740121311426 -0.014907462686749279 0 -0.010151644994993467 -0.015532913064189401 0 -0.010416903977410462 -0.01491364032111228 0 -0.0098405537937181035 -0.014211214876080456 0 -0.0098604740121311426 -0.014907462686749279 0 -0.010416903977410462 -0.01491364032111228 0 -0.01688393390348962 -0.012187238685558431 0 -0.015065575625806531 -0.01287192651205488 0 -0.012797355989546061 -0.015255320400492017 0 -0.011200871308462881 -0.014714394894066656 0 -0.010841859281566661 -0.015582449091637517 0 -0.010416903977410462 -0.01491364032111228 0 -0.011200871308462881 -0.014714394894066656 0 -0.010841859281566661 -0.015582449091637517 0 -0.012797355989546061 -0.015255320400492017 0 -0.011746872735119424 -0.013733079390996415 0 -0.011200871308462881 -0.014714394894066656 0 -0.020826813343561637 -0.0092229673999537076 0 -0.020499191961643681 -0.0098939212483729524 0 -0.019564665695435985 -0.0097902169885403997 0 -0.020499191961643681 -0.0098939212483729524 0 -0.019852925700656533 -0.010583402016505483 0 -0.019564665695435985 -0.0097902169885403997 0 -0.0076332299892179854 -0.014842530687156808 0 -0.0072758786618968554 -0.015088027349798822 0 -0.0072367736099731763 -0.014513572036750149 0 -0.0072758786618968554 -0.015088027349798822 0 -0.0072367736099731763 -0.014513572036750149 0 -0.0067882339589283051 -0.014926355526100646 0 -0.0072758786618968554 -0.015088027349798822 0 -0.0067882339589283051 -0.014926355526100646 0 -0.0069272215406169513 -0.015365240610394853 0 -0.0074702166668901334 -0.015538515044812518 0 -0.0072758786618968554 -0.015088027349798822 0 -0.0069272215406169513 -0.015365240610394853 0 -0.0079268674812255756 -0.015433999321956089 0 -0.0076332299892179854 -0.014842530687156808 0 -0.0080529044910152697 -0.015039289577260403 0 -0.0079268674812255756 -0.015433999321956089 0 -0.0074702166668901334 -0.015538515044812518 0 -0.0072758786618968554 -0.015088027349798822 0 -0.0079268674812255756 -0.015433999321956089 0 -0.0076332299892179854 -0.014842530687156808 0 -0.0072758786618968554 -0.015088027349798822 0 -0.0079268674812255756 -0.015433999321956089 0 -0.0080529044910152697 -0.015039289577260403 0 -0.0083701333398996797 -0.01515078756896914 0 -0.0079268674812255756 -0.015433999321956089 0 -0.0083143726571455485 -0.015515661584069635 0 -0.0083701333398996797 -0.01515078756896914 0 -0.0080529044910152697 -0.015039289577260403 0 -0.0083701333398996797 -0.01515078756896914 0 -0.0083425357859144445 -0.014846408734080581 0 -0.0089594590587106782 -0.015142636740546568 0 -0.0083701333398996797 -0.01515078756896914 0 -0.008661279863107536 -0.014897054566179747 0 -0.0083143726571455485 -0.015515661584069635 0 -0.0089594590587106782 -0.015142636740546568 0 -0.0083701333398996797 -0.01515078756896914 0 -0.0080059154886528202 -0.015731079528748807 0 -0.0097493670529593176 -0.014544389323406414 0 -0.0083425357859144445 -0.014846408734080581 0 -0.0086522721275263479 -0.014561737694088675 0 -0.0079551167179949152 -0.014493710199226666 0 -0.008661279863107536 -0.014897054566179747 0 -0.0083425357859144445 -0.014846408734080581 0 -0.0086522721275263479 -0.014561737694088675 0 -0.0083701333398996797 -0.01515078756896914 0 -0.008661279863107536 -0.014897054566179747 0 -0.0083425357859144445 -0.014846408734080581 0 -0.0090259939695578311 -0.014727234227846086 0 -0.008661279863107536 -0.014897054566179747 0 -0.0086522721275263479 -0.014561737694088675 0 -0.0080529044910152697 -0.015039289577260403 0 -0.0083425357859144445 -0.014846408734080581 0 -0.0079551167179949152 -0.014493710199226666 0 -0.0076332299892179854 -0.014842530687156808 0 -0.0080529044910152697 -0.015039289577260403 0 -0.0079551167179949152 -0.014493710199226666 0 -0.00778662916338832 -0.014980565859933733 0 -0.0081779450618237291 -0.014853575384577765 0 -0.0078110274641767612 -0.014421463527429635 0 -0.0084812458875008351 -0.015466241687270231 0 -0.00778662916338832 -0.014980565859933733 0 -0.0081779450618237291 -0.014853575384577765 0 -0.0084628643731720458 -0.015130433415675132 0 -0.0079111484911397675 -0.014735214665764834 0 -0.0084812458875008351 -0.015466241687270231 0 -0.0081779450618237291 -0.014853575384577765 0 -0.0085615574573121647 -0.014970819495096236 0 -0.008895196278198467 -0.014756250770636657 0 -0.0085615574573121647 -0.014970819495096236 0 -0.0083428520246715196 -0.014494781766866346 0 -0.0081779450618237291 -0.014853575384577765 0 -0.0085615574573121647 -0.014970819495096236 0 -0.0083428520246715196 -0.014494781766866346 0 -0.0081779450618237291 -0.014853575384577765 0 -0.0083428520246715196 -0.014494781766866346 0 -0.0078110274641767612 -0.014421463527429635 0 -0.0079371949770407919 -0.013955876195057129 0 -0.0083428520246715196 -0.014494781766866346 0 -0.0078110274641767612 -0.014421463527429635 0 -0.0073010510216384708 -0.014113552798943501 0 -0.0078110274641767612 -0.014421463527429635 0 -0.0072367736099731763 -0.014513572036750149 0 -0.0076332299892179854 -0.014842530687156808 0 -0.0079551167179949152 -0.014493710199226666 0 -0.0072367736099731763 -0.014513572036750149 0 -0.0079111484911397675 -0.014735214665764834 0 -0.0072944184626872752 -0.01454603538944834 0 -0.00778662916338832 -0.014980565859933733 0 -0.0078110274641767612 -0.014421463527429635 0 -0.0072367736099731763 -0.014513572036750149 0 -0.007226958722867092 -0.014330542714462817 0 -0.0071380835969953012 -0.014177344802507773 0 -0.0073010510216384708 -0.014113552798943501 0 -0.0072367736099731763 -0.014513572036750149 0 -0.0066351753995711827 -0.014156487690462924 0 -0.007415140973838546 -0.014398664277808866 0 -0.0069150425856056531 -0.014228773811822252 0 -0.0067190932779185213 -0.014899960483127096 0 -0.0069150425856056531 -0.014228773811822252 0 -0.0062297909847914756 -0.014501636657040084 0 -0.0067190932779185213 -0.014899960483127096 0 -0.0029052331172204912 -0.017558742927143461 0 -0.00378913884457802 -0.01673451660315628 0 -0.0062297909847914756 -0.014501636657040084 0 -0.0067190932779185213 -0.014899960483127096 0 -0.0057915961736849687 -0.01539799813652562 0 -0.0071380835969953012 -0.014177344802507773 0 -0.00378913884457802 -0.01673451660315628 0 -0.0066351753995711827 -0.014156487690462924 0 -0.0062580224310941372 -0.01446030041125369 0 -0.0057443323228001724 -0.014311077009413311 0 -0.0062580224310941372 -0.01446030041125369 0 -0.0066686327009272276 -0.014540042348452969 0 -0.0062930529564953147 -0.014741220793548898 0 -0.0062580224310941372 -0.01446030041125369 0 -0.0059335819941142235 -0.014572091160551552 0 -0.0057443323228001724 -0.014311077009413311 0 -0.0066351753995711827 -0.014156487690462924 0 -0.0062580224310941372 -0.01446030041125369 0 -0.0066686327009272276 -0.014540042348452969 0 -0.0072367736099731763 -0.014513572036750149 0 -0.0066351753995711827 -0.014156487690462924 0 -0.0066686327009272276 -0.014540042348452969 0 -0.0072367736099731763 -0.014513572036750149 0 -0.0066686327009272276 -0.014540042348452969 0 -0.0067882339589283051 -0.014926355526100646 0 -0.0067882339589283051 -0.014926355526100646 0 -0.0062930529564953147 -0.014741220793548898 0 -0.0062368765358928584 -0.015060592328521612 0 -0.0066686327009272276 -0.014540042348452969 0 -0.0067882339589283051 -0.014926355526100646 0 -0.0062930529564953147 -0.014741220793548898 0 -0.0062580224310941372 -0.01446030041125369 0 -0.0062930529564953147 -0.014741220793548898 0 -0.0059335819941142235 -0.014572091160551552 0 -0.0062930529564953147 -0.014741220793548898 0 -0.0059335819941142235 -0.014572091160551552 0 -0.0058480223039988838 -0.014917208383878135 0 -0.0062930529564953147 -0.014741220793548898 0 -0.0062368765358928584 -0.015060592328521612 0 -0.0058480223039988838 -0.014917208383878135 0 -0.0062368765358928584 -0.015060592328521612 0 -0.0058293222440748329 -0.015376726561077874 0 -0.0064371424245324551 -0.015330619063386475 0 -0.0058293222440748329 -0.015376726561077874 0 -0.0064371424245324551 -0.015330619063386475 0 -0.0062306297720747545 -0.015632629391260418 0 -0.0062368765358928584 -0.015060592328521612 0 -0.0058293222440748329 -0.015376726561077874 0 -0.0058480223039988838 -0.014917208383878135 0 -0.0067882339589283051 -0.014926355526100646 0 -0.0062368765358928584 -0.015060592328521612 0 -0.0064371424245324551 -0.015330619063386475 0 -0.0067882339589283051 -0.014926355526100646 0 -0.0064371424245324551 -0.015330619063386475 0 -0.0069272215406169513 -0.015365240610394853 0 -0.0064371424245324551 -0.015330619063386475 0 -0.0069272215406169513 -0.015365240610394853 0 -0.0065977086232577283 -0.015606131927641686 0 -0.0045091232736938543 -0.015406376795124185 0 -0.0051909040554504434 -0.015450188464442476 0 -0.0050113930048995654 -0.015528749283656778 0 -0.004493031256303009 -0.015309065450561444 0 -0.0047497106747275237 -0.015692280951848159 0 -0.0051419746774187666 -0.015206581489332027 0 -0.0050113930048995654 -0.015528749283656778 0 -0.004493031256303009 -0.015309065450561444 0 -0.0051419746774187666 -0.015206581489332027 0 -0.0050113930048995654 -0.015528749283656778 0 -0.0053849603661114331 -0.015537852500601483 0 -0.0058293222440748329 -0.015376726561077874 0 -0.0051419746774187666 -0.015206581489332027 0 -0.0053849603661114331 -0.015537852500601483 0 -0.0058293222440748329 -0.015376726561077874 0 -0.0051419746774187666 -0.015206581489332027 0 -0.0058480223039988838 -0.014917208383878135 0 -0.0051419746774187666 -0.015206581489332027 0 -0.0058480223039988838 -0.014917208383878135 0 -0.0054909365322925252 -0.014549038957657315 0 -0.0054909365322925252 -0.014549038957657315 0 -0.0058535276017175862 -0.013783413922019585 0 -0.0038258726238460552 -0.014476768295578854 0 -0.0059335819941142235 -0.014572091160551552 0 -0.0058480223039988838 -0.014917208383878135 0 -0.0054909365322925252 -0.014549038957657315 0 -0.0051419746774187666 -0.015206581489332027 0 -0.0054909365322925252 -0.014549038957657315 0 -0.0038258726238460552 -0.014476768295578854 0 -0.0051419746774187666 -0.015206581489332027 0 -0.0038258726238460552 -0.014476768295578854 0 -0.003202466446404571 -0.016126126544646405 0 0.0018546920629651366 -0.021055328450666006 0 0.0026670909567789304 -0.020827376756461045 0 0.0023803127708917531 -0.022041406205554944 0 -0.00378913884457802 -0.01673451660315628 0 -0.00084553972791579185 -0.018480688692639895 0 0.0018546920629651366 -0.021055328450666006 0 0.00069072051904888875 -0.021301735987776373 0 0.0023803127708917531 -0.022041406205554944 0 0.0018546920629651366 -0.021055328450666006 0 0.00069072051904888875 -0.021301735987776373 0 0.0012546717981280378 -0.020244745176524522 0 -0.0056663631681396981 -0.013780956056551942 0 -0.00378913884457802 -0.01673451660315628 0 -0.0059335819941142235 -0.014572091160551552 0 -0.0054909365322925252 -0.014549038957657315 0 -0.0057443323228001724 -0.014311077009413311 0 -3.0247515126702209e-05 -0.019854534110914444 0 0.00069072051904888875 -0.021301735987776373 0 0.0012546717981280378 -0.020244745176524522 0 0.0018546920629651366 -0.021055328450666006 0 0.0012546717981280378 -0.020244745176524522 0 0.0025603735651285381 -0.02006022926175894 0 0.0017104222704243254 -0.019547889330522348 0 0.0012546717981280378 -0.020244745176524522 0 0.0025603735651285381 -0.02006022926175894 0 0.0018546920629651366 -0.021055328450666006 0 0.0025603735651285381 -0.02006022926175894 0 0.0026670909567789304 -0.020827376756461045 0 0.0025603735651285381 -0.02006022926175894 0 0.0033133244888683298 -0.020587814640891006 0 0.0037438694783026812 -0.019936902301918021 0 0.0025603735651285381 -0.02006022926175894 0 0.0033133244888683298 -0.020587814640891006 0 0.0026670909567789304 -0.020827376756461045 0 0.0033133244888683298 -0.020587814640891006 0 0.0037438694783026812 -0.019936902301918021 0 0.0040159925202661942 -0.020928663828493933 0 0.0037438694783026812 -0.019936902301918021 0 0.0040159925202661942 -0.020928663828493933 0 0.0048930526076421989 -0.020489450362988906 0 0.0033133244888683298 -0.020587814640891006 0 0.0040159925202661942 -0.020928663828493933 0 0.0032864353853036539 -0.021331754306672824 0 0.0040159925202661942 -0.020928663828493933 0 0.0045574959140081348 -0.021664371470440244 0 0.0038926885336639451 -0.021654157308475988 0 0.0040159925202661942 -0.020928663828493933 0 0.0032864353853036539 -0.021331754306672824 0 0.0038926885336639451 -0.021654157308475988 0 0.0032864353853036539 -0.021331754306672824 0 0.0026670909567789304 -0.020827376756461045 0 0.0023803127708917531 -0.022041406205554944 0 0.0033133244888683298 -0.020587814640891006 0 0.0032864353853036539 -0.021331754306672824 0 0.0026670909567789304 -0.020827376756461045 0 0.020858108357920659 -0.015071323624398423 0 0.020224242097983489 -0.015486141423559084 0 0.020863423416251449 -0.015882179805246113 0 0.021760329785165861 -0.01313141048996483 0 0.022431893506723855 -0.013505878730174246 0 0.021488910516969092 -0.014874769802342204 0 0.02236887797174978 -0.016559640366070751 0 0.021097030577404356 -0.014890824587764247 0 0.020858108357920659 -0.015071323624398423 0 0.020374042601388132 -0.014836413046736972 0 0.020224242097983489 -0.015486141423559084 0 0.0044330903526170889 -0.019534432658507933 0 0.0037438694783026812 -0.019936902301918021 0 0.0048930526076421989 -0.020489450362988906 0 0.013146759590080305 -0.018198699545170626 0 0.012565041379499558 -0.017753624566283599 0 0.020224242097983489 -0.015486141423559084 0 0.020863423416251449 -0.015882179805246113 0 0.019980503885007179 -0.016215356979713047 0 0.0040159925202661942 -0.020928663828493933 0 0.0048930526076421989 -0.020489450362988906 0 0.0045574959140081348 -0.021664371470440244 0 0.012565041379499558 -0.017753624566283599 0 0.012374414812945987 -0.019169811949185094 0 0.022352816089724847 -0.01551942424184106 0 0.02200026187999524 -0.016220023818350519 0 0.021488910516969092 -0.014874769802342204 0 0.021097030577404356 -0.014890824587764247 0 0.021020414877418084 -0.017087496910321517 0 0.020863423416251449 -0.015882179805246113 0 0.019980503885007179 -0.016215356979713047 0 0.02101814993825445 -0.016945978202252496 0 0.02200026187999524 -0.016220023818350519 0 0.021488910516969092 -0.014874769802342204 0 0.02101814993825445 -0.016945978202252496 0 0.02200026187999524 -0.016220023818350519 0 0.022444747260546859 -0.017108380473393376 0 0.02101814993825445 -0.016945978202252496 0 0.012374414812945987 -0.019169811949185094 0 0.009551971237944188 -0.018683080418832175 0 0.019980503885007179 -0.016215356979713047 0 0.02101814993825445 -0.016945978202252496 0 0.019561374099889135 -0.017320528987343254 0 0.02101814993825445 -0.016945978202252496 0 0.020750288511898057 -0.017950829939791732 0 0.019561374099889135 -0.017320528987343254 0 0.015703279855270258 -0.015620063599491807 0 0.010963014819334897 -0.013358286467945039 0 0.014110853729375979 -0.017085007211740777 0 0.018977541927612879 -0.01680420964429874 0 0.009551971237944188 -0.018683080418832175 0 0.010963014819334897 -0.013358286467945039 0 0.010393439657339135 -0.015887097107465113 0 0.014110853729375979 -0.017085007211740777 0 0.021900516450360959 -0.017753011457833801 0 0.02101814993825445 -0.016945978202252496 0 0.020750288511898057 -0.017950829939791732 0 0.021900516450360959 -0.017753011457833801 0 0.022444747260546859 -0.017108380473393376 0 0.02101814993825445 -0.016945978202252496 0 0.0032864353853036539 -0.021331754306672824 0 0.0023803127708917531 -0.022041406205554944 0 0.0034357971355274044 -0.022007284188843193 0 -0.00084553972791579185 -0.018480688692639895 0 0.0036119969749734884 -0.018493265365997883 0 0.0023803127708917531 -0.022041406205554944 0 0.0034357971355274044 -0.022007284188843193 0 0.0040437812930163288 -0.022733302462055509 0 0.0032864353853036539 -0.021331754306672824 0 0.0034357971355274044 -0.022007284188843193 0 0.0038926885336639451 -0.021654157308475988 0 0.0045574959140081348 -0.021664371470440244 0 0.0039990597974876871 -0.022266620552726955 0 0.0042440470987946651 -0.022778016925113213 0 0.0034357971355274044 -0.022007284188843193 0 0.0038926885336639451 -0.021654157308475988 0 0.0039990597974876871 -0.022266620552726955 0 0.0045574959140081348 -0.021664371470440244 0 0.0038926885336639451 -0.021654157308475988 0 0.0039990597974876871 -0.022266620552726955 0 0.0039813817620852716 -0.022235918933941001 0 0.0036119969749734884 -0.018493265365997883 0 0.0034357971355274044 -0.022007284188843193 0 0.0039990597974876871 -0.022266620552726955 0 0.0040437812930163288 -0.022733302462055509 0 -0.0010205890695246978 -0.015690202909211373 0 -0.00088171186398947792 -0.016921068221026358 0 -0.003202466446404571 -0.016126126544646405 0 0.004217090785909967 -0.016185867656482698 0 -0.0051909040554504434 -0.015450188464442476 0 -0.0037537538965763625 -0.015524049610046909 0 -0.004493031256303009 -0.015309065450561444 0 -0.0041597660400210868 -0.015714993599664186 0 0.0039990597974876871 -0.022266620552726955 0 0.0040579235227791617 -0.022687716300486341 0 0.0042440470987946651 -0.022778016925113213 0 0.0036119969749734884 -0.018493265365997883 0 0.009551971237944188 -0.018683080418832175 0 0.0054212057885005219 -0.019664735928294711 0 0.004439189374247839 -0.019180950789156801 0 0.0050954143655711544 -0.016207255284304639 0 0.009551971237944188 -0.018683080418832175 0 0.004217090785909967 -0.016185867656482698 0 0.0036119969749734884 -0.018493265365997883 0 0.004217090785909967 -0.016185867656482698 0 -0.0038258726238460552 -0.014476768295578854 0 -0.0010205890695246978 -0.015690202909211373 0 -0.003202466446404571 -0.016126126544646405 0 -0.004493031256303009 -0.015309065450561444 0 -0.0044548022084219896 -0.01583515126464773 0 -0.0041597660400210868 -0.015714993599664186 0 -0.004493031256303009 -0.015309065450561444 0 -0.0044548022084219896 -0.01583515126464773 0 -0.0047497106747275237 -0.015692280951848159 0 -0.0044548022084219896 -0.01583515126464773 0 -0.004457203034152076 -0.016034638813804649 0 -0.0049201311573937347 -0.015952319995648639 0 -0.0044548022084219896 -0.01583515126464773 0 -0.0042126207800722553 -0.015927279673530789 0 -0.0041597660400210868 -0.015714993599664186 0 -0.0044548022084219896 -0.01583515126464773 0 -0.0042126207800722553 -0.015927279673530789 0 -0.004457203034152076 -0.016034638813804649 0 0.004217090785909967 -0.016185867656482698 0 0.011502746901702656 -0.017690806944154307 0 0.0049501297999347688 -0.016385755928112707 0 0.0049808127456200963 -0.016299748892614103 0 0.0049599868781179069 -0.01624244218506344 0 -0.0037537538965763625 -0.015524049610046909 0 -0.0041597660400210868 -0.015714993599664186 0 -0.0039597286807954157 -0.015983053948476798 0 0.004217090785909967 -0.016185867656482698 0 0.00057466356264122245 -0.016572373823467965 0 -0.0042126207800722553 -0.015927279673530789 0 -0.0041597660400210868 -0.015714993599664186 0 -0.0039597286807954157 -0.015983053948476798 0 0.00057466356264122245 -0.016572373823467965 0 0.002954258789350885 -0.014534925144033584 0 -0.0039597286807954157 -0.015983053948476798 0 -0.0039928823610129605 -0.015986330174737967 0 -0.0039940183968675868 -0.015911251280042341 0 -0.0042126207800722553 -0.015927279673530789 0 -0.0039597286807954157 -0.015983053948476798 0 -0.0039928823610129605 -0.015986330174737967 0 0.0049808127456200963 -0.016299748892614103 0 0.0049599868781179069 -0.01624244218506344 0 0.0049996688386287954 -0.016208488286231251 0 0.011502746901702656 -0.017690806944154307 0 0.002954258789350885 -0.014534925144033584 0 0.010062263794192372 -0.01115058116545938 0 0.0095861226891551694 -0.011600792853532337 0 0.0091627530572404997 -0.011567772144767221 0 -0.0039928823610129605 -0.015986330174737967 0 -0.004457203034152076 -0.016034638813804649 0 -0.0047825600262863975 -0.016432208150199197 0 -0.0039928823610129605 -0.015986330174737967 0 -0.0039940183968675868 -0.015911251280042341 0 -0.0037380873072425649 -0.015739427621372037 0 -0.0040204608861483136 -0.016014789480305016 0 -0.0043115495988085874 -0.016023773018093091 0 -0.0042126207800722553 -0.015927279673530789 0 -0.0039928823610129605 -0.015986330174737967 0 -0.004457203034152076 -0.016034638813804649 0 0.021571252616606078 -0.018277653830164432 0 0.018473224799172731 -0.019649815252661809 0 0.02039443497330921 -0.017861336591195799 0 0.015703279855270258 -0.015620063599491807 0 0.017786683001131075 -0.018243541863009614 0 0.02039443497330921 -0.017861336591195799 0 0.017786683001131075 -0.018243541863009614 0 0.015702537019487282 -0.019966615360096508 0 0.021571252616606078 -0.018277653830164432 0 0.018977541927612879 -0.01680420964429874 0 0.021900516450360959 -0.017753011457833801 0 0.022353077684415471 -0.018778213351108484 0 0.020750288511898057 -0.017950829939791732 0 0.017002027887577896 -0.017993063793735706 0 0.014961832023442461 -0.017408154623623429 0 0.015703279855270258 -0.015620063599491807 0 0.017786683001131075 -0.018243541863009614 0 0.014110853729375979 -0.017085007211740777 0 0.017786683001131075 -0.018243541863009614 0 0.014058335977594622 -0.016950093459797984 0 0.015702537019487282 -0.019966615360096508 0 0.010938262021349451 -0.022091442957346837 0 0.014058335977594622 -0.016950093459797984 0 0.015702537019487282 -0.019966615360096508 0 0.010296237426017691 -0.015693296528716493 0 0.010938262021349451 -0.022091442957346837 0 0.014058335977594622 -0.016950093459797984 0 0.004217090785909967 -0.016185867656482698 0 0.014961832023442461 -0.017408154623623429 0 0.018808032716692354 -0.019836144022246215 0 0.02134259231436015 -0.019961675317917673 0 0.020546594760793294 -0.019154566241374155 0 0.011502746901702656 -0.017690806944154307 0 0.018473224799172731 -0.019649815252661809 0 0.018808032716692354 -0.019836144022246215 0 0.02134259231436015 -0.019961675317917673 0 0.018934818711709846 -0.02115391690875271 0 0.022284821832513919 -0.018525642311047967 0 0.02134259231436015 -0.019961675317917673 0 0.020546594760793294 -0.019154566241374155 0 0.026456518137296207 -0.016677457367834256 0 0.026186325572818445 -0.016238723804295863 0 0.025885243615994501 -0.016927597733898056 0 0.026186325572818445 -0.016238723804295863 0 0.025885243615994501 -0.016927597733898056 0 0.024853490053294743 -0.016739019643220991 0 0.026364499253251159 -0.0171360294133991 0 0.026456518137296207 -0.016677457367834256 0 0.025885243615994501 -0.016927597733898056 0 0.024771034713661225 -0.01897953063943441 0 0.01591722597438109 -0.012422849212281815 0 0.025885243615994501 -0.016927597733898056 0 0.024853490053294743 -0.016739019643220991 0 0.025356809910419453 -0.017405611403362279 0 0.014942484482353142 -0.0060561689549225584 0 0.01591722597438109 -0.012422849212281815 0 0.015241168093999198 -0.0088067522963169616 0 0.015149824387615531 -0.0064365933471015949 0 0.016198965296542123 -0.0079021391658777931 0 0.01591722597438109 -0.012422849212281815 0 0.021337105554961489 -0.013438587977323368 0 0.025885243615994501 -0.016927597733898056 0 0.025356809910419453 -0.017405611403362279 0 0.025982847619826093 -0.017478781781429881 0 0.022924555058035853 -0.0082015439637470114 0 0.021337105554961489 -0.013438587977323368 0 0.025807444944203343 -0.017994862234874093 0 0.025356809910419453 -0.017405611403362279 0 0.025982847619826093 -0.017478781781429881 0 0.026364499253251159 -0.0171360294133991 0 0.025885243615994501 -0.016927597733898056 0 0.025982847619826093 -0.017478781781429881 0 0.002954258789350885 -0.014534925144033584 0 -0.0017992844109511077 -0.0148047685369458 0 0.0022716733565325167 -0.013083242297362406 0 0.0027851757941181237 -0.013300667785724985 0 0.001740700687769001 -0.013591680210910071 0 -0.0039940183968675868 -0.015911251280042341 0 -0.0037284198856933019 -0.015568593315857557 0 -0.0037380873072425649 -0.015739427621372037 0 0.0030076384806465837 -0.012422482885562802 0 0.0022716733565325167 -0.013083242297362406 0 0.0015559296098698872 -0.013034909084627466 0 0.0022716733565325167 -0.013083242297362406 0 0.001740700687769001 -0.013591680210910071 0 0.0015559296098698872 -0.013034909084627466 0 0.0030076384806465837 -0.012422482885562802 0 0.0022716733565325167 -0.013083242297362406 0 0.0027851757941181237 -0.013300667785724985 0 0.0091627530572404997 -0.011567772144767221 0 0.009471552962012705 -0.012116840987738513 0 0.0090088330110578273 -0.012582042742970199 0 0.0095861226891551694 -0.011600792853532337 0 0.0091627530572404997 -0.011567772144767221 0 0.009471552962012705 -0.012116840987738513 0 0.010111240940561298 -0.012304714306439509 0 0.0090088330110578273 -0.012582042742970199 0 0.0084841283883107244 -0.013111203908438123 0 0.002954258789350885 -0.014534925144033584 0 0.0062677665025572798 -0.012909489951205548 0 0.01591722597438109 -0.012422849212281815 0 0.0098869113028706001 -0.010099318327857388 0 0.011502746901702656 -0.017690806944154307 0 0.01591722597438109 -0.012422849212281815 0 0.010366176013411709 -0.010540929252810438 0 0.01591722597438109 -0.012422849212281815 0 0.0095861226891551694 -0.011600792853532337 0 0.010111240940561298 -0.012304714306439509 0 0.009471552962012705 -0.012116840987738513 0 0.010062263794192372 -0.01115058116545938 0 0.0095861226891551694 -0.011600792853532337 0 0.010271609234092052 -0.012516203237427338 0 0.010111240940561298 -0.012304714306439509 0 0.009471552962012705 -0.012116840987738513 0 0.0090088330110578273 -0.012582042742970199 0 0.0091627530572404997 -0.011567772144767221 0 0.0090088330110578273 -0.012582042742970199 0 0.0088537142554343425 -0.012626873872259371 0 0.0067167499373465486 -0.012799093444173839 0 0.0062677665025572798 -0.012909489951205548 0 0.015241168093999198 -0.0088067522963169616 0 0.014917142704431088 -0.0056587118785366274 0 0.01392898596372372 -0.0075745955969570063 0 0.014917142704431088 -0.0056587118785366274 0 0.01392898596372372 -0.0075745955969570063 0 0.012190496981312523 -0.0071649935647587464 0 0.013375066343077304 -0.0086532647201316808 0 0.015241168093999198 -0.0088067522963169616 0 0.01392898596372372 -0.0075745955969570063 0 0.013375066343077304 -0.0086532647201316808 0 0.01392898596372372 -0.0075745955969570063 0 0.012190496981312523 -0.0071649935647587464 0 0.0088343537239239343 -0.012609118109503147 0 0.0084841283883107244 -0.013111203908438123 0 0.007259083464258932 -0.012919651504213588 0 0.011037495678620344 -0.009497038136587312 0 0.013375066343077304 -0.0086532647201316808 0 0.012190496981312523 -0.0071649935647587464 0 0.007767063678644482 -0.0096208697482807557 0 0.0098869113028706001 -0.010099318327857388 0 0.0066389688516576449 -0.014067502285464332 0 0.0084841283883107244 -0.013111203908438123 0 0.007259083464258932 -0.012919651504213588 0 0.011037495678620344 -0.009497038136587312 0 0.0094794783406003252 -0.008648956368884771 0 0.012190496981312523 -0.0071649935647587464 0 0.0062677665025572798 -0.012909489951205548 0 0.004461563084990885 -0.013452697619996706 0 0.0090088330110578273 -0.012582042742970199 0 0.0088343537239239343 -0.012609118109503147 0 0.0084841283883107244 -0.013111203908438123 0 0.001740700687769001 -0.013591680210910071 0 0.0015559296098698872 -0.013034909084627466 0 0.00054776390589822974 -0.013902445814436351 0 0.0066389688516576449 -0.014067502285464332 0 0.007259083464258932 -0.012919651504213588 0 0.0054134258602299996 -0.013385415739958714 0 0.004461563084990885 -0.013452697619996706 0 0.0020802916938397462 -0.010474876226582148 0 0.007767063678644482 -0.0096208697482807557 0 0.0020802916938397462 -0.010474876226582148 0 -0.0037284198856933019 -0.015568593315857557 0 -0.0036836276790867309 -0.015551913981715178 0 -0.0037380873072425649 -0.015739427621372037 0 -0.0037284198856933019 -0.015568593315857557 0 -0.0036836276790867309 -0.015551913981715178 0 -0.0036564395334739408 -0.015458864715106943 0 -0.0017992844109511077 -0.0148047685369458 0 -0.0020992610268044387 -0.011299468877759622 0 -0.0036537865160155996 -0.01550356098671004 0 -0.0036836276790867309 -0.015551913981715178 0 -0.0037380873072425649 -0.015739427621372037 0 -0.0036537865160155996 -0.01550356098671004 0 -0.0036836276790867309 -0.015551913981715178 0 -0.003665834869253102 -0.015492502107851795 0 -0.0036537865160155996 -0.01550356098671004 0 -0.003665834869253102 -0.015492502107851795 0 -0.0036996117745569956 -0.015469143560371766 0 -0.0036836276790867309 -0.015551913981715178 0 -0.003665834869253102 -0.015492502107851795 0 -0.0036564395334739408 -0.015458864715106943 0 0.0015559296098698872 -0.013034909084627466 0 8.139803041096347e-05 -0.013639383901506354 0 0.00054776390589822974 -0.013902445814436351 0 -0.0020992610268044387 -0.011299468877759622 0 0.0020802916938397462 -0.010474876226582148 0 0.0020802916938397462 -0.010474876226582148 0 -0.0012190882319270213 -0.005982218864698464 0 -0.00047797504222201224 -0.0075876965246247062 0 -0.0018809702541752757 -0.0079804695762686582 0 -0.0043875675804776332 -0.0080989118971453826 0 -0.0040981254946790002 -0.0091299392437926823 0 -0.0043181167349542905 -0.0091998676419755669 0 -0.0042300614611005356 -0.0090543909365773962 0 -0.0016747638956504795 -0.0069185600709197681 0 -0.00047797504222201224 -0.0075876965246247062 0 -0.0043875675804776332 -0.0080989118971453826 0 -0.0047377347653065182 -0.008779164607769261 0 -0.0018809702541752757 -0.0079804695762686582 0 -0.0043875675804776332 -0.0080989118971453826 0 -0.0060163329546021925 -0.005763930985079233 0 -0.0012190882319270213 -0.005982218864698464 0 -0.0020992610268044387 -0.011299468877759622 0 -0.0056846530215062885 -0.0064494250730008388 0 -0.007718454342177764 -0.0047375705855835669 0 -0.0078372962319674319 -0.00317623924261572 0 -0.0068723204509529984 -0.0030795173003603576 0 -0.0056846530215062885 -0.0064494250730008388 0 -0.0048599021317127823 -0.009979358762429457 0 -0.0020992610268044387 -0.011299468877759622 0 -0.0048599021317127823 -0.009979358762429457 0 -0.010742580810635553 -0.0060574109017570051 0 -0.007718454342177764 -0.0047375705855835669 0 -0.0094127883996261881 -0.0042599251055512434 0 -0.007718454342177764 -0.0047375705855835669 0 -0.0094127883996261881 -0.0042599251055512434 0 -0.008507225483763349 -0.0035746359206856094 0 -0.0060163329546021925 -0.005763930985079233 0 -0.0056846530215062885 -0.0064494250730008388 0 -0.007718454342177764 -0.0047375705855835669 0 -0.0078372962319674319 -0.00317623924261572 0 -0.008507225483763349 -0.0035746359206856094 0 -0.0078372962319674319 -0.00317623924261572 0 -0.008507225483763349 -0.0035746359206856094 0 -0.0084633750174286197 -0.0028781204547434652 0 -0.008507225483763349 -0.0035746359206856094 0 -0.0093195052946631017 -0.0032315417029859803 0 -0.0084633750174286197 -0.0028781204547434652 0 -0.0094127883996261881 -0.0042599251055512434 0 -0.008507225483763349 -0.0035746359206856094 0 -0.0093195052946631017 -0.0032315417029859803 0 -0.010695334338004535 -0.003743373460436716 0 -0.0094127883996261881 -0.0042599251055512434 0 -0.0093195052946631017 -0.0032315417029859803 0 -0.010030015104081701 -0.0026415442803670764 0 -0.0093195052946631017 -0.0032315417029859803 0 -0.0088210079041838481 -0.0023051986474980509 0 -0.0093195052946631017 -0.0032315417029859803 0 -0.0088210079041838481 -0.0023051986474980509 0 -0.0084633750174286197 -0.0028781204547434652 0 -0.0088210079041838481 -0.0023051986474980509 0 -0.0084014739592447821 -0.0022155625938099052 0 -0.0084633750174286197 -0.0028781204547434652 0 -0.0070336998036362348 -0.0097361936345629601 0 -0.0068884097098733015 -0.010658446780544095 0 -0.0078372962319674319 -0.00317623924261572 0 -0.0084014739592447821 -0.0022155625938099052 0 -0.0084633750174286197 -0.0028781204547434652 0 -0.0065227496203758423 -0.01678794133885728 0 -0.0069052689486644569 -0.016564322930909918 0 -0.006384397805384732 -0.01640608363346974 0 -0.010030015104081701 -0.0026415442803670764 0 -0.0088210079041838481 -0.0023051986474980509 0 -0.0097446127979099271 -0.0014599656604866707 0 -0.0088210079041838481 -0.0023051986474980509 0 -0.0084017670581033113 -0.0022189877354507432 0 -0.0097446127979099271 -0.0014599656604866707 0 -0.0068884097098733015 -0.010658446780544095 0 -0.007819017938063973 -0.013502875657584686 0 -0.0044468316453918884 -0.016609514042872812 0 -0.0068884097098733015 -0.010658446780544095 0 -0.0056560678221229165 -0.016644991911359215 0 -0.0065227496203758423 -0.01678794133885728 0 -0.0060439309133282389 -0.016419287001023922 0 -0.0036537865160155996 -0.01550356098671004 0 -0.0038087703838674087 -0.015387335294913868 0 -0.0036996117745569956 -0.015469143560371766 0 -0.0038087703838674087 -0.015387335294913868 0 -0.0037330847993535853 -0.015464207045083916 0 -0.0036996117745569956 -0.015469143560371766 0 -0.003665834869253102 -0.015492502107851795 0 -0.003682077971973818 -0.015466060804215233 0 -0.0036996117745569956 -0.015469143560371766 0 -0.0048599021317127823 -0.009979358762429457 0 -0.0052231261578523204 -0.014846456628733901 0 -0.003665834869253102 -0.015492502107851795 0 -0.0036564395334739408 -0.015458864715106943 0 -0.003682077971973818 -0.015466060804215233 0 -0.0078372962319674319 -0.00317623924261572 0 -0.0084014739592447821 -0.0022155625938099052 0 -0.0068723204509529984 -0.0030795173003603576 0 -0.0068884097098733015 -0.010658446780544095 0 -0.0048599021317127823 -0.009979358762429457 0 -0.0065227496203758423 -0.01678794133885728 0 -0.0060439309133282389 -0.016419287001023922 0 -0.006384397805384732 -0.01640608363346974 0 -0.0056560678221229165 -0.016644991911359215 0 -0.0060439309133282389 -0.016419287001023922 0 -0.0057014843431972533 -0.016294977293114341 0 -0.0060439309133282389 -0.016419287001023922 0 -0.0061734346710759485 -0.016227414026748255 0 -0.006384397805384732 -0.01640608363346974 0 -0.0061734346710759485 -0.016227414026748255 0 -0.006384397805384732 -0.01640608363346974 0 -0.0063695911532669581 -0.015961029544599797 0 -0.0061734346710759485 -0.016227414026748255 0 -0.0058966047675565614 -0.016128184663442721 0 -0.0063695911532669581 -0.015961029544599797 0 -0.0060439309133282389 -0.016419287001023922 0 -0.0058966047675565614 -0.016128184663442721 0 -0.0057014843431972533 -0.016294977293114341 0 -0.0060439309133282389 -0.016419287001023922 0 -0.0061734346710759485 -0.016227414026748255 0 -0.0058966047675565614 -0.016128184663442721 0 -0.0069172184461040297 -0.01658318117464665 0 -0.006384397805384732 -0.01640608363346974 0 -0.0069063415964832958 -0.016126863272891985 0 -0.007819017938063973 -0.013502875657584686 0 -0.0066114350184932474 -0.016219664289356776 0 -0.006384397805384732 -0.01640608363346974 0 -0.0069063415964832958 -0.016126863272891985 0 -0.0063695911532669581 -0.015961029544599797 0 -0.0070087768120472996 -0.015756526200008506 0 -0.0069063415964832958 -0.016126863272891985 0 -0.0063695911532669581 -0.015961029544599797 0 -0.0070087768120472996 -0.015756526200008506 0 -0.0063695911532669581 -0.015961029544599797 0 -0.0065977086232577283 -0.015606131927641686 0 -0.0063695911532669581 -0.015961029544599797 0 -0.0065977086232577283 -0.015606131927641686 0 -0.0062306297720747545 -0.015632629391260418 0 -0.0064371424245324551 -0.015330619063386475 0 -0.0065977086232577283 -0.015606131927641686 0 -0.0062306297720747545 -0.015632629391260418 0 -0.0070087768120472996 -0.015756526200008506 0 -0.0069272215406169513 -0.015365240610394853 0 -0.0065977086232577283 -0.015606131927641686 0 -0.0058966047675565614 -0.016128184663442721 0 -0.0063695911532669581 -0.015961029544599797 0 -0.0058286319537199233 -0.015769100195280723 0 -0.0063695911532669581 -0.015961029544599797 0 -0.0062306297720747545 -0.015632629391260418 0 -0.0058286319537199233 -0.015769100195280723 0 -0.0058293222440748329 -0.015376726561077874 0 -0.0062306297720747545 -0.015632629391260418 0 -0.0058286319537199233 -0.015769100195280723 0 -0.0058293222440748329 -0.015376726561077874 0 -0.0053849603661114331 -0.015537852500601483 0 -0.0058286319537199233 -0.015769100195280723 0 -0.0053849603661114331 -0.015537852500601483 0 -0.0058286319537199233 -0.015769100195280723 0 -0.0053369224121527052 -0.015844947053645805 0 -0.0058286319537199233 -0.015769100195280723 0 -0.0053369224121527052 -0.015844947053645805 0 -0.0056046571715224367 -0.016045850769186704 0 -0.0058966047675565614 -0.016128184663442721 0 -0.0058286319537199233 -0.015769100195280723 0 -0.0056046571715224367 -0.016045850769186704 0 -0.0050113930048995654 -0.015528749283656778 0 -0.0053849603661114331 -0.015537852500601483 0 -0.0053369224121527052 -0.015844947053645805 0 -0.0050113930048995654 -0.015528749283656778 0 -0.0053369224121527052 -0.015844947053645805 0 -0.0049201311573937347 -0.015952319995648639 0 -0.0050113930048995654 -0.015528749283656778 0 -0.0047497106747275237 -0.015692280951848159 0 -0.0049201311573937347 -0.015952319995648639 0 -0.0044548022084219896 -0.01583515126464773 0 -0.0047497106747275237 -0.015692280951848159 0 -0.0049201311573937347 -0.015952319995648639 0 -0.0053369224121527052 -0.015844947053645805 0 -0.0049201311573937347 -0.015952319995648639 0 -0.0053025048652847531 -0.016244519419140898 0 -0.0049201311573937347 -0.015952319995648639 0 -0.0047825600262863975 -0.016432208150199197 0 -0.0053025048652847531 -0.016244519419140898 0 -0.004457203034152076 -0.016034638813804649 0 -0.0049201311573937347 -0.015952319995648639 0 -0.0047825600262863975 -0.016432208150199197 0 -0.0056560678221229165 -0.016644991911359215 0 -0.0047825600262863975 -0.016432208150199197 0 -0.0053025048652847531 -0.016244519419140898 0 -0.0044468316453918884 -0.016609514042872812 0 -0.0043115495988085874 -0.016023773018093091 0 -0.0056560678221229165 -0.016644991911359215 0 -0.0057014843431972533 -0.016294977293114341 0 -0.0053025048652847531 -0.016244519419140898 0 -0.0058966047675565614 -0.016128184663442721 0 -0.0057014843431972533 -0.016294977293114341 0 -0.0056046571715224367 -0.016045850769186704 0 -0.0057014843431972533 -0.016294977293114341 0 -0.0056046571715224367 -0.016045850769186704 0 -0.0053025048652847531 -0.016244519419140898 0 -0.0053369224121527052 -0.015844947053645805 0 -0.0056046571715224367 -0.016045850769186704 0 -0.0053025048652847531 -0.016244519419140898 0 
</DataArray>
</PointData>
<CellData Scalars="region_id,cross_section_updated," Vectors="" Tensors="stress,">
<DataArray type="Float64" Name="region_id" format="ascii">
5 5 5 5 5 5 5 5 5 5 5 5 5 5 5 5 5 6 5 5 5 5 5 5 6 5 5 5 5 5 5 5 5 6 5 5 5 5 5 5 5 5 5 5 5 5 5 5 5 5 6 5 5 5 5 6 6 5 5 5 5 6 5 5 5 5 5 5 6 5 5 5 6 5 6 5 5 5 5 5 5 5 6 5 5 5 5 5 5 5 5 5 5 5 5 5 5 5 5 5 5 5 5 5 5 5 5 5 5 5 5 5 5 5 5 6 5 5 5 5 5 5 5 5 5 6 5 5 5 5 5 5 6 5 5 5 5 6 5 5 5 6 5 5 5 5 5 5 5 5 5 5 5 5 6 5 5 6 5 5 5 5 5 5 5 5 6 5 5 5 5 5 5 6 6 5 5 6 5 5 5 5 5 5 5 5 5 5 5 5 6 5 5 5 5 5 5 5 5 6 5 5 5 5 5 5 5 5 6 5 6 5 5 6 6 5 6 5 5 5 5 5 5 5 5 5 5 5 5 5 5 5 5 5 5 5 5 5 5 5 5 5 5 6 5 5 5 5 6 5 5 5 5 5 6 6 6 6 6 5 5 5 6 5 5 5 5 5 5 5 5 5 6 5 5 5 5 5 5 6 5 6 5 5 5 5 5 5 5 5 5 5 5 5 5 5 6 5 5 5 5 6 5 5 5 5 5 5 5 5 5 5 5 5 5 5 5 5 6 5 5 5 5 5 5 5 5 5 5 5 5 5 5 5 6 5 5 5 5 5 6 5 6 5 6 5 5 5 6 5 5 5 5 5 5 5 6 5 5 5 5 6 5 5 6 5 5 5 5 5 5 6 5 5 5 6 5 5 5 5 5 5 5 5 5 5 6 5 5 5 5 6 5 5 5 5 5 5 5 5 5 5 6 5 6 5 5 5 5 5 6 5 5 5 5 5 5 5 5 5 5 5 5 5 6 5 5 5 6 5 6 5 5 6 5 5 6 5 5 5 5 5 5 5 5 5 5 5 5 5 5 5 5 5 5 5 5 6 5 5 5 5 5 5 5 5 5 5 5 5 5 5 5 5 5 5 5 5 5 5 5 5 5 5 5 5 5 5 5 5 5 6 5 5 5 5 5 5 5 6 5 5 5 5 5 5 5 5 5 5 5 5 5 5 5 5 5 5 5 5 5 5 5 5 5 5 5 5 5 5 5 5 5 5 5 5 5 5 5 5 5 5 5 5 5 5 5 5 5 5 5 5 5 5 5 6 5 6 5 5 5 5 6 5 6 5 5 6 5 5 5 5 5 5 5 5 5 6 5 5 6 5 5 5 6 6 5 5 5 5 5 5 5 5 5 5 5 5 5 5 5 5 5 5 5 5 5 5 5 5 5 5 5 5 6 5 5 5 5 5 5 5 5 5 6 5 5 5 5 5 5 6 5 5 5 6 5 5 5 5 5 5 5 5 6 5 5 5 5 5 5 6 5 5 5 6 5 5 5 5 6 6 5 5 5 5 5 5 6 5 5 5 5 5 6 5 6 5 5 5 5 6 5 5 6 5 6 5 5 5 5 5 6 5 5 5 5 5 5 5 6 6 5 5 5 6 5 5 5 5 5 5 5 5 5 6 5 5 6 5 5 5 5 5 5 6 5 5 5 6 5 5 5 5 5 5 5 5 5 5 6 5 5 5 6 5 5 5 5 5 5 5 5 5 5 5 5 5 6 6 5 5 5 5 5 5 6 5 5 5 5 5 5 5 5 5 6 6 6 5 5 6 5 5 5 5 5 5 5 5 5 5 5 6 5 5 6 5 5 5 5 5 5 5 5 5 5 5 5 5 5 5 5 5 5 5 5 5 6 5 5 5 6 5 5 6 5 5 5 6 5 5 5 5 5 5 5 5 5 5 5 5 5 6 5 5 6 5 5 6 5 5 5 5 6 5 5 5 5 5 5 5 5 5 5 5 5 5 5 5 5 5 5 5 5 5 5 5 5 5 5 5 5 5 5 5 5 5 5 5 5 5 5 5 5 5 5 5 5 5 5 5 5 5 5 5 5 5 5 5 5 6 5 5 5 5 5 5 5 5 5 5 5 5 5 5 5 5 5 5 5 5 5 5 5 5 5 5 6 5 5 5 5 5 5 5 6 5 5 5 5 5 5 5 5 5 5 5 5 5 5 5 5 5 5 5 5 5 5 5 5 5 5 6 5 5 5 5 5 5 5 5 5 5 6 5 5 5 5 5 5 5 5 6 5 5 5 5 6 5 6 5 6 5 5 5 5 5 5 5 5 6 5 5 5 5 5 5 5 5 6 5 5 6 6 5 5 6 5 5 5 5 5 5 5 5 5 5 5 5 5 6 5 5 5 6 6 5 5 6 5 6 5 5 5 5 5 5 5 6 5 5 5 5 5 5 5 5 5 5 6 5 5 6 5 5 5 5 5 5 6 5 5 5 6 5 5 6 5 5 5 6 5 5 5 5 5 5 5 5 6 6 5 5 5 5 5 5 5 5 5 5 5 5 6 5 5 5 5 5 5 6 5 5 5 5 5 6 5 5 5 5 5 5 5 5 6 5 5 5 5 5 5 6 5 6 6 5 5 5 6 6 5 6 5 5 5 5 5 6 5 5 5 5 5 5 5 6 5 5 5 5 6 5 6 5 5 6 5 6 5 5 5 6 5 5 5 5 5 5 5 5 5 5 5 5 6 5 5 6 5 5 5 5 5 5 5 5 5 5 5 5 5 5 5 5 5 6 5 5 6 5 6 5 5 5 5 5 5 5 6 6 5 5 5 5 5 6 5 6 6 5 5 5 6 6 5 5 5 5 5 6 5 5 5 5 5 5 5 5 5 5 5 5 6 5 5 6 5 5 5 5 5 5 5 5 5 5 6 6 5 5 5 5 5 5 5 6 5 5 5 6 5 6 5 5 5 5 5 5 5 5 5 6 5 5 5 6 5 5 5 5 5 5 5 5 5 6 5 5 5 5 5 5 5 5 5 5 5 5 5 5 5 5 5 5 5 5 5 5 5 6 6 5 5 5 5 5 5 6 6 5 5 6 5 6 5 6 5 5 5 6 5 5 6 5 6 5 6 5 5 6 5 5 5 5 5 5 6 6 5 5 5 6 5 5 5 5 6 5 5 5 5 5 6 5 5 5 5 6 6 5 5 5 5 5 5 5 6 5 5 5 5 5 5 5 5 5 5 5 5 5 5 5 6 5 5 6 6 5 5 5 5 6 6 5 5 5 6 5 5 6 5 5 5 5 5 5 5 5 5 6 5 5 5 5 6 5 5 5 5 5 5 5 5 5 5 6 5 5 5 6 5 5 6 5 6 5 6 6 5 5 5 5 5 5 6 5 5 5 6 5 6 5 5 5 5 6 5 5 5 6 5 6 6 5 5 5 6 5 5 6 5 6 5 5 5 5 5 6 5 5 5 5 5 6 5 5 5 5 5 5 6 6 5 6 6 5 6 5 5 5 5 6 5 5 5 6 5 6 5 6 5 5 6 5 6 5 5 5 6 5 5 5 6 6 5 5 5 6 6 5 5 5 6 6 6 5 6 5 5 6 5 5 5 5 5 5 5 5 5 5 5 5 5 5 6 5 5 6 6 5 5 5 5 6 6 5 5 6 5 6 5 6 5 5 5 6 6 5 5 5 6 5 5 5 5 5 5 5 5 5 5 6 6 5 5 6 5 5 5 5 6 6 5 6 6 5 5 5 5 5 6 6 5 5 6 5 6 6 5 6 5 5 5 5 6 5 5 6 5 6 5 5 6 5 5 5 5 5 5 5 5 6 5 5 5 5 6 5 6 5 6 5 5 5 5 6 5 6 6 5 6 6 5 5 5 5 5 5 5 5 5 5 5 5 5 5 5 5 5 6 5 5 5 5 5 5 5 5 5 5 5 6 5 5 5 5 6 5 5 5 5 5 5 5 6 5 5 6 5 5 5 5 6 5 6 5 5 5 5 5 5 5 5 5 5 5 5 5 5 5 5 5 5 5 5 5 6 5 5 5 5 6 5 5 5 5 5 5 5 6 5 6 5 5 6 5 5 5 5 5 5 5 5 5 5 5 5 5 6 5 5 5 5 5 6 5 5 5 5 5 5 5 6 5 5 5 5 5 5 5 5 5 5 5 5 5 5 5 5 5 5 5 5 5 6 5 5 5 6 5 5 5 5 5 5 5 5 5 6 5 5 5 6 5 5 5 5 5 5 5 6 5 5 5 5 5 5 5 5 5 5 5 5 5 5 5 5 5 5 5 5 5 5 5 5 5 5 6 5 5 5 5 5 5 6 5 5 5 5 5 5 5 6 5 5 5 6 6 5 5 6 5 5 5 5 6 5 5 6 5 6 5 5 5 5 5 5 5 6 5 5 5 5 5 5 5 5 5 5 6 5 5 5 5 5 5 5 5 5 5 5 5 6 5 5 5 5 5 5 5 5 5 5 6 5 5 5 5 5 6 5 6 6 5 5 6 5 5 5 5 5 5 5 5 5 5 6 5 5 5 6 6 5 5 6 6 6 5 5 5 5 5 6 5 5 6 6 5 5 6 5 6 5 5 5 6 5 5 5 5 5 6 5 5 5 5 6 5 5 5 5 6 5 5 5 5 5 6 5 5 5 5 5 5 5 5 5 6 5 5 5 5 5 6 5 5 6 5 5 6 5 5 5 6 5 5 5 5 6 6 5 5 6 5 5 5 6 5 5 5 6 5 6 5 5 5 5 6 6 5 5 5 5 5 5 5 5 5 5 5 5 5 5 5 5 6 5 6 5 5 5 5 5 5 6 5 5 5 5 6 6 6 5 5 5 6 6 5 5 5 5 5 5 5 5 5 6 5 5 5 5 5 5 5 6 5 5 5 5 6 6 5 5 5 5 5 5 5 5 5 5 5 5 5 5 5 5 5 5 5 5 5 5 5 5 5 5 5 5 5 5 5 5 5 5 5 5 5 5 5 5 5 5 5 5 5 5 5 5 5 5 5 5 5 5 5 6 5 5 5 5 5 5 5 5 5 5 5 5 5 5 5 5 5 5 5 5 5 5 5 5 5 5 5 5 5 5 5 5 5 5 5 5 5 5 5 5 5 5 5 5 5 5 5 5 5 5 5 5 5 5 5 5 5 5 5 5 5 5 5 5 5 5 6 5 5 5 5 5 6 5 5 5 5 5 5 6 5 5 5 5 5 5 5 5 5 5 6 5 5 5 5 5 5 6 6 5 5 5 5 5 5 5 5 5 5 5 5 5 5 5 5 5 5 5 5 5 5 5 5 5 5 5 5 5 5 5 5 5 5 5 5 5 5 5 5 5 5 5 5 5 5 5 5 5 5 5 5 5 5 5 5 5 5 5 5 5 5 5 6 5 6 5 5 5 5 5 5 5 5 6 6 5 5 5 6 5 6 5 5 5 5 5 5 5 5 5 5 5 6 6 5 5 5 5 5 5 5 5 5 6 6 5 5 5 6 5 6 5 6 5 5 5 5 5 5 5 6 5 6 6 5 5 5 5 5 5 5 5 6 5 5 6 5 5 5 5 5 5 5 6 5 5 5 5 5 6 6 5 5 6 5 5 5 5 6 5 6 5 5 5 5 6 5 5 6 6 5 5 5 5 5 5 5 6 5 5 5 5 5 5 5 5 5 5 5 5 5 5 5 5 5 5 5 5 5 5 5 5 5 5 5 5 5 5 5 5 5 5 5 5 5 6 5 5 6 5 5 5 5 5 5 5 6 5 5 6 5 6 6 5 5 5 5 5 6 5 5 5 5 5 5 5 5 5 5 5 5 5 5 5 5 5 5 6 5 5 5 5 5 6 5 5 5 5 5 5 5 6 5 5 5 5 5 6 5 5 5 5 6 5 5 6 5 5 5 6 5 5 5 5 5 5 5 5 5 5 5 6 5 5 6 5 5 5 5 5 5 5 5 5 5 5 5 5 5 5 5 5 5 5 6 5 6 5 5 6 6 5 5 5 6 5 6 5 5 6 5 5 5 5 6 5 5 5 5 5 6 5 5 5 6 6 6 5 6 5 6 6 5 5 5 5 6 5 6 5 5 6 5 5 5 5 5 6 5 6 6 5 6 5 5 5 5 6 6 5 5 5 5 5 5 5 5 5 5 5 5 5 5 5 5 5 5 5 5 6 5 6 5 5 5 6 5 5 6 6 5 5 5 6 5 5 5 6 5 6 5 6 5 5 5 6 6 5 5 6 5 6 5 5 6 5 5 5 5 5 6 5 6 6 5 5 5 6 5 5 5 5 5 6 5 6 5 5 6 5 5 6 5 6 5 5 5 5 5 6 5 5 5 5 5 5 5 5 5 5 6 6 5 5 5 5 5 5 5 5 5 5 5 5 5 5 5 5 5 5 5 5 5 5 5 5 5 5 6 5 5 5 5 5 5 5 5 5 5 5 6 5 6 5 5 5 6 6 5 5 6 5 6 5 5 5 6 5 5 5 5 5 5 5 5 5 5 5 5 5 5 6 5 5 6 5 5 5 5 5 5 5 5 5 5 5 5 5 5 5 5 5 5 5 5 5 5 5 5 5 5 5 5 6 5 5 6 5 5 5 6 5 6 5 5 5 5 5 5 5 6 5 5 5 6 5 5 6 5 5 5 5 6 5 5 5 5 5 5 6 5 5 5 5 5 5 6 5 5 5 5 5 6 5 5 5 6 6 5 5 5 5 5 5 5 5 5 5 5 6 5 5 6 6 5 5 5 5 5 5 5 5 5 5 5 5 5 5 5 5 5 5 5 5 5 5 5 5 6 5 6 5 5 5 5 6 5 6 5 5 5 6 5 6 5 5 6 6 5 6 5 6 5 5 5 6 5 5 5 5 5 6 5 5 5 5 5 5 5 5 5 5 5 5 5 5 5 5 5 5 5 5 6 5 6 5 5 6 5 5 5 5 5 5 5 5 5 6 5 5 6 5 6 5 5 5 5 5 5 5 5 5 5 5 6 5 5 5 5 5 5 5 5 5 5 5 5 5 5 5 5 5 5 5 5 6 5 5 5 5 5 5 5 6 5 5 5 5 5 5 5 5 5 5 5 5 6 5 5 6 5 5 5 5 5 6 5 5 5 5 5 5 5 5 5 6 5 5 5 5 5 5 5 6 5 5 5 5 5 5 5 5 5 5 5 5 5 6 5 5 5 6 5 5 5 5 5 5 5 5 5 5 5 5 5 5 5 5 5 5 5 5 5 5 5 5 5 5 5 5 5 5 5 5 5 6 5 6 5 6 5 5 5 5 5 6 5 5 5 5 6 5 5 5 5 5 5 5 5 5 6 5 5 5 5 5 5 5 5 5 5 5 5 5 5 5 5 5 5 6 5 5 5 5 5 5 5 5 5 5 5 5 5 5 5 5 5 5 5 5 5 5 5 5 5 5 5 5 5 6 5 5 5 5 5 5 6 5 5 5 5 5 5 5 6 5 5 6 5 5 5 6 5 5 5 6 5 5 5 5 5 5 5 5 5 5 5 6 5 5 6 5 6 5 5 6 5 5 5 6 5 5 5 5 5 5 5 5 5 5 5 5 5 5 5 5 5 5 5 5 5 5 5 5 6 5 5 6 5 5 5 5 6 5 5 6 6 5 5 6 5 5 5 5 5 5 6 6 6 5 5 5 5 5 5 5 5 6 6 6 5 6 5 5 5 5 5 6 5 5 6 5 5 5 5 5 5 5 5 5 5 5 5 5 5 5 5 5 5 6 5 5 5 6 5 5 5 5 6 5 6 6 6 5 6 5 5 5 5 6 5 6 5 6 5 5 5 5 6 5 6 5 5 5 5 5 5 5 6 6 5 5 5 6 6 5 5 5 5 5 5 5 5 6 5 5 5 5 5 5 5 5 5 5 5 5 6 5 5 6 5 5 6 6 5 5 5 6 5 5 5 6 5 5 5 5 5 5 5 5 5 5 5 5 6 5 5 6 5 5 5 6 6 5 5 6 5 5 5 5 6 5 5 5 6 5 5 5 5 5 5 5 5 6 5 5 6 5 5 6 5 5 5 5 5 5 6 5 5 5 5 6 6 5 5 5 5 6 5 5 5 5 5 5 5 5 5 5 5 5 5 5 5 6 5 6 5 5 6 6 5 6 6 5 5 5 5 6 5 6 5 6 5 5 6 5 5 5 5 5 5 5 6 5 5 6 5 6 5 5 5 5 5 5 5 5 6 5 5 5 5 5 6 5 5 5 5 5 6 5 5 5 5 5 6 5 5 5 5 5 5 5 5 5 5 5 5 5 5 5 5 5 5 5 5 5 5 5 5 5 6 5 5 5 5 5 5 5 5 5 6 5 5 5 5 5 5 6 5 5 5 5 5 5 5 5 5 5 6 5 6 5 5 5 5 5 5 5 5 6 5 5 5 5 5 5 6 5 5 6 6 5 5 5 5 6 5 5 5 5 5 5 5 5 5 5 5 5 5 5 5 5 5 5 5 5 5 5 5 5 5 5 5 5 5 5 5 5 6 5 5 5 5 5 5 5 5 5 6 5 5 5 5 5 6 5 5 6 5 5 5 5 5 5 5 5 5 5 6 6 5 5 5 6 5 5 5 5 6 5 5 5 6 5 5 5 5 5 5 6 5 5 5 6 5 6 5 5 5 5 5 5 5 5 6 5 5 5 5 6 5 5 6 6 6 5 6 5 5 6 5 5 5 5 5 5 5 5 5 5 5 5 6 5 5 5 5 5 5 5 6 5 5 5 5 5 5 5 6 5 5 5 5 6 5 6 5 5 5 5 5 5 5 5 5 5 5 5 6 5 5 6 6 5 5 5 6 5 5 5 5 6 5 5 5 6 5 5 5 5 6 5 5 5 6 5 5 5 5 6 5 6 6 5 6 5 5 6 5 5 5 5 5 6 5 5 5 5 5 5 5 5 5 6 5 5 5 6 5 5 5 5 5 5 5 5 5 5 5 5 5 5 5 5 5 5 5 5 5 5 5 5 5 5 5 5 5 5 5 5 5 5 5 5 5 5 5 5 5 5 5 5 6 5 5 5 5 5 5 5 5 5 5 5 5 5 5 5 6 5 5 5 5 5 5 5 5 5 5 5 5 5 5 5 5 5 5 5 5 5 5 5 5 5 6 5 5 5 5 5 5 5 6 5 6 5 5 6 5 5 5 6 5 5 5 6 5 6 5 5 6 6 5 5 6 5 5 5 5 5 5 5 5 5 5 5 6 5 5 6 5 5 5 5 5 5 5 6 5 5 5 5 5 6 5 5 5 5 5 5 5 5 5 5 5 6 5 6 5 5 5 5 5 5 5 5 5 5 6 5 5 5 5 5 6 5 6 5 5 5 6 5 5 5 5 5 5 6 5 6 6 5 6 5 5 5 5 5 5 5 5 5 5 5 5 6 5 5 5 6 5 5 5 5 5 5 6 5 5 6 5 6 5 5 5 5 5 5 5 5 6 5 5 5 5 5 5 5 5 5 5 5 5 5 5 5 5 5 5 5 5 5 6 5 5 5 5 5 5 5 5 5 5 5 5 5 5 5 5 5 5 5 5 5 6 5 5 5 6 5 5 5 5 6 5 5 5 5 5 5 6 5 5 5 5 5 5 5 5 5 5 5 5 6 5 5 5 5 5 5 5 5 5 5 5 6 5 5 6 5 5 5 5 5 5 6 5 5 5 5 6 5 5 5 5 5 5 5 5 5 5 5 5 5 5 6 5 5 5 5 5 5 5 5 5 5 5 5 5 5 5 6 5 5 5 5 6 6 5 5 5 5 5 5 5 5 6 5 5 5 5 5 5 5 5 5 5 5 5 5 5 5 5 5 5 5 5 5 5 5 5 5 5 5 5 6 5 6 5 5 5 5 5 5 5 5 5 5 6 5 6 6 5 5 5 5 6 5 5 5 5 5 5 5 5 5 5 5 5 5 5 5 5 5 5 5 5 5 5 5 5 5 5 5 5 5 5 5 5 5 5 5 5 5 5 5 5 5 5 5 5 5 5 5 5 5 5 5 6 5 5 6 5 5 5 5 5 6 5 5 5 5 5 5 5 5 5 5 5 5 5 5 5 5 5 5 5 5 5 5 5 5 5 5 5 5 5 5 5 5 5 5 5 5 5 5 5 5 5 5 5 5 5 5 6 5 6 5 5 5 5 6 5 5 5 6 5 5 5 5 5 5 5 5 6 6 5 5 5 5 5 5 5 5 6 5 5 5 5 5 5 5 5 5 5 6 5 5 6 5 5 5 5 6 5 5 6 5 5 6 5 5 5 5 5 5 5 6 5 5 5 5 5 6 5 5 5 5 6 5 5 5 5 6 6 5 6 6 5 6 5 5 6 5 5 5 5 5 6 5 5 5 5 6 5 5 6 5 5 5 6 5 6 5 5 5 6 5 5 6 6 6 5 5 5 6 5 5 5 5 5 5 5 5 6 5 5 6 5 5 5 5 5 5 5 5 5 6 5 5 5 5 5 5 6 5 5 5 5 6 6 6 5 6 6 6 5 5 5 5 6 5 5 6 5 6 5 6 5 6 5 6 5 5 5 6 5 5 5 5 5 6 6 5 5 6 5 5 5 5 6 5 5 5 5 5 5 6 5 5 5 5 5 5 5 5 5 5 5 5 6 5 5 5 5 5 5 5 5 5 5 5 5 5 5 5 5 5 5 5 5 5 5 5 5 5 5 5 5 5 6 5 5 6 5 5 5 6 5 5 5 5 5 5 5 5 5 5 5 5 5 5 5 5 5 5 5 5 5 5 5 5 5 5 5 5 5 5 5 5 6 5 5 5 5 6 5 5 5 6 6 6 5 5 5 6 5 5 5 6 5 5 6 6 5 5 6 5 5 6 5 5 6 5 6 5 6 5 5 5 5 5 5 5 5 6 5 5 5 5 5 5 5 5 5 5 5 6 5 5 5 6 5 5 6 5 5 5 5 5 5 5 5 5 5 6 6 5 5 5 5 5 5 5 5 5 5 5 5 5 5 5 6 5 5 5 6 5 5 5 5 5 6 5 5 5 5 5 5 6 6 6 5 5 5 5 5 5 6 5 6 6 5 5 5 5 5 6 5 5 6 6 5 5 6 6 6 5 5 5 5 5 6 5 5 5 5 5 6 6 5 5 6 5 5 6 6 5 5 6 5 5 5 6 5 6 6 5 5 5 5 5 5 5 5 5 6 5 5 5 6 5 5 5 5 6 5 6 6 5 6 5 5 5 5 5 5 5 5 5 5 5 6 5 5 6 6 6 5 6 5 6 5 5 6 5 6 5 5 5 5 5 5 5 5 5 5 5 5 5 5 5 5 5 6 5 6 5 5 5 5 5 5 5 5 6 5 5 5 5 5 6 5 6 5 6 5 5 5 6 6 5 6 6 5 5 5 5 5 5 5 5 5 6 5 5 5 5 5 5 5 5 5 5 5 6 6 5 5 5 6 5 5 5 6 5 5 5 5 6 5 5 5 5 5 5 5 5 5 6 5 5 5 5 5 6 5 5 5 5 5 6 5 6 5 5 6 5 5 5 6 5 5 6 5 5 6 5 5 5 5 5 5 5 5 5 5 5 5 5 5 5 5 5 6 5 5 5 5 5 5 5 6 5 5 5 5 5 5 5 5 6 6 5 5 5 5 5 5 5 6 5 5 5 5 5 5 5 5 5 5 5 5 5 5 5 5 5 5 5 5 6 5 6 5 5 5 5 5 5 5 5 5 5 5 5 5 5 5 5 6 5 5 5 5 6 5 6 5 5 6 6 5 6 6 5 5 5 5 5 5 5 5 6 6 5 5 6 5 5 5 5 6 5 5 5 5 6 5 5 5 6 5 5 5 6 5 5 6 5 6 5 6 5 5 6 5 6 5 5 5 5 5 5 5 5 5 5 5 5 6 5 5 5 5 5 5 5 5 5 5 5 5 5 5 5 6 5 5 5 5 5 5 5 5 5 5 6 6 5 5 6 5 5 5 6 5 6 5 5 5 5 5 5 5 5 5 5 5 5 5 5 5 5 5 5 5 5 5 5 5 5 5 5 5 5 5 5 5 5 5 5 5 6 5 5 5 6 5 5 5 6 6 5 6 5 5 5 5 5 6 5 6 5 5 6 5 5 5 5 5 5 5 5 5 5 5 5 5 5 5 5 5 5 5 5 5 5 5 5 5 5 5 5 5 5 5 5 5 5 5 5 5 5 6 6 5 5 5 5 5 5 5 5 6 5 5 5 5 5 5 5 5 5 5 5 5 5 5 5 6 5 5 5 5 5 5 5 5 5 5 5 5 5 5 5 5 5 5 5 6 5 5 5 5 5 5 5 5 5 5 5 5 5 5 5 5 5 5 5 5 5 5 5 5 5 5 5 6 6 5 5 5 6 5 5 5 5 5 5 6 5 5 5 5 5 5 5 5 5 5 5 5 5 5 5 5 5 5 5 5 6 5 5 5 5 6 6 5 5 5 5 5 5 5 5 6 5 6 5 5 5 5 5 5 5 5 5 5 5 5 5 5 5 5 5 5 5 5 5 5 5 5 6 5 5 5 5 5 5 5 5 5 5 5 5 5 5 5 5 5 5 5 6 5 5 5 5 5 5 5 5 5 6 5 5 5 5 6 5 5 5 5 5 6 5 5 5 6 6 6 5 6 5 5 6 6 6 5 5 5 5 5 5 5 5 5 5 5 5 5 5 5 5 5 5 5 5 5 5 5 6 5 5 5 5 5 6 5 5 5 5 6 5 5 5 5 5 5 5 5 5 5 6 5 5 5 5 5 5 6 5 5 5 6 6 6 5 5 5 5 6 5 5 5 5 5 5 5 5 5 5 5 5 6 5 5 5 6 6 5 6 5 5 6 6 6 5 6 5 5 5 5 6 5 5 5 5 5 6 6 5 5 5 5 5 6 5 5 5 5 5 5 5 5 5 6 6 5 6 5 5 6 5 5 6 5 5 5 6 5 6 5 5 5 5 5 6 5 5 5 5 6 5 6 5 5 5 6 5 6 5 5 5 6 5 5 5 5 5 6 5 6 5 5 5 5 5 6 5 5 6 5 5 5 6 5 5 5 6 5 5 5 5 5 5 5 5 5 5 5 5 5 5 5 5 5 5 6 5 5 5 5 6 5 5 5 5 6 5 5 5 5 5 6 5 5 5 5 5 5 5 6 5 5 5 6 5 5 6 5 5 5 5 5 5 5 6 5 5 5 6 5 5 5 5 6 5 5 5 5 5 5 5 5 6 6 5 5 5 6 5 5 5 6 5 5 5 5 6 5 5 5 5 5 5 5 5 6 5 5 6 5 5 5 5 5 6 5 5 5 5 5 5 5 5 5 5 5 5 5 5 5 5 5 5 5 5 5 6 5 5 5 5 5 5 5 5 5 5 5 5 5 5 5 5 5 5 5 5 6 5 5 5 6 5 5 5 5 5 5 5 5 5 5 5 5 5 5 5 5 5 5 5 5 5 5 5 5 5 5 5 5 5 5 5 5 5 5 5 5 5 5 5 6 5 5 5 5 5 5 5 5 5 5 5 5 5 5 5 5 5 5 5 5 5 5 5 5 5 5 5 5 5 5 6 6 5 5 5 5 5 6 5 5 5 5 5 5 5 5 5 5 5 5 5 5 5 5 5 6 6 5 5 5 5 5 5 5 5 5 5 5 5 5 5 5 5 5 5 5 5 5 5 5 5 5 5 5 5 5 5 5 5 5 5 5 5 5 5 5 5 5 5 5 5 5 5 5 5 5 5 5 5 5 5 5 5 5 5 5 5 5 6 5 5 5 5 5 5 5 5 5 5 5 5 6 5 5 5 6 5 5 5 5 5 5 5 5 5 6 5 5 5 5 5 6 5 6 5 6 5 5 5 5 5 6 5 5 5 5 5 5 6 5 5 5 5 6 5 5 5 5 5 6 5 5 5 5 5 5 5 5 5 5 5 5 5 5 5 5 5 6 6 5 5 5 5 5 5 5 5 5 5 5 5 5 5 5 6 5 5 5 5 5 6 5 6 5 5 5 5 5 5 5 5 5 5 5 5 5 5 5 5 5 5 5 5 5 5 5 5 5 5 5 5 5 5 5 5 6 5 5 5 5 5 5 5 5 5 5 5 5 5 5 5 5 5 5 6 5 5 5 5 5 5 5 5 5 5 5 5 6 5 5 5 5 5 5 5 5 5 5 5 5 5 5 5 5 6 5 5 5 5 5 5 5 5 5 5 5 5 5 5 5 5 5 5 5 5 5 5 5 5 5 5 5 6 5 5 5 6 5 5 5 6 5 6 5 5 6 6 5 5 5 5 5 5 5 5 5 6 5 5 5 6 5 5 5 5 5 6 6 6 5 6 5 5 5 5 6 5 6 6 5 6 5 5 5 6 5 5 5 6 5 5 6 5 6 5 5 5 5 5 5 5 6 6 6 5 6 5 6 5 5 5 5 5 5 5 6 5 5 5 6 5 5 5 5 5 6 5 6 5 6 6 5 5 5 5 6 5 5 5 5 5 5 5 5 5 5 5 5 6 5 5 5 6 5 5 5 6 5 5 5 5 5 5 5 5 5 5 5 5 5 5 5 5 5 5 5 5 5 5 5 6 5 5 5 5 5 5 6 5 5 5 5 5 5 5 5 5 5 5 5 5 6 5 5 6 5 5 5 6 6 5 5 5 5 5 5 5 5 5 5 5 5 5 5 6 5 5 5 5 5 5 5 5 5 5 5 5 5 5 5 5 5 5 5 5 5 5 6 5 5 5 5 6 5 5 5 5 5 5 5 5 5 5 5 5 5 5 5 5 5 5 5 5 5 5 5 6 5 5 5 5 5 5 5 6 5 5 6 5 5 5 5 5 5 5 5 5 5 5 6 6 5 5 5 5 5 5 5 5 5 5 5 5 5 5 5 5 5 5 5 5 5 5 5 5 5 5 5 5 5 6 5 6 5 5 6 5 5 5 5 5 5 5 5 5 5 5 5 5 5 5 5 5 6 6 5 5 5 5 5 5 5 5 5 6 5 5 5 5 5 5 5 5 5 5 5 5 5 5 5 5 5 5 5 5 5 5 5 5 5 5 5 5 5 5 5 5 5 5 5 5 5 5 5 6 6 5 5 5 5 6 6 5 5 5 5 5 5 5 5 5 5 5 5 5 5 6 5 5 5 5 5 5 5 5 5 5 5 6 5 5 5 5 5 6 5 5 5 5 6 5 5 5 5 5 5 5 5 5 5 5 5 5 5 5 5 5 5 5 5 5 5 5 5 5 5 5 5 5 5 6 5 5 5 5 5 5 5 5 6 5 5 5 5 6 5 5 5 5 5 5 6 5 5 5 5 5 5 5 6 5 5 6 5 5 5 6 5 5 5 6 5 5 5 5 5 5 5 5 5 5 5 5 5 5 5 5 5 5 5 5 5 5 5 5 5 5 5 5 5 5 5 5 5 5 5 5 5 5 5 5 5 5 5 5 5 5 5 5 5 5 5 5 5 5 5 5 5 5 5 5 5 5 5 5 5 5 5 5 5 5 5 5 5 5 5 5 5 5 5 5 5 5 5 5 5 5 5 6 5 5 5 5 5 5 5 5 5 5 6 5 5 5 5 5 5 5 5 5 5 5 5 5 6 5 5 5 5 5 5 5 5 5 5 5 5 6 6 5 5 5 5 5 5 5 5 5 5 5 5 5 5 5 5 5 5 5 5 5 5 5 5 5 6 6 5 5 6 5 5 5 5 6 5 5 6 5 5 5 5 5 5 5 5 5 6 5 5 6 5 6 5 5 6 5 5 5 5 6 5 5 6 5 5 5 5 5 5 5 5 5 5 5 6 5 5 5 6 5 5 5 5 5 5 5 5 5 5 5 5 5 5 6 5 5 5 5 5 5 5 5 5 5 5 5 6 5 5 5 5 6 6 5 5 5 5 5 5 5 5 5 5 5 5 5 6 5 5 5 5 5 5 5 5 5 5 5 5 5 5 5 5 6 6 5 5 5 5 5 5 5 5 5 6 5 5 5 5 5 6 6 5 5 5 5 5 5 5 5 5 6 6 5 5 5 5 6 5 5 5 6 5 5 5 5 5 5 5 5 5 6 5 5 5 5 5 5 5 5 6 6 5 6 5 5 5 6 5 5 5 5 5 5 5 5 6 5 5 6 5 6 6 5 5 5 5 5 5 5 5 5 5 5 5 5 5 5 5 5 5 5 5 5 5 5 5 5 5 5 5 5 5 5 5 5 5 5 5 5 5 5 5 5 5 5 5 5 5 5 6 6 5 5 5 5 5 5 5 6 5 5 5 5 6 5 5 5 5 5 5 5 5 6 5 5 5 5 5 6 5 5 5 6 5 6 5 5 5 5 5 5 5 5 5 5 5 5 5 5 5 5 5 5 5 5 5 5 5 5 5 5 5 5 5 5 6 5 5 5 6 5 5 5 6 5 5 5 5 5 5 5 5 6 5 5 5 6 5 5 5 5 5 5 5 6 5 5 5 5 5 6 5 5 5 5 5 5 5 5 5 5 5 5 5 5 5 5 5 5 5 5 5 5 5 5 5 5 5 5 5 5 6 5 5 6 5 6 5 5 5 6 5 6 5 5 5 5 5 6 5 5 5 6 5 5 5 5 5 5 5 5 5 6 5 5 6 5 5 5 5 5 5 5 5 5 5 5 5 5 5 5 5 6 5 5 5 5 5 5 5 5 5 5 5 6 5 5 5 5 6 5 5 5 5 6 5 6 5 5 5 5 5 5 5 5 5 5 5 5 5 6 5 5 6 5 6 5 5 5 5 5 5 6 5 5 5 5 6 5 5 5 5 5 5 5 5 6 5 6 5 5 5 5 5 5 5 5 5 5 5 5 5 5 5 5 5 5 5 5 5 5 5 5 5 5 6 5 5 5 5 5 5 5 5 5 5 5 6 5 5 5 5 5 5 5 5 5 5 5 5 5 5 5 5 5 5 5 5 5 5 5 5 5 5 5 5 5 5 5 5 5 5 5 5 5 5 5 5 5 5 5 5 5 5 5 5 5 5 5 5 5 5 5 5 5 5 5 5 5 5 5 5 5 5 5 5 5 5 5 5 5 6 5 5 5 5 5 5 5 5 5 5 5 6 5 5 5 5 5 5 5 5 5 5 5 5 5 5 5 5 5 5 5 5 5 5 6 5 5 5 5 5 5 5 6 5 5 5 5 5 5 5 5 5 5 5 5 5 5 5 5 5 5 5 5 5 5 5 5 5 5 5 5 5 5 5 5 5 6 5 5 5 5 5 5 6 6 5 5 6 5 5 5 5 6 5 6 5 5 5 6 5 5 6 5 5 5 6 5 6 5 5 5 6 5 5 5 5 5 5 5 6 5 5 5 5 5 5 5 5 5 5 5 5 5 5 5 6 5 5 5 5 5 5 5 5 6 5 5 5 5 5 5 6 5 5 5 5 5 6 5 6 6 5 6 5 5 5 5 5 6 6 5 5 6 5 5 6 5 6 5 5 5 5 5 5 5 5 5 5 5 5 5 5 5 5 6 5 5 6 5 5 5 5 6 5 5 5 5 5 5 6 5 5 5 5 6 5 5 5 5 5 5 5 5 5 6 5 5 5 6 5 5 6 5 5 5 6 5 5 5 5 5 6 5 6 5 5 6 5 5 5 5 5 5 5 5 5 5 5 6 5 5 5 5 6 5 5 5 5 5 5 5 5 5 5 5 5 5 5 5 5 5 5 5 5 6 5 6 5 6 6 5 6 5 5 5 5 5 5 5 5 6 6 5 5 5 5 5 6 5 5 5 5 5 5 5 5 5 5 5 5 6 5 5 6 6 6 5 5 5 5 6 5 5 5 5 6 6 5 6 5 6 5 6 5 5 6 6 5 5 6 5 5 5 5 5 6 5 5 5 5 5 5 5 5 5 5 5 5 5 5 5 6 5 5 6 5 5 6 5 5 5 6 5 5 5 5 5 5 5 5 5 5 5 5 5 5 5 5 5 5 5 5 6 5 5 5 6 5 5 5 6 5 5 5 6 5 5 6 6 5 5 5 5 6 5 5 6 6 5 6 5 5 6 5 6 5 5 5 5 5 5 6 5 5 5 6 5 5 5 5 6 5 5 5 6 5 6 5 5 5 5 6 5 5 5 5 5 5 5 5 6 5 5 5 6 5 5 6 5 5 5 5 5 5 5 5 5 5 5 5 6 5 5 5 5 5 6 6 5 5 6 6 5 6 5 5 5 6 5 5 5 5 5 5 5 5 5 5 5 5 5 6 5 5 6 5 5 5 5 5 5 5 6 5 5 5 5 5 5 5 6 5 5 5 5 5 5 5 5 5 5 5 5 5 5 5 5 5 5 5 6 5 5 5 5 6 5 5 6 5 5 6 5 5 6 5 5 5 5 6 6 5 5 6 5 5 5 5 5 5 5 5 5 5 5 5 5 5 5 6 5 5 5 5 5 5 5 5 6 5 5 5 5 5 6 5 5 6 5 5 5 5 5 5 5 5 5 5 5 6 5 6 5 5 6 5 5 6 5 5 5 5 5 5 5 5 5 5 5 6 5 5 5 5 5 5 5 5 5 5 5 5 5 5 5 5 5 5 5 5 5 5 5 5 5 5 5 5 5 5 5 5 5 5 5 5 5 5 5 5 5 5 5 5 5 5 5 5 5 5 5 5 5 5 5 5 5 5 5 5 5 5 5 5 5 5 5 5 5 5 5 5 5 5 5 5 5 5 5 5 5 5 5 5 5 5 5 5 5 5 6 5 5 5 5 5 5 5 5 5 5 6 5 5 6 5 5 5 6 5 5 5 5 5 6 5 5 5 5 5 5 5 5 5 5 5 5 5 6 5 5 5 5 5 5 5 5 5 5 5 5 5 5 5 5 5 6 5 5 5 5 5 5 5 5 5 5 5 5 6 5 5 5 5 5 5 5 5 5 5 5 5 5 5 5 5 5 5 5 5 5 5 5 5 5 5 5 5 5 5 5 6 5 5 5 5 5 5 5 5 5 5 5 5 5 5 5 5 5 5 5 6 5 5 6 5 5 5 5 5 5 5 6 5 5 5 5 6 5 5 5 5 5 5 5 6 5 5 5 6 5 5 6 5 5 5 5 5 5 5 5 5 5 5 5 5 5 5 5 5 5 5 6 5 5 6 5 5 5 5 5 6 5 5 5 6 6 6 5 5 5 5 5 5 5 5 6 5 6 5 5 5 5 5 5 5 5 6 5 5 5 5 5 5 5 5 5 6 6 5 5 5 5 5 5 5 5 5 5 6 5 5 5 5 5 5 6 5 5 5 5 5 5 5 5 6 5 6 5 6 5 5 5 5 6 5 5 5 5 5 5 5 5 5 5 5 5 5 6 5 5 5 6 5 5 5 5 5 5 5 5 5 5 5 5 5 5 5 5 6 5 5 6 5 5 5 5 5 5 5 5 5 5 5 5 5 5 5 5 5 6 6 5 5 6 5 5 5 6 5 5 6 5 5 6 5 5 5 5 5 5 5 5 5 6 5 5 5 5 5 5 5 5 6 5 5 5 6 6 5 5 5 5 5 5 6 5 5 5 5 5 6 5 5 6 5 6 5 6 5 5 5 6 6 5 5 5 6 6 6 5 5 6 5 5 6 5 5 5 5 6 5 5 6 5 6 5 5 5 6 5 5 5 5 5 5 5 5 5 5 5 5 5 5 6 6 5 5 5 5 5 5 5 5 5 5 6 5 5 5 5 5 5 5 5 5 5 5 5 5 5 5 5 5 5 5 5 5 5 6 5 5 5 6 5 5 5 5 5 6 5 5 6 5 5 5 5 5 5 5 5 5 5 5 5 5 5 5 6 5 5 5 6 6 5 5 5 5 5 5 5 5 5 5 6 5 6 5 6 5 5 6 5 6 6 5 5 5 5 6 5 5 5 6 5 5 5 5 5 5 6 5 5 5 5 5 5 5 5 6 5 5 6 5 5 5 5 5 5 5 5 6 5 5 6 5 5 5 5 5 5 5 5 5 5 6 5 5 5 5 5 6 5 5 6 5 5 5 5 5 5 5 5 5 5 5 5 5 5 5 5 5 5 5 5 6 5 5 5 5 6 6 5 6 5 5 5 5 5 5 5 5 5 5 5 5 5 5 5 5 5 6 5 6 5 5 5 5 5 5 6 5 5 5 5 5 5 5 5 5 5 5 5 5 5 5 5 5 5 5 5 5 5 5 5 5 5 5 5 5 5 5 5 5 5 5 6 5 5 5 5 6 5 6 6 5 5 5 5 5 5 5 5 5 5 5 5 5 5 6 5 5 5 5 5 5 5 5 5 5 5 5 5 5 5 5 5 5 5 5 5 5 5 6 5 5 6 5 5 5 5 5 5 6 5 5 5 5 5 5 5 5 6 6 5 6 5 5 5 6 5 6 5 5 5 5 6 5 6 6 5 5 6 6 5 6 6 5 6 6 5 5 5 5 5 6 5 5 5 5 5 5 5 5 5 5 5 5 5 5 5 5 5 5 6 5 5 5 5 6 5 5 5 5 5 5 5 5 5 5 5 5 6 5 5 5 6 5 5 5 6 5 5 5 6 5 5 5 5 5 5 5 5 5 5 6 5 5 6 6 5 5 5 6 5 6 5 5 5 5 5 6 6 6 6 5 5 6 5 5 5 6 5 6 5 5 5 5 6 5 5 5 5 5 5 5 6 5 5 5 5 5 5 5 6 5 5 6 5 6 5 6 5 5 5 5 5 5 5 6 6 5 5 6 5 5 5 5 5 5 5 5 5 5 5 5 5 5 5 5 5 5 5 5 5 5 5 5 5 5 5 5 5 5 5 5 5 5 5 5 5 5 5 5 5 5 5 6 5 5 5 5 5 5 6 5 5 5 5 5 5 5 5 5 5 5 5 5 5 5 6 6 5 5 5 5 5 5 6 5 5 5 5 5 5 6 5 5 5 5 5 5 5 6 5 5 5 5 5 5 6 5 5 6 5 5 5 5 5 5 5 5 5 5 5 5 5 5 5 5 5 6 5 5 5 5 5 5 6 5 5 6 5 5 5 5 5 5 5 5 5 5 6 5 5 5 5 5 5 6 5 5 5 5 5 5 5 6 5 5 5 6 5 5 5 5 5 5 5 5 5 5 5 5 5 5 5 5 5 5 5 5 5 5 5 6 5 5 5 5 5 5 5 5 5 5 5 5 5 5 5 5 5 5 5 5 5 5 5 5 5 5 5 5 5 5 5 5 5 5 5 5 5 5 5 5 5 5 5 5 5 6 5 5 5 5 6 5 5 5 6 5 6 5 5 5 5 6 5 5 5 5 5 5 5 5 6 5 5 5 5 6 5 5 5 5 5 5 5 5 6 5 5 5 5 6 5 5 5 5 5 5 6 6 5 6 6 5 5 5 5 5 5 5 6 5 6 5 5 5 6 5 5 5 5 5 5 6 5 5 6 5 6 5 6 6 5 5 5 6 5 5 6 5 5 5 5 5 5 5 5 5 5 6 5 5 5 5 6 5 6 5 5 6 5 6 5 5 6 5 5 5 5 5 5 6 5 5 5 5 5 6 5 5 6 5 5 6 5 5 5 6 5 5 5 5 5 5 6 5 5 5 5 6 6 5 5 5 6 5 6 6 5 5 6 5 5 5 6 5 5 5 5 5 5 5 5 6 5 5 5 5 5 6 5 5 5 5 5 6 5 6 5 5 5 5 5 6 6 5 5 6 6 6 5 5 5 5 6 5 5 5 5 5 5 6 5 5 5 5 5 5 5 5 5 5 5 5 5 5 5 5 5 6 5 5 5 5 5 5 5 5 5 5 5 5 5 5 5 5 5 6 5 5 5 6 5 5 6 5 6 5 5 5 6 5 5 5 5 5 5 6 5 5 6 5 5 5 5 5 6 5 6 5 5 5 5 5 5 5 5 5 5 6 5 5 5 6 5 5 5 6 5 5 5 6 5 6 6 5 5 6 6 5 5 5 5 5 5 5 6 5 6 5 5 6 5 5 5 5 5 5 5 6 5 6 5 5 5 5 6 5 6 5 5 5 6 5 5 5 5 5 5 6 5 5 6 5 5 5 5 5 5 5 5 5 5 5 5 5 6 5 5 5 5 5 5 6 5 5 5 5 5 5 5 5 5 6 5 6 6 5 5 5 5 6 5 5 5 6 6 5 5 5 5 5 5 5 5 5 5 5 5 5 5 5 5 6 6 5 5 5 5 5 5 5 5 6 5 6 5 5 6 6 5 5 6 5 6 6 5 6 5 5 5 5 6 6 5 5 6 5 5 5 5 5 5 5 6 5 5 5 5 5 5 5 5 5 5 5 5 5 5 5 5 5 5 5 5 5 5 5 5 5 5 5 5 5 5 5 5 6 5 5 5 5 5 5 5 5 5 5 5 5 5 5 5 5 5 5 5 5 5 5 5 5 5 5 5 5 5 6 5 5 5 5 5 5 5 6 5 5 5 5 5 6 5 6 5 5 6 5 5 5 5 5 5 5 5 5 6 5 5 5 5 5 6 5 6 5 5 5 5 5 5 5 5 5 5 6 5 5 6 5 6 5 5 5 6 6 5 5 5 5 5 5 6 5 5 5 5 6 5 5 5 5 5 5 5 5 5 5 5 5 5 5 5 5 5 5 5 6 5 6 5 6 5 5 5 6 5 5 6 5 5 5 5 6 5 5 5 5 5 5 5 6 6 5 5 5 5 5 5 6 6 5 5 5 6 5 6 5 5 5 5 5 5 5 5 5 5 5 5 6 5 5 6 6 5 5 5 5 5 5 5 5 6 5 6 5 6 5 5 5 5 5 5 5 5 5 5 5 5 5 5 5 5 5 5 5 5 5 5 5 5 5 5 5 5 5 5 5 5 6 5 5 5 5 5 5 5 5 5 5 5 5 5 5 5 5 5 6 5 6 5 5 5 5 5 5 5 5 5 5 5 6 5 5 5 5 5 5 5 5 5 6 5 5 5 5 5 5 5 5 5 5 6 5 5 5 5 5 5 5 5 5 5 6 5 5 5 5 5 5 5 5 5 5 5 5 5 5 5 5 5 5 5 5 5 5 5 5 6 5 5 6 5 5 5 6 6 5 5 6 6 5 5 5 6 5 5 5 5 5 5 5 6 6 5 6 5 5 6 5 5 5 5 5 5 5 5 5 6 6 5 5 5 6 5 6 5 6 5 5 5 5 5 5 5 5 5 5 5 5 5 5 5 5 5 6 5 5 5 5 6 5 5 5 5 5 5 5 5 5 6 5 5 5 5 5 5 5 5 5 6 5 5 5 5 6 5 5 5 5 5 5 5 5 5 5 6 5 5 5 5 5 5 5 5 5 5 6 5 5 5 5 6 5 5 6 5 5 5 5 5 5 5 5 5 5 5 6 5 5 5 5 5 5 5 5 5 5 5 5 5 5 5 5 5 5 5 6 5 5 5 5 5 6 5 5 5 5 6 6 5 5 5 5 5 5 5 5 5 5 5 5 5 5 5 6 5 5 5 6 6 5 5 5 5 6 5 5 5 5 6 5 5 6 5 6 5 6 5 5 5 5 5 5 6 5 5 6 6 5 5 5 6 5 5 5 5 5 5 6 5 5 6 5 6 6 6 6 5 5 6 5 5 5 6 5 5 5 5 5 5 5 5 6 6 5 5 5 5 6 5 6 5 6 6 6 5 5 5 5 5 5 6 6 5 5 5 5 5 5 5 5 5 5 5 5 5 5 5 5 6 6 5 6 5 5 5 6 5 5 6 5 5 5 6 5 5 5 5 5 5 6 5 5 5 5 5 5 5 5 5 5 6 5 5 5 5 5 5 6 5 5 5 6 5 5 6 6 6 5 5 5 6 5 6 5 5 6 5 5 6 5 5 6 5 5 5 6 6 5 5 5 5 5 5 5 5 5 6 5 5 5 6 6 5 5 5 6 5 5 5 6 5 5 5 5 5 5 5 5 5 5 5 5 5 5 5 5 5 5 5 5 5 5 5 5 5 5 5 5 5 5 5 5 5 5 5 5 5 5 5 5 5 5 6 5 5 5 5 6 6 5 6 5 5 6 5 5 6 5 6 5 5 5 5 5 5 6 5 5 5 5 5 6 5 6 5 5 5 5 5 5 6 6 5 5 6 5 5 5 5 5 5 6 5 5 5 5 5 5 5 5 5 5 5 5 5 5 5 5 5 5 5 5 6 5 5 5 5 5 5 5 5 5 5 6 5 5 5 5 6 5 5 5 5 5 5 5 5 6 5 5 5 5 6 5 5 5 5 5 5 5 5 5 6 5 5 5 5 6 5 5 5 5 5 6 5 5 5 5 6 5 5 5 5 5 5 6 5 5 5 5 5 5 5 6 5 5 5 5 5 6 5 5 5 6 5 5 6 5 5 5 6 5 6 5 5 5 5 5 5 5 5 5 6 5 5 5 5 5 5 5 5 5 5 5 5 5 5 5 6 6 5 5 5 5 5 5 5 5 5 5 5 5 5 5 5 5 5 5 5 5 5 5 5 5 5 6 5 5 5 5 5 5 5 5 5 6 5 5 6 5 5 5 5 5 5 5 5 5 5 5 5 5 5 5 6 5 5 5 5 5 5 5 5 5 5 5 5 5 5 5 5 5 5 5 5 5 5 5 5 5 5 5 5 5 5 5 5 5 5 6 5 5 5 6 5 5 6 6 5 6 5 6 6 5 5 5 5 5 5 5 5 5 5 5 5 5 5 6 5 5 5 5 5 5 5 5 5 5 5 5 5 5 5 5 5 5 5 5 6 5 5 6 5 5 6 5 5 5 5 5 5 5 5 6 6 5 5 5 6 5 6 6 5 5 6 5 5 6 5 5 5 5 6 5 6 5 5 6 5 5 5 5 5 5 5 5 5 5 5 5 5 5 5 5 5 5 5 6 5 5 5 5 6 5 5 5 5 5 5 5 5 5 5 5 5 5 5 5 5 5 6 5 5 5 5 5 5 5 5 6 5 5 5 5 5 5 5 6 5 6 5 5 5 6 5 6 5 5 5 5 5 5 5 5 5 5 5 5 5 5 5 5 5 6 5 5 5 5 5 5 5 5 5 5 5 6 5 5 6 5 5 5 5 5 5 5 5 5 5 5 5 5 5 5 5 6 5 5 6 5 5 6 5 6 5 5 5 6 5 5 5 6 5 5 5 5 6 5 5 5 5 5 6 5 5 6 5 5 6 5 6 6 5 5 5 5 5 5 6 5 5 6 5 6 5 5 5 6 5 5 5 6 5 6 5 5 6 5 6 5 5 5 5 6 5 6 5 5 5 5 5 6 5 6 5 6 5 6 5 5 6 5 5 5 5 5 5 5 5 6 6 6 6 5 5 5 5 6 5 5 5 5 5 5 6 5 5 6 5 5 5 6 6 5 5 6 5 5 5 5 5 6 6 5 5 5 5 6 6 5 6 6 5 5 6 5 5 5 5 5 5 5 5 6 5 5 5 5 6 6 5 5 5 5 6 5 5 6 5 5 5 5 5 5 5 5 6 5 5 5 5 5 5 5 5 5 5 5 5 5 5 5 5 5 5 5 5 5 6 5 5 5 5 
</DataArray>
<DataArray type="Float64" Name="stress" NumberOfComponents="9" format="ascii">
-2.6186001829337329 -3331.6082966365757 0 -3331.6082966365757 2142.194265159982 0 0 0 0 961.96462883277854 -3673.3313063975911 0 -3673.3313063975911 1274.3759315417701 0 0 0 0 3246.9894544936251 -2729.9685318930315 0 -2729.9685318930315 -0.010172295216761995 0 0 0 0 1059.1183634624758 -2846.6168627365296 0 -2846.6168627365296 1988.8887520475691 0 0 0 0 771.23054684836825 -3123.3239079884952 0 -3123.3239079884952 2197.4218463362631 0 0 0 0 1396.8031755808042 -3219.7490874021169 0 -3219.7490874021169 2126.0641897292444 0 0 0 0 2800.1803050886665 -2624.4700701416659 0 -2624.4700701416659 1849.8755914322464 0 0 0 0 3015.5573761492269 -3174.633404802742 0 -3174.633404802742 1536.8670904827595 0 0 0 0 3960.935125684613 -1338.9116562253112 0 -1338.9116562253112 1338.9364385316148 0 0 0 0 2462.8377642511259 -2839.2929287756378 0 -2839.2929287756378 1658.4179268654407 0 0 0 0 1242.1280783092807 -1281.4378648820602 0 -1281.4378648820602 481.24459021720395 0 0 0 0 639.29037037286253 -278.10072196305373 0 -278.10072196305373 370.96682701872487 0 0 0 0 36.21810939678835 -1292.8366049892738 0 -1292.8366049892738 2061.1968761431926 0 0 0 0 912.56942584067292 -167.66134747734031 0 -167.66134747734031 -318.17891404024704 0 0 0 0 1006.3786569315544 -863.55381837772256 0 -863.55381837772256 419.12173079318018 0 0 0 0 558.33701246685814 -586.31592996569816 0 -586.31592996569816 258.46685509437521 0 0 0 0 3465.0028897111624 -3652.6392107607753 0 -3652.6392107607753 2731.3018191349693 0 0 0 0 6.4979477837023971 -16.834234334774493 0 -16.834234334774493 34.483745281440974 0 0 0 0 -2469.0244183616305 195.05472217126226 0 195.05472217126226 1177.6939518482541 0 0 0 0 8621.7109590062064 -2810.8404464257692 0 -2810.8404464257692 635.47089595760917 0 0 0 0 3375.6474424300686 -1086.95390896764 0 -1086.95390896764 428.98198342304386 0 0 0 0 3776.7424073881702 -1600.6171420612663 0 -1600.6171420612663 578.44953873407212 0 0 0 0 2408.903519358435 -1540.012379201944 0 -1540.012379201944 624.56249779334757 0 0 0 0 -2754.6958729973776 -388.09174269240793 0 -388.09174269240793 1050.942924513045 0 0 0 0 7.3936792122759201 -46.749931410852923 0 -46.749931410852923 84.765814217209538 0 0 0 0 3240.1225866634486 -1049.1733341451109 0 -1049.1733341451109 579.28486564864579 0 0 0 0 3182.7868829055587 -1398.4465899104543 0 -1398.4465899104543 668.94106995040784 0 0 0 0 235.00902495066111 863.77238286300417 0 863.77238286300417 -385.12019088948728 0 0 0 0 2212.4879633587261 -1124.2568419693271 0 -1124.2568419693271 506.12204182575169 0 0 0 0 1281.0127270167577 -1777.7909170119092 0 -1777.7909170119092 579.60861597128678 0 0 0 0 2052.5608479611255 -967.2454942278855 0 -967.2454942278855 684.72292377505801 0 0 0 0 2918.0857055505767 -816.31907039450016 0 -816.31907039450016 528.38855327671627 0 0 0 0 214.48234991575009 -682.01224324909708 0 -682.01224324909708 1108.7094921797398 0 0 0 0 13.716694176887472 -9.6645024227870522 0 -9.6645024227870522 7.9895847206052508 0 0 0 0 -1748.5859579052485 -1265.2863369919796 0 -1265.2863369919796 1170.3415574351529 0 0 0 0 -959.68937324507624 -576.46200972028782 0 -576.46200972028782 -180.06137857004069 0 0 0 0 -937.01568701743963 -110.6461689134012 0 -110.6461689134012 -589.76769606856396 0 0 0 0 -470.85118907011929 -521.87358352169394 0 -521.87358352169394 -734.77876797374483 0 0 0 0 -208.36727679948672 -1008.5997526209103 0 -1008.5997526209103 -382.56344843954867 0 0 0 0 541.30999315509689 -1525.2571504527441 0 -1525.2571504527441 203.93727639090503 0 0 0 0 1694.2386202711059 -491.04283700251108 0 -491.04283700251108 -650.55052413567319 0 0 0 0 1019.6880299258846 350.52071275632625 0 350.52071275632625 -298.22391334100394 0 0 0 0 305.78039040447038 -499.84089711632987 0 -499.84089711632987 -583.65383979062608 0 0 0 0 516.93290029132913 -207.55578534024244 0 -207.55578534024244 -237.65199607354589 0 0 0 0 334.3159065990767 -554.30406419481733 0 -554.30406419481733 -546.52189081773395 0 0 0 0 -467.42355371263693 -815.24575227839523 0 -815.24575227839523 -405.88609516108409 0 0 0 0 -28.322698838790529 -506.07092549436493 0 -506.07092549436493 -230.53005738588035 0 0 0 0 -364.25813931197627 -421.73353463484091 0 -421.73353463484091 -219.14140908370609 0 0 0 0 305.18350083683617 -125.48029652537662 0 -125.48029652537662 -64.26127847484895 0 0 0 0 -369.20605963037087 25.832735796437191 0 25.832735796437191 46.589096009091008 0 0 0 0 50.548576169539558 -44.265567743536963 0 -44.265567743536963 -151.25836938497119 0 0 0 0 412.25070462096846 -527.44570820605441 0 -527.44570820605441 -220.34594123651914 0 0 0 0 2121.7414835726158 -360.91941971238703 0 -360.91941971238703 329.07979704934405 0 0 0 0 1585.6054619194765 -942.64648599254724 0 -942.64648599254724 646.55783524052822 0 0 0 0 1661.7469484966423 -1008.3795497959072 0 -1008.3795497959072 680.40418698100257 0 0 0 0 6.8405115323254542 -55.874853126013647 0 -55.874853126013647 105.94366373374891 0 0 0 0 1.3291767946052389 -8.3509364855090098 0 -8.3509364855090098 4.4468649965530744 0 0 0 0 -280.85877516689652 -35.284793802296917 0 -35.284793802296917 118.31903556364705 0 0 0 0 -997.06580767448759 -504.10005870790337 0 -504.10005870790337 25.027732710790588 0 0 0 0 2834.7634060437413 -832.71035222173668 0 -832.71035222173668 270.9353097773128 0 0 0 0 1685.9841456209833 -185.12638574765879 0 -185.12638574765879 -152.73806628408784 0 0 0 0 0.82979204486167291 -12.834622370250429 0 -12.834622370250429 12.475464035177595 0 0 0 0 -254.95652046147734 -85.590173014759785 0 -85.590173014759785 200.19683769259427 0 0 0 0 1630.0831293539959 -95.004683317434683 0 -95.004683317434683 -271.61941050884343 0 0 0 0 1403.482159693318 -165.08660188181966 0 -165.08660188181966 313.67730181368552 0 0 0 0 1255.4359031532949 74.102122817326745 0 74.102122817326745 -44.437605076178443 0 0 0 0 607.32973369759566 -767.43594475844657 0 -767.43594475844657 901.95122446032474 0 0 0 0 -388.51974263778538 291.77182786884441 0 291.77182786884441 -108.95509656709328 0 0 0 0 2.5239993702490011 -11.280062846691521 0 -11.280062846691521 4.6011005141764372 0 0 0 0 -2866.0881597252883 -1074.5449481776814 0 -1074.5449481776814 2145.880878101103 0 0 0 0 1338.663866462477 -760.80757319285476 0 -760.80757319285476 -1355.5007882495993 0 0 0 0 201.61091086894885 -2947.5592689787336 0 -2947.5592689787336 3282.0003053793625 0 0 0 0 3.4578250354063584 -5.0918807352080933 0 -5.0918807352080933 0.0032263996237986703 0 0 0 0 106.59236285067163 -1972.2094735894352 0 -1972.2094735894352 4123.2478504976607 0 0 0 0 4.9023413017996518 -10.792972448341516 0 -10.792972448341516 -1.5164169987279763 0 0 0 0 423.6976933607657 -1511.0601220382814 0 -1511.0601220382814 2133.0598203241971 0 0 0 0 200.20707083281013 -934.21897246167646 0 -934.21897246167646 815.25365100742783 0 0 0 0 703.54223272184026 -1808.3431599789401 0 -1808.3431599789401 4093.0580859818238 0 0 0 0 1269.7776356427421 -1736.2956328782566 0 -1736.2956328782566 1608.0906302730873 0 0 0 0 3103.933600490418 -1367.2843186262398 0 -1367.2843186262398 541.94312115182402 0 0 0 0 436.22576436205418 -1066.9010900304638 0 -1066.9010900304638 1124.8328454572329 0 0 0 0 433.87258380638377 -1152.1643959705107 0 -1152.1643959705107 -835.17838014209337 0 0 0 0 1.0650535794392795 -5.6752554758414817 0 -5.6752554758414817 1.6026194603030461 0 0 0 0 306.13742435592576 -1642.7067700003026 0 -1642.7067700003026 4253.6225477351472 0 0 0 0 1.2753818163473625 -2294.7962883247455 0 -2294.7962883247455 3057.4975027892797 0 0 0 0 559.34174432777218 -1811.9711170395603 0 -1811.9711170395603 2375.2969210762749 0 0 0 0 738.6828689853719 -1704.7142369273388 0 -1704.7142369273388 2233.7257777049672 0 0 0 0 786.76190828598919 -2150.1569308383769 0 -2150.1569308383769 2253.4437625018177 0 0 0 0 2.8696149201026331 -2927.0511379777472 0 -2927.0511379777472 2345.7786102123646 0 0 0 0 613.28820990695385 -2598.5705423644104 0 -2598.5705423644104 2269.9190040386893 0 0 0 0 877.2771759411844 -2007.9360766665704 0 -2007.9360766665704 2458.8757609533204 0 0 0 0 872.07797176079475 -2887.1650318795801 0 -2887.1650318795801 1981.5063379221829 0 0 0 0 1343.1945742003445 -2727.5216252511018 0 -2727.5216252511018 1398.4796296694112 0 0 0 0 1199.5394568899064 -2417.1709818212912 0 -2417.1709818212912 1235.2358514609441 0 0 0 0 1879.1794632052297 -2384.8150814873989 0 -2384.8150814873989 926.48166090299492 0 0 0 0 2161.976839447394 -1382.215198447142 0 -1382.215198447142 598.39971265816712 0 0 0 0 1702.2395254169678 -2076.9082709173017 0 -2076.9082709173017 -449.38665984640829 0 0 0 0 855.96517365856562 -1852.9755425629264 0 -1852.9755425629264 761.75159340497339 0 0 0 0 1137.2287463447428 -2208.9645768578921 0 -2208.9645768578921 653.88367493145415 0 0 0 0 736.42787643981865 -2205.4772190775839 0 -2205.4772190775839 1554.9890843018948 0 0 0 0 792.99675145691072 -2109.5559079375435 0 -2109.5559079375435 1399.5750508582278 0 0 0 0 -153.51495563154458 -196.96660439742845 0 -196.96660439742845 284.1817269263629 0 0 0 0 -248.01741065554961 -364.7413700894831 0 -364.7413700894831 158.87450760789216 0 0 0 0 -204.38718788789447 -180.77085576103491 0 -180.77085576103491 468.36234727766714 0 0 0 0 -61.034879969520262 -194.88872962578898 0 -194.88872962578898 344.25934870031779 0 0 0 0 -313.52325891159126 -318.32068000342406 0 -318.32068000342406 16.488740747314296 0 0 0 0 -367.23518020576739 -464.17893494313466 0 -464.17893494313466 222.53075920353876 0 0 0 0 -309.76994682131044 -430.93352388407948 0 -430.93352388407948 145.30626554984337 0 0 0 0 -261.03330209787237 -377.22318211130914 0 -377.22318211130914 185.06954789375595 0 0 0 0 -261.1582267793035 -381.62397560458339 0 -381.62397560458339 161.99371356985648 0 0 0 0 -295.66689323804985 -220.53975273198375 0 -220.53975273198375 52.648622947948752 0 0 0 0 -198.69088589800958 -417.41154909381294 0 -417.41154909381294 31.037474149547052 0 0 0 0 -270.42215349951584 -270.43727424859571 0 -270.43727424859571 -250.50133564279531 0 0 0 0 -826.54861149906355 -174.37207568896702 0 -174.37207568896702 -73.24122930473095 0 0 0 0 -296.0531832183915 -392.50588012543449 0 -392.50588012543449 -141.3103466508619 0 0 0 0 -3.2934257853929125 0.10382304512819474 0 0.10382304512819474 -3.8508363711266043 0 0 0 0 -709.51021256948479 338.08579496295624 0 338.08579496295624 -552.53402624034788 0 0 0 0 -614.89985224030534 -316.42830364921247 0 -316.42830364921247 121.6689611931215 0 0 0 0 -614.25242691877065 -52.48897414811654 0 -52.48897414811654 -179.06134398281574 0 0 0 0 87.75962772731873 -266.08223311580514 0 -266.08223311580514 -0.4992968567457865 0 0 0 0 79.810972233419307 -160.39206259437196 0 -160.39206259437196 155.74808150792887 0 0 0 0 -264.863426986587 -42.406757355551235 0 -42.406757355551235 -926.88354484704905 0 0 0 0 137.28390190139908 -275.30605033917163 0 -275.30605033917163 192.78418136414257 0 0 0 0 68.553776259883307 29.072020355422865 0 29.072020355422865 113.71362097602105 0 0 0 0 1021.7456831394811 1477.3939204170747 0 1477.3939204170747 1951.9637006597477 0 0 0 0 1.8184498313453048 -25.765236673364143 0 -25.765236673364143 -7.4785086217914341 0 0 0 0 -1925.7960156969493 -1308.8260511604894 0 -1308.8260511604894 1848.0280099163647 0 0 0 0 -239.43423994051409 -553.49109414641862 0 -553.49109414641862 -880.19885084161615 0 0 0 0 -377.91059552194201 -719.51561750774272 0 -719.51561750774272 -12.257309549575439 0 0 0 0 -358.14711807136382 -146.86206147511712 0 -146.86206147511712 728.65919628960546 0 0 0 0 173.29107660557929 28.94430186124373 0 28.94430186124373 400.86034659832512 0 0 0 0 -26.224374866345897 1105.6944550315893 0 1105.6944550315893 1673.4797302261672 0 0 0 0 8.0500279433193214 -10.928363680027388 0 -10.928363680027388 17.218237395718802 0 0 0 0 -368.64221015089424 -723.59923047134362 0 -723.59923047134362 -386.68242641576944 0 0 0 0 417.73123021208812 -489.46628527745952 0 -489.46628527745952 -752.45630689550308 0 0 0 0 441.92028355819639 42.933228189853253 0 42.933228189853253 -413.49340224044863 0 0 0 0 889.00476602742856 -739.44904219079763 0 -739.44904219079763 2.796518267338127 0 0 0 0 88.918370043655557 -4.3912521831936147 0 -4.3912521831936147 -70.712647009506213 0 0 0 0 131.64581980239018 -1.6204532384872437 0 -1.6204532384872437 1.5192043960341834 0 0 0 0 750.01132478126237 -340.45133672696829 0 -340.45133672696829 113.78247099278451 0 0 0 0 36.633312448717334 -34.685785930436396 0 -34.685785930436396 329.17581574767246 0 0 0 0 13.656742760215494 -3.6451314467635285 0 -3.6451314467635285 1.1400347990214073 0 0 0 0 659.54085296948597 -454.13981896482892 0 -454.13981896482892 509.76656004349934 0 0 0 0 16.900925693167665 -242.51801284892281 0 -242.51801284892281 469.75898881279863 0 0 0 0 632.21502152137691 -586.57960470269609 0 -586.57960470269609 179.42506625817623 0 0 0 0 362.81769911384254 -541.65614730200832 0 -541.65614730200832 523.36015071992006 0 0 0 0 372.7295071723056 -554.61888268135226 0 -554.61888268135226 883.96870700916406 0 0 0 0 433.72744940529083 -561.50811719657213 0 -561.50811719657213 434.71173380657274 0 0 0 0 377.49002865133662 -351.9106356155753 0 -351.9106356155753 104.55435144115472 0 0 0 0 220.34133993452997 -328.84169733675662 0 -328.84169733675662 383.22044070433003 0 0 0 0 496.35497603068507 -607.27135445367821 0 -607.27135445367821 456.46384838364611 0 0 0 0 -25.884820513187151 -149.97859280634657 0 -149.97859280634657 358.60240648267791 0 0 0 0 126.95217443975707 -14.218026843038388 0 -14.218026843038388 -31.306370675258222 0 0 0 0 241.83107380123693 -206.75198098274268 0 -206.75198098274268 -96.280370190055692 0 0 0 0 50.439808561614711 -15.967346784978901 0 -15.967346784978901 -44.135226052255035 0 0 0 0 159.0114716225944 -198.135419977938 0 -198.135419977938 -388.40573367626348 0 0 0 0 149.49538806977216 14.503842204649118 0 14.503842204649118 -273.63437085640908 0 0 0 0 62.166604655534854 -52.88596803942022 0 -52.88596803942022 -146.41577008486593 0 0 0 0 170.32845657138387 -414.87289467956725 0 -414.87289467956725 166.21896607847884 0 0 0 0 252.22974328324199 -636.43630461195789 0 -636.43630461195789 222.92914056198788 0 0 0 0 -43.446352966231643 -372.29747077026695 0 -372.29747077026695 232.83959696518286 0 0 0 0 93.037239717712509 -357.65577778236184 0 -357.65577778236184 233.86908365943236 0 0 0 0 53.765856430458371 -227.21926416881251 0 -227.21926416881251 248.94295714291366 0 0 0 0 -31.676675079162123 -263.01261635926289 0 -263.01261635926289 322.52747486615408 0 0 0 0 44.230725490226177 -89.825386888529465 0 -89.825386888529465 -41.449528269788971 0 0 0 0 1054.5278736505716 -440.23205689582392 0 -440.23205689582392 -10.245280483868555 0 0 0 0 26.165967669223846 -5.2968466315921177 0 -5.2968466315921177 5.2617902724540357 0 0 0 0 58.963006113990559 -287.22205079942796 0 -287.22205079942796 746.79400650217576 0 0 0 0 500.59567658349988 -859.43397406419535 0 -859.43397406419535 1478.76408083977 0 0 0 0 136.36541923646291 161.45344076908805 0 161.45344076908805 30.636140511101985 0 0 0 0 124.62645790103124 38.374108019714186 0 38.374108019714186 -136.90139837856987 0 0 0 0 166.58700044822763 -47.207034512633982 0 -47.207034512633982 -191.71516964888724 0 0 0 0 48.250106812891318 -273.65852784086746 0 -273.65852784086746 179.80845678100013 0 0 0 0 80.428167638362538 -19.509140296831589 0 -19.509140296831589 -43.258009757726597 0 0 0 0 53.369827135192224 -43.837070833112477 0 -43.837070833112477 -112.48261838549655 0 0 0 0 192.18966880904918 -207.33554228334469 0 -207.33554228334469 -146.79499022449454 0 0 0 0 220.56975965810125 65.553217323431454 0 65.553217323431454 -298.13373187049001 0 0 0 0 89.798506962041827 -118.2849227450528 0 -118.2849227450528 59.983287232668488 0 0 0 0 -175.98951724036306 -247.49138934742223 0 -247.49138934742223 -162.98465349349863 0 0 0 0 -177.23203868641576 -189.23741473288101 0 -189.23741473288101 -94.126412285186234 0 0 0 0 -181.23485732023255 -628.57077686331104 0 -628.57077686331104 -124.87758591742022 0 0 0 0 -303.99830966136869 -297.99834312389248 0 -297.99834312389248 -63.178535294515314 0 0 0 0 -135.3838940703281 -228.43909564310889 0 -228.43909564310889 71.007607181905769 0 0 0 0 -85.462888709200342 -261.58874910663872 0 -261.58874910663872 -63.804133677418577 0 0 0 0 -78.973241166298976 -302.66616287997749 0 -302.66616287997749 0.38247619046887849 0 0 0 0 -146.98247520931181 -373.9837288677154 0 -373.9837288677154 -24.074478181952145 0 0 0 0 -53.54231039511069 -528.92613351986802 0 -528.92613351986802 -64.459288566140458 0 0 0 0 181.17233680778008 -336.04421259113587 0 -336.04421259113587 -29.599036071595037 0 0 0 0 71.796606009811512 -234.32791076853755 0 -234.32791076853755 6.8554072124534287 0 0 0 0 411.34300632495797 -2360.0228041552241 0 -2360.0228041552241 396.1279852068692 0 0 0 0 85.351761155242187 -124.5244393940558 0 -124.5244393940558 98.781001631375659 0 0 0 0 221.05785458763421 165.21332220828117 0 165.21332220828117 -116.54997708323936 0 0 0 0 -137.38172962841054 -245.71950915407069 0 -245.71950915407069 -51.127244391776912 0 0 0 0 -1650.4530576907127 192.9781347948956 0 192.9781347948956 584.42303236191219 0 0 0 0 229.23585734012886 2059.5467863699305 0 2059.5467863699305 -18.268063670199808 0 0 0 0 2077.212553946214 -215.14859830439673 0 -215.14859830439673 -182.55597899228451 0 0 0 0 38.974409882415785 95.294217999027751 0 95.294217999027751 -221.64706365005623 0 0 0 0 -343.52041395417473 -49.204404721029277 0 -49.204404721029277 -94.338941526177223 0 0 0 0 56.734929338330403 272.90675684604503 0 272.90675684604503 -227.25869120151947 0 0 0 0 80.219155805422133 -130.41964830937491 0 -130.41964830937491 105.55785191021397 0 0 0 0 81.762384749199555 -181.88731500785798 0 -181.88731500785798 100.84221043638536 0 0 0 0 162.23873199824448 -83.662262175988872 0 -83.662262175988872 84.887607319338713 0 0 0 0 82.64952587299922 -208.88081900063844 0 -208.88081900063844 91.950302969693439 0 0 0 0 -18.255072113446658 -152.14084796329553 0 -152.14084796329553 71.867829471157165 0 0 0 0 292.2801554568141 -241.06947405874962 0 -241.06947405874962 23.063350573938806 0 0 0 0 65.119640235478073 -287.18367964354002 0 -287.18367964354002 48.091782805451658 0 0 0 0 -742.57845762148281 -243.14400942897919 0 -243.14400942897919 -147.38659088514396 0 0 0 0 536.41984199107537 -259.52700432328857 0 -259.52700432328857 -116.77672937276657 0 0 0 0 -8.2702443847742018 -15.49702263514564 0 -15.49702263514564 4.2298570051091247 0 0 0 0 318.28304868570012 -96.470569935758249 0 -96.470569935758249 20.894149098283378 0 0 0 0 30.234154547118237 -61.898692489881796 0 -61.898692489881796 2.946196516809124 0 0 0 0 -395.92696333007189 -268.03455240605945 0 -268.03455240605945 -34.620812435110565 0 0 0 0 -371.39408296551846 -204.20800042235351 0 -204.20800042235351 -27.684746354832896 0 0 0 0 -73.463196804320461 -56.541737085076875 0 -56.541737085076875 19.384836026368845 0 0 0 0 0.9781345140988833 -43.24115360199999 0 -43.24115360199999 39.158918158564063 0 0 0 0 -827.26157614428303 -440.4522451602752 0 -440.4522451602752 -35.141111934906803 0 0 0 0 20.595359022207333 -64.282382906193845 0 -64.282382906193845 76.904053704481839 0 0 0 0 -25.029238125956908 -91.570839841477209 0 -91.570839841477209 121.85857571475208 0 0 0 0 -974.04470436190604 -385.15698166820221 0 -385.15698166820221 -41.182307633658638 0 0 0 0 -27.71624018483999 -112.37023597844382 0 -112.37023597844382 140.53453058446757 0 0 0 0 -23.088897274414194 -105.91582019321504 0 -105.91582019321504 134.8492462822469 0 0 0 0 -33.190396505593526 -94.645985812021536 0 -94.645985812021536 122.39341524674091 0 0 0 0 -36.180023347202223 -107.2268163827539 0 -107.2268163827539 141.13450233929325 0 0 0 0 -48.9731969892091 -93.494223550369497 0 -93.494223550369497 138.21772208681796 0 0 0 0 -53.669602185982512 -82.849899539840408 0 -82.849899539840408 131.65128766209818 0 0 0 0 -37.867918645744794 -72.202787862333935 0 -72.202787862333935 125.0677771398332 0 0 0 0 -23.228051240788773 -87.65832414511533 0 -87.65832414511533 93.713497116637882 0 0 0 0 -77.285247078394605 -57.782878253568924 0 -57.782878253568924 120.11112099775346 0 0 0 0 -69.844683483675908 -88.69372729182578 0 -88.69372729182578 127.19270192098338 0 0 0 0 -47.415902413602453 -38.243903943759506 0 -38.243903943759506 126.27563923335401 0 0 0 0 -15.300277211179491 -14.719902779557742 0 -14.719902779557742 122.96881804853911 0 0 0 0 -36.934985903295456 -41.750664227205561 0 -41.750664227205561 106.60837155644549 0 0 0 0 -15.733029293158324 -47.199343819636852 0 -47.199343819636852 107.93928942529601 0 0 0 0 -39.353331920137862 -65.287792492970766 0 -65.287792492970766 94.512260928226169 0 0 0 0 -1266.1211816763389 281.54419649395277 0 281.54419649395277 -322.67048946279101 0 0 0 0 211.33887694534315 -531.69669985690052 0 -531.69669985690052 -66.828282608126756 0 0 0 0 969.76266547117848 -872.83654770121211 0 -872.83654770121211 -291.71000543498667 0 0 0 0 0.61196122835826827 -62.317622122296598 0 -62.317622122296598 63.642186794080772 0 0 0 0 72.553450261635589 -14.040505919037969 0 -14.040505919037969 92.393022604985163 0 0 0 0 46.616550539620221 -39.574008802475873 0 -39.574008802475873 72.936855811538408 0 0 0 0 71.102549451141385 101.81762864610937 0 101.81762864610937 261.26180569655844 0 0 0 0 39.997011307947105 8.2716145999293076 0 8.2716145999293076 131.72964576689992 0 0 0 0 -76.230582643460366 -36.597502052201889 0 -36.597502052201889 453.93066563251341 0 0 0 0 22.662434747497343 -32.959488989421622 0 -32.959488989421622 54.231846605902263 0 0 0 0 -101.49275292233324 -148.47487128259309 0 -148.47487128259309 149.48514653882012 0 0 0 0 -123.87409804457275 -83.996929629560327 0 -83.996929629560327 149.19360792008229 0 0 0 0 -92.381801972958783 -122.7624706069837 0 -122.7624706069837 63.05644170375308 0 0 0 0 -68.056417676649289 -14.442815019952832 0 -14.442815019952832 215.44885664965841 0 0 0 0 45.311102648050678 -110.10567678785675 0 -110.10567678785675 57.22761924683644 0 0 0 0 -680.01622670246797 -429.57054994828286 0 -429.57054994828286 -83.923445474152686 0 0 0 0 -592.78256570292433 -715.05637284861223 0 -715.05637284861223 848.95456332095637 0 0 0 0 263.75386403061566 1463.492464887473 0 1463.492464887473 -263.87689148657228 0 0 0 0 -934.46281510380686 879.85734872292232 0 879.85734872292232 -485.38781045659562 0 0 0 0 -636.67634830315365 -503.9238193589772 0 -503.9238193589772 -108.71852792834397 0 0 0 0 -14.737023369356017 4.2806371848441032 0 4.2806371848441032 0.71652134267384326 0 0 0 0 -46.662422132968572 -64.385346249476669 0 -64.385346249476669 -22.281792977962539 0 0 0 0 33.163622317921579 -145.839883136705 0 -145.839883136705 57.811487020197092 0 0 0 0 9.5425592561231625 -65.09682567205229 0 -65.09682567205229 53.005518716516235 0 0 0 0 33.410261743738062 -69.971803400293226 0 -69.971803400293226 19.733498890759876 0 0 0 0 -117.94902167849796 -272.67581329326276 0 -272.67581329326276 -83.140104957215954 0 0 0 0 -271.68441374239046 -138.5903274597149 0 -138.5903274597149 8.4109606020792853 0 0 0 0 0.91133931014337577 -102.61097383203742 0 -102.61097383203742 70.135728672008554 0 0 0 0 -10.238140922847293 -43.766911861678892 0 -43.766911861678892 -6.1471492817302646 0 0 0 0 703.79106983946986 -84.434472243767232 0 -84.434472243767232 -487.82976037914557 0 0 0 0 1257.3479261827306 -1253.3463627656456 0 -1253.3463627656456 -6596.29406516155 0 0 0 0 422.48590141277236 1424.2028003693849 0 1424.2028003693849 -320.98484134812315 0 0 0 0 -341.01577109405298 -259.41675557772942 0 -259.41675557772942 42.530875367781846 0 0 0 0 104.45307477039387 -307.29150640441367 0 -307.29150640441367 -873.58304771891562 0 0 0 0 31.623095027678573 -46.152199901208405 0 -46.152199901208405 -102.56928340074955 0 0 0 0 -395.85758415509554 -358.61360392480128 0 -358.61360392480128 253.9281476532633 0 0 0 0 -353.49064659076248 -229.66109406557371 0 -229.66109406557371 -15.454090927669313 0 0 0 0 -356.67423195792071 -247.51869801122302 0 -247.51869801122302 55.288918434060179 0 0 0 0 8.350013102691598 -66.571707148842904 0 -66.571707148842904 41.785376895786555 0 0 0 0 -42.828987487024278 -109.37064651074616 0 -109.37064651074616 35.954133201306831 0 0 0 0 -107.46092612866778 -86.611251540627563 0 -86.611251540627563 58.330332439771155 0 0 0 0 -320.12531186586421 -230.75134470102785 0 -230.75134470102785 -16.301313126772584 0 0 0 0 -225.46563757702825 -177.08848224243047 0 -177.08848224243047 -1.389848272112431 0 0 0 0 13.356466792567517 -182.31601357665932 0 -182.31601357665932 -44.463223912161993 0 0 0 0 63.681607725389767 -116.44787112678023 0 -116.44787112678023 -81.507503239787184 0 0 0 0 58.648426397697193 -85.501024501495124 0 -85.501024501495124 44.07843049154161 0 0 0 0 30.868559944945446 -152.61314709293583 0 -152.61314709293583 32.04268105677329 0 0 0 0 -11.119893414316891 -43.820652796122744 0 -43.820652796122744 13.277660572539659 0 0 0 0 21.748184598123771 -250.40729666462721 0 -250.40729666462721 -256.91369870752533 0 0 0 0 43.5097981140716 -108.04724399034967 0 -108.04724399034967 -89.136416987632401 0 0 0 0 1.6179112580284709 -315.65206198905071 0 -315.65206198905071 -115.37761546844558 0 0 0 0 -36.488375751068816 -298.29141437243015 0 -298.29141437243015 -75.103804432783363 0 0 0 0 -104.51090182359621 -366.68299503620074 0 -366.68299503620074 -131.17146652355768 0 0 0 0 -59.462291088071652 -272.20464354414798 0 -272.20464354414798 47.130432070327515 0 0 0 0 -190.53477442936855 -362.93148320959517 0 -362.93148320959517 199.25712923599349 0 0 0 0 -176.34877031177166 -256.42542672202399 0 -256.42542672202399 -3.1673305849435565 0 0 0 0 -185.14972644593217 -500.8929559153803 0 -500.8929559153803 -53.801710470106627 0 0 0 0 -44.817455011565471 -439.80438908064389 0 -439.80438908064389 -430.70185636830865 0 0 0 0 -187.0997553334455 -408.35574757923314 0 -408.35574757923314 -91.282037553955888 0 0 0 0 40.446669507131446 -126.38684481281962 0 -126.38684481281962 -317.68221473806261 0 0 0 0 37.557669223075209 -151.80763962023548 0 -151.80763962023548 -271.83026511882781 0 0 0 0 171.40649493828823 -118.1706066590632 0 -118.1706066590632 -88.141621183953248 0 0 0 0 -21.588902135889668 -7.0816824484728613 0 -7.0816824484728613 -4.7284935935856964 0 0 0 0 130.45301647634187 -369.80894907053516 0 -369.80894907053516 222.01806537394077 0 0 0 0 -321.23084100920823 -232.73936486526509 0 -232.73936486526509 277.03477281246887 0 0 0 0 37.928653786343602 -176.55429173529001 0 -176.55429173529001 -1280.6247290547763 0 0 0 0 -271.00690436837613 -674.39765188498495 0 -674.39765188498495 -630.36929499698454 0 0 0 0 -5.6259264551621868 -4.4082264523604522 0 -4.4082264523604522 -3.0333020534677786 0 0 0 0 278.11380536439538 -365.35433341169846 0 -365.35433341169846 -853.24485489363724 0 0 0 0 -286.89169950127143 -739.14330822275929 0 -739.14330822275929 -46.385528916463954 0 0 0 0 275.38799043682229 -415.70731339818121 0 -415.70731339818121 -164.44321326706267 0 0 0 0 455.5363744921051 -270.16134403242177 0 -270.16134403242177 -435.6675284416342 0 0 0 0 478.89493589234189 -149.92847055948005 0 -149.92847055948005 -354.15694185374014 0 0 0 0 270.97615025908453 -269.65089104295475 0 -269.65089104295475 -169.10846236479119 0 0 0 0 75.231170703758835 -189.43416442261514 0 -189.43416442261514 -196.05049466922355 0 0 0 0 314.61510676988109 -66.260083456898428 0 -66.260083456898428 -382.31421658919135 0 0 0 0 -474.01327300864796 -505.71291163380738 0 -505.71291163380738 -79.23562792960729 0 0 0 0 -40.939246422625729 4.1219798975107551 0 4.1219798975107551 -378.40395314231137 0 0 0 0 194.24726054280472 -626.76144961970203 0 -626.76144961970203 366.7939750184014 0 0 0 0 539.91972989070928 -174.4407689924883 0 -174.4407689924883 -144.74054535258074 0 0 0 0 405.32637817563955 -105.54374338617708 0 -105.54374338617708 197.21757723789779 0 0 0 0 255.45085136019043 -561.58806314925459 0 -561.58806314925459 584.78592363704229 0 0 0 0 414.49460643184648 -942.02652453526389 0 -942.02652453526389 202.50776885976666 0 0 0 0 -217.42561267969722 -75.637950870514032 0 -75.637950870514032 739.7829282994644 0 0 0 0 4.3810734924916233 -3.6079587510255706 0 -3.6079587510255706 4.5014297895980349 0 0 0 0 365.34012537100352 -558.18468145679799 0 -558.18468145679799 -231.39680487805163 0 0 0 0 -2.7170248385518789 -223.8956626761792 0 -223.8956626761792 -229.87090614520011 0 0 0 0 55.335478580493145 -654.86136388653222 0 -654.86136388653222 74.385352735465858 0 0 0 0 401.40333347785054 -754.59583873643714 0 -754.59583873643714 -25.297594350122381 0 0 0 0 227.28372821112862 -683.70008699503524 0 -683.70008699503524 41.874497984455957 0 0 0 0 -114.88801806003903 -370.80079596558062 0 -370.80079596558062 141.04458177203196 0 0 0 0 -109.30534392970731 -419.33804278786556 0 -419.33804278786556 7.1565581223403569 0 0 0 0 -162.36154716802412 -81.164277587420656 0 -81.164277587420656 -73.466395984925839 0 0 0 0 -65.006783059405279 -194.74833624291932 0 -194.74833624291932 -4.3937102693016641 0 0 0 0 -607.16348198488413 -33.511533169428731 0 -33.511533169428731 -15.544952268275665 0 0 0 0 -348.27407405572012 45.994799180065456 0 45.994799180065456 -274.26574132241512 0 0 0 0 -218.83298920714878 -128.45834184921841 0 -128.45834184921841 -81.288762847994803 0 0 0 0 -133.00956286653309 -296.46623585784255 0 -296.46623585784255 -386.84070327109657 0 0 0 0 -486.53677993800375 -375.13238298733995 0 -375.13238298733995 -19.768417368060909 0 0 0 0 -505.131282921413 -58.087915781623224 0 -58.087915781623224 -8.8143540182063589 0 0 0 0 6.9677902269318679 -7.5498085979111806 0 -7.5498085979111806 -5.0102772446890356 0 0 0 0 -443.48072581237648 -353.64815316931708 0 -353.64815316931708 -126.29514154929348 0 0 0 0 28.975617748626973 -152.52988762043242 0 -152.52988762043242 -386.27021464010613 0 0 0 0 72.248179375063046 -41.346843650575465 0 -41.346843650575465 -101.59057687783206 0 0 0 0 -22.875817681648186 -34.742384348972337 0 -34.742384348972337 -17.155121223549941 0 0 0 0 -149.70103610639489 -365.17334440633567 0 -365.17334440633567 -172.69124510866095 0 0 0 0 63.56553111485033 -31.828898406341999 0 -31.828898406341999 -19.830171218452136 0 0 0 0 -206.78343199040864 -188.18639846712222 0 -188.18639846712222 69.656216792864143 0 0 0 0 -58.761197861922938 -53.304324151579465 0 -53.304324151579465 -31.348199465923102 0 0 0 0 -216.70195114976377 -241.88663166864353 0 -241.88663166864353 65.781275025998184 0 0 0 0 2.5047885395950402 -17.553814260101056 0 -17.553814260101056 4.9247475783527079 0 0 0 0 -213.22253246093169 -192.20363873429596 0 -192.20363873429596 86.440868770490852 0 0 0 0 -118.06553598295432 -226.60839645495435 0 -226.60839645495435 76.540453755420458 0 0 0 0 -212.3906238750933 -221.16307194514775 0 -221.16307194514775 191.57101974935358 0 0 0 0 -72.059059951928475 -44.486124061835397 0 -44.486124061835397 -31.763964482321484 0 0 0 0 -101.48576647115988 -326.83696037815389 0 -326.83696037815389 62.616639336963999 0 0 0 0 81.72989086802545 -421.8981303508881 0 -421.8981303508881 -31.948245509265689 0 0 0 0 68.69419859278014 16.859842717528466 0 16.859842717528466 179.20778786722803 0 0 0 0 -25.466894474404398 -500.5823331221618 0 -500.5823331221618 207.79967494359175 0 0 0 0 -133.07826928004943 -319.09230466903682 0 -319.09230466903682 -96.365678365298663 0 0 0 0 -40.162040853989311 -457.86907118425006 0 -457.86907118425006 -415.3842941946059 0 0 0 0 39.831154907878954 -95.773578248175909 0 -95.773578248175909 -928.1903541699503 0 0 0 0 64.470250650811408 -30.709103911524572 0 -30.709103911524572 -18.660936555085385 0 0 0 0 41.689657806564355 -140.31162309840875 0 -140.31162309840875 -402.43045107747594 0 0 0 0 -185.19991874966945 -716.47403814815334 0 -716.47403814815334 94.14310037910036 0 0 0 0 -142.18071973939368 -433.98683382145828 0 -433.98683382145828 -532.74184082889042 0 0 0 0 209.8297121545038 -101.4410672187696 0 -101.4410672187696 4.769742709788261 0 0 0 0 12.30472406057649 -6.1827621064862797 0 -6.1827621064862797 -9.9597738887528067 0 0 0 0 -244.61173380466062 -614.4713394062419 0 -614.4713394062419 -593.95430724501421 0 0 0 0 -172.19582905179868 29.653120016468165 0 29.653120016468165 -78.238296978510334 0 0 0 0 1.5280021757155566 -3.0845904628846625 0 -3.0845904628846625 5.3413797567284576 0 0 0 0 456.86230594086192 99.515109967621356 0 99.515109967621356 -192.85469123868097 0 0 0 0 338.52387950428238 -412.68175979437365 0 -412.68175979437365 -158.65807253951789 0 0 0 0 -0.41022542432619957 -272.3893796399625 0 -272.3893796399625 -215.23523609733093 0 0 0 0 -382.43385619466426 -175.75836992822951 0 -175.75836992822951 -131.14514507360218 0 0 0 0 -466.93885322189453 -222.51667001903843 0 -222.51667001903843 103.52623514487641 0 0 0 0 -171.74474680623098 -479.14887117251419 0 -479.14887117251419 -127.08484293751826 0 0 0 0 4.8690345186312243 -10.617930603985712 0 -10.617930603985712 15.921279193062617 0 0 0 0 -437.51756966787798 -265.45407424071527 0 -265.45407424071527 -61.575750820502435 0 0 0 0 -370.62374068803911 -215.00433158622764 0 -215.00433158622764 -17.632664471580938 0 0 0 0 -430.86496627853194 -248.44570134688183 0 -248.44570134688183 13.938022934657056 0 0 0 0 70.572857527830593 -86.934250412971906 0 -86.934250412971906 28.067224042213013 0 0 0 0 -395.23645216352088 -228.71303474438355 0 -228.71303474438355 -9.4687203378707636 0 0 0 0 -301.76062325391104 -415.42650765689177 0 -415.42650765689177 217.47468283061608 0 0 0 0 -244.04871985616046 -323.85230546724415 0 -323.85230546724415 -53.949466365826083 0 0 0 0 -285.48389292838328 -391.95058580687692 0 -391.95058580687692 9.5477089425476152 0 0 0 0 -552.68613265357635 -758.71293450194389 0 -758.71293450194389 -583.95008586961194 0 0 0 0 -1562.7860155135195 -540.2015073967591 0 -540.2015073967591 304.09067884576507 0 0 0 0 -952.9342105059186 -978.23544394350029 0 -978.23544394350029 -853.85446300162585 0 0 0 0 -1508.5171570675448 -986.63155574499251 0 -986.63155574499251 -167.95488081597432 0 0 0 0 1162.2496250679978 -1001.2401313336159 0 -1001.2401313336159 -303.76653389199055 0 0 0 0 -749.99335787027667 -616.10676895585493 0 -616.10676895585493 -503.25169910849945 0 0 0 0 5.5841007542748997 -20.769936995763487 0 -20.769936995763487 -16.825841952625979 0 0 0 0 543.60466939833714 -616.13372079623514 0 -616.13372079623514 56.21919065102702 0 0 0 0 244.69783111067954 -1860.6569397647909 0 -1860.6569397647909 -272.11943900876213 0 0 0 0 -1472.7920280417893 -448.71402080174448 0 -448.71402080174448 -240.76670432071842 0 0 0 0 2168.3449663327483 877.90604439244635 0 877.90604439244635 -931.9203467982079 0 0 0 0 1.8716406031757202 -8.4125043325049091 0 -8.4125043325049091 -11.936376019408954 0 0 0 0 -896.5379183475161 1556.3019080941012 0 1556.3019080941012 276.33926793757746 0 0 0 0 -2079.9238690083148 -290.02777061417146 0 -290.02777061417146 -0.33798596874112263 0 0 0 0 -1738.8041242069448 -984.40387269562052 0 -984.40387269562052 -259.67718923246139 0 0 0 0 -795.64378755940925 -5.7185375951858077 0 -5.7185375951858077 234.16021557811473 0 0 0 0 -1482.7907915099058 -751.93997095688974 0 -751.93997095688974 165.12258088633826 0 0 0 0 -997.52971203022753 -693.40006244286633 0 -693.40006244286633 -327.14749861367454 0 0 0 0 219.76425127714174 -301.01537715471204 0 -301.01537715471204 -299.47478774786896 0 0 0 0 223.58054336992245 -254.72307971810187 0 -254.72307971810187 44.20690832035325 0 0 0 0 -0.0049315874348394573 -13.910311431834998 0 -13.910311431834998 -4.0598021631594747 0 0 0 0 -8.5742119983187877 -215.20968841717695 0 -215.20968841717695 1017.5692193168506 0 0 0 0 -18.743697689522833 -15.300356748156332 0 -15.300356748156332 -4.12930349809821 0 0 0 0 21.172705170502013 -63.230462668758264 0 -63.230462668758264 1758.0246533728205 0 0 0 0 0.11318109242500896 -5.8833247005753293 0 -5.8833247005753293 -2.4005540920206556 0 0 0 0 0.45643072147504427 -1247.6039423353723 0 -1247.6039423353723 793.67361713615537 0 0 0 0 -27.550877637346275 -796.07676384363731 0 -796.07676384363731 1664.2687993961044 0 0 0 0 -34.09737462978228 -878.76376415380219 0 -878.76376415380219 829.66973849354326 0 0 0 0 412.80300347214506 -855.77810309245251 0 -855.77810309245251 612.32877610257128 0 0 0 0 467.62957619903318 -1156.5487929607989 0 -1156.5487929607989 -554.55847578031535 0 0 0 0 -11.657188810904302 -5.0145107378494345 0 -5.0145107378494345 0.61384636246862101 0 0 0 0 271.03861788488575 -1329.0461653161328 0 -1329.0461653161328 -67.66203858787776 0 0 0 0 305.8552502765815 -1492.03478899935 0 -1492.03478899935 76.613217266338324 0 0 0 0 327.97738569472858 -1235.1838081507849 0 -1235.1838081507849 -82.058761669184605 0 0 0 0 0.39326499264842035 -1616.3564136029579 0 -1616.3564136029579 56.92847931466531 0 0 0 0 975.98609000055876 -1534.2394584204521 0 -1534.2394584204521 -40.287901144656644 0 0 0 0 230.24079032633745 -432.75120973339654 0 -432.75120973339654 56.267886372930661 0 0 0 0 879.19604017836537 -173.14443398086723 0 -173.14443398086723 -57.515007057794719 0 0 0 0 -407.93595757966978 -1632.0668514722711 0 -1632.0668514722711 -77.023946764602442 0 0 0 0 -865.90677150215197 -100.34003790452425 0 -100.34003790452425 129.07624643303279 0 0 0 0 40.881929678696906 -239.86668089684827 0 -239.86668089684827 -181.71718672224233 0 0 0 0 -420.27727423558827 -85.722050827462226 0 -85.722050827462226 16.138753712293692 0 0 0 0 182.09415382950101 -789.47563757278112 0 -789.47563757278112 -1011.1857363046656 0 0 0 0 -1371.0005476819388 -912.14683200406398 0 -912.14683200406398 69.905404969293159 0 0 0 0 4.7932059179734594 -22.101373280359439 0 -22.101373280359439 0.15469180956267792 0 0 0 0 682.25747923678136 -698.10766686878924 0 -698.10766686878924 -248.29871023722444 0 0 0 0 613.24559172329464 12.460819427677052 0 12.460819427677052 49.411693083122373 0 0 0 0 -94.133197205403121 -4.943163166535669 0 -4.943163166535669 -61.160101526198559 0 0 0 0 9.9043610060916691 -71.381681502498054 0 -71.381681502498054 112.07779885888493 0 0 0 0 -96.597511863263207 -73.534372185364191 0 -73.534372185364191 96.639354830796947 0 0 0 0 -4.9605715322809161 -23.551434393258688 0 -23.551434393258688 25.506971535358957 0 0 0 0 202.24203493270034 -460.69970225352154 0 -460.69970225352154 321.58322920871433 0 0 0 0 732.2292964925291 -293.53761850436058 0 -293.53761850436058 112.40148910263088 0 0 0 0 15.704967256500467 -46.152544950133517 0 -46.152544950133517 -7.1158693559324888 0 0 0 0 301.27135269955033 -301.35546808208164 0 -301.35546808208164 122.77501005755039 0 0 0 0 285.63821595808258 -306.94091901151114 0 -306.94091901151114 144.63963992672507 0 0 0 0 12.964801666008498 -50.143848888279138 0 -50.143848888279138 -32.294047588469766 0 0 0 0 405.33111353672575 -303.16516312127351 0 -303.16516312127351 36.329570901765692 0 0 0 0 480.35188633509097 -310.60403484044946 0 -310.60403484044946 36.886979676783085 0 0 0 0 361.86291235068347 -328.26693521562265 0 -328.26693521562265 88.649204052810092 0 0 0 0 312.94960618088953 -279.44930091804417 0 -279.44930091804417 77.335925999097526 0 0 0 0 319.37625978095457 -283.78617567167385 0 -283.78617567167385 73.405733113118913 0 0 0 0 367.11403687216807 -245.29091129972949 0 -245.29091129972949 13.284250611730386 0 0 0 0 386.44998222478898 -183.5282130112173 0 -183.5282130112173 -81.187893803740735 0 0 0 0 395.70854779117508 -291.2824243587238 0 -291.2824243587238 28.124399143562187 0 0 0 0 355.13246307481313 -247.77594627616054 0 -247.77594627616054 14.459938252868596 0 0 0 0 290.80068248102907 -288.26827297025011 0 -288.26827297025011 142.57484548859065 0 0 0 0 1311.4039273708913 -382.95420107856262 0 -382.95420107856262 -335.30443683135672 0 0 0 0 506.71337150909676 -276.02824531206352 0 -276.02824531206352 404.0304571876768 0 0 0 0 298.77868233743357 -625.14630843129999 0 -625.14630843129999 -47.761459661072877 0 0 0 0 -336.57539134267063 -450.28113630249936 0 -450.28113630249936 103.60299253943958 0 0 0 0 429.65609443953144 -273.50912556806725 0 -273.50912556806725 -35.013093323552312 0 0 0 0 588.56067514552342 -372.69615225379539 0 -372.69615225379539 -127.97362948753289 0 0 0 0 -34.086945240400382 -342.36792073508695 0 -342.36792073508695 332.06149741967965 0 0 0 0 576.66994028548652 -461.55642914468626 0 -461.55642914468626 2.4038843863527291 0 0 0 0 527.32540073237033 -481.83399843766529 0 -481.83399843766529 129.75945523989503 0 0 0 0 35.378764855486224 -280.25655155263667 0 -280.25655155263667 130.634640024482 0 0 0 0 60.735978241192356 -43.928549460870926 0 -43.928549460870926 -144.18481404559759 0 0 0 0 515.18398831906961 -260.26948205199733 0 -260.26948205199733 150.41581264663546 0 0 0 0 452.33532607120287 -257.75893072126928 0 -257.75893072126928 164.61819385693525 0 0 0 0 498.57693247392308 -336.40157625990105 0 -336.40157625990105 107.69188731932081 0 0 0 0 424.25437418921501 -259.96743364001304 0 -259.96743364001304 31.96789265377447 0 0 0 0 459.34121091582347 -263.56010448250163 0 -263.56010448250163 31.516022928350139 0 0 0 0 488.24068980623269 -291.82087383067119 0 -291.82087383067119 17.843718773656292 0 0 0 0 477.97259260492865 -272.23543547643931 0 -272.23543547643931 -19.647819020989118 0 0 0 0 484.6329258689766 -195.88772010057528 0 -195.88772010057528 -102.36673737104866 0 0 0 0 476.43010971481272 -242.40540646834779 0 -242.40540646834779 -33.163610989955487 0 0 0 0 463.38872588635422 -243.61283183647538 0 -243.61283183647538 -91.667149894463364 0 0 0 0 522.69227197003784 -262.59991550670384 0 -262.59991550670384 -184.13768882962177 0 0 0 0 458.18877539457753 -296.03593106999324 0 -296.03593106999324 -202.60668722757691 0 0 0 0 475.40890306790243 -141.01069888900383 0 -141.01069888900383 -227.44043495922233 0 0 0 0 465.46290418505669 -123.83785167178939 0 -123.83785167178939 -248.10361530979571 0 0 0 0 504.95249353320105 -162.72903385032259 0 -162.72903385032259 -317.30713254664443 0 0 0 0 495.91908796117059 -191.13394413376227 0 -191.13394413376227 -154.98503256551703 0 0 0 0 462.57618549946346 -161.937719945563 0 -161.937719945563 -244.24122825187806 0 0 0 0 478.83775121081271 -172.60433241797 0 -172.60433241797 -299.15563262611977 0 0 0 0 498.25600434938679 -178.25177015898589 0 -178.25177015898589 -214.01258456136566 0 0 0 0 481.69965510672773 -138.31924361595884 0 -138.31924361595884 -232.3333778919914 0 0 0 0 437.66456686996389 -189.62235063363914 0 -189.62235063363914 -97.791316771836136 0 0 0 0 462.09567384241382 -205.63433051735046 0 -205.63433051735046 -145.91474667922012 0 0 0 0 384.65872555423994 -119.24281758150028 0 -119.24281758150028 -185.42488558364857 0 0 0 0 404.74219688601443 -211.50897791539683 0 -211.50897791539683 -291.17754068810609 0 0 0 0 466.33602885087021 -138.90968673251336 0 -138.90968673251336 -250.78445969238237 0 0 0 0 471.5424223241971 -179.7559143485305 0 -179.7559143485305 -321.45860291935969 0 0 0 0 392.69546797522344 -290.72016457751306 0 -290.72016457751306 -372.96790913566656 0 0 0 0 391.12604795556399 -296.54414514005475 0 -296.54414514005475 -350.45941518534164 0 0 0 0 443.20297074616246 -166.3031184113097 0 -166.3031184113097 -294.21137670462485 0 0 0 0 433.85364771871537 -207.32270133585189 0 -207.32270133585189 -164.50936564840958 0 0 0 0 446.69676953382441 -191.80138566048845 0 -191.80138566048845 -233.59849821088392 0 0 0 0 -169.13335949278553 -615.68631780885335 0 -615.68631780885335 351.71634971088497 0 0 0 0 -280.56793617611038 289.04709939246823 0 289.04709939246823 -397.91600821372413 0 0 0 0 -10.70902765329572 -16.528873004305325 0 -16.528873004305325 -5.2258225207246767 0 0 0 0 113.32072500637878 152.22076179120631 0 152.22076179120631 -937.68776067116414 0 0 0 0 274.44606024377572 -161.38029832385655 0 -161.38029832385655 -1295.7853206610889 0 0 0 0 226.14191503552138 -83.39875673782808 0 -83.39875673782808 -740.88175416592276 0 0 0 0 -395.50490656093461 -945.07444532391673 0 -945.07444532391673 286.24071474043012 0 0 0 0 191.84826750383945 -826.5536280410015 0 -826.5536280410015 308.93177717660001 0 0 0 0 -20.432726936000108 -555.06356071098708 0 -555.06356071098708 374.53550834601629 0 0 0 0 512.23779301081231 -323.68028519302607 0 -323.68028519302607 157.10634574625874 0 0 0 0 -2.649171581861637 -16.960553062995047 0 -16.960553062995047 1.9905021359298871 0 0 0 0 299.35085140308365 -247.15807284251787 0 -247.15807284251787 145.73843442546786 0 0 0 0 281.19356262031943 -260.28396046260605 0 -260.28396046260605 137.10837744618766 0 0 0 0 166.9975841860869 -97.461962280794978 0 -97.461962280794978 100.2036486173165 0 0 0 0 230.99794844852295 -254.20453453020309 0 -254.20453453020309 290.69488848713809 0 0 0 0 275.37660917581525 -42.215993045945652 0 -42.215993045945652 -149.37642968267028 0 0 0 0 286.67443692917004 -75.607878098831861 0 -75.607878098831861 -298.06474382869783 0 0 0 0 5.3530903999926522 110.15385388402501 0 110.15385388402501 -213.9999777727644 0 0 0 0 41.274725679308176 5.6626933715597261 0 5.6626933715597261 89.948887145495974 0 0 0 0 340.44100759603316 -206.38598365953658 0 -206.38598365953658 -39.394695837981999 0 0 0 0 247.89473273092881 -222.27281241098535 0 -222.27281241098535 100.25698370406462 0 0 0 0 295.03479721467011 -132.24222107487731 0 -132.24222107487731 -43.615455406325054 0 0 0 0 309.13185068994062 -136.96254787569342 0 -136.96254787569342 -106.47303097540862 0 0 0 0 386.84697615966434 -162.83458790223813 0 -162.83458790223813 -194.39049589101342 0 0 0 0 389.27712735452224 -83.855285826692125 0 -83.855285826692125 -350.90513634344097 0 0 0 0 358.27495718747377 -199.37426135105488 0 -199.37426135105488 -352.35124874879239 0 0 0 0 214.19059699273203 63.964671409485163 0 63.964671409485163 -485.07916179855238 0 0 0 0 363.08216841792455 -157.38098175111372 0 -157.38098175111372 -649.02709073881852 0 0 0 0 287.99569038680056 -186.87380199550535 0 -186.87380199550535 -569.06565588946978 0 0 0 0 304.06876708874188 -370.13558642983116 0 -370.13558642983116 -910.41823602779186 0 0 0 0 320.08432011344121 -407.82596099829243 0 -407.82596099829243 -646.99024066397396 0 0 0 0 306.25528162415139 -331.39997324752767 0 -331.39997324752767 -541.72621747266385 0 0 0 0 428.90586867020465 -204.04841766753816 0 -204.04841766753816 -531.85507275667624 0 0 0 0 307.92975135499728 -343.45773295251274 0 -343.45773295251274 -386.19436188104737 0 0 0 0 182.34250588170835 -484.62739713534393 0 -484.62739713534393 -388.47716833326558 0 0 0 0 154.12968531431397 -621.56413637715741 0 -621.56413637715741 -755.79283939701418 0 0 0 0 200.33194634725805 -417.96860089155962 0 -417.96860089155962 -690.92953320827655 0 0 0 0 176.56552523822756 -652.08921291123261 0 -652.08921291123261 -1387.7923070780671 0 0 0 0 -391.80345985060558 -911.41549836428021 0 -911.41549836428021 -748.76994387283048 0 0 0 0 -19.307173373410478 -408.41814571937721 0 -408.41814571937721 -326.34860765584745 0 0 0 0 1128.2810960872594 -423.78191765847441 0 -423.78191765847441 -620.64764357449894 0 0 0 0 400.49223094886111 -718.77814196376494 0 -718.77814196376494 -674.75307703091676 0 0 0 0 119.92626501395716 -493.09516431931115 0 -493.09516431931115 -389.62583982740034 0 0 0 0 217.59329729009187 -401.08309572199869 0 -401.08309572199869 -443.26637637459498 0 0 0 0 626.95794322315487 -557.12034451677755 0 -557.12034451677755 -1753.5842495998659 0 0 0 0 60.76222825779405 -256.06559721153462 0 -256.06559721153462 -942.67332384497422 0 0 0 0 220.79335615437594 -593.08468055335834 0 -593.08468055335834 -559.02689458667737 0 0 0 0 -20.55398366166628 -605.4898929922565 0 -605.4898929922565 -459.55726771848276 0 0 0 0 -130.70925180145423 -784.78049870461109 0 -784.78049870461109 -638.86786265591218 0 0 0 0 -291.931532441944 -633.88637718937753 0 -633.88637718937753 -147.69428090232395 0 0 0 0 317.36378862702259 -537.12385285125492 0 -537.12385285125492 29.23031742774765 0 0 0 0 449.83296701216022 -505.55769836032414 0 -505.55769836032414 -161.20345875868418 0 0 0 0 403.40781613141007 -398.85978008891107 0 -398.85978008891107 -401.81790924922097 0 0 0 0 252.9213903140917 -465.22453482726269 0 -465.22453482726269 -327.00178275542021 0 0 0 0 259.4572695969473 -478.66401471816243 0 -478.66401471816243 -322.66217224758293 0 0 0 0 757.1730679134489 -998.05626313688845 0 -998.05626313688845 -827.90367332976894 0 0 0 0 484.04839173209621 -1093.7859104501222 0 -1093.7859104501222 240.7740748358774 0 0 0 0 384.1677210862108 -873.40635492831643 0 -873.40635492831643 -52.539903613500428 0 0 0 0 315.3508346292947 -536.44769683721825 0 -536.44769683721825 326.02270059767397 0 0 0 0 168.8607124918999 -707.17668864564803 0 -707.17668864564803 483.00588742951368 0 0 0 0 -52.219986442811205 -457.88358452103785 0 -457.88358452103785 910.39515036907324 0 0 0 0 689.18342439364642 -939.06320185350887 0 -939.06320185350887 481.44203694548924 0 0 0 0 -184.14667189156171 -173.21086100762477 0 -173.21086100762477 377.16582897284752 0 0 0 0 214.50446475962235 -617.80037532136703 0 -617.80037532136703 300.89443728858896 0 0 0 0 258.95197538182401 -502.48465851092442 0 -502.48465851092442 395.81626808174769 0 0 0 0 354.60801464229007 -450.50065627318691 0 -450.50065627318691 420.83537919745231 0 0 0 0 10.41561961422309 -8.1940156461959361 0 -8.1940156461959361 1.0940586947724498 0 0 0 0 539.61025751747366 -1022.1845572055281 0 -1022.1845572055281 1567.3849240236973 0 0 0 0 4.8198006417972579 -4.134694450145048 0 -4.134694450145048 0.19666400067055356 0 0 0 0 200.74550016970898 -542.10697051312309 0 -542.10697051312309 938.67664430907462 0 0 0 0 504.87950917964918 -834.12044574657193 0 -834.12044574657193 803.2335486315169 0 0 0 0 885.24798558269686 -339.49248770483246 0 -339.49248770483246 75.656983968263376 0 0 0 0 -840.64259019482415 -1077.641529136592 0 -1077.641529136592 369.10860093110114 0 0 0 0 1.7258820080849091 -1.2638266829526543 0 -1.2638266829526543 -1.7343477265713148 0 0 0 0 -82.662457190584973 -178.99443752088519 0 -178.99443752088519 -350.3537610344938 0 0 0 0 14.821840155701693 -9.2075429806763083 0 -9.2075429806763083 -0.85195425775608769 0 0 0 0 -335.18169371866679 -645.05547885566193 0 -645.05547885566193 -531.5111942769945 0 0 0 0 4.5971868899214314 14.254599333999067 0 14.254599333999067 -52.19988129966805 0 0 0 0 5.9359677549571188 -0.97662743255207829 0 -0.97662743255207829 -10.092817321892767 0 0 0 0 15.398818901943741 71.665100902017002 0 71.665100902017002 74.215034049120732 0 0 0 0 -360.73034020546766 -774.9531309699596 0 -774.9531309699596 -329.19777090210846 0 0 0 0 -174.33298310849932 115.80907655904957 0 115.80907655904957 -762.51616769879183 0 0 0 0 230.92261637000774 166.76703033424928 0 166.76703033424928 -519.64681380310503 0 0 0 0 -500.39386233873665 -50.693197841203073 0 -50.693197841203073 565.82339219122105 0 0 0 0 -603.35901774741069 -420.56442607915233 0 -420.56442607915233 -142.3373550336546 0 0 0 0 -672.0730698920961 -267.53097804903518 0 -267.53097804903518 -478.43652762458078 0 0 0 0 -3051.9584034825966 -1256.557700068417 0 -1256.557700068417 69.706592435992206 0 0 0 0 -1308.3675624534371 -1514.0354155129517 0 -1514.0354155129517 -1377.8308464179718 0 0 0 0 20.25434775800818 -12.208412594465784 0 -12.208412594465784 -11.2975629270735 0 0 0 0 -104.71174105142563 -56.343464192460942 0 -56.343464192460942 -47.027200984142837 0 0 0 0 -86.51736026240178 -216.71754960526414 0 -216.71754960526414 -231.38911283851485 0 0 0 0 0.9273464389617061 -1.8797805869091064 0 -1.8797805869091064 2.5754638881254266 0 0 0 0 417.63879528749385 112.23101683014829 0 112.23101683014829 -68.730712641287028 0 0 0 0 -79.663519112596987 112.63818926334352 0 112.63818926334352 -312.06922152969491 0 0 0 0 356.38116538187023 -178.85371504754585 0 -178.85371504754585 -238.92502022322151 0 0 0 0 -4.7432426125358802 -1.2708755494140291 0 -1.2708755494140291 -2.2118676516338862 0 0 0 0 23.451559367560094 -12.207419339843653 0 -12.207419339843653 -8.634917249038665 0 0 0 0 -137.51785868774459 -5.3209735499658564 0 -5.3209735499658564 -3.7848902974510565 0 0 0 0 158.41139375777129 529.42305726099039 0 529.42305726099039 185.91809189211926 0 0 0 0 -347.36227517979569 -330.81099023832212 0 -330.81099023832212 -102.96054622391239 0 0 0 0 -0.16703570295067038 -242.54485190319247 0 -242.54485190319247 -315.62807120814978 0 0 0 0 -85.804144858870131 -458.44062801467953 0 -458.44062801467953 -823.91034053884505 0 0 0 0 0.10709004929231014 -435.71716070147158 0 -435.71716070147158 -376.52642748719518 0 0 0 0 -163.07763846075977 -184.42784372452297 0 -184.42784372452297 -756.83853988740702 0 0 0 0 -407.5839814146093 -353.28200928676233 0 -353.28200928676233 -199.90735231283179 0 0 0 0 -92.573370319136302 -555.29109222692568 0 -555.29109222692568 -1044.6279773147098 0 0 0 0 -218.09179209414287 -151.86679494806594 0 -151.86679494806594 271.78401008339279 0 0 0 0 -229.73233601968968 -648.41613196421531 0 -648.41613196421531 458.4102676381226 0 0 0 0 -247.26401797513245 -553.88063732400406 0 -553.88063732400406 -68.652503971359693 0 0 0 0 -0.196951599791646 -599.13520665264514 0 -599.13520665264514 759.32149010301509 0 0 0 0 125.14421349325858 -579.29724415414603 0 -579.29724415414603 475.11067416975129 0 0 0 0 -189.9591951824732 -745.265276336037 0 -745.265276336037 1327.1501424267335 0 0 0 0 -230.43129894143203 -427.80896090366878 0 -427.80896090366878 802.9524622700992 0 0 0 0 16.451170389191248 -837.25435567677778 0 -837.25435567677778 937.99082590441685 0 0 0 0 82.019819944369374 -740.33991235794383 0 -740.33991235794383 1068.4301065646214 0 0 0 0 24.157747517921962 -629.08085815238155 0 -629.08085815238155 1205.9133950462929 0 0 0 0 388.71172067438602 -495.51919500743679 0 -495.51919500743679 1139.9602710097106 0 0 0 0 -18.55840529454872 -467.07841175309841 0 -467.07841175309841 1137.9776325194252 0 0 0 0 932.09316098000272 -843.08141298676492 0 -843.08141298676492 398.07135220695 0 0 0 0 285.52891677006846 -1260.4457038627188 0 -1260.4457038627188 1366.2730784033774 0 0 0 0 -124.36018557831994 -329.45445068611298 0 -329.45445068611298 637.18900112904521 0 0 0 0 -199.37381917602033 -329.29324930053554 0 -329.29324930053554 1557.9614428284985 0 0 0 0 -6.5739572341553867 -1145.9196875659509 0 -1145.9196875659509 1650.0084418371343 0 0 0 0 -103.31291586370207 -882.1916074290275 0 -882.1916074290275 1087.4223047707346 0 0 0 0 459.89710464797099 -927.34007303894487 0 -927.34007303894487 76.090469737820968 0 0 0 0 7.6842341462891 -8.9211287712858365 0 -8.9211287712858365 8.8551410326139717 0 0 0 0 -181.53059738520824 -442.69489991489172 0 -442.69489991489172 1784.3401585036263 0 0 0 0 50.555273818681599 71.130879670703507 0 71.130879670703507 1.9673463431972777 0 0 0 0 -26.236510602466296 -128.94319842045297 0 -128.94319842045297 1087.6837295512987 0 0 0 0 81.012030076686642 85.885322466183425 0 85.885322466183425 197.04488978100017 0 0 0 0 229.20948840466735 -122.12885710195405 0 -122.12885710195405 112.24646847804252 0 0 0 0 -0.04327416984597221 -357.18425809190376 0 -357.18425809190376 1500.9816801490888 0 0 0 0 -63.93257853166142 -111.20020079341339 0 -111.20020079341339 1876.0902010216505 0 0 0 0 209.43356187833706 -813.41900262789022 0 -813.41900262789022 1375.2319961455505 0 0 0 0 64.04391065465461 -396.64378921859316 0 -396.64378921859316 -533.4881213430599 0 0 0 0 5.8174377313138166 -4.0254224449541027 0 -4.0254224449541027 2.7434657923905945 0 0 0 0 111.92376602879085 -643.6484938153335 0 -643.6484938153335 425.20480683036294 0 0 0 0 -89.467335699460818 -198.72552355127846 0 -198.72552355127846 -99.777155648134794 0 0 0 0 0.30752351075352635 -222.64684689386741 0 -222.64684689386741 -273.2717808753514 0 0 0 0 40.293045598082244 -88.874799106164573 0 -88.874799106164573 -94.949874809409152 0 0 0 0 -230.71517902854248 -149.10362740598612 0 -149.10362740598612 -33.952077203768567 0 0 0 0 -271.92168437899454 -445.84840512081041 0 -445.84840512081041 -338.12647325113358 0 0 0 0 9.5081691054332396 -10.492397955219445 0 -10.492397955219445 10.390759781576847 0 0 0 0 57.664197448008053 -1.2053982845022801 0 -1.2053982845022801 24.430344641536067 0 0 0 0 -6.9098649933148408 95.878186254100001 0 95.878186254100001 120.50448515165408 0 0 0 0 -299.95209657860869 -400.50377493091719 0 -400.50377493091719 -204.42130722160073 0 0 0 0 9.1731011820741628 -13.86034574611331 0 -13.86034574611331 16.267841090877027 0 0 0 0 -115.81512247229693 -199.9621284820023 0 -199.9621284820023 -97.317845536650566 0 0 0 0 -312.08853231441753 -169.6913399048135 0 -169.6913399048135 -86.157212646539847 0 0 0 0 -280.95703007807606 -137.5129442151665 0 -137.5129442151665 174.38423910833444 0 0 0 0 -176.82370092267229 -158.47804866322076 0 -158.47804866322076 -159.68846235812089 0 0 0 0 -191.16094396644621 -6.4182955165324529 0 -6.4182955165324529 211.62011510455704 0 0 0 0 -124.37594350549625 -46.643960369694469 0 -46.643960369694469 112.34752920749543 0 0 0 0 -137.68646833013918 54.644537146830771 0 54.644537146830771 408.46810876943709 0 0 0 0 39.026860104626394 98.457871646365675 0 98.457871646365675 209.45030087738996 0 0 0 0 4.0075087453010383 -2.1561997742051346 0 -2.1561997742051346 -0.16934308947752186 0 0 0 0 353.97878098921501 461.35501639224094 0 461.35501639224094 554.02812787299899 0 0 0 0 -0.072391575158690102 -30.271031719054008 0 -30.271031719054008 -35.549347154992574 0 0 0 0 0.68563388187985752 -251.17485267017631 0 -251.17485267017631 263.3922108195984 0 0 0 0 -118.15154832025291 39.888992068681546 0 39.888992068681546 732.40938864637792 0 0 0 0 -17.536226520620403 -56.597812810530741 0 -56.597812810530741 145.09863027438769 0 0 0 0 -170.46082189621666 -173.58332073028487 0 -173.58332073028487 226.03468217165937 0 0 0 0 -7.7638450371124961 -3.5866284709677814 0 -3.5866284709677814 18.826945001032726 0 0 0 0 -258.37563563309959 31.276629080441126 0 31.276629080441126 124.1261005155975 0 0 0 0 -292.54967496290919 -54.478195575713471 0 -54.478195575713471 135.71634511114098 0 0 0 0 -250.38639124171459 -83.169718913788529 0 -83.169718913788529 60.415422170866805 0 0 0 0 0.74171802901786066 0.039168550840372518 0 0.039168550840372518 7.3837605699234814 0 0 0 0 -87.263146720841178 -75.230228714091936 0 -75.230228714091936 -59.741892724428908 0 0 0 0 -345.76734369521728 -31.915253989207486 0 -31.915253989207486 48.527877892411198 0 0 0 0 157.62154669762822 -231.77360461399803 0 -231.77360461399803 72.388144772616215 0 0 0 0 -385.51365762713249 -124.75603897636029 0 -124.75603897636029 41.427224824568839 0 0 0 0 -11.467476840218694 -62.935909952372413 0 -62.935909952372413 17.351751792996851 0 0 0 0 -6.6219195163940867 -25.48247882682621 0 -25.48247882682621 29.274413042798301 0 0 0 0 -112.80123336426368 -29.616223522025848 0 -29.616223522025848 45.349457555523259 0 0 0 0 -146.96966878352396 -76.470607391649537 0 -76.470607391649537 70.614125037081976 0 0 0 0 -129.68124642020848 -130.5093282582875 0 -130.5093282582875 36.27266068309109 0 0 0 0 -127.12461872483254 -83.322931652255647 0 -83.322931652255647 -7.697861592733716 0 0 0 0 -182.26256150680911 -110.06868897507582 0 -110.06868897507582 84.971996738917369 0 0 0 0 -244.38426852422708 -219.64831644660808 0 -219.64831644660808 -49.843427196670746 0 0 0 0 14.146755156553468 -15.059169676221259 0 -15.059169676221259 17.22913126912735 0 0 0 0 -56.336043266099296 -77.484096818734542 0 -77.484096818734542 7.3947396114708681 0 0 0 0 -43.868028214334117 8.6461472622402198 0 8.6461472622402198 97.807278446896817 0 0 0 0 -32.860808690064005 -61.432823829352856 0 -61.432823829352856 28.550822870383854 0 0 0 0 -129.36516565424972 -40.101300259819254 0 -40.101300259819254 61.972624557060044 0 0 0 0 -149.59866871409758 -153.66980500905629 0 -153.66980500905629 -6.5070136084823389 0 0 0 0 11.779696582239183 -34.768527807588328 0 -34.768527807588328 24.488096851643263 0 0 0 0 -99.017072056012694 -66.169251490282477 0 -66.169251490282477 26.282647871907102 0 0 0 0 -16.82908147261189 -64.992973538230046 0 -64.992973538230046 -2.5502465568444848 0 0 0 0 -154.21610999719996 -52.019507167369738 0 -52.019507167369738 -25.563632206038164 0 0 0 0 -183.6410690771736 -97.407167969537113 0 -97.407167969537113 -46.084896816115361 0 0 0 0 -182.72884398439783 -101.47785785865563 0 -101.47785785865563 -27.934397204895504 0 0 0 0 -163.62728423433146 -49.794958936196053 0 -49.794958936196053 -24.118755611807501 0 0 0 0 -58.01634632970962 -10.056705776777605 0 -10.056705776777605 17.998929865030092 0 0 0 0 -164.5032463571988 -58.781619751651306 0 -58.781619751651306 -113.3072694442526 0 0 0 0 -151.85520963871386 18.676510075136321 0 18.676510075136321 -85.804855761904037 0 0 0 0 2.8875336653556474 -23.766270163016912 0 -23.766270163016912 -4.2404884651807606 0 0 0 0 -172.71135121464613 27.097468979107362 0 27.097468979107362 -18.96086081485555 0 0 0 0 -6.1984172660008241 -38.039191717387581 0 -38.039191717387581 -25.51395868890063 0 0 0 0 -41.403313667164184 -40.920186396007921 0 -40.920186396007921 0.7419766033126507 0 0 0 0 -28.005798716832942 -26.510821454385223 0 -26.510821454385223 -2.0674403656448703 0 0 0 0 -163.21888381919416 15.506489503059129 0 15.506489503059129 -16.152843188683619 0 0 0 0 -5.6146543191716773 -22.736088345620374 0 -22.736088345620374 -32.398850085242884 0 0 0 0 -100.95442327312776 -57.73141088572811 0 -57.73141088572811 -64.310170355296577 0 0 0 0 -6.9402997822768455 -24.293561231461638 0 -24.293561231461638 -18.180051577633293 0 0 0 0 -37.732504393221461 -110.3746266523649 0 -110.3746266523649 -72.090719370906299 0 0 0 0 40.598038349853596 -26.839383265942161 0 -26.839383265942161 -81.675077103049261 0 0 0 0 19.197743740136502 -15.837925122224988 0 -15.837925122224988 -80.717241266444034 0 0 0 0 35.579114720632788 7.1259869520872599 0 7.1259869520872599 -75.707279814396315 0 0 0 0 -140.22630880252109 -70.660474050455377 0 -70.660474050455377 -41.731998040399048 0 0 0 0 -122.02630597865937 -100.884002840834 0 -100.884002840834 -29.333367308616289 0 0 0 0 -20.173465467600181 39.034362362060165 0 39.034362362060165 -89.626473081443692 0 0 0 0 6.6162911688511201 -25.31825150050841 0 -25.31825150050841 -21.048676695374581 0 0 0 0 3.3844306936232442 -40.267447858380052 0 -40.267447858380052 -39.786752090952433 0 0 0 0 -144.59530666345381 -69.784079237491824 0 -69.784079237491824 -31.876693282790256 0 0 0 0 -249.57194552745204 2.2218780333714676 0 2.2218780333714676 157.33024158543049 0 0 0 0 -259.02025102886546 -257.85949821699614 0 -257.85949821699614 -104.57267101288562 0 0 0 0 20.341026922442666 -19.74087418092256 0 -19.74087418092256 22.308273943372001 0 0 0 0 -96.822175936154963 -196.59630126919728 0 -196.59630126919728 -114.1716994866365 0 0 0 0 185.61387867692974 -165.14401873488532 0 -165.14401873488532 -133.21794904953094 0 0 0 0 -237.46569472680858 -220.45388656781324 0 -220.45388656781324 961.63844456897641 0 0 0 0 97.621795792598277 -156.45824810983686 0 -156.45824810983686 350.53520130865218 0 0 0 0 112.27637568175851 -37.589632935869304 0 -37.589632935869304 -1.9736855771989212 0 0 0 0 63.129953903640853 -826.1673405188194 0 -826.1673405188194 1033.4516165687128 0 0 0 0 593.59203189275286 -766.09471158528686 0 -766.09471158528686 567.89387568050734 0 0 0 0 133.43001873802859 -928.13530105752761 0 -928.13530105752761 1079.5766844290338 0 0 0 0 165.24711252457928 -976.40875115864037 0 -976.40875115864037 752.03231688547748 0 0 0 0 -70.501446456455028 5.4988062413272232 0 5.4988062413272232 33.49945548006707 0 0 0 0 -187.41520663681149 15.961162949879508 0 15.961162949879508 36.145596115507942 0 0 0 0 -164.83098408023943 -69.481517233878549 0 -69.481517233878549 -79.907816764171002 0 0 0 0 0.63012691308173885 -49.24069884898006 0 -49.24069884898006 -43.105975750459692 0 0 0 0 -151.10723099937604 -79.983316708913208 0 -79.983316708913208 -46.392284509798628 0 0 0 0 36.009536918310914 138.39421491943722 0 138.39421491943722 3.7855816359224264 0 0 0 0 11.680754154745955 -10.511193151931366 0 -10.511193151931366 -49.63437218463514 0 0 0 0 312.43114221325959 -113.13246593705117 0 -113.13246593705117 -31.71726321285314 0 0 0 0 21.269015475641936 87.200793241994688 0 87.200793241994688 180.84299584565451 0 0 0 0 432.59752099810066 -232.41553670994381 0 -232.41553670994381 -28.994151887120097 0 0 0 0 -6.8440377496406768 -11.570961416746883 0 -11.570961416746883 -2.1364497538046692 0 0 0 0 -110.85450895453687 -102.77922543138266 0 -102.77922543138266 -67.861272698159155 0 0 0 0 -121.92173469769841 -44.667902721987957 0 -44.667902721987957 91.580075224352186 0 0 0 0 -193.72324383443629 -129.2196385469806 0 -129.2196385469806 -75.711147650377825 0 0 0 0 -10.208635562369388 -11.75950303894345 0 -11.75950303894345 -2.4856226718991934 0 0 0 0 -68.863056785805384 -121.12099174612376 0 -121.12099174612376 -81.03976183681516 0 0 0 0 -64.404031943533482 -69.863106375250936 0 -69.863106375250936 -69.213455142366001 0 0 0 0 -155.3517204754171 -50.145505712353042 0 -50.145505712353042 -1.6928944893527387 0 0 0 0 -208.87692168807553 -101.78947277695261 0 -101.78947277695261 -44.374820954864845 0 0 0 0 -272.17226865449629 -10.555470702889579 0 -10.555470702889579 -71.746227106938022 0 0 0 0 -152.94636230589822 -71.682265341223683 0 -71.682265341223683 -78.307485094053845 0 0 0 0 -148.2790431502217 -85.203032824196271 0 -85.203032824196271 -71.822527984793851 0 0 0 0 -158.98597655626327 -115.7182997620107 0 -115.7182997620107 -84.901302521597245 0 0 0 0 -287.33953795839625 -100.30614789182437 0 -100.30614789182437 -69.085834216464718 0 0 0 0 -291.92301166788093 -139.46543312009089 0 -139.46543312009089 -19.171203696729208 0 0 0 0 -0.49815556442868569 -0.6489970003198664 0 -0.6489970003198664 -0.82827990068767576 0 0 0 0 -399.00683943989861 -109.2642426929815 0 -109.2642426929815 -4.3602014857387985 0 0 0 0 -66.455129324822337 -170.53209958609659 0 -170.53209958609659 -84.417503861506702 0 0 0 0 -49.550149312086432 -232.91426542697536 0 -232.91426542697536 -44.005634764864226 0 0 0 0 -75.848423913403053 -48.828281313456785 0 -48.828281313456785 -23.439524469005789 0 0 0 0 -263.53115531097865 -250.0397213359829 0 -250.0397213359829 -29.126057614630554 0 0 0 0 -339.01154272932763 -163.41952188663709 0 -163.41952188663709 10.706541356310481 0 0 0 0 -42.875653384151519 -209.96674455289394 0 -209.96674455289394 -169.01449635117751 0 0 0 0 -17.057800590773695 -144.16974693733755 0 -144.16974693733755 -135.41236446617404 0 0 0 0 6.6205208850660711 -194.34282385229744 0 -194.34282385229744 -150.85881200473523 0 0 0 0 -252.50814612068643 -43.090185019809724 0 -43.090185019809724 -35.302971045151935 0 0 0 0 41.137936671671923 -117.46256999197794 0 -117.46256999197794 -170.59750861610519 0 0 0 0 2.2481813860940747 -176.95588180849154 0 -176.95588180849154 -182.17845945552108 0 0 0 0 -42.685370291539584 113.40785304757446 0 113.40785304757446 -104.63614285283256 0 0 0 0 205.44110833125887 -127.7869084783888 0 -127.7869084783888 -198.73516726082016 0 0 0 0 2.1898549551842734 -49.848822627754998 0 -49.848822627754998 -129.68310792327975 0 0 0 0 -250.35637064398907 -248.69377141329096 0 -248.69377141329096 -91.433993004964577 0 0 0 0 -260.83421643069596 -201.142472285439 0 -201.142472285439 -136.94525253392931 0 0 0 0 -11.354536237653065 -7.775476954790193 0 -7.775476954790193 -2.7790101586640077 0 0 0 0 -9.0154850084060172 -17.649827990362652 0 -17.649827990362652 6.2759105050375581 0 0 0 0 -205.23979325938853 -226.72973907807318 0 -226.72973907807318 -292.26169432562892 0 0 0 0 -68.029091045988025 -72.437175910577935 0 -72.437175910577935 -189.40031285420991 0 0 0 0 -68.817647312302142 -80.192111010081135 0 -80.192111010081135 -183.90364430402406 0 0 0 0 -236.85919500392629 -105.10953789274572 0 -105.10953789274572 -34.36664656024368 0 0 0 0 -84.316283653402934 -76.540782053787552 0 -76.540782053787552 -138.96302834330709 0 0 0 0 -61.196190881069924 -77.406077578676559 0 -77.406077578676559 -227.50550422229571 0 0 0 0 -17.92467021241066 3.9247804488619806 0 3.9247804488619806 10.523663643475487 0 0 0 0 -116.10912755312165 -120.62833752816368 0 -120.62833752816368 -198.41831305767118 0 0 0 0 -218.28586582750722 -70.130406079191744 0 -70.130406079191744 -87.843359895676258 0 0 0 0 -162.45535725486116 19.32228053779545 0 19.32228053779545 -76.482936672771757 0 0 0 0 -116.85106651156093 -54.93273836379376 0 -54.93273836379376 -39.224040413890179 0 0 0 0 -119.69070936052594 -37.503387781638594 0 -37.503387781638594 -145.87722645363829 0 0 0 0 -140.03907299572893 -49.977284420587239 0 -49.977284420587239 -36.631999782068306 0 0 0 0 -144.42148550855927 -68.440476212264912 0 -68.440476212264912 -35.677178456717229 0 0 0 0 -191.96573283254111 -99.784567952508951 0 -99.784567952508951 -76.149564016539443 0 0 0 0 -186.74658249420463 -128.91565268288105 0 -128.91565268288105 -82.58166287264612 0 0 0 0 -70.751746097682826 4.4828417873706883 0 4.4828417873706883 29.312672028879405 0 0 0 0 -26.81091068780978 -13.68464741202294 0 -13.68464741202294 -7.4211508833226389 0 0 0 0 -71.332812466196742 -51.98217451173673 0 -51.98217451173673 -21.83993763007058 0 0 0 0 -764.41796082993824 -404.38336781575526 0 -404.38336781575526 -43.146618183633109 0 0 0 0 -369.11224243842298 -237.98582334583989 0 -237.98582334583989 -66.073497988385498 0 0 0 0 7.8117487677794202 -14.027145937265971 0 -14.027145937265971 28.561751548065274 0 0 0 0 -363.10823077996611 -187.58297798719286 0 -187.58297798719286 -102.94754079569975 0 0 0 0 -282.79890654329211 -321.97249701971123 0 -321.97249701971123 181.20472117859754 0 0 0 0 -281.8590308126586 -291.66741633057973 0 -291.66741633057973 -257.87793321759091 0 0 0 0 -295.75282271776814 -266.13903352433772 0 -266.13903352433772 -141.42518900512368 0 0 0 0 -273.50313567213016 -344.73050467680059 0 -344.73050467680059 -250.26718328624702 0 0 0 0 90.979173782190628 -292.04076443766826 0 -292.04076443766826 -140.37174453727494 0 0 0 0 53.505572012290941 -155.27413410542067 0 -155.27413410542067 -177.74517644394655 0 0 0 0 -28.186914579942822 -317.04491370823962 0 -317.04491370823962 -113.34857681851281 0 0 0 0 -136.12737727590138 -187.42009326492553 0 -187.42009326492553 297.11957523673482 0 0 0 0 368.30190267203579 -366.95127810042322 0 -366.95127810042322 -10.480517900447012 0 0 0 0 195.61523463654157 -87.651483595069294 0 -87.651483595069294 114.1521431322617 0 0 0 0 -67.485358470549386 -51.861852532756444 0 -51.861852532756444 -25.450801774989714 0 0 0 0 83.865989213838475 -244.1395743216126 0 -244.1395743216126 47.775833799012617 0 0 0 0 73.384237920487067 -310.77988471015124 0 -310.77988471015124 621.88220723046106 0 0 0 0 -12.002807305386625 -9.5604843296226036 0 -9.5604843296226036 -1.9255473423874321 0 0 0 0 91.39617336410447 -277.6374885196783 0 -277.6374885196783 -69.020756480440468 0 0 0 0 159.88433618680574 -366.16345314171485 0 -366.16345314171485 -37.028383621494868 0 0 0 0 136.71985551289981 -232.70604567280679 0 -232.70604567280679 -74.287287214152457 0 0 0 0 152.46442684548674 -217.33155916872056 0 -217.33155916872056 -241.44959194426337 0 0 0 0 175.67992462994152 -227.68018338766342 0 -227.68018338766342 -237.2616920331493 0 0 0 0 157.93600641164812 -208.49530934916402 0 -208.49530934916402 -208.65268213342642 0 0 0 0 153.4155175993219 -206.9910717756793 0 -206.9910717756793 -175.35348799941494 0 0 0 0 274.88263761691633 -237.97200399116991 0 -237.97200399116991 -175.64191514411868 0 0 0 0 188.80722257403249 -129.97615108254104 0 -129.97615108254104 -151.89635140380415 0 0 0 0 175.32695996391703 -190.58077538790531 0 -190.58077538790531 -196.22289284766157 0 0 0 0 199.68040593528713 -297.48794923665992 0 -297.48794923665992 -123.30748307731847 0 0 0 0 69.51435358949675 -296.04021409291636 0 -296.04021409291636 -120.62937283974316 0 0 0 0 -19.476146672459436 -208.34380481031258 0 -208.34380481031258 -196.83458555968537 0 0 0 0 195.88566662187804 -209.35548120655949 0 -209.35548120655949 -228.33275540423347 0 0 0 0 59.949077276829485 -285.17312680912755 0 -285.17312680912755 -240.21368310920661 0 0 0 0 77.002327821304789 -213.39546142447216 0 -213.39546142447216 -224.02864853042411 0 0 0 0 -170.77066704988101 -404.18771291978919 0 -404.18771291978919 -173.57414777392114 0 0 0 0 -438.15470100387756 -255.63901274865202 0 -255.63901274865202 -41.288269017550192 0 0 0 0 -480.58123004089066 -439.83364086056417 0 -439.83364086056417 -240.26040471434681 0 0 0 0 -879.82967195646415 -550.1113973608517 0 -550.1113973608517 -104.38652552194981 0 0 0 0 -624.24340719508473 -241.74787173072036 0 -241.74787173072036 -154.6939467550983 0 0 0 0 -1.3059741548663908 -4.6746713756865574 0 -4.6746713756865574 -9.525871897755863 0 0 0 0 146.84771304122114 -48.010843145979379 0 -48.010843145979379 -730.22146435220384 0 0 0 0 -607.61832794708971 -545.05864676136389 0 -545.05864676136389 -302.74572358561272 0 0 0 0 -527.97994402782933 -218.70470239738597 0 -218.70470239738597 -14.789017024741042 0 0 0 0 -52.435845344741438 -67.801756966978616 0 -67.801756966978616 -26.141378720695926 0 0 0 0 -1707.8642420473625 -264.72656202499093 0 -264.72656202499093 778.14004744730119 0 0 0 0 25.406070039767656 -395.89584312565785 0 -395.89584312565785 -15.440725820419175 0 0 0 0 -43.134690688469107 -56.936492622404984 0 -56.936492622404984 -45.632799493851984 0 0 0 0 40.860731769549602 -75.808748787861987 0 -75.808748787861987 -108.75121490285528 0 0 0 0 105.86524674776592 -420.97894586854818 0 -420.97894586854818 384.36060880912009 0 0 0 0 -12.803795017389348 -8.9040656373981619 0 -8.9040656373981619 -128.28853476782751 0 0 0 0 -25.945649646361915 -49.602986630954547 0 -49.602986630954547 -43.37264966711296 0 0 0 0 -35.659845988942834 -24.128585146763726 0 -24.128585146763726 -53.053604327244102 0 0 0 0 53.540939721977338 -249.93697951923241 0 -249.93697951923241 512.79637190827634 0 0 0 0 64.179520412018974 -145.81357792620975 0 -145.81357792620975 156.04275229659106 0 0 0 0 56.397679556510411 -329.09456446582772 0 -329.09456446582772 373.78882156110922 0 0 0 0 202.86191033161595 -335.78550326123514 0 -335.78550326123514 110.71310655897832 0 0 0 0 185.57392045883171 -212.40903669699492 0 -212.40903669699492 -28.781310514357756 0 0 0 0 286.75666956213536 -352.29165166178427 0 -352.29165166178427 96.985914765740745 0 0 0 0 374.62041719860281 -230.35457873287669 0 -230.35457873287669 -111.03655563166103 0 0 0 0 267.39890937446035 -234.32041075461166 0 -234.32041075461166 -28.19371204363415 0 0 0 0 550.31236233850359 -379.54067539566313 0 -379.54067539566313 29.597954153985484 0 0 0 0 314.29771518529742 -474.38160483308457 0 -474.38160483308457 267.63045171460544 0 0 0 0 568.8433499672974 -825.71255851008027 0 -825.71255851008027 579.8224821825861 0 0 0 0 102.97211002677795 -440.06327642092219 0 -440.06327642092219 288.88046333644161 0 0 0 0 -3.4761869303106607 -13.733275040565331 0 -13.733275040565331 3.201700386886273 0 0 0 0 -311.17833356901247 -885.3813042404463 0 -885.3813042404463 667.50802552170353 0 0 0 0 1010.0371105972445 -6.9774854897405021 0 -6.9774854897405021 831.38928808130368 0 0 0 0 21.676654669795198 2.354995270442231 0 2.354995270442231 -18.538291170641131 0 0 0 0 -80.754555781473755 -19.804558536846798 0 -19.804558536846798 -54.749477237419342 0 0 0 0 97.554651416563502 -20.038760751916016 0 -20.038760751916016 -110.80861375058885 0 0 0 0 -1.2515853936479715 -25.983573348478245 0 -25.983573348478245 -65.347122461286432 0 0 0 0 -50.028961023097509 -77.28333808177922 0 -77.28333808177922 11.008013653527087 0 0 0 0 20.528159175213659 29.363480386971787 0 29.363480386971787 -52.206298340421199 0 0 0 0 20.972686606632521 -74.125000001526615 0 -74.125000001526615 -69.651634668836778 0 0 0 0 154.74136033887703 -47.187823925984731 0 -47.187823925984731 34.64401560366241 0 0 0 0 -9.0837568379354252 -13.744019737540214 0 -13.744019737540214 -20.218239436985698 0 0 0 0 154.88781142712105 -41.679584257562965 0 -41.679584257562965 -127.32552168567054 0 0 0 0 105.07742516728467 -249.81305658431302 0 -249.81305658431302 245.74722861671034 0 0 0 0 205.63203894288745 -240.73496798576525 0 -240.73496798576525 -212.74429363339368 0 0 0 0 -15.899652639811393 -83.875675551156746 0 -83.875675551156746 43.169526038749609 0 0 0 0 25.442671307129785 -161.90433859605764 0 -161.90433859605764 240.09846368966828 0 0 0 0 -43.376444953126338 -201.13810441978376 0 -201.13810441978376 217.87259459501365 0 0 0 0 -110.12144395658106 -100.41833249716001 0 -100.41833249716001 117.37126966127471 0 0 0 0 -133.21872530510882 53.632277312870428 0 53.632277312870428 82.946232129217606 0 0 0 0 -292.96577583574981 -297.69701649411581 0 -297.69701649411581 -56.178784533905855 0 0 0 0 -25.816624240396777 -95.435508965048939 0 -95.435508965048939 77.981261230277596 0 0 0 0 -62.776433593200636 -28.857072779828741 0 -28.857072779828741 61.461083261092426 0 0 0 0 -55.58141735434765 -45.444730874121888 0 -45.444730874121888 36.745477304677479 0 0 0 0 -115.48482692049583 -81.670025809798972 0 -81.670025809798972 127.81129491599677 0 0 0 0 -31.938406869303435 -136.47018288129766 0 -136.47018288129766 131.91459859000315 0 0 0 0 -65.942075216124067 -95.410837334806274 0 -95.410837334806274 109.850663602032 0 0 0 0 54.489143717568368 -174.36098974947527 0 -174.36098974947527 141.94136107418308 0 0 0 0 -51.266070200013928 -261.42948648372112 0 -261.42948648372112 286.80237411457347 0 0 0 0 -65.759744270020747 -222.23101899835819 0 -222.23101899835819 181.77228328588535 0 0 0 0 -12.626693996513495 -97.29589352223411 0 -97.29589352223411 118.87907569491654 0 0 0 0 9.802483275605482 -86.170154896281019 0 -86.170154896281019 68.259327141626272 0 0 0 0 -44.253515920659993 -67.450637649744749 0 -67.450637649744749 33.877433833914438 0 0 0 0 -53.260669643525034 -59.566475600346166 0 -59.566475600346166 144.8710937116557 0 0 0 0 -117.51056482605054 -4.1215188476053299 0 -4.1215188476053299 105.31535639011418 0 0 0 0 -179.95806882759643 -85.639290571685706 0 -85.639290571685706 -0.40830130933318287 0 0 0 0 -148.08375152403096 39.112485519264737 0 39.112485519264737 -7.9982440896274056 0 0 0 0 -177.60249416102306 -47.751590054613189 0 -47.751590054613189 28.560981386806816 0 0 0 0 -81.124744651082437 23.230976583814481 0 23.230976583814481 24.337972991906099 0 0 0 0 -68.122676423168741 -42.362827240831393 0 -42.362827240831393 35.641243678910541 0 0 0 0 -108.08547574485419 30.646265901894367 0 30.646265901894367 -34.948828859240166 0 0 0 0 -114.81641761376522 28.313899661465257 0 28.313899661465257 -31.286063808875042 0 0 0 0 -113.83179977245163 -2.3874628261546604 0 -2.3874628261546604 8.2793879948585527 0 0 0 0 -136.31352802403853 12.787447485432494 0 12.787447485432494 -28.904639253212736 0 0 0 0 -139.1304011743814 0.39794445609186369 0 0.39794445609186369 -61.147294106020126 0 0 0 0 -98.233011983189499 -16.050942236848641 0 -16.050942236848641 -66.191964439189178 0 0 0 0 -121.53908187658089 -29.22521540325215 0 -29.22521540325215 -25.449664550746093 0 0 0 0 -71.58373620477505 0.4560627927276073 0 0.4560627927276073 -8.0596640961666708 0 0 0 0 -102.00188233134395 -56.444977827568437 0 -56.444977827568437 34.518091717443895 0 0 0 0 -88.374834379123058 -19.658985286943789 0 -19.658985286943789 -27.407378485178924 0 0 0 0 -87.341111221272968 -72.026473839276377 0 -72.026473839276377 -9.9698210813803598 0 0 0 0 -66.080248055892298 -66.941246224603674 0 -66.941246224603674 -139.63616509029816 0 0 0 0 -130.43597661465174 -70.568834503443213 0 -70.568834503443213 -74.101100910105743 0 0 0 0 -89.447137438226491 -67.329953035427025 0 -67.329953035427025 -116.67179734776437 0 0 0 0 -80.495900594687555 -17.158415923768189 0 -17.158415923768189 -117.60146386329416 0 0 0 0 -80.163255937222857 -37.645836898242123 0 -37.645836898242123 -172.05468365464185 0 0 0 0 -134.94659770769067 -63.406197264179355 0 -63.406197264179355 -171.04647534160176 0 0 0 0 -127.26372047982295 -73.350862799339666 0 -73.350862799339666 -459.28300269515603 0 0 0 0 -257.89183571754256 113.56853471294016 0 113.56853471294016 -233.50938497696188 0 0 0 0 -131.5100703490898 45.005305001672241 0 45.005305001672241 -177.07522234438966 0 0 0 0 -218.40427509142319 -1.198328988335561 0 -1.198328988335561 41.61664220286184 0 0 0 0 -202.21809770414256 -37.553422762233822 0 -37.553422762233822 204.34080211380206 0 0 0 0 -195.49101414997131 12.11639898228168 0 12.11639898228168 42.633795263220236 0 0 0 0 -132.60218492947752 -7.8088692276214715 0 -7.8088692276214715 85.726123642292805 0 0 0 0 -106.52960748027544 -17.859277517956798 0 -17.859277517956798 -0.50791760945594433 0 0 0 0 -116.2073324516241 -31.64423151990195 0 -31.64423151990195 -1.8551423684111796 0 0 0 0 580.08331327757332 -104.11009480391658 0 -104.11009480391658 -48.206068539380794 0 0 0 0 -217.2892265348346 -332.29806289121916 0 -332.29806289121916 410.97609548686887 0 0 0 0 5.143142038295565 -2.5405059643047991 0 -2.5405059643047991 5.6380037724034082 0 0 0 0 328.84258917809348 -39.003277790085122 0 -39.003277790085122 -164.07031700843072 0 0 0 0 324.25310464028735 -197.47308443382644 0 -197.47308443382644 -45.162417578016175 0 0 0 0 181.8310280579899 82.506316292434349 0 82.506316292434349 -129.44753442752699 0 0 0 0 -370.73735344672605 -17.1483669126319 0 -17.1483669126319 123.40297532449767 0 0 0 0 -272.37443103440455 -166.39031535873801 0 -166.39031535873801 331.37941440948634 0 0 0 0 460.80389680806547 -213.08780410147301 0 -213.08780410147301 -60.487633635057136 0 0 0 0 745.94111348113074 -426.95160635942557 0 -426.95160635942557 73.452445374583476 0 0 0 0 -23.346034646470798 -556.51782219229062 0 -556.51782219229062 649.38729156373302 0 0 0 0 -58.245765488187317 -260.92569569660554 0 -260.92569569660554 400.24007174097642 0 0 0 0 -49.204513889388181 -283.5047898277262 0 -283.5047898277262 350.24139208451379 0 0 0 0 335.5790007962205 -519.37580588174751 0 -519.37580588174751 507.85266142891487 0 0 0 0 -75.805388034903444 -316.28024002545862 0 -316.28024002545862 515.93499038007576 0 0 0 0 -19.402752201160183 -581.08278906685155 0 -581.08278906685155 905.5300436491234 0 0 0 0 124.56824236147804 -552.3484640037932 0 -552.3484640037932 648.48922929341097 0 0 0 0 -87.59010285907425 -110.0548720358056 0 -110.0548720358056 137.87336163272266 0 0 0 0 -156.08203255198896 -95.439624094193277 0 -95.439624094193277 189.12767411483219 0 0 0 0 -159.61522139329463 -135.56215900684765 0 -135.56215900684765 325.18569960510649 0 0 0 0 -86.918844164756592 -103.22326030323165 0 -103.22326030323165 197.41840518934259 0 0 0 0 -203.76939646241954 -149.66948682230577 0 -149.66948682230577 341.1334244721802 0 0 0 0 75.302461293060333 -241.32142970053246 0 -241.32142970053246 341.83083212517113 0 0 0 0 93.124371139565483 -210.36647205641202 0 -210.36647205641202 357.02309752634153 0 0 0 0 -116.06508062215289 -98.282289614122419 0 -98.282289614122419 356.73918140601018 0 0 0 0 32.173633475205861 -279.09964611169562 0 -279.09964611169562 391.26790276984684 0 0 0 0 -125.48721526103327 -149.78742737090943 0 -149.78742737090943 272.52133915819286 0 0 0 0 -296.33859152402147 -302.24112574531318 0 -302.24112574531318 371.47831032326212 0 0 0 0 -338.8857994657119 -7.6875480962826259 0 -7.6875480962826259 354.92214507012977 0 0 0 0 -3.4073311040747001 -5.0584590651462236 0 -5.0584590651462236 -3.0440596749371878 0 0 0 0 568.96792206421378 -182.56648339232197 0 -182.56648339232197 -229.8950892023131 0 0 0 0 848.44206172958366 -774.98590125584451 0 -774.98590125584451 284.50205414626544 0 0 0 0 105.09695176960668 -85.810315742848616 0 -85.810315742848616 -128.02678610151634 0 0 0 0 -517.32469602528727 -797.76717326268408 0 -797.76717326268408 678.33914540036494 0 0 0 0 37.564745637166197 29.567078621137625 0 29.567078621137625 -97.477701256473665 0 0 0 0 321.36455006271717 -1050.912510668204 0 -1050.912510668204 1013.70579330904 0 0 0 0 43.18462164295488 16.322942638085806 0 16.322942638085806 -252.75770636153175 0 0 0 0 3.9428493842182775 2.4799445859074183 0 2.4799445859074183 1.7870024933652502 0 0 0 0 -18.897444210902904 -57.985250454861671 0 -57.985250454861671 -31.297307879507571 0 0 0 0 -50.659899354890513 -119.98443418182796 0 -119.98443418182796 -135.5213355915912 0 0 0 0 -865.68960027122375 15.177194225187122 0 15.177194225187122 234.10883442356862 0 0 0 0 -250.17823271045199 1.55743185114261 0 1.55743185114261 -89.862692231523397 0 0 0 0 166.10258736590913 -234.8486252547591 0 -234.8486252547591 292.9931769521645 0 0 0 0 508.92047448996891 -150.53090191828505 0 -150.53090191828505 74.490690283608274 0 0 0 0 698.07423658112384 -641.75690042657516 0 -641.75690042657516 210.51735841092886 0 0 0 0 209.63728115340928 -187.37948035023874 0 -187.37948035023874 122.38437498000599 0 0 0 0 93.142297289028647 -67.398488414157327 0 -67.398488414157327 97.981311368959723 0 0 0 0 -32.23220931403921 -427.89919860586815 0 -427.89919860586815 431.11603920856578 0 0 0 0 193.32079892311594 -355.51647594515089 0 -355.51647594515089 235.24554406315292 0 0 0 0 100.97125058514939 -218.20368267307276 0 -218.20368267307276 240.26917285964009 0 0 0 0 86.850486051305779 -32.580870698930084 0 -32.580870698930084 -3.0591226664109854 0 0 0 0 -125.00115004752297 -96.885535532113863 0 -96.885535532113863 136.64375369617119 0 0 0 0 -59.092668563214829 58.960273934302677 0 58.960273934302677 2.5509199045263813 0 0 0 0 176.06462397615542 -237.29884007773217 0 -237.29884007773217 47.128747307046069 0 0 0 0 168.06380941519456 -234.77898234233362 0 -234.77898234233362 76.524139452056261 0 0 0 0 257.23905989353079 -432.18259034707444 0 -432.18259034707444 -187.78340042749187 0 0 0 0 176.89394400440142 -214.31796058822601 0 -214.31796058822601 50.303304339802708 0 0 0 0 190.19370036424516 -269.49999869796375 0 -269.49999869796375 115.96136059107084 0 0 0 0 286.89064962713746 -350.14118596019398 0 -350.14118596019398 38.886113984997792 0 0 0 0 585.73985081195133 -151.65602523172129 0 -151.65602523172129 -238.23894047875365 0 0 0 0 310.85820714796137 -211.04233565487084 0 -211.04233565487084 -2.9098598064738326 0 0 0 0 264.5605613036314 -288.15604556346807 0 -288.15604556346807 -88.46105668292148 0 0 0 0 516.70330086525064 -177.5269547200005 0 -177.5269547200005 -102.42847688032998 0 0 0 0 624.91326707263943 245.86712799912493 0 245.86712799912493 929.05206806905335 0 0 0 0 6.9558837521598775 -2.822613384054165 0 -2.822613384054165 2.2598065951256672 0 0 0 0 612.47766649295227 -47.84048590707971 0 -47.84048590707971 -312.57018725819944 0 0 0 0 -72.588892121508252 379.45535716389713 0 379.45535716389713 827.44915192994085 0 0 0 0 415.62555581035849 -374.05633488882813 0 -374.05633488882813 -455.86116220246186 0 0 0 0 737.06970891586388 -102.27984803535219 0 -102.27984803535219 -666.75278685154626 0 0 0 0 -235.27050301933195 74.207787527149776 0 74.207787527149776 1067.1726737832942 0 0 0 0 -207.25060433507315 -23.503995586375822 0 -23.503995586375822 567.23553616262507 0 0 0 0 -103.02826128272864 -23.604811624853028 0 -23.604811624853028 -2.7794761911936803 0 0 0 0 -68.267631253576837 -33.257865577776101 0 -33.257865577776101 -6.8492468896292849 0 0 0 0 -37.244743642164394 -8.8853974085504888 0 -8.8853974085504888 -22.363343066801463 0 0 0 0 -77.028895854280563 -4.0147661278388114 0 -4.0147661278388114 -19.773048343286064 0 0 0 0 -6.1359613386510432 -10.870774637514643 0 -10.870774637514643 -11.5049666100889 0 0 0 0 -160.68446706129907 -16.470480298397888 0 -16.470480298397888 -12.907047849046648 0 0 0 0 226.6365834797034 -411.20173612714643 0 -411.20173612714643 73.33674380888624 0 0 0 0 -116.49029936084116 -82.302750376864424 0 -82.302750376864424 -75.336601559805786 0 0 0 0 -74.25374709314201 -42.505123552575242 0 -42.505123552575242 -37.919127291861514 0 0 0 0 -80.374061299051391 -77.764909009630401 0 -77.764909009630401 -15.120643081172602 0 0 0 0 42.040987229091115 -100.9326293669219 0 -100.9326293669219 -82.088771516426277 0 0 0 0 -18.918043681915151 -96.778217818608027 0 -96.778217818608027 -19.999132308330445 0 0 0 0 -210.71129280324385 -128.79984259624871 0 -128.79984259624871 113.63445373358263 0 0 0 0 -44.73865833377883 -50.112581864359214 0 -50.112581864359214 -43.939795468797968 0 0 0 0 -89.374841528595425 -71.926655104060046 0 -71.926655104060046 -20.575573398400593 0 0 0 0 -67.097736575015006 -54.218020628823069 0 -54.218020628823069 -7.2831254035845632 0 0 0 0 -49.78384976137022 -58.614670552280586 0 -58.614670552280586 -7.1464664118941528 0 0 0 0 -59.54725645743747 -47.163004463349353 0 -47.163004463349353 -9.2372306436154759 0 0 0 0 -25.992185744704386 -19.896311352141154 0 -19.896311352141154 -9.6367730939574301 0 0 0 0 342.92618533750647 -312.49460511314101 0 -312.49460511314101 -41.873166271803711 0 0 0 0 -0.60887429358473355 -18.520325003432859 0 -18.520325003432859 -8.3526559556751589 0 0 0 0 100.11782689671054 -347.93771512506032 0 -347.93771512506032 267.17996662999212 0 0 0 0 -48.139414778803712 -45.166008946342203 0 -45.166008946342203 -35.880097629257989 0 0 0 0 124.12275625491748 -183.45511940202414 0 -183.45511940202414 150.17206743897987 0 0 0 0 157.2381109171256 -286.25357215433905 0 -286.25357215433905 227.85406871503073 0 0 0 0 447.52051081359969 -303.26121577127924 0 -303.26121577127924 195.06727932080685 0 0 0 0 282.59312638868869 -399.20916035846494 0 -399.20916035846494 242.06121782202536 0 0 0 0 267.84809745637176 -312.23031762590472 0 -312.23031762590472 206.33508101000916 0 0 0 0 270.61774368291299 -322.33338047594543 0 -322.33338047594543 193.16772081523231 0 0 0 0 246.1182884099544 -312.78275346549344 0 -312.78275346549344 231.7177671444515 0 0 0 0 245.51534211015678 -268.9296164765874 0 -268.9296164765874 167.44512045275405 0 0 0 0 -27.742206413403835 -19.954595563190878 0 -19.954595563190878 -9.9900376798177462 0 0 0 0 214.12856211849794 -310.00953609545149 0 -310.00953609545149 235.67393907510632 0 0 0 0 211.39167094178265 -324.82333349182954 0 -324.82333349182954 220.81828481061893 0 0 0 0 253.88159965565137 -322.44211054606785 0 -322.44211054606785 223.80978778380086 0 0 0 0 218.14465571334586 -341.77296045050025 0 -341.77296045050025 401.33218027942598 0 0 0 0 211.46930166878155 -282.0131430999827 0 -282.0131430999827 231.60026933978952 0 0 0 0 -13.475808416274958 -32.12377828575336 0 -32.12377828575336 -7.3946499632252198 0 0 0 0 -13.913525955038494 -17.891098979453091 0 -17.891098979453091 -29.055109138476837 0 0 0 0 -31.446525608582306 -23.925020795226374 0 -23.925020795226374 -20.357706927519757 0 0 0 0 -15.609912910822544 -8.7672622574268928 0 -8.7672622574268928 9.4792711872359803 0 0 0 0 -165.65884283645573 -7.2817184812902269 0 -7.2817184812902269 61.354732604224409 0 0 0 0 -40.078042449807981 -21.748250240449124 0 -21.748250240449124 -5.2748287654503656 0 0 0 0 -17.241235816507498 -20.2433249506918 0 -20.2433249506918 -18.196476838193234 0 0 0 0 -24.234689604209791 -14.648332118132871 0 -14.648332118132871 -5.7037708586672418 0 0 0 0 94.803479609487113 -588.01269368451176 0 -588.01269368451176 513.20938671346812 0 0 0 0 -33.428067701461259 -17.046273725285573 0 -17.046273725285573 -6.5128022307326319 0 0 0 0 -58.440368933067305 -45.017943004161488 0 -45.017943004161488 21.086113039307843 0 0 0 0 99.312986283955979 -486.0440647916148 0 -486.0440647916148 -254.02320859608881 0 0 0 0 -40.061992019444006 -11.38951468268715 0 -11.38951468268715 6.7974004496500129 0 0 0 0 -32.942164453328587 -26.690184604569367 0 -26.690184604569367 -5.6822677516775002 0 0 0 0 23.03750825318275 -97.56956564318898 0 -97.56956564318898 92.44021236943081 0 0 0 0 -8.6992943580662541 -94.213743464932122 0 -94.213743464932122 343.55824031584052 0 0 0 0 0.91790101620063069 -78.895815571964704 0 -78.895815571964704 126.56353179548751 0 0 0 0 56.64439245077665 -190.33420046731044 0 -190.33420046731044 282.02651226868329 0 0 0 0 -16.81836274323723 -206.31815343642666 0 -206.31815343642666 294.49517556249339 0 0 0 0 -30.16968161247496 -196.42002175628477 0 -196.42002175628477 340.24607438626845 0 0 0 0 -89.512617221313121 -336.16064367212311 0 -336.16064367212311 783.80477163254182 0 0 0 0 -11.720953010721132 -206.32189662850942 0 -206.32189662850942 255.88251341515388 0 0 0 0 252.40940776591015 -20.144907762429284 0 -20.144907762429284 -132.70148107798013 0 0 0 0 -8.5805935827265785 104.8575964848701 0 104.8575964848701 750.19623403388323 0 0 0 0 7.3266944403236209 -5.5567140788557943 0 -5.5567140788557943 5.3059109063537164 0 0 0 0 -14.208972432097653 24.801758108995273 0 24.801758108995273 97.372720641149499 0 0 0 0 427.50572921136336 -188.55125997610776 0 -188.55125997610776 -415.8929739508385 0 0 0 0 130.999766941095 -596.49411628842063 0 -596.49411628842063 248.91087686136598 0 0 0 0 -17.515930306255157 -26.183207796561817 0 -26.183207796561817 -28.35403006413577 0 0 0 0 -15.107252922744692 -24.369300502260955 0 -24.369300502260955 -32.089767247051043 0 0 0 0 253.26325322790217 485.72947277720164 0 485.72947277720164 502.40496081909077 0 0 0 0 159.07940933591453 -671.08455327619049 0 -671.08455327619049 113.289739025774 0 0 0 0 -15.278535168358616 -9.930209262309404 0 -9.930209262309404 4.5168184315303535 0 0 0 0 315.68577409086174 -749.66134579166737 0 -749.66134579166737 39.001062985073077 0 0 0 0 -2.82100783645636 -4.5013318960952802 0 -4.5013318960952802 -2.1398357738100628 0 0 0 0 666.67432746125996 -372.80768005935533 0 -372.80768005935533 119.03775348678391 0 0 0 0 499.31432540624519 -404.55498070931935 0 -404.55498070931935 229.28292666818743 0 0 0 0 227.60332510551962 -191.66979688961692 0 -191.66979688961692 124.82124489909984 0 0 0 0 -271.30900264927186 -422.21174697410788 0 -422.21174697410788 199.92139402400062 0 0 0 0 437.84118290951301 -209.06312595728195 0 -209.06312595728195 81.806705904760747 0 0 0 0 9.9685439338500146 72.96981315413359 0 72.96981315413359 175.823140605964 0 0 0 0 464.98370684573456 -23.644878512888681 0 -23.644878512888681 12.733621309649607 0 0 0 0 2.3212406748995846 -3.3308880692103457 0 -3.3308880692103457 4.5306321274547656 0 0 0 0 -34.818243309877289 -278.31051475560889 0 -278.31051475560889 407.10004278623092 0 0 0 0 191.10994463125826 -499.31269498727852 0 -499.31269498727852 37.008812680265692 0 0 0 0 -14.467899639668758 -415.26139444903311 0 -415.26139444903311 -204.7758458368844 0 0 0 0 -856.51426507149881 529.99012588489495 0 529.99012588489495 319.19752229540927 0 0 0 0 -78.665789351216517 -129.22829031349283 0 -129.22829031349283 -84.117761511035496 0 0 0 0 -45.09230714863952 -200.5124841964107 0 -200.5124841964107 -4.7738364453616668 0 0 0 0 -23.735948997549713 8.2024697308643226 0 8.2024697308643226 52.300521898632724 0 0 0 0 -125.16046172032657 -87.832293255065451 0 -87.832293255065451 204.53367397112015 0 0 0 0 -217.24313576383429 -73.24694742903921 0 -73.24694742903921 11.912552878075076 0 0 0 0 93.93641642582952 -82.362020000546181 0 -82.362020000546181 2.4188601457717596 0 0 0 0 9.7240348868789255 -6.185774534861423 0 -6.185774534861423 2.3866709296813582 0 0 0 0 -132.83002333607692 -136.57274845228653 0 -136.57274845228653 35.424932551904931 0 0 0 0 -76.068993240520285 -140.71856165461668 0 -140.71856165461668 -37.135901988633123 0 0 0 0 19.091183010516289 -18.117464922268297 0 -18.117464922268297 11.573165496564286 0 0 0 0 9.9619113997323439 -19.700728050855105 0 -19.700728050855105 10.660620773793198 0 0 0 0 47.807481120471493 -65.676790016408631 0 -65.676790016408631 55.786927128503521 0 0 0 0 -31.097821038332768 -42.212283838902295 0 -42.212283838902295 34.534757523881126 0 0 0 0 -138.8412009737076 -53.320896586039453 0 -53.320896586039453 36.531883882351394 0 0 0 0 -48.02906316932058 -29.863122720045794 0 -29.863122720045794 15.517309425493295 0 0 0 0 -20.053277313541912 -20.727835618274185 0 -20.727835618274185 27.433684294061095 0 0 0 0 -3.5397467027732432 -19.100223908539235 0 -19.100223908539235 10.305066253959552 0 0 0 0 19.731821698587737 273.73631428598674 0 273.73631428598674 -508.0797261131047 0 0 0 0 -48.061231136527425 -21.536593492699076 0 -21.536593492699076 29.572649395588087 0 0 0 0 -43.72891839400836 -66.663208486112126 0 -66.663208486112126 -31.93102212529044 0 0 0 0 -43.758680842640729 -35.347948859449858 0 -35.347948859449858 -2.5778217951931275 0 0 0 0 -60.750099346056231 -38.684283524758939 0 -38.684283524758939 60.250558432824619 0 0 0 0 138.64811747369822 -773.50404339142551 0 -773.50404339142551 544.59648880168061 0 0 0 0 2.4171642824617265 -12.019018925385545 0 -12.019018925385545 -5.0914781869491303 0 0 0 0 -103.3930321042717 -116.47870744855027 0 -116.47870744855027 -294.73564280034407 0 0 0 0 -1.6700837622047402 -148.59910613344255 0 -148.59910613344255 -583.0568230030749 0 0 0 0 -293.40681436436716 -35.170947984299346 0 -35.170947984299346 135.37062138768306 0 0 0 0 -9.5728835566412727 2.0893284967685162 0 2.0893284967685162 3.7089222381109188 0 0 0 0 -93.58970580904861 -282.36511484744915 0 -282.36511484744915 170.95475290621107 0 0 0 0 -623.80750959666329 -245.26204960201721 0 -245.26204960201721 320.79691169477883 0 0 0 0 -178.43306524981745 -334.79563726076049 0 -334.79563726076049 51.97900340360502 0 0 0 0 -102.10146782847005 -52.386881142858329 0 -52.386881142858329 284.84640219889843 0 0 0 0 -2.8134987620578613 -126.24671149721144 0 -126.24671149721144 -52.264632647849794 0 0 0 0 -68.313415550932405 -410.87587750564489 0 -410.87587750564489 -178.47450585586193 0 0 0 0 -12.794422599719837 -80.435127987779197 0 -80.435127987779197 -1.6909933127194563 0 0 0 0 -473.28751349476806 -116.5821890857369 0 -116.5821890857369 -3.6365861106678494 0 0 0 0 -5.7993565561463356 -11.085157932708171 0 -11.085157932708171 -13.026065097803169 0 0 0 0 -12.417676557560526 -6.3402150594431959 0 -6.3402150594431959 -7.179115238526574 0 0 0 0 -17.306343730313529 -51.62899212155753 0 -51.62899212155753 -76.110104842229703 0 0 0 0 33.720355358338566 5.724486315233662 0 5.724486315233662 111.72506811299445 0 0 0 0 29.970087980269454 -41.438053590801246 0 -41.438053590801246 19.152772797715443 0 0 0 0 25.260046297557437 -129.74280789817772 0 -129.74280789817772 78.719293877173186 0 0 0 0 25.734718909074218 -100.7290321194638 0 -100.7290321194638 -62.625498408478961 0 0 0 0 -0.016811991547001526 -94.620434124949838 0 -94.620434124949838 -8.190175057711599 0 0 0 0 40.961442944404553 -110.36699912405038 0 -110.36699912405038 -56.908478460532024 0 0 0 0 2.00271149846958 -102.0766036765261 0 -102.0766036765261 -62.913209289480903 0 0 0 0 -88.08857031702064 -122.63463102116589 0 -122.63463102116589 -32.638780800153654 0 0 0 0 -131.00027257094916 -117.56681829702575 0 -117.56681829702575 28.541975301634011 0 0 0 0 -118.15985025542614 -147.26977941266432 0 -147.26977941266432 39.554036349614762 0 0 0 0 18.157184149542445 -73.283736475155365 0 -73.283736475155365 -20.870329111703541 0 0 0 0 24.129981868797131 -29.649845844169704 0 -29.649845844169704 -28.676168313299101 0 0 0 0 -134.52807576209307 -188.78122092036574 0 -188.78122092036574 -53.592265725101242 0 0 0 0 -203.66787146090064 -184.35950987934029 0 -184.35950987934029 17.777220328804106 0 0 0 0 -106.98091797386587 -88.106972272346411 0 -88.106972272346411 -87.164503242127466 0 0 0 0 -256.20676052723138 -149.61530678878054 0 -149.61530678878054 -20.204211758192798 0 0 0 0 -260.95095554714499 -134.49138675577456 0 -134.49138675577456 -61.296423519613882 0 0 0 0 -10.501907331905386 -73.436338694489223 0 -73.436338694489223 -28.157513979637088 0 0 0 0 18.850314385061154 -45.323838011279193 0 -45.323838011279193 -8.2785795345399293 0 0 0 0 -38.572616367076989 -56.718773608720539 0 -56.718773608720539 -13.561145150824814 0 0 0 0 -19.692128388880519 -66.407895398411256 0 -66.407895398411256 -30.451323086993852 0 0 0 0 214.79033671270008 -227.80363568569373 0 -227.80363568569373 227.71206415630877 0 0 0 0 249.20381918102794 -250.83771082005478 0 -250.83771082005478 239.26078636381681 0 0 0 0 -68.607565854290442 -14.279375092019109 0 -14.279375092019109 7.1656192509472021 0 0 0 0 -17.841953564348643 -15.006430718159606 0 -15.006430718159606 -8.977476933206944 0 0 0 0 -83.26255387506535 -48.850594338802694 0 -48.850594338802694 -15.306627682355611 0 0 0 0 -118.60181359881608 15.520471850972172 0 15.520471850972172 14.150876848500047 0 0 0 0 324.63428434144589 -312.67541343230369 0 -312.67541343230369 197.0216556283558 0 0 0 0 167.06815412946162 -277.90390622730411 0 -277.90390622730411 207.28928104641454 0 0 0 0 231.33929828525288 -240.96530280654042 0 -240.96530280654042 216.21685706628182 0 0 0 0 143.3581898407574 -165.4054279747761 0 -165.4054279747761 68.529522482775064 0 0 0 0 245.8710730268358 -201.07648200151016 0 -201.07648200151016 69.62578328402742 0 0 0 0 179.67264634658932 -260.13838061063871 0 -260.13838061063871 189.99930816096457 0 0 0 0 -10.36291425619207 -20.166635053744585 0 -20.166635053744585 -26.98135196282476 0 0 0 0 32.483363915060181 -55.124659067862012 0 -55.124659067862012 30.673288601296008 0 0 0 0 121.96166669324157 -153.39486796216806 0 -153.39486796216806 19.9417253270949 0 0 0 0 92.235929812573886 -184.99908342594972 0 -184.99908342594972 109.32352389475273 0 0 0 0 85.801405428937869 -168.16197890991316 0 -168.16197890991316 139.21336443495602 0 0 0 0 239.3509016113203 -300.036702675784 0 -300.036702675784 185.20414271885966 0 0 0 0 -56.744900986377615 -114.63599194405833 0 -114.63599194405833 186.11215334956228 0 0 0 0 -0.75337455240565987 -3.3250610425512548 0 -3.3250610425512548 -3.177696047101378 0 0 0 0 19.681498283920519 26.618004390822989 0 26.618004390822989 -39.856896876477549 0 0 0 0 -15.376307293145359 -32.752850509585173 0 -32.752850509585173 -20.25393739949245 0 0 0 0 -6.5595399917638133 -19.133932143053187 0 -19.133932143053187 -24.191363987450178 0 0 0 0 20.922762341346242 -35.30220797470065 0 -35.30220797470065 -36.066825172135395 0 0 0 0 68.740404034215317 -96.503778947702131 0 -96.503778947702131 -88.324337579685562 0 0 0 0 31.492816616077107 -69.157482149241446 0 -69.157482149241446 -5.4407047952608991 0 0 0 0 9.8390977707351794 -5.2385421800949388 0 -5.2385421800949388 -2.399506048227007 0 0 0 0 69.066299470763369 -27.899500884520648 0 -27.899500884520648 -44.091644782660055 0 0 0 0 39.312244693282992 -42.092902963617234 0 -42.092902963617234 -34.784344814747783 0 0 0 0 12.37312599246593 -5.4789112603957619 0 -5.4789112603957619 -49.344575425302658 0 0 0 0 12.820800718167447 -7.9244102081756864 0 -7.9244102081756864 -111.95241966753656 0 0 0 0 9.5189051505367388 -0.42923354586673668 0 -0.42923354586673668 -113.67031794541617 0 0 0 0 12.357758245547302 -36.499729013863544 0 -36.499729013863544 -23.206731128841056 0 0 0 0 8.2296399897095398 -1.9284541874376373 0 -1.9284541874376373 -113.56639281081152 0 0 0 0 -0.57490770072035957 3.8190834647593874 0 3.8190834647593874 -117.28057977389835 0 0 0 0 3.615437316549901 -1.655516365739274 0 -1.655516365739274 -4.3519129666962186 0 0 0 0 134.69118537167378 -95.691613119637623 0 -95.691613119637623 95.359735661982995 0 0 0 0 277.96254041609791 -256.6261579558286 0 -256.6261579558286 169.41721752419835 0 0 0 0 335.07866467144049 -302.34910475656034 0 -302.34910475656034 221.78266160621206 0 0 0 0 334.49130057232264 -318.88404243071807 0 -318.88404243071807 277.86958875466371 0 0 0 0 332.94375202229276 -272.41048678308834 0 -272.41048678308834 276.14803689438122 0 0 0 0 180.93773218995921 -261.56953698589041 0 -261.56953698589041 293.47985449886619 0 0 0 0 305.17084948213596 -320.55563839105162 0 -320.55563839105162 320.55099838846581 0 0 0 0 0.79372564343714203 -0.13785593899288529 0 -0.13785593899288529 0.027776252948235935 0 0 0 0 32.602614765521139 55.629620500516467 0 55.629620500516467 -248.50913794751614 0 0 0 0 383.17237803956959 -224.02168320334931 0 -224.02168320334931 64.913869749168185 0 0 0 0 186.40641088897246 -212.88994073740832 0 -212.88994073740832 64.803097365756543 0 0 0 0 -365.03515355653144 -435.24420150907213 0 -435.24420150907213 -433.9274537201054 0 0 0 0 -22.122334155493988 -78.052415638909167 0 -78.052415638909167 27.99589075239173 0 0 0 0 -482.2192565391324 449.68310480686944 0 449.68310480686944 182.45472021634851 0 0 0 0 -4.4570739234167718 -3.0540124344779827 0 -3.0540124344779827 -0.89195633564372656 0 0 0 0 319.72665838766261 -425.95549905355983 0 -425.95549905355983 101.40124372827449 0 0 0 0 37.647767361406295 -95.096938955686255 0 -95.096938955686255 20.966719620155345 0 0 0 0 -42.209906881854138 -57.62757289845004 0 -57.62757289845004 27.241128291640038 0 0 0 0 -178.86409460526193 35.164745511363435 0 35.164745511363435 -180.19443189099002 0 0 0 0 -12.331103791467797 -9.2688916907642636 0 -9.2688916907642636 -3.8327845037095614 0 0 0 0 -121.98058581382793 -9.9044683678148431 0 -9.9044683678148431 3.8911123985271843 0 0 0 0 -207.72407363668026 79.289893875973576 0 79.289893875973576 -14.708655834001547 0 0 0 0 -224.36050123305358 -8.353830393275075 0 -8.353830393275075 49.345784102406469 0 0 0 0 -38.819970288594732 -54.615090481420708 0 -54.615090481420708 39.068118836993662 0 0 0 0 34.647710192504746 -78.52776902613823 0 -78.52776902613823 42.56579007266555 0 0 0 0 33.983453672793985 -80.662788247220305 0 -80.662788247220305 55.2708003839507 0 0 0 0 48.243110679613892 -71.77665616327613 0 -71.77665616327613 58.117439312532952 0 0 0 0 -137.21213918560534 -1.6905146442604746 0 -1.6905146442604746 59.390995634399587 0 0 0 0 -38.22606159238785 -59.866446774014548 0 -59.866446774014548 57.046813044884402 0 0 0 0 -41.231564108180464 -60.408238138657907 0 -60.408238138657907 87.630427433699879 0 0 0 0 -20.83475972017186 -80.848850242178742 0 -80.848850242178742 80.506849420762592 0 0 0 0 -8.8614094080694485 -68.425973320689081 0 -68.425973320689081 60.208155104406615 0 0 0 0 -3.7587052394374041 -66.168483108103828 0 -66.168483108103828 40.610541974068838 0 0 0 0 -3.3857761597173521 -61.98267274256068 0 -61.98267274256068 -3.1460673847250291 0 0 0 0 -4.0240133073821198 -83.037248946404361 0 -83.037248946404361 35.420970966370078 0 0 0 0 -42.437950600557087 -126.92805516076942 0 -126.92805516076942 -10.658301652405498 0 0 0 0 45.038274819081209 -42.851209472785911 0 -42.851209472785911 43.691550676763541 0 0 0 0 -10.060220850122278 -73.887015118575619 0 -73.887015118575619 24.222316194762243 0 0 0 0 -24.223310731584206 -128.56552150869902 0 -128.56552150869902 5.8062130249550137 0 0 0 0 28.780885758563159 -65.6246881942659 0 -65.6246881942659 60.65989703009646 0 0 0 0 -18.246338850847678 -85.21301304100075 0 -85.21301304100075 20.63158460572798 0 0 0 0 -67.914683925861027 -69.948180160814559 0 -69.948180160814559 -23.005777882495863 0 0 0 0 -16.177853110508295 -93.613852634427815 0 -93.613852634427815 -16.108848267914397 0 0 0 0 -64.506531539227581 -71.500360745035323 0 -71.500360745035323 2.3052115005275482 0 0 0 0 -23.917622936656699 -85.177663441807454 0 -85.177663441807454 3.5510336102925066 0 0 0 0 7.7308144316484686 -55.722477480442649 0 -55.722477480442649 8.6662175087271862 0 0 0 0 -73.764405005887966 -109.07816287463743 0 -109.07816287463743 -17.869011198179123 0 0 0 0 -126.2567905120959 -176.73371492637716 0 -176.73371492637716 -58.599617671597116 0 0 0 0 -0.146235704261926 -131.42658897719639 0 -131.42658897719639 -46.125344908467923 0 0 0 0 -98.401875355571974 -124.17327743018973 0 -124.17327743018973 -19.221825633204091 0 0 0 0 -50.132083241398504 -97.563238392974199 0 -97.563238392974199 -20.657604837647796 0 0 0 0 -32.965491873925203 -89.545181393566054 0 -89.545181393566054 -20.721183726802678 0 0 0 0 -0.024714527695323341 -79.531720554606181 0 -79.531720554606181 -34.177864005332594 0 0 0 0 -30.35252680775011 -59.482518982449619 0 -59.482518982449619 -40.511685751851473 0 0 0 0 -46.243447640095837 -69.391022718153181 0 -69.391022718153181 -10.622810998510431 0 0 0 0 -24.753523525490891 -66.76350398172508 0 -66.76350398172508 -40.662511048732995 0 0 0 0 -58.280533600933268 -116.00634570092961 0 -116.00634570092961 1.9454508680555591 0 0 0 0 29.442152103903254 -31.018612578100289 0 -31.018612578100289 31.429306166368463 0 0 0 0 -49.281365669623483 -80.366487806827081 0 -80.366487806827081 -9.8890114279438421 0 0 0 0 -31.405907043284969 -58.32567316602217 0 -58.32567316602217 8.0285561665606338 0 0 0 0 18.566635701167002 -17.928399621363326 0 -17.928399621363326 16.383735074445262 0 0 0 0 -80.905227868180646 -68.299685238978185 0 -68.299685238978185 36.489585630501097 0 0 0 0 -0.68059914063732663 -0.073409042551162429 0 -0.073409042551162429 1.2328695417509579 0 0 0 0 -0.63121569203212857 34.099857462628279 0 34.099857462628279 67.400587724745492 0 0 0 0 51.166473430581391 -66.876760145645676 0 -66.876760145645676 -13.412141456206882 0 0 0 0 -79.32220398471236 -18.606358476590458 0 -18.606358476590458 105.07754402859791 0 0 0 0 -12.638487407690263 -64.016752395371441 0 -64.016752395371441 -4.1435051929984184 0 0 0 0 -39.275616050494136 -10.928128944442506 0 -10.928128944442506 5.7742663048456961 0 0 0 0 -33.580589426441293 -24.744492902799266 0 -24.744492902799266 -2.5803246625509928 0 0 0 0 -21.619387597340392 -12.506087611996008 0 -12.506087611996008 1.8479079256394471 0 0 0 0 -6.8570653193869191 -4.4731873249152443 0 -4.4731873249152443 -0.058591187891551044 0 0 0 0 -31.794748138425462 -10.976590934604197 0 -10.976590934604197 3.3754844054624793 0 0 0 0 -30.681215644464828 21.016648594317303 0 21.016648594317303 118.33279794693567 0 0 0 0 -46.434825991513208 -17.613128871172194 0 -17.613128871172194 0.05100760752975475 0 0 0 0 -43.001668323908234 23.623945875295249 0 23.623945875295249 145.54952418892935 0 0 0 0 -0.030440163522143848 -61.469987094518729 0 -61.469987094518729 -55.072521254389358 0 0 0 0 -14.043364762714191 -7.9436293104972719 0 -7.9436293104972719 -4.4798265673543938 0 0 0 0 7.1439725194055086 -4.7122222365892128 0 -4.7122222365892128 0.58208577469700629 0 0 0 0 -21.527585945616011 -59.163432845927673 0 -59.163432845927673 -40.796856402851063 0 0 0 0 0.10601979441997855 -10.673031495946816 0 -10.673031495946816 8.0603122034590484 0 0 0 0 -13.611274838398231 -2.1682032945468599 0 -2.1682032945468599 1.7424247693084185 0 0 0 0 -41.998416486690985 -21.477925242625133 0 -21.477925242625133 30.839896715176451 0 0 0 0 -22.01904882791132 -37.316279238037765 0 -37.316279238037765 -79.025626531525631 0 0 0 0 -0.0014501536206807941 -4.9290200819486927 0 -4.9290200819486927 -4.544073523645352 0 0 0 0 4.3505389614327896 -1.3076153084837188 0 -1.3076153084837188 -5.0590804975817747 0 0 0 0 0.10022562036425597 4.2397223369722425 0 4.2397223369722425 -2.1067579093617748 0 0 0 0 0.064865576074225828 -49.069268097251552 0 -49.069268097251552 -7.4008105030516163 0 0 0 0 -7.4290001093304454 -14.971935803798715 0 -14.971935803798715 -9.6881922945722181 0 0 0 0 -12.453120481630322 12.594959924846989 0 12.594959924846989 111.84103962546214 0 0 0 0 -44.503579833224649 -69.696327859150188 0 -69.696327859150188 13.776494489508877 0 0 0 0 96.694870402890956 181.4468224992379 0 181.4468224992379 224.33764869886363 0 0 0 0 4.7996043335715513 -4.4855539204650086 0 -4.4855539204650086 5.4268045422612516 0 0 0 0 -24.347142653306946 -23.587079054330388 0 -23.587079054330388 -31.674556819169084 0 0 0 0 -115.87780783047492 14.273976278349437 0 14.273976278349437 151.92954179262233 0 0 0 0 -18.542700591642642 47.825733297344414 0 47.825733297344414 132.226540870804 0 0 0 0 8.6245113628392573 60.223396698811484 0 60.223396698811484 131.27694201190388 0 0 0 0 -48.321586168975045 66.645470208644838 0 66.645470208644838 167.64387378878382 0 0 0 0 -144.64611497436999 -38.791460378128249 0 -38.791460378128249 148.29632074408255 0 0 0 0 -90.880008425679989 -29.381854342105726 0 -29.381854342105726 120.51760926298084 0 0 0 0 -81.693400375297642 -5.8367330316796142 0 -5.8367330316796142 146.93104322071486 0 0 0 0 -103.56152513402958 -68.049471668047886 0 -68.049471668047886 79.662224906947813 0 0 0 0 -78.181804251566064 -53.341997472618459 0 -53.341997472618459 98.178223310253088 0 0 0 0 -102.6862438772223 -53.11208450018421 0 -53.11208450018421 124.55300249866559 0 0 0 0 -123.31233608309412 -89.027313482193676 0 -89.027313482193676 77.249592731095618 0 0 0 0 -12.689271329287777 -59.617100286678948 0 -59.617100286678948 63.330307964671618 0 0 0 0 -60.871056966556353 -84.451864411821589 0 -84.451864411821589 67.097904459824349 0 0 0 0 -141.61947018900537 -11.820525804636418 0 -11.820525804636418 147.95276556958561 0 0 0 0 -17.625861054659481 -17.463787584800663 0 -17.463787584800663 21.467612304697553 0 0 0 0 -537.85980019686394 -174.94650386172725 0 -174.94650386172725 84.761223442885239 0 0 0 0 -893.21614512355882 273.02505946089514 0 273.02505946089514 568.87002750561805 0 0 0 0 1504.5365923580248 399.88540327030933 0 399.88540327030933 -139.19854408800893 0 0 0 0 -2.3778995562461205 -41.089864770401618 0 -41.089864770401618 102.23060435165098 0 0 0 0 125.5254309244192 128.72169079008381 0 128.72169079008381 324.51748731709085 0 0 0 0 30.239208158542169 352.18131802808784 0 352.18131802808784 622.41081740063964 0 0 0 0 -71.659861514170188 -194.98046426350629 0 -194.98046426350629 190.78393007379782 0 0 0 0 -306.41049383097561 -174.3281470457805 0 -174.3281470457805 403.62998312180571 0 0 0 0 -100.04312484362163 -30.597901284432737 0 -30.597901284432737 397.9119066754356 0 0 0 0 -67.770501561957644 -189.30624183682085 0 -189.30624183682085 166.75399963956806 0 0 0 0 51.575068550123319 -79.204313862504065 0 -79.204313862504065 8.2192552017878153 0 0 0 0 -18.489995690059999 -59.789463115518316 0 -59.789463115518316 90.636424469743886 0 0 0 0 61.930263123940676 -111.96360767948499 0 -111.96360767948499 58.312744772788164 0 0 0 0 -65.32675004000339 -157.14255762489029 0 -157.14255762489029 81.273538779933006 0 0 0 0 -112.13838633467094 -47.941282136172958 0 -47.941282136172958 116.24233466962323 0 0 0 0 -12.509945167810656 -140.85259273842894 0 -140.85259273842894 75.68536796841363 0 0 0 0 147.15012249819119 -155.41998148960556 0 -155.41998148960556 -150.39864545061573 0 0 0 0 -215.70558698437526 -432.44687223849178 0 -432.44687223849178 -19.481785951298662 0 0 0 0 -480.23000079853227 -177.72329896858719 0 -177.72329896858719 486.2601783930586 0 0 0 0 -10.068557042242944 -31.288292015059426 0 -31.288292015059426 19.102213652054417 0 0 0 0 -295.21057163260411 -343.39758164178784 0 -343.39758164178784 -214.03267576180224 0 0 0 0 -99.627345176748349 -65.439224163947074 0 -65.439224163947074 -23.917216289020871 0 0 0 0 34.038176991598448 -93.501729358943521 0 -93.501729358943521 91.409160431117925 0 0 0 0 -39.480228892115065 -58.726915183357079 0 -58.726915183357079 56.838311218634459 0 0 0 0 81.417095847336896 -139.98256270863931 0 -139.98256270863931 90.994569506830885 0 0 0 0 -5.1390627187098232 -25.764711056336381 0 -25.764711056336381 6.782017590497972 0 0 0 0 -53.980734011263849 -26.687996520318393 0 -26.687996520318393 121.68358929488022 0 0 0 0 37.324984005885199 -102.65823395410189 0 -102.65823395410189 115.62218327611481 0 0 0 0 -59.796865807118593 -47.180416784347472 0 -47.180416784347472 102.94079770604367 0 0 0 0 -30.295217798266094 -92.714940406793175 0 -92.714940406793175 144.60121885649642 0 0 0 0 44.925585972896442 -102.99636546586305 0 -102.99636546586305 81.853639453627693 0 0 0 0 -32.208679983160437 -57.939984275747349 0 -57.939984275747349 77.715076808632148 0 0 0 0 -30.592357699788408 -69.741874569939682 0 -69.741874569939682 75.241079550247377 0 0 0 0 -44.647808832902228 -33.854338201315841 0 -33.854338201315841 33.978769117011325 0 0 0 0 -75.635596005166008 -14.690967634399385 0 -14.690967634399385 158.93430215618719 0 0 0 0 -47.235921859404073 -8.4215436613248258 0 -8.4215436613248258 -0.55689004521745789 0 0 0 0 -30.943878815829521 -27.691605566814815 0 -27.691605566814815 35.758843666910252 0 0 0 0 -32.021967369131744 -49.767496581918749 0 -49.767496581918749 76.62534414469701 0 0 0 0 -99.824784082447877 -56.973795288544352 0 -56.973795288544352 119.21104106198618 0 0 0 0 -63.128840452501493 -19.195501400381314 0 -19.195501400381314 20.930583298976451 0 0 0 0 77.52164241579203 -238.74485599996808 0 -238.74485599996808 -568.71463771662093 0 0 0 0 87.605142178872484 -86.86305807817007 0 -86.86305807817007 -507.77599432639181 0 0 0 0 -75.638887993794924 -83.267977975625399 0 -83.267977975625399 -398.46490349520991 0 0 0 0 -10.273938421760249 -152.19236247300432 0 -152.19236247300432 -539.49662583362806 0 0 0 0 -153.60762538216659 -142.71687265287756 0 -142.71687265287756 -424.36125721835469 0 0 0 0 -195.16106819817992 671.07573660983564 0 671.07573660983564 -1245.9412124638211 0 0 0 0 -6.3461111255674041 343.45367273127886 0 343.45367273127886 -741.39528112652033 0 0 0 0 331.74944469233742 -469.88837659037335 0 -469.88837659037335 -673.7344367495898 0 0 0 0 -162.15414712717757 -81.193442683452304 0 -81.193442683452304 -464.38398875296116 0 0 0 0 -37.183175935586917 -50.101091805626339 0 -50.101091805626339 -60.64482799704588 0 0 0 0 -89.124967452204146 -136.72847070754506 0 -136.72847070754506 -538.61423480694589 0 0 0 0 -39.330484855515351 -265.45550180041118 0 -265.45550180041118 -393.79185607871477 0 0 0 0 -207.42995083858841 -185.09723468056836 0 -185.09723468056836 -341.69217498242688 0 0 0 0 -153.37184921148764 -436.35578321155845 0 -436.35578321155845 -241.34115635872149 0 0 0 0 11.143301202268049 -335.19294207235362 0 -335.19294207235362 -455.87345815624212 0 0 0 0 5.9900628896102717 -303.78649012802089 0 -303.78649012802089 -522.39721898025891 0 0 0 0 -479.19666276140651 -194.46358772494932 0 -194.46358772494932 315.7548278677059 0 0 0 0 -41.374712243530666 -460.517852597819 0 -460.517852597819 -485.44952101152739 0 0 0 0 -179.94759345210969 -521.9248179796723 0 -521.9248179796723 -433.86557353620447 0 0 0 0 -137.77999812685994 -853.33084273224085 0 -853.33084273224085 -1440.4068750306687 0 0 0 0 -118.1496708850068 -753.92839391792586 0 -753.92839391792586 -972.45095701896935 0 0 0 0 97.595853326327415 -159.1740484876791 0 -159.1740484876791 -1102.9383052006124 0 0 0 0 115.53593263014773 -249.07237553099367 0 -249.07237553099367 -847.17539125369149 0 0 0 0 69.466915919747407 -280.6063849552047 0 -280.6063849552047 -1621.2063603752458 0 0 0 0 79.183542047043375 -227.53102242818204 0 -227.53102242818204 -547.22832270513572 0 0 0 0 -23.092931638571827 -465.04921440159887 0 -465.04921440159887 -672.60389812744688 0 0 0 0 134.9227121345757 -214.25567346721255 0 -214.25567346721255 -785.79215131489127 0 0 0 0 101.40413667742177 -63.722296285835 0 -63.722296285835 -511.54040197098948 0 0 0 0 39.874863366971113 -163.81100593402925 0 -163.81100593402925 -401.41192454601065 0 0 0 0 -127.67602498420456 -204.67790970924915 0 -204.67790970924915 190.18969904789355 0 0 0 0 62.466123256766878 -138.24423357428486 0 -138.24423357428486 -355.2860457442257 0 0 0 0 -1418.1797907854491 693.19462524608389 0 693.19462524608389 2452.4684111212555 0 0 0 0 727.96806446182745 -8.484186276784385 0 -8.484186276784385 -425.5245547536033 0 0 0 0 -38.771012375608308 -82.030190956741706 0 -82.030190956741706 -46.779543622172973 0 0 0 0 -27.657213563510869 -12.459936610107984 0 -12.459936610107984 -14.951955320643108 0 0 0 0 -142.06774240301229 130.64097687726155 0 130.64097687726155 -308.08801204192537 0 0 0 0 -138.00138368216858 142.99427028986278 0 142.99427028986278 -828.888915661184 0 0 0 0 31.877225849726528 47.072926050079332 0 47.072926050079332 -826.52230947840303 0 0 0 0 -193.75106700434844 93.609914890674645 0 93.609914890674645 -104.02498332999124 0 0 0 0 60.570999683271566 -153.01564967611921 0 -153.01564967611921 -51.593499012481516 0 0 0 0 -180.01642305513451 -72.252280964221427 0 -72.252280964221427 -102.48441065995576 0 0 0 0 -70.187714825944909 -93.11717276321906 0 -93.11717276321906 -33.926665761510833 0 0 0 0 -21.662968497008343 -93.811180404931804 0 -93.811180404931804 -24.259606783123878 0 0 0 0 -30.750543514141327 -102.79960932656104 0 -102.79960932656104 -25.814654693982447 0 0 0 0 -18.806071120974593 -98.400118990262854 0 -98.400118990262854 -108.4580166990072 0 0 0 0 -35.18333023311115 -62.310420625752705 0 -62.310420625752705 -38.603775706033332 0 0 0 0 -93.753640773082452 -72.871302449776522 0 -72.871302449776522 -29.627195722103352 0 0 0 0 -63.615251949050119 -81.146690147049583 0 -81.146690147049583 -17.526703548315936 0 0 0 0 -253.23991955982638 -120.90484094263707 0 -120.90484094263707 68.242519895910391 0 0 0 0 -8.9395869671585579 -9.1866517074228753 0 -9.1866517074228753 5.7523349532157955 0 0 0 0 616.80239170209279 -156.60172575263414 0 -156.60172575263414 -460.61374956741565 0 0 0 0 -1.2175746090360917 -87.726434183515266 0 -87.726434183515266 348.57853443532395 0 0 0 0 -347.30105588199513 -817.95103746776886 0 -817.95103746776886 898.65060746972722 0 0 0 0 -29.622939251282006 -55.577642785796805 0 -55.577642785796805 -10.955018845029207 0 0 0 0 -36.222817980302352 -73.352781920091729 0 -73.352781920091729 -18.92574630507761 0 0 0 0 -30.570727839563915 -52.745016246853993 0 -52.745016246853993 -25.816330386725895 0 0 0 0 13.342608350459457 -27.819246362963625 0 -27.819246362963625 -18.033439364557346 0 0 0 0 -25.564241128246067 -40.610461561756892 0 -40.610461561756892 -14.435704461514433 0 0 0 0 -25.83527686355967 -23.058663640552425 0 -23.058663640552425 0.57417391844595578 0 0 0 0 -42.996961483226187 -13.272420125018925 0 -13.272420125018925 -8.9734199369959242 0 0 0 0 0.10588752290210834 -18.691386851290559 0 -18.691386851290559 -2.4528852711963509 0 0 0 0 -77.769205210848668 -15.282742269156415 0 -15.282742269156415 11.855249737451231 0 0 0 0 -49.4224256584057 -41.330917655818212 0 -41.330917655818212 -2.6934140920727714 0 0 0 0 -9.7219414142209786 -12.765025632070973 0 -12.765025632070973 16.963675707265445 0 0 0 0 483.15551835927181 -445.86188038703222 0 -445.86188038703222 -1436.605957199431 0 0 0 0 384.03295424622775 -1381.8322581903162 0 -1381.8322581903162 -424.71930830281144 0 0 0 0 -319.72712482944189 2469.0929644719172 0 2469.0929644719172 -1825.4877795116317 0 0 0 0 -1166.5924423725082 -1291.1918386639964 0 -1291.1918386639964 2111.2495809127759 0 0 0 0 -12.060480685729999 2.4568192939550499 0 2.4568192939550499 -2.578210491538357 0 0 0 0 4.4345636238867883 1.6278105015417168 0 1.6278105015417168 -34.557303269466047 0 0 0 0 -10.911399654559773 -4.4198423843358174 0 -4.4198423843358174 1.426030981663363 0 0 0 0 -5.3046849084542771 -2.8613002561962375 0 -2.8613002561962375 0.41640639994350437 0 0 0 0 -11.878420878900215 6.3907409935036412 0 6.3907409935036412 11.490204262714542 0 0 0 0 -9.7260978627018631 -14.872371169873077 0 -14.872371169873077 -6.775136746040971 0 0 0 0 -31.605887220415752 -10.996582942945679 0 -10.996582942945679 -21.769453019352341 0 0 0 0 -21.94095498660306 -11.666347524582099 0 -11.666347524582099 -2.0066989249468121 0 0 0 0 -29.528505369591585 -2.960149886048157 0 -2.960149886048157 6.134051826540599 0 0 0 0 10.153093305169023 3.003374240201083 0 3.003374240201083 6.1349310328691899 0 0 0 0 34.940355525774066 -25.839163135984563 0 -25.839163135984563 -0.16280172193478393 0 0 0 0 -14.570148002676433 -49.356238708671754 0 -49.356238708671754 65.447309574123665 0 0 0 0 0.56020218137556554 -2.8840737556316611 0 -2.8840737556316611 0.4413213248537744 0 0 0 0 175.81379364750319 -44.663470861983797 0 -44.663470861983797 -31.279447073401343 0 0 0 0 -23.130424098635558 -20.405664127026739 0 -20.405664127026739 -21.927200867323791 0 0 0 0 -105.0769958005767 -34.740566138880695 0 -34.740566138880695 39.846430828813936 0 0 0 0 31.434002296336985 -44.959434435579396 0 -44.959434435579396 -50.169195561107699 0 0 0 0 18.86078951766649 -2.3754388605926238 0 -2.3754388605926238 36.533176061502672 0 0 0 0 -6.9112214162855992 -15.968754506605805 0 -15.968754506605805 -30.146040141296915 0 0 0 0 -1290.2739100466861 -340.11834339694633 0 -340.11834339694633 497.1649784711808 0 0 0 0 -1456.9779230414788 -737.10848237049413 0 -737.10848237049413 1610.8237284867646 0 0 0 0 -264.11240203969646 -754.21767599748 0 -754.21767599748 215.7281091751538 0 0 0 0 -874.68033018631104 -648.00482237403776 0 -648.00482237403776 218.86231043633506 0 0 0 0 -3.5073147228920618 -0.97821460356182399 0 -0.97821460356182399 -1.4947025377041214 0 0 0 0 7.7225878552508647 -16.347980660838914 0 -16.347980660838914 -4.6948073076114341 0 0 0 0 49.493648612362449 -1481.8844648812701 0 -1481.8844648812701 1022.4131768028383 0 0 0 0 1207.8375566107279 307.26744605129761 0 307.26744605129761 -13.425522074583569 0 0 0 0 -68.709874962012691 -51.550190779810691 0 -51.550190779810691 -15.692394268795283 0 0 0 0 -161.35938447633816 -897.66948919229708 0 -897.66948919229708 -1197.3768141049516 0 0 0 0 -1243.2129480036238 197.65864269213944 0 197.65864269213944 484.27397607370085 0 0 0 0 -934.81816625606734 -854.39348419671387 0 -854.39348419671387 148.26976833501794 0 0 0 0 96.564469283206563 -469.31451983119678 0 -469.31451983119678 -2576.7978751797491 0 0 0 0 -12.715464036464766 -2.1103535840400731 0 -2.1103535840400731 -0.047713614069148313 0 0 0 0 -841.7619368959131 -1414.2651426239954 0 -1414.2651426239954 -908.56782048398418 0 0 0 0 -1577.4248023083928 -880.60920457622888 0 -880.60920457622888 540.24237587273637 0 0 0 0 -471.87279248923733 -580.30204197797559 0 -580.30204197797559 140.30645819905988 0 0 0 0 -487.12596449104603 -552.08900318619396 0 -552.08900318619396 113.6214789761911 0 0 0 0 209.18797687906044 -300.97918452967866 0 -300.97918452967866 -381.94291966704515 0 0 0 0 -542.67657443975622 -618.04123563118924 0 -618.04123563118924 160.85306718341167 0 0 0 0 -616.81284489958671 -479.78850982854919 0 -479.78850982854919 -136.5495659808887 0 0 0 0 -604.41350740596408 -590.24110457032771 0 -590.24110457032771 138.12419224899566 0 0 0 0 -438.37265111720626 -421.60204026948622 0 -421.60204026948622 -49.890308351068143 0 0 0 0 -831.835301470579 -393.70406568888211 0 -393.70406568888211 29.290634360152126 0 0 0 0 -617.37469058888382 -570.40847020983188 0 -570.40847020983188 -102.01250885840454 0 0 0 0 -455.38564841149491 -372.61798077430421 0 -372.61798077430421 257.52744864941019 0 0 0 0 -94.142055124750186 -282.82651419352567 0 -282.82651419352567 -194.40394066980298 0 0 0 0 92.853067087016825 -27.813461914690151 0 -27.813461914690151 -41.314460308205526 0 0 0 0 -45.828833302672138 -10.084036881033342 0 -10.084036881033342 11.593759238021903 0 0 0 0 0.32021847325137998 -3.8484195191546746 0 -3.8484195191546746 3.1687006076427906 0 0 0 0 57.823215160358814 0.088916784169953189 0 0.088916784169953189 -35.888395947714685 0 0 0 0 21.73584893734369 -64.906200857456042 0 -64.906200857456042 31.149655783854527 0 0 0 0 4.5355175576982276 -14.745816394213435 0 -14.745816394213435 15.387114215127474 0 0 0 0 5.740025925187453 -9.6752413627638418 0 -9.6752413627638418 -26.724519107282617 0 0 0 0 6.7108140247146366 -183.77760299366855 0 -183.77760299366855 -80.898460805687137 0 0 0 0 -53.401391908773803 -83.112860190145966 0 -83.112860190145966 16.436078827527979 0 0 0 0 97.618260465002095 155.35646136242985 0 155.35646136242985 -81.82408581835611 0 0 0 0 -1040.1262513545043 -648.01656832974834 0 -648.01656832974834 -25.236800998751278 0 0 0 0 2.9200235668007437 -8.2695607181066748 0 -8.2695607181066748 -18.495238045048133 0 0 0 0 7.9840676304009861 -11.692165587918936 0 -11.692165587918936 17.644702888304582 0 0 0 0 -8.6457913744961843 -41.994972316569942 0 -41.994972316569942 23.05040048116507 0 0 0 0 -26.569048045930685 -308.73459226405339 0 -308.73459226405339 6.5022350148265105 0 0 0 0 -49.809227602396277 181.81471799561405 0 181.81471799561405 5.1636286502482065 0 0 0 0 2.5981389478204022 -8.004424787393944 0 -8.004424787393944 18.625270451120592 0 0 0 0 -609.24737499700132 -530.15001620719067 0 -530.15001620719067 -279.29259662282311 0 0 0 0 -472.37162106419419 -770.31164477140283 0 -770.31164477140283 -553.47888181539929 0 0 0 0 1.0121501234483574 -4.4794621182966949 0 -4.4794621182966949 -7.0126178419067209 0 0 0 0 -1796.5043117770365 -552.31377356758139 0 -552.31377356758139 -54.258556928783037 0 0 0 0 602.24234197692567 78.741776282363389 0 78.741776282363389 -401.58482533173083 0 0 0 0 4.0245476612326456 -364.96599824587338 0 -364.96599824587338 -314.75192738371607 0 0 0 0 -384.51976316947548 -398.34356083621924 0 -398.34356083621924 -138.51975518691688 0 0 0 0 35.212719159964763 -153.99173893809302 0 -153.99173893809302 -153.38302442831082 0 0 0 0 -527.96191473104409 -350.23591015388956 0 -350.23591015388956 -71.76783603978663 0 0 0 0 -129.441420678555 -518.9698976477971 0 -518.9698976477971 -414.20198162666384 0 0 0 0 -587.6080161404534 -293.20386601798691 0 -293.20386601798691 84.658917073694283 0 0 0 0 22.248619444573706 -123.111361215952 0 -123.111361215952 -226.76943899824983 0 0 0 0 3.372681678827945 -1.3139638029571543 0 -1.3139638029571543 -1.4342687209073617 0 0 0 0 52.667883161382633 -48.366402372282209 0 -48.366402372282209 -319.10363022207002 0 0 0 0 -5.9600922382378485 -61.189989470338332 0 -61.189989470338332 -197.10810353336814 0 0 0 0 12.697476022862247 -124.60783188287587 0 -124.60783188287587 -177.08979451434766 0 0 0 0 -13.051459750632375 -106.57199097294458 0 -106.57199097294458 -25.523337725051533 0 0 0 0 47.353725341577558 -27.371266301604024 0 -27.371266301604024 1.3839665361124354 0 0 0 0 29.166672575425764 -95.247303344657212 0 -95.247303344657212 -184.69840341743839 0 0 0 0 27.862315513237263 -147.07058306497402 0 -147.07058306497402 -43.287195529111159 0 0 0 0 78.158000252951751 -146.1513113084161 0 -146.1513113084161 -43.29268099200624 0 0 0 0 10.348219003637496 -271.52880574936455 0 -271.52880574936455 151.4768442248569 0 0 0 0 13.168654253262503 -96.755255228918259 0 -96.755255228918259 -82.560593327885726 0 0 0 0 68.570215911735431 -108.81207218666486 0 -108.81207218666486 -200.93118977420494 0 0 0 0 96.908475564559922 -126.32683856158746 0 -126.32683856158746 -86.668275207734723 0 0 0 0 -89.632642689997738 -167.78193738682927 0 -167.78193738682927 169.08958170398591 0 0 0 0 133.39584482890496 -19.217756277318287 0 -19.217756277318287 240.17751620653553 0 0 0 0 52.990419283094525 -313.81746193196625 0 -313.81746193196625 325.89927051808445 0 0 0 0 -11.070339143795877 -17.629986336082361 0 -17.629986336082361 -6.6120890822571639 0 0 0 0 65.651456701010829 -218.08266543035916 0 -218.08266543035916 108.01680060992385 0 0 0 0 263.59786256538064 -213.71098399559696 0 -213.71098399559696 104.08777497105341 0 0 0 0 -540.16283850203035 -165.68345132267677 0 -165.68345132267677 199.85872050919852 0 0 0 0 -27.153720389942237 -25.307980288743913 0 -25.307980288743913 -23.665463982363594 0 0 0 0 144.4841316624952 -41.28758535628458 0 -41.28758535628458 -178.92317234752409 0 0 0 0 329.36328685488115 -187.35185989547654 0 -187.35185989547654 -99.088627435549824 0 0 0 0 -71.352043775347511 -51.32272699294024 0 -51.32272699294024 17.472127034034763 0 0 0 0 -353.00396069722774 -322.69655437229949 0 -322.69655437229949 690.98185594561551 0 0 0 0 -8.4888143417007882 1.7388729294486005 0 1.7388729294486005 1.8832883039715522 0 0 0 0 913.99148354973295 336.12398929269375 0 336.12398929269375 -315.25029572514813 0 0 0 0 -1.2036165323475529 -9.8954936170109669 0 -9.8954936170109669 18.008680154315734 0 0 0 0 -35.088901606776076 -75.384395541367951 0 -75.384395541367951 -22.884932174118585 0 0 0 0 -378.0531751142662 322.9471687648338 0 322.9471687648338 818.17150123411466 0 0 0 0 -243.16793546740519 -138.35737009619334 0 -138.35737009619334 168.48132599303062 0 0 0 0 6.5223740891715352 14.011530455056345 0 14.011530455056345 111.51484369483296 0 0 0 0 -11.290333287885005 -128.54466144968046 0 -128.54466144968046 -155.99884159229532 0 0 0 0 -28.118173924725852 -116.45073013914953 0 -116.45073013914953 -135.3059406323955 0 0 0 0 -38.875100807206763 -171.35767883355584 0 -171.35767883355584 -124.456454371375 0 0 0 0 -39.088141562754785 -67.717067453051612 0 -67.717067453051612 -19.863259719321142 0 0 0 0 -8.068253837103839 -48.134938446613887 0 -48.134938446613887 61.073860174270521 0 0 0 0 8.7115888973421534 -172.16751074189233 0 -172.16751074189233 -158.67788205798388 0 0 0 0 -134.47661069851711 -301.58431147526426 0 -301.58431147526426 -180.65515282747947 0 0 0 0 -11.58386755680192 -48.246445910280315 0 -48.246445910280315 -21.552417937441714 0 0 0 0 -52.255246921777143 -66.436757894567563 0 -66.436757894567563 26.74301803941853 0 0 0 0 -60.548201935288432 -43.626526708435961 0 -43.626526708435961 -14.47660093016577 0 0 0 0 -26.302233860229535 -85.628710594951372 0 -85.628710594951372 -56.448767805854004 0 0 0 0 37.613377133093309 -174.91969627371964 0 -174.91969627371964 209.1203919405898 0 0 0 0 56.449202423551469 -153.20796928923437 0 -153.20796928923437 75.822652459009987 0 0 0 0 62.086999086142896 -130.61096645974311 0 -130.61096645974311 26.72462706404076 0 0 0 0 -51.326779527237846 -54.255121423839725 0 -54.255121423839725 20.372456848686742 0 0 0 0 3.4661692558147479 -98.974872542411063 0 -98.974872542411063 56.139277096090751 0 0 0 0 -66.059310032065696 -155.74303877382044 0 -155.74303877382044 -24.504935835304423 0 0 0 0 -7.3736341278126929 -97.501558826642849 0 -97.501558826642849 61.743287311188396 0 0 0 0 -32.841482015630959 -85.019809449884718 0 -85.019809449884718 -24.051112288589103 0 0 0 0 -48.370082042412832 -63.391010898967806 0 -63.391010898967806 31.722302980080826 0 0 0 0 5.1101955395211718 -2.5725757843667907 0 -2.5725757843667907 -10.652357427720171 0 0 0 0 -22.413628002108439 -110.31098323852906 0 -110.31098323852906 29.343290973636293 0 0 0 0 -41.028927857219969 -137.38926837781401 0 -137.38926837781401 -56.432977517230029 0 0 0 0 -63.472276988908561 -176.47902991167939 0 -176.47902991167939 -68.654365000576945 0 0 0 0 1.7962152773397975 -82.939913945301669 0 -82.939913945301669 50.415104184623488 0 0 0 0 -8.3113983442040364 -94.208861548879014 0 -94.208861548879014 8.5223059848157519 0 0 0 0 48.540157426035876 -181.33865587048331 0 -181.33865587048331 -74.872961225080871 0 0 0 0 -42.085523207373626 -98.972776978731417 0 -98.972776978731417 120.40393979579494 0 0 0 0 36.083030629601069 -24.137119281000579 0 -24.137119281000579 13.765570874434708 0 0 0 0 -7.1773904339861474 -69.318646546706077 0 -69.318646546706077 114.21709819471107 0 0 0 0 76.556599830449841 -67.623895277004493 0 -67.623895277004493 36.567069292164781 0 0 0 0 54.066034582512657 -133.0928700851282 0 -133.0928700851282 -44.021340625886296 0 0 0 0 10.221330210129963 -347.88887328575311 0 -347.88887328575311 -31.749474789073247 0 0 0 0 81.989957297133515 -273.66252715180417 0 -273.66252715180417 74.392609807828194 0 0 0 0 113.28098409104859 -243.16840313687135 0 -243.16840313687135 97.387802613789518 0 0 0 0 91.741846778808394 -194.88151672795266 0 -194.88151672795266 0.067229014423446642 0 0 0 0 -34.559795926330537 -30.887700622288211 0 -30.887700622288211 23.362242547235446 0 0 0 0 -155.67229835788021 -194.17946132647194 0 -194.17946132647194 55.600374201558225 0 0 0 0 -12.955851920778514 -105.35922734106205 0 -105.35922734106205 -22.630771194295839 0 0 0 0 -30.523564214327052 -177.70907083256316 0 -177.70907083256316 -1.5222603532693029 0 0 0 0 13.343646552586506 -156.76607446747448 0 -156.76607446747448 -28.674620601981587 0 0 0 0 -91.653972502112993 -129.13961780879708 0 -129.13961780879708 58.995645183142187 0 0 0 0 27.602994577425576 -71.841411621192975 0 -71.841411621192975 90.98201835434638 0 0 0 0 -57.050518644076874 -340.31620431639749 0 -340.31620431639749 -82.142319046295597 0 0 0 0 -46.287582837189802 -200.15660242460672 0 -200.15660242460672 -22.877969480126922 0 0 0 0 371.10018371333535 -410.63039923289762 0 -410.63039923289762 -93.576010724074877 0 0 0 0 -23.598700757775987 -166.47977043428591 0 -166.47977043428591 -55.767633090632444 0 0 0 0 -89.510540129109586 -190.32276131962135 0 -190.32276131962135 -10.062536600678868 0 0 0 0 -6.5014193506631273 -186.1634156851951 0 -186.1634156851951 -61.845771374104515 0 0 0 0 11.174807685206524 -25.808129746979496 0 -25.808129746979496 8.0951330937454582 0 0 0 0 -39.808530601741182 -79.938233558646004 0 -79.938233558646004 -29.94059051253025 0 0 0 0 9.3933427490119357 -50.500736136162232 0 -50.500736136162232 -9.1523924581269966 0 0 0 0 -39.511420149439132 -84.955764500401244 0 -84.955764500401244 -37.009829167369716 0 0 0 0 1.1782657349407115 -78.757847719652517 0 -78.757847719652517 -40.129073980680687 0 0 0 0 -103.41044008567405 -124.53462408460473 0 -124.53462408460473 -64.705308096898079 0 0 0 0 -5.1767941219798104 -10.559381537430529 0 -10.559381537430529 -15.26604542156705 0 0 0 0 -58.666805959088379 -56.907424673074274 0 -56.907424673074274 -112.24415789383784 0 0 0 0 -125.02823007290135 -135.2458006835368 0 -135.2458006835368 -57.098803267130279 0 0 0 0 -84.320388778985944 -70.930072522882256 0 -70.930072522882256 -91.570787174385259 0 0 0 0 46.789892476292152 -86.301649012795679 0 -86.301649012795679 -139.68034006285234 0 0 0 0 6.8961976746568645 -58.355513116573675 0 -58.355513116573675 -31.854120541066116 0 0 0 0 28.30160171380976 -85.110534255241873 0 -85.110534255241873 -85.607947032418451 0 0 0 0 -12.499647730166544 -73.025218280064792 0 -73.025218280064792 -35.840484941105387 0 0 0 0 -7.4973736736174033 -54.209207550265091 0 -54.209207550265091 3.6979615585623833 0 0 0 0 0.33656275662201551 -70.504242486190719 0 -70.504242486190719 -11.557493499841847 0 0 0 0 -13.163653651674394 -63.178661925185224 0 -63.178661925185224 2.5079275452735601 0 0 0 0 -11.516483534407275 -50.206938761826315 0 -50.206938761826315 -7.5294173039862784 0 0 0 0 -38.170865236446843 -55.270106606758418 0 -55.270106606758418 -54.217945617536316 0 0 0 0 -1.1742405048766358 -55.917433880585641 0 -55.917433880585641 -33.846103105616805 0 0 0 0 0.37010833431668289 -30.725790600998153 0 -30.725790600998153 -121.94964676306699 0 0 0 0 112.43087103117432 -8.451932928430324 0 -8.451932928430324 -60.929767031576375 0 0 0 0 -6.3621613951523344 -9.3560432082195746 0 -9.3560432082195746 -1.2577568966325714 0 0 0 0 0.64531539742392852 -75.087230568462473 0 -75.087230568462473 308.94705851636536 0 0 0 0 -0.24188284127098569 -3.2078303749641801 0 -3.2078303749641801 -0.82514568467755112 0 0 0 0 -402.1600842902626 8.1391963332207524 0 8.1391963332207524 116.31583500937268 0 0 0 0 97.821124684567621 -101.07124953203311 0 -101.07124953203311 -98.033753153009457 0 0 0 0 -31.797436465858482 -70.948384035160416 0 -70.948384035160416 -44.905108034892692 0 0 0 0 -35.36415078199451 -71.40855679923277 0 -71.40855679923277 -10.931268070041476 0 0 0 0 -34.826551918886253 -93.843062665175239 0 -93.843062665175239 -76.091711252709501 0 0 0 0 -42.608637831595843 -103.99299974992755 0 -103.99299974992755 -63.314903228347248 0 0 0 0 -1.7477462985661987 -53.463429426192306 0 -53.463429426192306 -15.835193810315104 0 0 0 0 -13.193597793627504 -52.390618832223282 0 -52.390618832223282 -19.719548742717379 0 0 0 0 -21.523587790450314 -60.585033398442775 0 -60.585033398442775 -17.263292644530736 0 0 0 0 -35.159648848493816 -81.995812497501902 0 -81.995812497501902 -56.236305924729095 0 0 0 0 -29.545968340178661 -65.143973916321102 0 -65.143973916321102 -31.047804447978706 0 0 0 0 -84.024829216206854 -113.33538691184367 0 -113.33538691184367 112.99090476402489 0 0 0 0 -12.721854158400575 -19.292673837227028 0 -19.292673837227028 -17.299638268684987 0 0 0 0 -41.740224818601533 -67.230011920041605 0 -67.230011920041605 -44.967369375563464 0 0 0 0 -48.120356125675244 -112.08638965731598 0 -112.08638965731598 -77.585263799883251 0 0 0 0 -65.139171477472701 -105.99174247008477 0 -105.99174247008477 -67.227463629820704 0 0 0 0 -29.513178584464185 -70.069435332796274 0 -70.069435332796274 -49.300677843355516 0 0 0 0 -35.015813473677184 -58.617004817734909 0 -58.617004817734909 -11.372072179071077 0 0 0 0 1.5747561307874491 -34.094026861748588 0 -34.094026861748588 4.218423252087657 0 0 0 0 6.1171212477475621 -33.516303016093318 0 -33.516303016093318 -18.537935092215506 0 0 0 0 -78.892755245513399 -75.932023742730735 0 -75.932023742730735 -75.393377621770924 0 0 0 0 -34.391211202944163 -70.940208909280301 0 -70.940208909280301 -32.030141540584772 0 0 0 0 -19.659146328838688 -76.042352295866294 0 -76.042352295866294 -31.825033760904262 0 0 0 0 -54.075790139642777 -104.81623730067076 0 -104.81623730067076 -80.021918348309555 0 0 0 0 -15.664843420621686 -56.151889065945568 0 -56.151889065945568 -43.911006483017736 0 0 0 0 -42.60592897378956 -102.34972998747435 0 -102.34972998747435 -82.956196706778428 0 0 0 0 -70.563159475830616 -133.39387096917199 0 -133.39387096917199 -95.535769216683548 0 0 0 0 -57.99843376899662 -98.808960338499674 0 -98.808960338499674 -58.494687588128727 0 0 0 0 -55.384158931708953 -118.55709207789732 0 -118.55709207789732 -82.54189052520087 0 0 0 0 -55.136155329353642 -84.295488871995531 0 -84.295488871995531 -16.146523186071136 0 0 0 0 -55.349553328647744 -117.0534467034754 0 -117.0534467034754 -71.671036146053666 0 0 0 0 -73.961115157850145 -99.104298810366345 0 -99.104298810366345 7.6165935325780083 0 0 0 0 -78.535660899797222 -108.56376259225908 0 -108.56376259225908 -8.8047824993991526 0 0 0 0 -62.877748305545538 -104.39173809927888 0 -104.39173809927888 -8.188891396363033 0 0 0 0 -40.861372785933781 -83.881577448329153 0 -83.881577448329153 -78.317513343314147 0 0 0 0 -64.337477695291454 -105.99576976536355 0 -105.99576976536355 -80.315554381997572 0 0 0 0 -184.66126629471546 25.493465186253161 0 25.493465186253161 -104.60274608958935 0 0 0 0 -64.421743228005653 -162.61461740275263 0 -162.61461740275263 -225.81236574407376 0 0 0 0 -98.364967443718342 -41.670633054403879 0 -41.670633054403879 -57.711899872760114 0 0 0 0 -4.3693198072940049 -1.2663041028336259 0 -1.2663041028336259 1.1794226281720768 0 0 0 0 -74.329193861907697 47.719411949787172 0 47.719411949787172 -245.39306040964584 0 0 0 0 -86.154506231672713 -100.75284306724643 0 -100.75284306724643 -98.124654210652807 0 0 0 0 -58.779987733669117 -69.125798458919149 0 -69.125798458919149 -3.4303071105354608 0 0 0 0 -17.702303032520746 -15.910155936795523 0 -15.910155936795523 -22.615847250852312 0 0 0 0 -178.29914415549138 25.164987582778849 0 25.164987582778849 216.20564021843529 0 0 0 0 -44.417204370300169 -28.825597224236844 0 -28.825597224236844 188.32424154595901 0 0 0 0 -379.75301601940009 -89.77988620717224 0 -89.77988620717224 238.6328826188701 0 0 0 0 -74.149690853519132 -74.95305666034983 0 -74.95305666034983 239.30655463553558 0 0 0 0 -31.707625571886751 -86.873373652289857 0 -86.873373652289857 -14.951596878357822 0 0 0 0 -77.591595003819293 -67.23735515772924 0 -67.23735515772924 6.3305476321467324 0 0 0 0 -36.423455231066328 -79.933370227394335 0 -79.933370227394335 3.2749952768681396 0 0 0 0 -98.857846901300945 -142.28743759633653 0 -142.28743759633653 70.868980463463231 0 0 0 0 -42.462627632190241 -79.060125098405493 0 -79.060125098405493 -14.302661041385434 0 0 0 0 96.598659003115245 -55.682293092906548 0 -55.682293092906548 48.59198610398289 0 0 0 0 -13.921865387326546 -90.897890170959442 0 -90.897890170959442 -26.529423874593974 0 0 0 0 -3.6917962143706973 -117.04732009463987 0 -117.04732009463987 -90.681764706380363 0 0 0 0 -60.287178528526354 -72.774157113219587 0 -72.774157113219587 -17.136327004409253 0 0 0 0 83.167611514407326 -300.06480490825197 0 -300.06480490825197 134.96791761218628 0 0 0 0 200.5340863905385 -623.26079826274326 0 -623.26079826274326 -52.060312200341286 0 0 0 0 -102.53007914179625 -88.241048801228771 0 -88.241048801228771 -72.977209582088108 0 0 0 0 -22.635010941158782 -64.112861656897763 0 -64.112861656897763 6.5956458962762703 0 0 0 0 -37.619521054679986 -80.504738375904594 0 -80.504738375904594 -30.160001110967031 0 0 0 0 -34.059292580350075 -86.205769451700462 0 -86.205769451700462 -74.483295946061844 0 0 0 0 -34.28205205424274 -91.048054860648222 0 -91.048054860648222 1.5290580654717587 0 0 0 0 -53.875730280467906 -105.0340610547305 0 -105.0340610547305 -19.48832723459418 0 0 0 0 -39.189559023757582 -60.45242353161656 0 -60.45242353161656 -17.451277004036704 0 0 0 0 -54.48757664464938 -99.211012238898547 0 -99.211012238898547 -71.69058994299121 0 0 0 0 -76.650308339609182 -103.9893759123097 0 -103.9893759123097 -51.493503310819506 0 0 0 0 -74.45752768276725 -121.74540725106999 0 -121.74540725106999 -34.23259617362055 0 0 0 0 -69.753640839480795 -97.165165746606363 0 -97.165165746606363 -8.665195314828452 0 0 0 0 -55.166504688333703 -97.851089267602561 0 -97.851089267602561 -11.132819278500392 0 0 0 0 -55.457992698153475 -69.753854129670458 0 -69.753854129670458 37.254490850078582 0 0 0 0 -19.703878835909563 -66.589077179092527 0 -66.589077179092527 -18.800919238085044 0 0 0 0 -58.205555562628433 -83.912217621692434 0 -83.912217621692434 -24.809133996009678 0 0 0 0 -22.636303502993542 -73.247706385343918 0 -73.247706385343918 11.183129807521254 0 0 0 0 -15.782347914733691 -77.479044147484728 0 -77.479044147484728 -42.760324670250156 0 0 0 0 -41.926073780321332 -59.487809992087307 0 -59.487809992087307 -22.638758985155388 0 0 0 0 2.775728320670737 -46.270915284282992 0 -46.270915284282992 -4.382276791099315 0 0 0 0 -16.867146751676046 -80.680801780787533 0 -80.680801780787533 -11.109081318484641 0 0 0 0 -20.061354467703495 -64.995287899902905 0 -64.995287899902905 -15.208895953204774 0 0 0 0 -39.994740324637803 -96.91290356525856 0 -96.91290356525856 -40.319753738226453 0 0 0 0 -19.484193078547833 -62.671948131579029 0 -62.671948131579029 -27.883012592216801 0 0 0 0 -31.26708618846169 -65.849358335165562 0 -65.849358335165562 -0.027013109727704432 0 0 0 0 -22.491192440505984 -71.188629086099581 0 -71.188629086099581 -39.438694951089929 0 0 0 0 -8.5430321759085928 -83.27912114348419 0 -83.27912114348419 -36.90758123438718 0 0 0 0 -36.583457786194288 -63.459259317649611 0 -63.459259317649611 -29.479701746273314 0 0 0 0 -14.351281544986392 -49.403661875309716 0 -49.403661875309716 -30.443139772038226 0 0 0 0 -30.104141405245173 -82.887032443848966 0 -82.887032443848966 14.691446772401832 0 0 0 0 -37.469691208395005 -59.316487752473705 0 -59.316487752473705 -22.493273388938469 0 0 0 0 -47.747078242874892 -63.057745881540249 0 -63.057745881540249 -28.725736197841005 0 0 0 0 -59.693413145738305 -43.788927537530981 0 -43.788927537530981 7.5603720660692488 0 0 0 0 -25.881052402677597 -82.789721501300392 0 -82.789721501300392 -60.985640241951842 0 0 0 0 -60.150620853703003 -97.78102572969965 0 -97.78102572969965 -38.604735848215796 0 0 0 0 -61.22904431738425 -76.337422885564592 0 -76.337422885564592 -67.766597728208581 0 0 0 0 -142.41271324783884 -182.87637538755826 0 -182.87637538755826 -136.1790457272009 0 0 0 0 14.719920415184475 -31.42231259051497 0 -31.42231259051497 -15.785421883830935 0 0 0 0 -16.036681917642653 -22.64992602683062 0 -22.64992602683062 5.5758802891055126 0 0 0 0 -49.324350808688905 -107.49358369565289 0 -107.49358369565289 -51.395960014283673 0 0 0 0 -35.652660075142194 -73.367476097957024 0 -73.367476097957024 -16.821005523648637 0 0 0 0 -17.567022714040405 -63.353480074618531 0 -63.353480074618531 -27.249335312141667 0 0 0 0 -30.268748811969999 -71.603798467353045 0 -71.603798467353045 -85.848859529514812 0 0 0 0 -35.760846318059293 -66.067600178171361 0 -66.067600178171361 -1.454541989089881 0 0 0 0 7.5240691380370208 -48.850452329335496 0 -48.850452329335496 -95.387283472675449 0 0 0 0 54.924457541288575 -64.903374379784509 0 -64.903374379784509 -149.14338383180439 0 0 0 0 -53.931804232943449 -70.85179418608385 0 -70.85179418608385 -10.370855349904405 0 0 0 0 -48.355298490787391 -159.02554687188967 0 -159.02554687188967 -162.08487237596273 0 0 0 0 -66.369765506853582 -190.69993373033503 0 -190.69993373033503 -175.9598204352078 0 0 0 0 -63.846187373826979 -204.45523185823913 0 -204.45523185823913 -193.63794973024051 0 0 0 0 -119.67421320045833 -105.38814225029273 0 -105.38814225029273 -118.54308208923567 0 0 0 0 -9.0281616845834662 -13.479887410646349 0 -13.479887410646349 -21.912939315742832 0 0 0 0 9.9735644528263947 -88.45758081735039 0 -88.45758081735039 -110.60201418319775 0 0 0 0 -53.92257298756158 -161.71010271903651 0 -161.71010271903651 -132.42319182831852 0 0 0 0 -9.1372200938758112 -26.968087381430355 0 -26.968087381430355 -8.2364217662211701 0 0 0 0 -44.883171872934327 -176.01897821575403 0 -176.01897821575403 -210.19647555556367 0 0 0 0 -35.501072154553583 -65.878844541066968 0 -65.878844541066968 -2.2077241813751138 0 0 0 0 -28.134031839763338 -89.401507775444088 0 -89.401507775444088 -38.208620883973708 0 0 0 0 -32.19985682098195 -95.683020262291393 0 -95.683020262291393 -47.911680421785604 0 0 0 0 -39.941560887831002 -75.623695012927726 0 -75.623695012927726 -2.9705247195917117 0 0 0 0 -54.336049495104817 -89.355489162726599 0 -89.355489162726599 -58.453162105718548 0 0 0 0 -45.770488916954491 -74.5645022882386 0 -74.5645022882386 -32.971844274071373 0 0 0 0 -17.239628932351479 -132.72826144647479 0 -132.72826144647479 -40.77874745700683 0 0 0 0 -47.378653582905827 -125.63230577539071 0 -125.63230577539071 37.973282067592663 0 0 0 0 34.08825971063925 -196.30933939625538 0 -196.30933939625538 -144.57003378460649 0 0 0 0 32.128229480469599 -252.38167064828303 0 -252.38167064828303 68.264268997394538 0 0 0 0 -103.53892240433925 -164.09040673675554 0 -164.09040673675554 11.667302258287236 0 0 0 0 -59.589517835549486 -93.573379711029702 0 -93.573379711029702 17.094754115765681 0 0 0 0 2.4374892460763959 -52.487477789464336 0 -52.487477789464336 35.461113461349029 0 0 0 0 -66.50274036375049 -110.18739739516241 0 -110.18739739516241 65.410435207140836 0 0 0 0 -74.463334405474598 -105.0648991188209 0 -105.0648991188209 12.312911313593759 0 0 0 0 -85.231030539842322 -84.585429016444323 0 -84.585429016444323 17.403973489868804 0 0 0 0 -14.417912734556012 -74.257324090465772 0 -74.257324090465772 -14.850822890593463 0 0 0 0 -39.694400769436527 -44.3107588024926 0 -44.3107588024926 -1.6458723006145668 0 0 0 0 -30.591996681207092 -73.327218478165832 0 -73.327218478165832 19.694639789345274 0 0 0 0 8.0431553867332894 -47.077133017464121 0 -47.077133017464121 -12.663137241393748 0 0 0 0 7.6897012265399098 -2.1875886761081347 0 -2.1875886761081347 -12.541949068807298 0 0 0 0 0.50793603802843279 -2.5563348040294329 0 -2.5563348040294329 -1.426207505248982 0 0 0 0 -193.01662671894883 -21.499842991041078 0 -21.499842991041078 32.496108480405383 0 0 0 0 -156.06457879728987 -30.311676339952101 0 -30.311676339952101 13.519850279859384 0 0 0 0 79.825369083235273 44.805136386050435 0 44.805136386050435 22.431694317194342 0 0 0 0 84.008955197496107 20.662017713853857 0 20.662017713853857 29.404898289249104 0 0 0 0 -2.7406395870202402 -16.449736567127616 0 -16.449736567127616 8.8551936039332588 0 0 0 0 -20.08857467956841 -15.38622673232021 0 -15.38622673232021 8.3289380394853652 0 0 0 0 27.46571323424007 -20.329062737107876 0 -20.329062737107876 -4.5017992048422286 0 0 0 0 -1.5184386866693558 -29.708896227337124 0 -29.708896227337124 20.459058950550435 0 0 0 0 -362.27540951530682 -135.41130096896086 0 -135.41130096896086 22.498250881348213 0 0 0 0 -12.497410393871149 -3.0751325928949917 0 -3.0751325928949917 7.4028949506820396 0 0 0 0 16.653799237328172 -32.152019202527654 0 -32.152019202527654 33.376752520030507 0 0 0 0 38.234245008890866 -82.939155596450291 0 -82.939155596450291 24.979452882311307 0 0 0 0 -102.1011789078766 3.730103960404449 0 3.730103960404449 89.111984499584651 0 0 0 0 62.08738699145033 -97.645823158443818 0 -97.645823158443818 10.37271341935957 0 0 0 0 -420.37946168352209 -46.578508468253858 0 -46.578508468253858 193.75527839928691 0 0 0 0 -332.57830794387337 -315.28371150255862 0 -315.28371150255862 141.4219617001072 0 0 0 0 -275.45329327258514 -69.352170291575021 0 -69.352170291575021 64.560086377612606 0 0 0 0 46.193506347888615 -557.31282912348979 0 -557.31282912348979 194.95604069601541 0 0 0 0 -264.89526714905514 190.82338528364562 0 190.82338528364562 556.07762107231247 0 0 0 0 -80.833841309155105 -62.196500418649521 0 -62.196500418649521 -80.986280641365738 0 0 0 0 -372.71130499413994 47.233970192541165 0 47.233970192541165 44.991720312260441 0 0 0 0 -345.95855104777729 118.2670096595175 0 118.2670096595175 201.84382202411985 0 0 0 0 -149.45661914462107 29.049831890908536 0 29.049831890908536 10.049589839418331 0 0 0 0 -601.93506095252815 -208.95653350899738 0 -208.95653350899738 -39.461179076525696 0 0 0 0 110.87508947383321 47.583690138038946 0 47.583690138038946 -18.603428088768851 0 0 0 0 319.48617040958197 64.834607999298896 0 64.834607999298896 -63.100382737555265 0 0 0 0 405.33182559374836 -366.64388521923684 0 -366.64388521923684 -77.480964066409797 0 0 0 0 -276.03709883632837 -197.03405709269282 0 -197.03405709269282 356.40446762437932 0 0 0 0 -2.6810915913356865 -1.7173921161659038 0 -1.7173921161659038 7.268694459655876 0 0 0 0 -203.64656450432085 -333.23333810485565 0 -333.23333810485565 281.1467903259836 0 0 0 0 -288.45306914770481 -84.777486853685787 0 -84.777486853685787 45.969298174954019 0 0 0 0 -332.82984042605676 -305.97517077684461 0 -305.97517077684461 476.58888066718646 0 0 0 0 -449.02121671313944 -602.32736338011273 0 -602.32736338011273 394.0915130359208 0 0 0 0 -178.49319186866342 -369.72650474753846 0 -369.72650474753846 -40.102258748011081 0 0 0 0 210.39164264287683 -302.29186617965752 0 -302.29186617965752 -86.223325345992635 0 0 0 0 221.12136412567975 2.6215661923984612 0 2.6215661923984612 -319.91471805398032 0 0 0 0 381.80585810895718 -545.68182233718835 0 -545.68182233718835 -9.995793160462199 0 0 0 0 -106.58397330535081 -727.87536615690806 0 -727.87536615690806 -64.387270556973817 0 0 0 0 -1450.8244921854202 -873.93384930967295 0 -873.93384930967295 61.705366697681711 0 0 0 0 2627.3691200274661 865.9811801865435 0 865.9811801865435 -692.24230199785234 0 0 0 0 7.7207214730505171 -9.6362933678082499 0 -9.6362933678082499 9.1585650134047256 0 0 0 0 427.79387561166368 74.838974782815058 0 74.838974782815058 281.45413415170333 0 0 0 0 766.62875427597464 -629.21828017090593 0 -629.21828017090593 -374.95593040566382 0 0 0 0 1053.8361986565033 -191.65775577502427 0 -191.65775577502427 -578.24422106857673 0 0 0 0 -1705.9213555522074 -816.2904308059824 0 -816.2904308059824 -108.0528782559777 0 0 0 0 22.400015789701555 -32.383889852891173 0 -32.383889852891173 28.255990745729605 0 0 0 0 -767.78028025738604 -555.92430603157482 0 -555.92430603157482 -518.18446606318867 0 0 0 0 -626.69098098749964 -112.31430534747597 0 -112.31430534747597 -275.30545879559941 0 0 0 0 -123.68645461028791 120.61875021590822 0 120.61875021590822 -107.63140162444688 0 0 0 0 -672.20985414089864 -60.512991013314604 0 -60.512991013314604 11.203499147406546 0 0 0 0 -381.03959539954667 110.5134478642467 0 110.5134478642467 0.18780352763860719 0 0 0 0 -451.72140628194029 -255.09720742276841 0 -255.09720742276841 -264.31626422878617 0 0 0 0 291.5092741217959 -306.55105184827516 0 -306.55105184827516 229.21450016286326 0 0 0 0 -6.1679603862838377 -9.31713693150175 0 -9.31713693150175 -8.6728117360109422 0 0 0 0 91.16542928486524 -113.01755938270162 0 -113.01755938270162 89.258975084849226 0 0 0 0 56.680693503396469 -52.632404533855151 0 -52.632404533855151 12.659330533671891 0 0 0 0 -0.9371500150916745 -11.675698078057366 0 -11.675698078057366 -6.6065821927387276 0 0 0 0 17.532991762360325 -38.309603155918012 0 -38.309603155918012 102.01702956081954 0 0 0 0 -9.1004910296178423 -43.642197608023707 0 -43.642197608023707 -72.565307558823406 0 0 0 0 -504.91896888165502 -514.77667872584425 0 -514.77667872584425 -658.64852160644659 0 0 0 0 -342.82931011210894 -397.41145994780527 0 -397.41145994780527 -938.32205972399242 0 0 0 0 -9.3574557253352708 2.3778456704880604 0 2.3778456704880604 0.46691181093851242 0 0 0 0 -35.518748952890746 -1400.5594172746351 0 -1400.5594172746351 -2426.8619484269002 0 0 0 0 -47.147246948919445 -72.712087784724446 0 -72.712087784724446 -52.622430205602654 0 0 0 0 163.911571745125 -1287.9749081536611 0 -1287.9749081536611 -4826.7399705072748 0 0 0 0 -660.03140713153698 -1365.0234928873178 0 -1365.0234928873178 -1772.4236272465187 0 0 0 0 -226.7979124804333 -721.8707291689916 0 -721.8707291689916 859.53242591739399 0 0 0 0 752.01070716443064 42.026531932689977 0 42.026531932689977 -1300.88394565817 0 0 0 0 -764.58784332241794 -750.26243213506496 0 -750.26243213506496 -119.56917408205481 0 0 0 0 -129.62873845986906 -331.62607767304507 0 -331.62607767304507 230.93289512986667 0 0 0 0 -468.00166791539959 -78.885125978416909 0 -78.885125978416909 323.74798001498129 0 0 0 0 -240.22155964559352 -52.679363700346585 0 -52.679363700346585 -413.09865232350057 0 0 0 0 -423.17566439937218 115.93466457127943 0 115.93466457127943 126.98749235400464 0 0 0 0 -146.63470679386228 51.273417363827321 0 51.273417363827321 141.94191528958618 0 0 0 0 -87.818369406862985 264.97348941199948 0 264.97348941199948 73.107555759313982 0 0 0 0 -322.48800792134716 -171.30258978499478 0 -171.30258978499478 -179.41378321019874 0 0 0 0 81.925550932821352 432.48385961597523 0 432.48385961597523 208.04066776247419 0 0 0 0 708.53191581385909 -125.83366919756554 0 -125.83366919756554 -293.24486207719747 0 0 0 0 1196.4104880169762 -764.78869785746792 0 -764.78869785746792 -184.96080761915073 0 0 0 0 -277.93424628341745 -53.102838202921703 0 -53.102838202921703 771.58406792709502 0 0 0 0 -184.62699006750336 -13.733676592148186 0 -13.733676592148186 -238.80918476662191 0 0 0 0 -395.27425155010133 -4.6936512546017184 0 -4.6936512546017184 -153.82517418251973 0 0 0 0 -630.83970527826386 -145.77913052491658 0 -145.77913052491658 -113.78649633355963 0 0 0 0 -315.94510378153063 -854.24901536295147 0 -854.24901536295147 -1905.0094338272975 0 0 0 0 -1290.2156763264793 -964.72296937772262 0 -964.72296937772262 -281.00588103148993 0 0 0 0 -10.021295949382733 -7.5791636326700313 0 -7.5791636326700313 1.4569071338604154 0 0 0 0 620.47129389311158 -867.73716060478546 0 -867.73716060478546 -1452.9823736971866 0 0 0 0 -290.47595541914416 420.68392478575151 0 420.68392478575151 -644.50045642929763 0 0 0 0 -273.55280155609944 -1016.628434983475 0 -1016.628434983475 -453.58886357618212 0 0 0 0 -936.95219490805175 -902.12090722227731 0 -902.12090722227731 -375.37514695112623 0 0 0 0 17.625137595407836 -32.144007984297829 0 -32.144007984297829 21.492160963561957 0 0 0 0 -886.87013541513033 -50.330921561495757 0 -50.330921561495757 20.507084352291713 0 0 0 0 -886.70355134719284 949.88467818295612 0 949.88467818295612 98.983663484383669 0 0 0 0 -113.67370752281568 -882.52285521802696 0 -882.52285521802696 207.36595853111248 0 0 0 0 211.19721226716501 -330.32330695512428 0 -330.32330695512428 17.619269826260279 0 0 0 0 281.1153963701363 -353.08280241959437 0 -353.08280241959437 -175.14990617040894 0 0 0 0 226.54493755949079 -462.97547206608579 0 -462.97547206608579 -68.707211138556886 0 0 0 0 -116.75791174483311 108.31092829368026 0 108.31092829368026 -169.99069146837064 0 0 0 0 24.741600374661743 -49.602222612542661 0 -49.602222612542661 -4.9785222667724476 0 0 0 0 173.45001685692478 -442.84227245978764 0 -442.84227245978764 175.36207165486121 0 0 0 0 -9.1150904992433084 8.0420219013045937 0 8.0420219013045937 -23.511813227029414 0 0 0 0 -325.0677118327585 -791.76685836200704 0 -791.76685836200704 -1148.686143367624 0 0 0 0 485.29699586535571 -148.17725980581599 0 -148.17725980581599 -498.10269581763714 0 0 0 0 19.020517613723968 -87.424317599354296 0 -87.424317599354296 -40.466248910487053 0 0 0 0 355.344773490433 347.59381614909944 0 347.59381614909944 60.218202856733114 0 0 0 0 -135.8765119377349 108.76848911453999 0 108.76848911453999 -55.469496239638829 0 0 0 0 106.54449554883104 -147.64390645933781 0 -147.64390645933781 -155.77034020397696 0 0 0 0 130.20494357634743 -150.3700111774815 0 -150.3700111774815 -246.95005281558133 0 0 0 0 211.87562040401099 -265.01375298575294 0 -265.01375298575294 -84.078590761037049 0 0 0 0 416.5755037797353 -139.41806784654545 0 -139.41806784654545 -10.500799231376732 0 0 0 0 89.44635156194272 -63.938277973009463 0 -63.938277973009463 10.57320132793393 0 0 0 0 223.9199913253542 -181.36633837149566 0 -181.36633837149566 1.2966437204013346 0 0 0 0 234.55748599753133 -80.064631121349521 0 -80.064631121349521 283.4158441915497 0 0 0 0 442.30337005980255 -539.94068944701212 0 -539.94068944701212 230.65539888173225 0 0 0 0 849.12032855112193 -861.20940507754676 0 -861.20940507754676 187.58294983889937 0 0 0 0 117.14811837073648 -289.06116621076944 0 -289.06116621076944 433.55554270291395 0 0 0 0 962.85910875966511 -946.62713148633884 0 -946.62713148633884 -1610.6416097898691 0 0 0 0 -7.6978097852444876 -14.967448241515044 0 -14.967448241515044 -19.165120993254988 0 0 0 0 -581.1894502085197 -518.34263198422559 0 -518.34263198422559 -729.11348250727315 0 0 0 0 -1233.401023032864 668.64706849251525 0 668.64706849251525 958.11612928986142 0 0 0 0 -734.22990336071962 616.66686560132803 0 616.66686560132803 -392.70932498663024 0 0 0 0 -477.42163181863725 16.830564694246277 0 16.830564694246277 516.72820439616771 0 0 0 0 -837.3870932585487 9.1550007811238174 0 9.1550007811238174 572.8063506497565 0 0 0 0 -4.9306174319364686 -7.9531380237196885 0 -7.9531380237196885 -10.339774174996862 0 0 0 0 -982.17360337436548 -106.82029962089291 0 -106.82029962089291 934.47674517554697 0 0 0 0 372.40056917482434 -300.62830989185022 0 -300.62830989185022 -154.48794969540359 0 0 0 0 -833.71213007347251 -420.85879908450079 0 -420.85879908450079 607.81397133089195 0 0 0 0 -91.402279982848995 62.1822168396302 0 62.1822168396302 334.70985312959237 0 0 0 0 638.50077017672083 188.67194209888021 0 188.67194209888021 228.37936865695519 0 0 0 0 -55.110688197913987 2.1142326738117845 0 2.1142326738117845 360.06456709100166 0 0 0 0 -204.67127379268732 -166.54621216911778 0 -166.54621216911778 -391.1945743386168 0 0 0 0 11.936342537940703 -15.339808584687269 0 -15.339808584687269 18.641209063246734 0 0 0 0 94.034388245534501 -5.1821546860592207 0 -5.1821546860592207 248.29380599757133 0 0 0 0 391.7820879731371 -654.61880936488524 0 -654.61880936488524 789.25544022695976 0 0 0 0 187.69096649640414 263.70228776985459 0 263.70228776985459 994.82008636240062 0 0 0 0 -100.04887511744892 153.83638133973727 0 153.83638133973727 172.16054293136403 0 0 0 0 -258.56639362593705 -307.58947943618114 0 -307.58947943618114 266.64362574037295 0 0 0 0 -474.42856397629657 83.067356076906435 0 83.067356076906435 346.93314481820198 0 0 0 0 -299.96729742718344 -461.66020718863092 0 -461.66020718863092 10.163345196240698 0 0 0 0 96.441259250445 -301.91426575093283 0 -301.91426575093283 -22.427895040345902 0 0 0 0 -300.24112846297794 -450.9392206810553 0 -450.9392206810553 228.63887592298852 0 0 0 0 92.744464357980178 -324.27579050902204 0 -324.27579050902204 429.2519529217243 0 0 0 0 432.16459312422376 -466.51754993448776 0 -466.51754993448776 49.172006815730128 0 0 0 0 197.70474570953229 -282.84482379038309 0 -282.84482379038309 283.50092009806394 0 0 0 0 101.83338626031036 -424.79162290643217 0 -424.79162290643217 156.97046220392804 0 0 0 0 -240.14412020488089 -630.55805409847744 0 -630.55805409847744 361.28348195092622 0 0 0 0 103.45650682204314 -398.22056285991641 0 -398.22056285991641 124.68129214453802 0 0 0 0 -369.42234828448272 -423.9697950917398 0 -423.9697950917398 253.89535361009666 0 0 0 0 -423.95579227038252 -86.485797640605597 0 -86.485797640605597 1.8276507905393373 0 0 0 0 -673.20862828839745 -300.65659599014907 0 -300.65659599014907 259.36266202040883 0 0 0 0 -408.2173880955379 -312.94344182157511 0 -312.94344182157511 27.464906495966716 0 0 0 0 -112.78174028249487 -252.9032064148978 0 -252.9032064148978 -3.5022684251671308 0 0 0 0 653.81908049550111 -895.98570199952519 0 -895.98570199952519 -1036.3274863663828 0 0 0 0 -8.7753293280699083 -21.140846506218949 0 -21.140846506218949 -43.175860011941268 0 0 0 0 -288.33302525942418 -897.74426979473355 0 -897.74426979473355 -43.125455728484667 0 0 0 0 -157.8668754392711 -186.33058743116999 0 -186.33058743116999 36.865672339234152 0 0 0 0 447.11217020932236 22.633719804991415 0 22.633719804991415 261.03968440864992 0 0 0 0 -2.8273409951924577 -6.4276326072321979 0 -6.4276326072321979 -16.755953480558674 0 0 0 0 452.55305618437069 -27.738612295551775 0 -27.738612295551775 659.67315118345869 0 0 0 0 -1455.474545200821 -238.48944256888717 0 -238.48944256888717 108.52903410850558 0 0 0 0 -961.68050066687283 -17.853492493486556 0 -17.853492493486556 95.779868281300878 0 0 0 0 -297.60779918808839 -160.78167826677236 0 -160.78167826677236 -280.40295686386526 0 0 0 0 -730.3975103883713 -568.31339952238341 0 -568.31339952238341 19.798728689922427 0 0 0 0 -211.6079238185921 -397.6312439153553 0 -397.6312439153553 -100.12067543953162 0 0 0 0 -98.413658783538267 -438.22502778994021 0 -438.22502778994021 -94.996578509319079 0 0 0 0 20.353507574470314 -253.63062538156237 0 -253.63062538156237 382.3484816676355 0 0 0 0 292.92912366657401 -99.363767584376546 0 -99.363767584376546 195.42973387578968 0 0 0 0 -2.5843983481583024 -3.6542701260262049 0 -3.6542701260262049 -4.8313407149424137 0 0 0 0 855.41897142430389 -775.40946927381719 0 -775.40946927381719 -401.23012528975232 0 0 0 0 -2801.0128513338241 -561.24289928365215 0 -561.24289928365215 0.70757043573394185 0 0 0 0 -1196.5312240160056 -92.340740854635442 0 -92.340740854635442 116.96171934089216 0 0 0 0 33.126603744898162 -48.843991862795647 0 -48.843991862795647 52.334788714765736 0 0 0 0 -1743.3033245278639 -941.23919190957531 0 -941.23919190957531 -932.42244824873342 0 0 0 0 -1711.0298660762819 -1102.1611068018301 0 -1102.1611068018301 -130.53330027400807 0 0 0 0 -261.07294718487537 -1244.1429300407981 0 -1244.1429300407981 -595.12246753190811 0 0 0 0 -346.75745179852402 -173.13664551078864 0 -173.13664551078864 918.82747360360372 0 0 0 0 -444.49147489141342 -582.79342669832204 0 -582.79342669832204 382.01414664003823 0 0 0 0 830.01295313261653 -563.11453633827114 0 -563.11453633827114 -278.89198273825605 0 0 0 0 809.35612623607449 -396.9862555920954 0 -396.9862555920954 -744.51033839625234 0 0 0 0 7.123874654236289 -5.7736420711355727 0 -5.7736420711355727 4.759697544831937 0 0 0 0 965.41832605174568 183.64783948563127 0 183.64783948563127 295.41263681362034 0 0 0 0 1090.8347563374118 -507.22835247724288 0 -507.22835247724288 137.30770678263798 0 0 0 0 434.63454167380468 -244.90749004200615 0 -244.90749004200615 58.271044820197858 0 0 0 0 638.3528406326368 -390.15584338592453 0 -390.15584338592453 157.5099758358092 0 0 0 0 615.47275205478627 13.153474953397563 0 13.153474953397563 21.094346638084971 0 0 0 0 179.57938447890047 -160.53280884286869 0 -160.53280884286869 83.531594090673025 0 0 0 0 345.37374453820667 -230.08498540307846 0 -230.08498540307846 97.745289018883341 0 0 0 0 317.72668074941066 -22.181975285515364 0 -22.181975285515364 -7.9257786993257469 0 0 0 0 80.773283989052288 -71.841083951032488 0 -71.841083951032488 94.675676219208981 0 0 0 0 52.644155193887855 21.836788008407893 0 21.836788008407893 63.426658488227986 0 0 0 0 -192.83083775526029 2.6480006172059802 0 2.6480006172059802 77.44594156769017 0 0 0 0 -146.49100769875804 26.497861664225638 0 26.497861664225638 94.383993943885798 0 0 0 0 -113.56313307309756 42.813576054773876 0 42.813576054773876 95.321031152655451 0 0 0 0 125.78506445496168 101.63499084219075 0 101.63499084219075 -43.3659863868088 0 0 0 0 212.61107735178666 -60.941677817303571 0 -60.941677817303571 55.839222556242021 0 0 0 0 158.00933838586207 -2.7312021453835769 0 -2.7312021453835769 269.94023733728682 0 0 0 0 75.417113343188248 -149.88163176822491 0 -149.88163176822491 84.941363392397761 0 0 0 0 -17.973640674761555 34.77324758746181 0 34.77324758746181 -276.83247385862342 0 0 0 0 -621.89674874997581 -830.30004966968772 0 -830.30004966968772 -77.978662026172969 0 0 0 0 -416.8828328068339 77.896084065898322 0 77.896084065898322 118.19864654215053 0 0 0 0 -145.72296760244421 -13.385579893251702 0 -13.385579893251702 77.905089881067397 0 0 0 0 -161.49698875403919 -57.588055845421877 0 -57.588055845421877 51.317505680970498 0 0 0 0 -210.79240108549129 27.228692113116267 0 27.228692113116267 106.10508808364102 0 0 0 0 -283.60000572910212 -83.367367154238309 0 -83.367367154238309 74.859370398968167 0 0 0 0 -404.52671707336776 -77.747246007804279 0 -77.747246007804279 145.12508221545431 0 0 0 0 -657.04813490627566 -648.80494123233439 0 -648.80494123233439 -352.71508340298533 0 0 0 0 30.073219544602992 -65.077829281769098 0 -65.077829281769098 68.365176137123655 0 0 0 0 -84.825916240399238 -2.3285311000508955 0 -2.3285311000508955 66.177446842186328 0 0 0 0 -355.22972291996484 -92.364177212903087 0 -92.364177212903087 114.83606068210065 0 0 0 0 -657.23286830447614 -627.73886167498858 0 -627.73886167498858 -575.89456631395296 0 0 0 0 -1449.7596266234177 -948.61750383634353 0 -948.61750383634353 340.60936416070035 0 0 0 0 -979.68950765117188 -798.71769622633838 0 -798.71769622633838 -414.94274014668918 0 0 0 0 -1373.8578188666143 -282.84555385403291 0 -282.84555385403291 -444.19054213569325 0 0 0 0 2.7935527861676519 -16.844945506531587 0 -16.844945506531587 30.940048752917804 0 0 0 0 -793.89556832864764 -359.59618992359901 0 -359.59618992359901 -573.48561510395302 0 0 0 0 -890.97695696067967 -592.64128266110674 0 -592.64128266110674 -355.89042187652376 0 0 0 0 -607.26023546382203 -496.21269279285843 0 -496.21269279285843 -492.75542381605555 0 0 0 0 -680.78676743610413 -713.51886975896923 0 -713.51886975896923 -325.47745798609503 0 0 0 0 -663.78145279472665 -659.82255510863615 0 -659.82255510863615 -246.76325733395061 0 0 0 0 -432.31837879911473 -281.79620076109495 0 -281.79620076109495 7.0827889112588309 0 0 0 0 -408.22297477391839 -647.85300831326458 0 -647.85300831326458 -355.92848877654615 0 0 0 0 -5.4683372227031555 -25.844488669315069 0 -25.844488669315069 30.802928462222297 0 0 0 0 -284.24497605917713 -194.04027676737678 0 -194.04027676737678 -60.331991048544296 0 0 0 0 -284.21902951515949 361.08854521573085 0 361.08854521573085 -254.07895054404798 0 0 0 0 120.17139886587393 -244.89589969148801 0 -244.89589969148801 462.47894690463727 0 0 0 0 -89.067109671932741 -91.825519242536828 0 -91.825519242536828 68.168579122833663 0 0 0 0 -67.422120821853241 -54.975389729724895 0 -54.975389729724895 -13.257751901293105 0 0 0 0 -157.37146127448068 -36.78554129585973 0 -36.78554129585973 49.031697044320026 0 0 0 0 -287.32136943382648 -196.94623053263786 0 -196.94623053263786 -51.161915052638506 0 0 0 0 -45.865480996023479 -31.594965611167837 0 -31.594965611167837 13.083308807493939 0 0 0 0 217.01386647479376 -604.15414937616151 0 -604.15414937616151 -1083.4518287703395 0 0 0 0 -215.68267270596698 -306.81471348252671 0 -306.81471348252671 -303.2592221287332 0 0 0 0 -286.37963835222763 -40.699003210000228 0 -40.699003210000228 386.76773223374039 0 0 0 0 -272.3318561057531 -184.32451452353052 0 -184.32451452353052 -62.692946362749353 0 0 0 0 42.501411380938478 -54.674858229029176 0 -54.674858229029176 -35.673259464722491 0 0 0 0 400.2710343278959 248.91611583586928 0 248.91611583586928 181.12610883729212 0 0 0 0 382.91561085026115 218.86395256218566 0 218.86395256218566 131.49299884372158 0 0 0 0 22.42006421406208 -15.91672154103756 0 -15.91672154103756 -20.390794133572285 0 0 0 0 -190.23200543380904 1913.3497075612124 0 1913.3497075612124 -457.74605916059227 0 0 0 0 -17.609881828925239 -15.457614925160733 0 -15.457614925160733 3.8353578959273023 0 0 0 0 522.77266421377135 -250.44638135381683 0 -250.44638135381683 45.27582559921575 0 0 0 0 -257.38766352376115 204.06807784700504 0 204.06807784700504 1909.1500682309852 0 0 0 0 460.48054507529014 -1812.0348872921313 0 -1812.0348872921313 -911.20894398265227 0 0 0 0 -6.6377727279032115 23.497143864064128 0 23.497143864064128 64.942496646097425 0 0 0 0 458.94647389813326 -4015.7860055733763 0 -4015.7860055733763 3230.3948690225952 0 0 0 0 12.601903610659065 -21.686452176014427 0 -21.686452176014427 110.03226722864929 0 0 0 0 188.4650367469294 -111.19055663509789 0 -111.19055663509789 150.63505867267304 0 0 0 0 -9.6098037880485947 -6.39522477304223 0 -6.39522477304223 -5.1224777528467342 0 0 0 0 720.83891584030971 -91.941042472385561 0 -91.941042472385561 -536.89715553092537 0 0 0 0 309.06361346547055 -437.66139197586017 0 -437.66139197586017 -99.81284414878246 0 0 0 0 -268.31739147960616 -378.95015456799956 0 -378.95015456799956 73.399370383929636 0 0 0 0 -216.1870349528981 -609.75002582032539 0 -609.75002582032539 -144.23765082629325 0 0 0 0 -215.11297550237578 -470.93884212943021 0 -470.93884212943021 33.794187323757797 0 0 0 0 -232.38314624573104 -314.67721734189399 0 -314.67721734189399 -276.10143190673807 0 0 0 0 -560.09122365576332 -488.44107505812281 0 -488.44107505812281 -140.75672453012885 0 0 0 0 -104.41650524748184 -670.351199133911 0 -670.351199133911 -1188.1474830355946 0 0 0 0 -177.0741391633951 16.766866259519361 0 16.766866259519361 285.63757126341079 0 0 0 0 275.48152201382618 585.99536377436925 0 585.99536377436925 -267.06819132235978 0 0 0 0 56.30719603206326 -61.158466006728531 0 -61.158466006728531 -23.525164105099122 0 0 0 0 -267.49577325570863 -187.8956343912796 0 -187.8956343912796 -102.19958763147952 0 0 0 0 -325.39429772591393 -239.70349517458817 0 -239.70349517458817 -53.294930687974556 0 0 0 0 -319.15753817172663 -178.61581232776371 0 -178.61581232776371 -66.964825836384989 0 0 0 0 -290.11822132705129 -209.09897437997461 0 -209.09897437997461 -83.321207911685633 0 0 0 0 -35.488788883390271 -173.02226210239917 0 -173.02226210239917 -241.92323415513238 0 0 0 0 242.70818884283653 -172.93650425076703 0 -172.93650425076703 -189.15999229418958 0 0 0 0 -28.597557226094068 -70.886077859722718 0 -70.886077859722718 -13.290155556518584 0 0 0 0 -146.51372507643828 -228.96046688554634 0 -228.96046688554634 47.868268268037355 0 0 0 0 -188.53253705742827 -412.41840582089389 0 -412.41840582089389 -219.24227487883763 0 0 0 0 -122.23698874889669 -283.66849532067863 0 -283.66849532067863 12.203533236694057 0 0 0 0 -258.19246975173883 -509.47422237408318 0 -509.47422237408318 17.458790015887644 0 0 0 0 -128.74237032186647 -410.77617509928859 0 -410.77617509928859 739.96889953834034 0 0 0 0 -2.0370089484657399 -2.4822181731980635 0 -2.4822181731980635 -0.67109927359326349 0 0 0 0 -342.87046434042895 -165.42124385771513 0 -165.42124385771513 -193.84271205478581 0 0 0 0 60.148469385298085 -300.3788777570262 0 -300.3788777570262 -1256.327828687814 0 0 0 0 -268.90334065818024 -306.2589313879871 0 -306.2589313879871 -311.67573577468647 0 0 0 0 224.3266563234356 -204.66009785946153 0 -204.66009785946153 -324.63162709687458 0 0 0 0 -225.85831414695167 -541.48460105555432 0 -541.48460105555432 -236.01951838778041 0 0 0 0 -223.44397585083061 -661.58352975924572 0 -661.58352975924572 2.8969451665398083 0 0 0 0 -114.79577182738467 -405.7109419259159 0 -405.7109419259159 -607.19852750771679 0 0 0 0 26.124368594100815 -71.958585206553835 0 -71.958585206553835 50.563543559524305 0 0 0 0 386.00921974135781 -405.91370254922185 0 -405.91370254922185 -197.34112745792663 0 0 0 0 21.789626547004445 -310.40172320312195 0 -310.40172320312195 757.86803726860398 0 0 0 0 6.4435864927343687 0.92650064280960009 0 0.92650064280960009 1.576347736966845 0 0 0 0 31.996509196564148 -17.254443681329576 0 -17.254443681329576 -506.61499609594102 0 0 0 0 -2.7451669453093928 -60.299169902853464 0 -60.299169902853464 -147.61306750638323 0 0 0 0 158.14988952536078 -238.17874827116975 0 -238.17874827116975 54.825157144849072 0 0 0 0 -23.643344602533034 -232.71440147934482 0 -232.71440147934482 286.15004527995006 0 0 0 0 135.95210002112435 -148.54942214405673 0 -148.54942214405673 90.940974956480204 0 0 0 0 22.544943589517231 -10.267191158716713 0 -10.267191158716713 -10.666733546911924 0 0 0 0 172.68226815163507 -162.28352526632807 0 -162.28352526632807 -304.34358796320157 0 0 0 0 78.428631974529083 -62.774665983958414 0 -62.774665983958414 -27.678543128868267 0 0 0 0 -15.064383112358495 -49.916628065950476 0 -49.916628065950476 -20.375855764207785 0 0 0 0 133.04257975237124 -102.85398469209758 0 -102.85398469209758 -33.972805789836457 0 0 0 0 -10.409504779774579 -49.426001640033064 0 -49.426001640033064 -30.808735163827805 0 0 0 0 -6.5003839744690026 -45.898822811877466 0 -45.898822811877466 -78.399332925398866 0 0 0 0 182.17053394300456 -66.390214854669466 0 -66.390214854669466 -340.84565595814547 0 0 0 0 941.83936271177663 -264.31463868729406 0 -264.31463868729406 -521.88160072187748 0 0 0 0 1543.1216388796893 -515.34867497434607 0 -515.34867497434607 -1293.6820857972634 0 0 0 0 -531.55047322818427 -258.06415008952536 0 -258.06415008952536 322.27470348734641 0 0 0 0 -208.87739885735209 -534.1006768392399 0 -534.1006768392399 261.52673747336303 0 0 0 0 -313.79626431725046 -39.607226461153914 0 -39.607226461153914 -76.992173255959642 0 0 0 0 450.29483718011761 -310.51726772326037 0 -310.51726772326037 546.43670010039932 0 0 0 0 378.72122253195266 -585.91899020923302 0 -585.91899020923302 518.07057249045465 0 0 0 0 108.80364883954098 -380.18329993552288 0 -380.18329993552288 567.16755236880272 0 0 0 0 52.794394516153261 -690.5261057667667 0 -690.5261057667667 502.4437220460095 0 0 0 0 115.61129299549992 -71.693269980757393 0 -71.693269980757393 -29.319809793281468 0 0 0 0 90.789086578897695 -95.171899441695132 0 -95.171899441695132 -103.66194651284786 0 0 0 0 201.88120458986305 -199.03520346663026 0 -199.03520346663026 -87.016309681176608 0 0 0 0 98.697781594120897 -158.96143590703832 0 -158.96143590703832 45.050381636254315 0 0 0 0 1.2420385631469983 -4.001759523646129 0 -4.001759523646129 -3.8331425303081659 0 0 0 0 -69.806587820729391 -144.90552094970286 0 -144.90552094970286 9.4953941666793895 0 0 0 0 920.99245942678681 -378.43224659165298 0 -378.43224659165298 -6.625474920758279 0 0 0 0 1552.3067974192272 -290.01070029326524 0 -290.01070029326524 -245.61164435306273 0 0 0 0 26.350447427545546 -10.999247826931544 0 -10.999247826931544 -0.78518035363391903 0 0 0 0 250.02474523044847 -55.27637731368047 0 -55.27637731368047 -34.112996922787076 0 0 0 0 25.686386319177387 -13.508959313871596 0 -13.508959313871596 1.1157464441425304 0 0 0 0 435.56341110995709 60.738756479237054 0 60.738756479237054 72.246924387931358 0 0 0 0 1434.1339951289119 -161.18909942440587 0 -161.18909942440587 -59.960798561020056 0 0 0 0 375.37808256362769 -60.014808000321864 0 -60.014808000321864 144.26058391670813 0 0 0 0 412.36058898357078 -136.86430729908216 0 -136.86430729908216 74.211742607702035 0 0 0 0 376.5355848390609 -83.006354360944897 0 -83.006354360944897 82.809175583879551 0 0 0 0 -8.8458646620051802 -56.885750582958252 0 -56.885750582958252 -0.88973222172042199 0 0 0 0 275.78115592018003 -344.99886266217436 0 -344.99886266217436 51.722447209052575 0 0 0 0 264.26989866532676 -207.50630167999861 0 -207.50630167999861 -100.55544812182779 0 0 0 0 25.093350004298109 -46.804447335255659 0 -46.804447335255659 -23.915067497535787 0 0 0 0 -59.301727417216348 -73.688555036863207 0 -73.688555036863207 21.390624825445713 0 0 0 0 266.09702219740575 -142.07689001378458 0 -142.07689001378458 17.903262912881473 0 0 0 0 55.708801878859958 -41.348968959122431 0 -41.348968959122431 1.8368081551452633 0 0 0 0 -12.564080717721104 -71.127865731397975 0 -71.127865731397975 -9.6207972685099037 0 0 0 0 28.563147569257126 -327.1313308114768 0 -327.1313308114768 228.55129406813649 0 0 0 0 -34.124554928809289 -69.720081315699531 0 -69.720081315699531 -5.0941670070772602 0 0 0 0 195.0884604899984 -147.89872701471813 0 -147.89872701471813 -35.034710403095232 0 0 0 0 610.46009369129024 -148.82207242719596 0 -148.82207242719596 49.996918358141556 0 0 0 0 29.503940961534681 -242.42900607896081 0 -242.42900607896081 43.17176517360349 0 0 0 0 -54.04008573458637 -10.565304895906419 0 -10.565304895906419 8.2836907715646646 0 0 0 0 185.95337429633946 -120.4185203554116 0 -120.4185203554116 -114.25879452817389 0 0 0 0 244.85454765122995 -243.0879843875482 0 -243.0879843875482 14.969640748551683 0 0 0 0 42.624917214983725 -291.17524672803484 0 -291.17524672803484 -117.60204179627908 0 0 0 0 236.80461789217588 -56.646216170656317 0 -56.646216170656317 164.19409205895499 0 0 0 0 190.13782819172047 -368.94836200548889 0 -368.94836200548889 268.22263249840762 0 0 0 0 -13.762583686381689 -29.229435272312017 0 -29.229435272312017 -64.973317288440057 0 0 0 0 253.53031474712043 -220.78982921398347 0 -220.78982921398347 -162.77546110623007 0 0 0 0 161.94573956506792 -438.21831677277078 0 -438.21831677277078 283.74436537744805 0 0 0 0 142.872833587895 -186.20870319606547 0 -186.20870319606547 323.08798905273579 0 0 0 0 161.59239629959211 265.86250874269354 0 265.86250874269354 105.38219252203271 0 0 0 0 -8.7587894153441397 -11.561253861213061 0 -11.561253861213061 -17.886208495596591 0 0 0 0 354.19880251622271 438.21295190261662 0 438.21295190261662 577.34860264271265 0 0 0 0 -191.32908190162561 -407.47286494493164 0 -407.47286494493164 330.25282687429717 0 0 0 0 -67.213125675458286 -76.815328078024322 0 -76.815328078024322 -50.715144074478303 0 0 0 0 -159.98744775598607 -117.2268545470979 0 -117.2268545470979 22.015798987627932 0 0 0 0 3.3460060187665164 -4.9814973398171247 0 -4.9814973398171247 -10.640673400848442 0 0 0 0 226.48017577230348 -279.43010806336679 0 -279.43010806336679 375.74476093079284 0 0 0 0 772.23235201592979 -248.2972817115633 0 -248.2972817115633 370.32073342554213 0 0 0 0 -35.234996423328994 184.80316906431835 0 184.80316906431835 -904.80619509214011 0 0 0 0 399.53215108505981 -512.76729650678317 0 -512.76729650678317 -528.90841927453585 0 0 0 0 705.0555885421345 -321.29720983130392 0 -321.29720983130392 -1161.7421491170535 0 0 0 0 -0.62600264522711768 -6.5360225042122835 0 -6.5360225042122835 -11.43603877382516 0 0 0 0 25.52753721922636 -471.65941908982859 0 -471.65941908982859 -429.80872680817993 0 0 0 0 441.7492174301442 226.89368768780696 0 226.89368768780696 292.44192653265236 0 0 0 0 504.31671809366162 -71.475815457628414 0 -71.475815457628414 55.877631686627865 0 0 0 0 102.95608444078243 -115.56576394875447 0 -115.56576394875447 494.21806383232979 0 0 0 0 -45.821634146406723 -436.47124777752106 0 -436.47124777752106 352.30746181865834 0 0 0 0 -652.26709024165757 -562.61536147198058 0 -562.61536147198058 -288.35088093609374 0 0 0 0 178.87873668385146 -69.873855601425021 0 -69.873855601425021 508.74079285917401 0 0 0 0 -101.77138547073992 -531.86027720511629 0 -531.86027720511629 -310.04478277061571 0 0 0 0 -1048.2207947668358 -414.85364206157101 0 -414.85364206157101 539.69499382171489 0 0 0 0 -39.043895587434719 -74.924260942563976 0 -74.924260942563976 -33.678180954431554 0 0 0 0 462.81921122155836 -955.84334106983442 0 -955.84334106983442 -377.15463825179904 0 0 0 0 -84.504694066097727 -425.92775982044259 0 -425.92775982044259 -432.98073136420862 0 0 0 0 1685.2888367879277 777.46514812579335 0 777.46514812579335 -147.73933093753294 0 0 0 0 94.132178904983448 -94.821435549198213 0 -94.821435549198213 -11.776803434608155 0 0 0 0 34.91240417777226 -68.692497457042919 0 -68.692497457042919 124.21070646750741 0 0 0 0 51.127360338667877 -75.154299171383528 0 -75.154299171383528 2.220064494566742 0 0 0 0 -87.482516750522791 -127.40532686137976 0 -127.40532686137976 -38.571252954970987 0 0 0 0 -60.609996809966106 2.2859663549461402 0 2.2859663549461402 42.098399857233744 0 0 0 0 -192.51167926959201 -62.458292413736061 0 -62.458292413736061 14.671384752886098 0 0 0 0 139.94171255569381 -110.43211279671596 0 -110.43211279671596 -7.5713871634216048 0 0 0 0 -16.457835506478204 -209.40474736804117 0 -209.40474736804117 -221.50698531894886 0 0 0 0 4.5623713645136172 -6.9806063930990572 0 -6.9806063930990572 3.0139972850835335 0 0 0 0 191.43939329504792 -83.296422128638369 0 -83.296422128638369 -28.585871751634841 0 0 0 0 171.93350322467813 -11.232804465264962 0 -11.232804465264962 -293.60359764184977 0 0 0 0 138.4148451390995 -63.827797867329821 0 -63.827797867329821 -20.835388143823366 0 0 0 0 8.7880409784647568 -8.151706842598216 0 -8.151706842598216 -8.2614016188712753 0 0 0 0 103.19703619219217 -54.834937825031375 0 -54.834937825031375 -21.328447366766795 0 0 0 0 -42.798374893885921 -10.589570183979959 0 -10.589570183979959 13.747700457635801 0 0 0 0 110.80450848051987 -67.518350132122578 0 -67.518350132122578 -5.0729179662594106 0 0 0 0 -14.702660875758738 -50.219156804880186 0 -50.219156804880186 -16.810238379388466 0 0 0 0 25.158795418811394 -50.793844797126184 0 -50.793844797126184 -5.0292209343157168 0 0 0 0 26.457749617407462 -42.525390005486841 0 -42.525390005486841 -14.275335477161832 0 0 0 0 69.115344339214516 -90.421553406285057 0 -90.421553406285057 -66.955676500794652 0 0 0 0 14.73720071927255 -100.6419399405786 0 -100.6419399405786 -65.991108620229397 0 0 0 0 -22.961821689340372 -20.0470969428685 0 -20.0470969428685 6.7737167834191325 0 0 0 0 -178.12939437827845 -167.29307159525706 0 -167.29307159525706 231.89176284456698 0 0 0 0 -26.487716630025716 -78.797791267228604 0 -78.797791267228604 -27.214955575107524 0 0 0 0 5.384770785965884 -103.49259471178993 0 -103.49259471178993 -36.824434094916796 0 0 0 0 9.3611101474912104 -27.794519333013795 0 -27.794519333013795 -11.082646870664519 0 0 0 0 -35.670296599215362 -58.156357258660137 0 -58.156357258660137 -26.938426070726564 0 0 0 0 -3.5669782051700167 -52.566903288423418 0 -52.566903288423418 -45.545661236727028 0 0 0 0 -16.907688563733245 -41.664030176758388 0 -41.664030176758388 -29.842936473309237 0 0 0 0 38.905124231973645 -40.880823879958768 0 -40.880823879958768 -26.577287466008102 0 0 0 0 -8.1077605134832993 -76.647459429840637 0 -76.647459429840637 -42.31409993788111 0 0 0 0 -3.4457994307749615 -45.448965484415247 0 -45.448965484415247 -41.812769027540341 0 0 0 0 19.765787742840985 -55.611732759421102 0 -55.611732759421102 -38.734258884680457 0 0 0 0 -6.0223266966545452 -91.562368718046855 0 -91.562368718046855 -37.66045105962985 0 0 0 0 79.96622554898704 -148.60961285639678 0 -148.60961285639678 -37.738850836055008 0 0 0 0 -6.797239358295883 -87.225784245135401 0 -87.225784245135401 -7.045137429573515 0 0 0 0 -35.312834031583094 -67.887494189914747 0 -67.887494189914747 -32.299039078366349 0 0 0 0 -26.731723489045521 -1.0825145343022768 0 -1.0825145343022768 -13.595380411939232 0 0 0 0 -709.05857449703035 -5.3676785303541692 0 -5.3676785303541692 -212.87379664485343 0 0 0 0 120.72311894524319 -53.335186807387799 0 -53.335186807387799 -136.94221195709542 0 0 0 0 -262.90978586818892 25.853125698273288 0 25.853125698273288 82.242533935917891 0 0 0 0 -71.182934457174269 -192.67115024794475 0 -192.67115024794475 -20.564461128251423 0 0 0 0 100.45084340200629 -65.360718646203168 0 -65.360718646203168 73.865811327050324 0 0 0 0 228.45778186628013 -278.65203638892126 0 -278.65203638892126 85.45004281349884 0 0 0 0 107.49336538561329 -20.509979202994145 0 -20.509979202994145 -148.93009802873712 0 0 0 0 91.357203220715746 -14.576643412117846 0 -14.576643412117846 -87.335883702122374 0 0 0 0 583.21069805398292 -252.69194163194697 0 -252.69194163194697 -25.168530270166229 0 0 0 0 21.153474381120759 -115.84607590015366 0 -115.84607590015366 123.21284421556629 0 0 0 0 54.999108332474862 -177.11944811947433 0 -177.11944811947433 123.771242639923 0 0 0 0 380.64098101244599 -340.59997858272982 0 -340.59997858272982 59.451475070287415 0 0 0 0 181.01485637790029 -121.9186897284817 0 -121.9186897284817 93.950920589049929 0 0 0 0 170.66577536227851 -142.65583825495196 0 -142.65583825495196 61.848330864944728 0 0 0 0 -2.6582591979095014 -11.281049039702339 0 -11.281049039702339 127.90175714775978 0 0 0 0 45.478172984561752 -141.77816135912326 0 -141.77816135912326 -17.11782034105272 0 0 0 0 -52.745155315095438 -74.188288387746638 0 -74.188288387746638 -31.716808537410841 0 0 0 0 -84.349981437015231 -60.052510134657496 0 -60.052510134657496 138.58751658137771 0 0 0 0 0.94805198253396838 1.0831949343764222 0 1.0831949343764222 -5.7297744964103572 0 0 0 0 -251.16909151311847 422.28332718117599 0 422.28332718117599 170.63377511245199 0 0 0 0 17.822070323614753 -158.70201056314181 0 -158.70201056314181 -74.769223341572797 0 0 0 0 -147.81134075933369 -227.06973546833342 0 -227.06973546833342 -204.10049459588845 0 0 0 0 -201.71535760478218 -308.56294915679791 0 -308.56294915679791 -311.67532351476257 0 0 0 0 -233.31239512366301 -328.59970387074281 0 -328.59970387074281 -195.15391088707474 0 0 0 0 -184.96144181172713 -306.04517884110282 0 -306.04517884110282 -313.45712642830586 0 0 0 0 -3.1450389830750396 1.0617944568835043 0 1.0617944568835043 -4.2410186949911228 0 0 0 0 -11.180170379841002 -25.905790249591519 0 -25.905790249591519 -63.593290580298344 0 0 0 0 -119.57238714284176 -191.07283485561311 0 -191.07283485561311 -317.78525986370914 0 0 0 0 -13.315521794096639 -23.517969275970927 0 -23.517969275970927 -35.112025220470969 0 0 0 0 -8.2370583377050934 -24.908477250139185 0 -24.908477250139185 -34.810101378370746 0 0 0 0 -5.9583987381515442 -5.9524756297787178 0 -5.9524756297787178 0.82278223033045705 0 0 0 0 -1.4349202644948065 -15.508827485906494 0 -15.508827485906494 -13.409423070929478 0 0 0 0 4.7152800460690401 -5.5765664878663443 0 -5.5765664878663443 -2.3291000646717137 0 0 0 0 -19.593259754656174 -36.975069255038761 0 -36.975069255038761 -26.028559548780322 0 0 0 0 -15.463410001633747 -15.621453806747922 0 -15.621453806747922 -5.7186218565839226 0 0 0 0 -11.50100283100619 -39.009369131013955 0 -39.009369131013955 9.1031211745666951 0 0 0 0 6.964648665168248 -14.137197893983341 0 -14.137197893983341 -10.7595800897031 0 0 0 0 -4.6508283557023447 -6.7041835446118725 0 -6.7041835446118725 -0.81253711757900149 0 0 0 0 -8.4087316993973218 -53.111837856638886 0 -53.111837856638886 -31.490022812533425 0 0 0 0 -19.729099969030358 -39.270284140162403 0 -39.270284140162403 -31.683290238142945 0 0 0 0 15.704802726686466 -42.897461850421678 0 -42.897461850421678 -35.208144924956287 0 0 0 0 -21.176426513920887 -36.959755294319621 0 -36.959755294319621 -11.870740119663878 0 0 0 0 -16.53028048008855 -56.604930085468368 0 -56.604930085468368 -9.6659221575173433 0 0 0 0 -22.779289234313183 -44.865191276097903 0 -44.865191276097903 -30.444946189719758 0 0 0 0 -36.639725819418345 -45.316166680135211 0 -45.316166680135211 -17.788295070320601 0 0 0 0 -13.921915205748519 -42.722560602236626 0 -42.722560602236626 -31.13550622369803 0 0 0 0 19.293158923959709 -42.321547797128005 0 -42.321547797128005 -27.706575991003774 0 0 0 0 5.9966629125583779 -16.891322478527997 0 -16.891322478527997 2.9852166276325889 0 0 0 0 -20.914749251169269 -47.704060330223001 0 -47.704060330223001 -30.382379600661807 0 0 0 0 2.31686838362657 -39.832746770498488 0 -39.832746770498488 -30.949234162770153 0 0 0 0 -175.17084881795745 -167.99186802317035 0 -167.99186802317035 -130.14397623292098 0 0 0 0 -177.21249481783161 -156.20100486557567 0 -156.20100486557567 -111.73209011617473 0 0 0 0 -133.07247976780491 -104.38742253708915 0 -104.38742253708915 -124.75355299833973 0 0 0 0 -309.21280798759472 -228.44670618393184 0 -228.44670618393184 -102.04825066076228 0 0 0 0 -266.84383788576088 -114.97575665525619 0 -114.97575665525619 -16.850262405056128 0 0 0 0 7.2941844902869235 -13.315404059479434 0 -13.315404059479434 -23.306832240741784 0 0 0 0 31.593924658482138 -56.791449373575233 0 -56.791449373575233 -11.095854830375174 0 0 0 0 -24.80440178707795 -38.802006193165653 0 -38.802006193165653 55.721850741989329 0 0 0 0 -432.58332263822376 -194.44464000144399 0 -194.44464000144399 -84.490321782730462 0 0 0 0 277.41036998556228 -162.62180908008668 0 -162.62180908008668 -478.26566230366006 0 0 0 0 -0.54785795549557292 -1.7429876969541169 0 -1.7429876969541169 -3.0308870295104668 0 0 0 0 4.8458775679580484 -10.974214962996584 0 -10.974214962996584 -20.96576393323916 0 0 0 0 -3.9000368668930605 34.091342708316006 0 34.091342708316006 6.3991555889006122 0 0 0 0 -437.88742517659193 -202.21669818596047 0 -202.21669818596047 -58.480629924342793 0 0 0 0 -394.02431721195171 -207.00217236781464 0 -207.00217236781464 -82.70261021071201 0 0 0 0 -476.22594034319627 -239.18361877041752 0 -239.18361877041752 -94.202559818240843 0 0 0 0 -350.33380754265454 -270.09472824339446 0 -270.09472824339446 -123.26075098332512 0 0 0 0 -323.93741146553293 -295.19421248784965 0 -295.19421248784965 -144.44554943449475 0 0 0 0 -332.49219782642831 -307.59486619921881 0 -307.59486619921881 -125.41313308227836 0 0 0 0 -359.88043543585809 -280.35439330455119 0 -280.35439330455119 -115.96548098501444 0 0 0 0 -299.23703331367506 -302.3387033305562 0 -302.3387033305562 -135.80768133887614 0 0 0 0 -275.43161622177286 -250.80325110669219 0 -250.80325110669219 -113.85664777903969 0 0 0 0 -297.397557684395 -314.72240807600974 0 -314.72240807600974 -151.45875894681649 0 0 0 0 -333.89955791301327 -391.90953976840956 0 -391.90953976840956 -192.28467249501045 0 0 0 0 -290.21557058473263 -336.7991304666989 0 -336.7991304666989 -123.9710347706532 0 0 0 0 -341.32218477506831 -331.25115620059296 0 -331.25115620059296 -122.15911642032461 0 0 0 0 -396.48840018748888 -304.60074491975411 0 -304.60074491975411 -96.817668927949853 0 0 0 0 -351.0084971491533 -286.08957840254379 0 -286.08957840254379 -89.337687764040311 0 0 0 0 -319.19113100341201 -301.1130260981372 0 -301.1130260981372 -123.23071793048075 0 0 0 0 -352.45849481038749 -295.61332390600364 0 -295.61332390600364 -131.4646750189022 0 0 0 0 -328.9030507231746 -252.79626683471861 0 -252.79626683471861 -116.68251362641604 0 0 0 0 -326.09074702989892 -271.43434119739322 0 -271.43434119739322 -141.4951365638517 0 0 0 0 -316.6772728584474 -258.23102212497088 0 -258.23102212497088 -126.47475489174394 0 0 0 0 -324.66635683056666 -281.76856580548338 0 -281.76856580548338 -126.25141993469333 0 0 0 0 -330.36039918973984 -296.1718531800725 0 -296.1718531800725 -157.58366544516321 0 0 0 0 -348.52568667873857 -286.09814960048425 0 -286.09814960048425 -145.59185648250423 0 0 0 0 -332.25908852011344 -277.984648476644 0 -277.984648476644 -193.54797051777859 0 0 0 0 -305.81080623132584 -267.39835509986733 0 -267.39835509986733 -166.49894134171245 0 0 0 0 -333.74759729637299 -280.3652987977166 0 -280.3652987977166 -158.95009242198284 0 0 0 0 -286.59796425401873 -250.67646467589657 0 -250.67646467589657 -182.19239783344528 0 0 0 0 -270.24425585473364 -196.47260900757465 0 -196.47260900757465 -124.34386627506319 0 0 0 0 -302.95771191704262 -212.21503008663421 0 -212.21503008663421 -79.818438932903518 0 0 0 0 -303.35988619033378 -222.27403425012108 0 -222.27403425012108 -88.254136674484471 0 0 0 0 -285.12894134900125 -193.39922239135194 0 -193.39922239135194 -89.402622687906614 0 0 0 0 -320.99074584978371 -264.37711694414611 0 -264.37711694414611 -33.080505294688919 0 0 0 0 -320.22675866476493 -255.59635182473721 0 -255.59635182473721 -67.8074463271696 0 0 0 0 -318.98212929570582 -227.85656969659976 0 -227.85656969659976 -86.288846048248161 0 0 0 0 -333.84108747480786 -251.65384769158845 0 -251.65384769158845 -116.58931645366465 0 0 0 0 -304.89177805513464 -246.42858418472861 0 -246.42858418472861 -134.45477810564626 0 0 0 0 -251.23589887313574 145.28808817631943 0 145.28808817631943 549.35970665048808 0 0 0 0 -467.24495905305957 -165.30115036983625 0 -165.30115036983625 -99.957336851060973 0 0 0 0 -595.15680541412439 -148.34401636255643 0 -148.34401636255643 -98.122880989685655 0 0 0 0 -827.15368188504362 -194.46577475481172 0 -194.46577475481172 -71.843780816394428 0 0 0 0 -462.60154695491656 -311.80903376369679 0 -311.80903376369679 -166.22964804623189 0 0 0 0 -585.12369338539429 -294.90794441887556 0 -294.90794441887556 -158.71511182451104 0 0 0 0 -446.65604524555965 -245.41419795916227 0 -245.41419795916227 -108.15265082410042 0 0 0 0 -573.09832774201095 -289.33513362053736 0 -289.33513362053736 -118.75113067310303 0 0 0 0 -411.29887679996318 -274.90113406993623 0 -274.90113406993623 -153.86417828870253 0 0 0 0 -438.43652053813821 -286.95052088452394 0 -286.95052088452394 -126.44927302838914 0 0 0 0 -376.75140614048723 -320.63382636018468 0 -320.63382636018468 -168.77224731606839 0 0 0 0 -414.01532993909495 -332.3497086144198 0 -332.3497086144198 -191.65360134636285 0 0 0 0 -307.43465096231375 -293.65108489236809 0 -293.65108489236809 -186.76273466095154 0 0 0 0 -375.29904201283352 -257.36591488075646 0 -257.36591488075646 -186.51668514174526 0 0 0 0 -622.49294892717444 -356.23116465579733 0 -356.23116465579733 -186.88390774730578 0 0 0 0 -408.45579341347911 -350.87518697456107 0 -350.87518697456107 -243.99752031320531 0 0 0 0 -429.05035196064273 -310.37144360241109 0 -310.37144360241109 -197.43543528400187 0 0 0 0 -614.10337446071208 -338.37689614936244 0 -338.37689614936244 -181.04876777238678 0 0 0 0 3.6841956046001343 -9.1977988530253185 0 -9.1977988530253185 -13.54650116075905 0 0 0 0 425.77047443015181 122.43553107968546 0 122.43553107968546 109.47962947618362 0 0 0 0 -942.47862551046273 -371.46803527041629 0 -371.46803527041629 -82.308802610285056 0 0 0 0 -613.64967334835819 -355.89948313165405 0 -355.89948313165405 -175.34333365381462 0 0 0 0 -621.26655733078587 -304.78018235490526 0 -304.78018235490526 -182.25178588734707 0 0 0 0 -633.63616433127027 -311.59811315197658 0 -311.59811315197658 -360.774365926256 0 0 0 0 -774.66493623761198 -428.4094295094601 0 -428.4094295094601 -242.94813648666968 0 0 0 0 -1812.0822087059714 -764.48949042728782 0 -764.48949042728782 239.59458839586296 0 0 0 0 -1449.0271724506747 -88.967265359693556 0 -88.967265359693556 -183.94056498184364 0 0 0 0 -675.83118154488329 -445.72328548472797 0 -445.72328548472797 -97.331881533973501 0 0 0 0 -872.85132524583605 -307.43286504440039 0 -307.43286504440039 -77.850509958789189 0 0 0 0 -680.26387100248235 -222.79080668741403 0 -222.79080668741403 -110.96278069865366 0 0 0 0 -536.86902379928506 -258.37751539893361 0 -258.37751539893361 21.092377080050937 0 0 0 0 -277.45639269729145 -348.44670578862861 0 -348.44670578862861 -101.87345400585764 0 0 0 0 -313.95532972851652 -301.39254990628251 0 -301.39254990628251 -290.72260936694147 0 0 0 0 -350.87639433637378 -285.57954266104389 0 -285.57954266104389 -109.57937282826606 0 0 0 0 -218.32827183003974 -162.73012309701517 0 -162.73012309701517 -150.03734939282003 0 0 0 0 -252.86264263119665 -72.511649400650413 0 -72.511649400650413 -13.976909440294548 0 0 0 0 -147.96674616826931 -142.47456313119619 0 -142.47456313119619 32.306380850779533 0 0 0 0 -151.49017701205594 284.39479497519096 0 284.39479497519096 755.0484341885458 0 0 0 0 -17.841036053490825 97.783895334985573 0 97.783895334985573 261.1353749223199 0 0 0 0 114.68284549802775 117.85866476762749 0 117.85866476762749 214.38160643292213 0 0 0 0 706.67023568117293 313.36934578383807 0 313.36934578383807 279.29986383224605 0 0 0 0 295.09782663156511 614.31727213456179 0 614.31727213456179 687.20186095736972 0 0 0 0 126.97983874306374 224.16834726355592 0 224.16834726355592 514.49274972741841 0 0 0 0 127.06737404066371 -345.18157406757382 0 -345.18157406757382 442.14795675694768 0 0 0 0 302.30068905663938 5.420865742418755 0 5.420865742418755 160.92291498171107 0 0 0 0 712.75896242304589 -56.849348784016911 0 -56.849348784016911 294.65990342436453 0 0 0 0 -48.32922038473771 -186.50430903898814 0 -186.50430903898814 294.5257296180514 0 0 0 0 -1.1180294539954048 -251.08903281996027 0 -251.08903281996027 122.65285095460422 0 0 0 0 -75.425952581121237 -259.67749024188379 0 -259.67749024188379 -27.679880525975022 0 0 0 0 -204.39296007544908 -188.46491465701365 0 -188.46491465701365 196.29769938714162 0 0 0 0 -477.16660672964645 -521.33948914377379 0 -521.33948914377379 -72.866082747379551 0 0 0 0 -491.26395519301877 -304.41239034277532 0 -304.41239034277532 -55.573895570783407 0 0 0 0 -781.62055862117268 -557.35584355529863 0 -557.35584355529863 61.364089028036688 0 0 0 0 -497.94702048227191 -336.04318200047419 0 -336.04318200047419 159.62664099405811 0 0 0 0 -472.55386164516676 -244.74542713990377 0 -244.74542713990377 429.4575391549879 0 0 0 0 -447.78461439482271 -339.37745352165075 0 -339.37745352165075 140.70591298982617 0 0 0 0 -602.55052062723553 -248.0838896255591 0 -248.0838896255591 86.916795579687459 0 0 0 0 -638.28641739471641 -417.82650439410099 0 -417.82650439410099 -95.194769290508702 0 0 0 0 -659.45786301139742 -365.29224536552647 0 -365.29224536552647 249.17760354554048 0 0 0 0 -622.7802350485872 -312.77869761242619 0 -312.77869761242619 166.99075264140993 0 0 0 0 -380.58772489227704 -22.866366220761847 0 -22.866366220761847 275.74340167500577 0 0 0 0 -90.013394976675045 -298.6685498252773 0 -298.6685498252773 -48.002279771135363 0 0 0 0 -401.97217683453346 -674.37961285295751 0 -674.37961285295751 -795.96558147738688 0 0 0 0 -1311.8057880336273 -586.9339189237362 0 -586.9339189237362 151.90566508192569 0 0 0 0 -1273.560032175621 -1141.8708745330769 0 -1141.8708745330769 -176.0933244547341 0 0 0 0 -665.87382135371445 -655.17900828536222 0 -655.17900828536222 -296.34142623204389 0 0 0 0 -513.56964096659067 -239.47926076217118 0 -239.47926076217118 145.6224834168388 0 0 0 0 -452.5721178629683 -313.40438803188954 0 -313.40438803188954 154.16886301706108 0 0 0 0 -467.22889265783306 -367.63890836468636 0 -367.63890836468636 12.627676037169294 0 0 0 0 -322.36410429085663 -278.59723853863397 0 -278.59723853863397 -44.291462365159532 0 0 0 0 -347.48683934572182 -279.58280421314157 0 -279.58280421314157 55.769158826573403 0 0 0 0 -351.8101155117547 -208.27596217807513 0 -208.27596217807513 19.560170101154654 0 0 0 0 -363.57808207898051 -238.47474933968988 0 -238.47474933968988 -31.964920413607615 0 0 0 0 -347.97446032735752 -151.6597892228092 0 -151.6597892228092 63.387616853047803 0 0 0 0 -347.32639279017167 -147.48764448195288 0 -147.48764448195288 86.99175854214991 0 0 0 0 -235.18355283827987 -126.53664932978427 0 -126.53664932978427 -45.115743060676323 0 0 0 0 -279.13595527652069 -158.79306489952069 0 -158.79306489952069 33.56598887774453 0 0 0 0 -167.17730084129107 72.123188670409036 0 72.123188670409036 344.2821879091789 0 0 0 0 -193.26475250658405 -106.2885458679375 0 -106.2885458679375 17.897265571951721 0 0 0 0 -259.53444920830952 -4.1732632252205804 0 -4.1732632252205804 307.89448306472332 0 0 0 0 -306.62493127913331 -123.13192570852698 0 -123.13192570852698 92.602295233480618 0 0 0 0 -425.71375664681545 -115.96221057504226 0 -115.96221057504226 319.22241448584828 0 0 0 0 -733.90663091406168 -91.608613249576592 0 -91.608613249576592 1264.2606467071673 0 0 0 0 -390.77333864248067 480.47296594371073 0 480.47296594371073 1264.3292873599908 0 0 0 0 693.72533831376495 -1434.1894089116995 0 -1434.1894089116995 -3231.4942014890185 0 0 0 0 -8.9715415649723127 -0.5244029453410235 0 -0.5244029453410235 2.0435503658626573 0 0 0 0 -387.73412106261821 -125.80431519752892 0 -125.80431519752892 313.60065674691941 0 0 0 0 -391.75665047966595 -163.52227702163191 0 -163.52227702163191 424.92334027761535 0 0 0 0 -306.13765492290258 164.11928899270788 0 164.11928899270788 746.88975368527827 0 0 0 0 -256.52551537711406 49.057562849891838 0 49.057562849891838 391.38764360309142 0 0 0 0 -248.20702126024662 -100.32124800164456 0 -100.32124800164456 -18.599445791234757 0 0 0 0 -137.96691879983618 -37.127675281977602 0 -37.127675281977602 38.743307053977773 0 0 0 0 -2344.0364374831479 -676.40522035931826 0 -676.40522035931826 -559.4096205554597 0 0 0 0 -202.11649544147804 -636.26634042003207 0 -636.26634042003207 -585.0039025076112 0 0 0 0 -785.4028868458463 -700.90750449235532 0 -700.90750449235532 99.4797865627188 0 0 0 0 -768.29323194381141 -431.11079463698479 0 -431.11079463698479 791.23183918940049 0 0 0 0 -213.88527099636758 -178.12958975816946 0 -178.12958975816946 -72.394348763744347 0 0 0 0 -138.78440997193138 -68.559625876412611 0 -68.559625876412611 -18.342096233987832 0 0 0 0 -128.54571217623095 -27.144616245192026 0 -27.144616245192026 32.971760980346772 0 0 0 0 -173.1834106030019 -35.624035316937807 0 -35.624035316937807 145.12449424290389 0 0 0 0 -263.92582027227763 -146.96032158014714 0 -146.96032158014714 7.8387499620512244 0 0 0 0 -172.28324681526647 -147.08627992394759 0 -147.08627992394759 -77.187052168286755 0 0 0 0 -218.65334507097941 -130.39914371733175 0 -130.39914371733175 -69.743876261170954 0 0 0 0 -220.78041619163014 -121.93027319504472 0 -121.93027319504472 -101.996117472474 0 0 0 0 -205.96770620437019 -183.13155566676869 0 -183.13155566676869 -55.374403911344416 0 0 0 0 -208.31044690991985 -169.04850417564739 0 -169.04850417564739 -137.56875574453443 0 0 0 0 -142.36717010629582 -194.10793693490268 0 -194.10793693490268 -55.718388999855961 0 0 0 0 -126.09028624117855 -176.8170842477557 0 -176.8170842477557 -47.550067615045919 0 0 0 0 -167.0030934717372 -114.31028617495667 0 -114.31028617495667 27.38330597190361 0 0 0 0 28.209570765576906 -43.396991224072238 0 -43.396991224072238 -24.821943208966275 0 0 0 0 -353.61882436250607 -182.43787439712105 0 -182.43787439712105 4.3273674646188738 0 0 0 0 -301.83028814036425 -86.387242073513335 0 -86.387242073513335 -64.428053794094012 0 0 0 0 -214.83165756057224 -122.90729772458144 0 -122.90729772458144 -177.64885196805699 0 0 0 0 -214.02694894964952 -181.69953427603468 0 -181.69953427603468 -176.3926947886639 0 0 0 0 -214.82557974875681 -184.75980906125551 0 -184.75980906125551 -110.67272101296112 0 0 0 0 -240.94568265760608 -227.22271572885802 0 -227.22271572885802 -75.092685007344699 0 0 0 0 -13.502040767157833 -5.549378734533029 0 -5.549378734533029 -3.2892308750796531 0 0 0 0 39.584340386629961 -29.117908745521206 0 -29.117908745521206 -30.887540622456783 0 0 0 0 -175.42037975714265 -148.19792338318075 0 -148.19792338318075 -177.04195445629011 0 0 0 0 -225.42406376262079 -225.12427582073724 0 -225.12427582073724 -112.08147349278443 0 0 0 0 -216.92334488802589 -205.31506430637091 0 -205.31506430637091 -153.71387967112241 0 0 0 0 -213.52671731477676 -217.21373669124296 0 -217.21373669124296 -112.067956197483 0 0 0 0 -206.37414305528364 -206.62246607212001 0 -206.62246607212001 -71.163132380781462 0 0 0 0 -585.43449724685343 -244.44187430068268 0 -244.44187430068268 -67.058422185247764 0 0 0 0 -205.92605424760404 -206.92154687645962 0 -206.92154687645962 -98.344921799260192 0 0 0 0 -175.51085130623687 -201.96841092160321 0 -201.96841092160321 -85.889206130203092 0 0 0 0 -171.52745594737826 -184.02925455812328 0 -184.02925455812328 -54.84168418016634 0 0 0 0 -203.69721642533841 -217.52907572156982 0 -217.52907572156982 -67.73770573307047 0 0 0 0 -181.72850039153491 -200.92002941315877 0 -200.92002941315877 -69.437340359028894 0 0 0 0 -227.06730384822731 -229.7664070558676 0 -229.7664070558676 -72.409076484153047 0 0 0 0 -197.26605370006655 -220.22015486453893 0 -220.22015486453893 -81.266241866978817 0 0 0 0 -226.42803244698007 -222.27618811946013 0 -222.27618811946013 -65.728857079520822 0 0 0 0 -214.14268201080267 -228.17853170933085 0 -228.17853170933085 -91.185516649857163 0 0 0 0 -208.70214940256847 -214.05784824158764 0 -214.05784824158764 -71.728669914969942 0 0 0 0 -135.98550177523248 -215.30295427827878 0 -215.30295427827878 -40.342710109893233 0 0 0 0 -170.16868102417357 -212.5320734056877 0 -212.5320734056877 -65.367716307642695 0 0 0 0 -145.99047791797784 -195.90173601587594 0 -195.90173601587594 -71.241567925404524 0 0 0 0 -117.45519797419092 -184.07043372508633 0 -184.07043372508633 -98.025214226508979 0 0 0 0 -129.49771893768047 -209.99404662338202 0 -209.99404662338202 -78.695141212752787 0 0 0 0 -183.38598273165189 -193.87048478904762 0 -193.87048478904762 -65.311110627721064 0 0 0 0 -153.66205161042308 -195.758538984388 0 -195.758538984388 -74.977365654864116 0 0 0 0 -157.49567838478106 -209.53492776068742 0 -209.53492776068742 -67.745928176846064 0 0 0 0 -220.51633635958569 -182.36828676148434 0 -182.36828676148434 -77.659279895335203 0 0 0 0 -112.68867235622929 -196.97443925852531 0 -196.97443925852531 -97.758086317015113 0 0 0 0 -209.80131010017067 -212.08163392415736 0 -212.08163392415736 -67.619401615927927 0 0 0 0 -197.82111966289085 -217.66890647253604 0 -217.66890647253604 -70.020645869721193 0 0 0 0 -203.34691539703635 -213.24327161101974 0 -213.24327161101974 -68.981633025119663 0 0 0 0 -202.81441159073438 -216.49785252084257 0 -216.49785252084257 -66.941443558593164 0 0 0 0 -61.02663915478206 -176.24412203629618 0 -176.24412203629618 -164.46592080708797 0 0 0 0 -266.71110387558474 -186.14414898314135 0 -186.14414898314135 -62.850871956208721 0 0 0 0 -51.33664617838258 -198.70956643660611 0 -198.70956643660611 -122.11345886093477 0 0 0 0 -214.27112712224334 -139.20399260640261 0 -139.20399260640261 -112.98102458499488 0 0 0 0 -100.6126553902759 -145.14457616766595 0 -145.14457616766595 -147.91082905344956 0 0 0 0 -120.99555188601153 -161.52715560976139 0 -161.52715560976139 -109.38140280041262 0 0 0 0 -249.85669386171503 -225.24221635084541 0 -225.24221635084541 -162.78751399177418 0 0 0 0 36.708069169850205 -211.82173163646075 0 -211.82173163646075 -171.30405476068699 0 0 0 0 23.363262156222845 -195.85071010644606 0 -195.85071010644606 -161.39198350934021 0 0 0 0 42.560602353923059 -181.05213025002377 0 -181.05213025002377 -170.38624998813611 0 0 0 0 6.8665668741887202 -196.27039712291298 0 -196.27039712291298 -147.58111077336071 0 0 0 0 6.6510226312057057 -195.9599916159932 0 -195.9599916159932 -137.85124040851224 0 0 0 0 -41.486978157699923 -199.77525027309457 0 -199.77525027309457 -133.57883161099016 0 0 0 0 -40.524810782859277 -199.001707642783 0 -199.001707642783 -144.55259516145452 0 0 0 0 6.0296506277336448 -234.55999714991776 0 -234.55999714991776 -120.80330570686783 0 0 0 0 -36.729840708529082 -221.05149614731636 0 -221.05149614731636 -115.22358250468096 0 0 0 0 -68.848924491810976 -220.16261959082294 0 -220.16261959082294 -55.145235649077222 0 0 0 0 -73.412274607042491 -204.65291154850274 0 -204.65291154850274 -92.180276239101659 0 0 0 0 -45.960165009801131 -248.92045590478665 0 -248.92045590478665 -45.438478577274509 0 0 0 0 109.15719995015388 -255.36482616751164 0 -255.36482616751164 -147.76638492137863 0 0 0 0 30.05948588256615 -278.0522016767427 0 -278.0522016767427 -76.79137776279822 0 0 0 0 92.841115983453392 -149.64104073884255 0 -149.64104073884255 -185.11941005739209 0 0 0 0 -339.17337417972021 -229.30007587382534 0 -229.30007587382534 717.74106009976822 0 0 0 0 -239.90531357843429 0.26778716472472297 0 0.26778716472472297 554.33903837035177 0 0 0 0 -136.06792926090748 -148.27223693986889 0 -148.27223693986889 185.96334882976953 0 0 0 0 -296.23785164712103 -379.40301980849381 0 -379.40301980849381 102.66745511276531 0 0 0 0 -94.038862457407959 -74.323619900344056 0 -74.323619900344056 517.65553489817103 0 0 0 0 -107.74970897845924 -4.6846130456251558 0 -4.6846130456251558 436.90401208795083 0 0 0 0 -97.199281267196056 -114.01504897676205 0 -114.01504897676205 60.018818362155798 0 0 0 0 -132.81888732624884 -142.59149196625731 0 -142.59149196625731 50.55725554793753 0 0 0 0 -120.76184658825605 -203.69765808596094 0 -203.69765808596094 79.554307865371811 0 0 0 0 -51.025718733686517 -277.07501286148181 0 -277.07501286148181 -72.427606268247473 0 0 0 0 -606.34548791786074 -829.97444618909503 0 -829.97444618909503 -3341.6181508006775 0 0 0 0 -37.775592991909491 -27.195900374377189 0 -27.195900374377189 1.2506065591345177 0 0 0 0 -392.20919112718548 -978.65528734555119 0 -978.65528734555119 -2798.9128612221957 0 0 0 0 -116.23959158992112 -26.755909171786584 0 -26.755909171786584 26.768742692050807 0 0 0 0 -411.08623527157579 -1224.1476294781378 0 -1224.1476294781378 -2744.7705319843553 0 0 0 0 -403.16585387694067 -249.0784200096823 0 -249.0784200096823 617.4063989068527 0 0 0 0 -339.43105764544453 -18.593104505962401 0 -18.593104505962401 633.61669865480849 0 0 0 0 -555.31067256492679 -155.12083058367716 0 -155.12083058367716 389.74786824949842 0 0 0 0 351.42222552172461 -564.91770617427028 0 -564.91770617427028 196.54882885783445 0 0 0 0 66.315521289893695 -106.90854978107109 0 -106.90854978107109 -67.964172245447116 0 0 0 0 45.750248035110417 -59.303317570993386 0 -59.303317570993386 387.45668442997874 0 0 0 0 353.03778737017274 -311.22840477099453 0 -311.22840477099453 173.34994212385209 0 0 0 0 8.1221523255269474 -104.53045761896027 0 -104.53045761896027 -54.058922885869322 0 0 0 0 -48.951506911439111 -98.541634191989715 0 -98.541634191989715 -53.439574283743269 0 0 0 0 87.311960887867826 -115.61994515089464 0 -115.61994515089464 -77.689660333613574 0 0 0 0 95.522351524314217 -77.676277276863402 0 -77.676277276863402 -42.498622049213736 0 0 0 0 -266.64337607234847 -658.60224230331369 0 -658.60224230331369 -445.00694010832376 0 0 0 0 48.463148352030558 -80.797859157198133 0 -80.797859157198133 13.031078041350412 0 0 0 0 -396.07632242288309 -189.96438513920293 0 -189.96438513920293 -213.64368341871159 0 0 0 0 36.739683850371776 -36.358476492422717 0 -36.358476492422717 -13.086489474603468 0 0 0 0 -491.824442331721 -210.68741951127959 0 -210.68741951127959 45.097625724389218 0 0 0 0 -528.57399997501852 -243.78072287804389 0 -243.78072287804389 98.555539516928548 0 0 0 0 -340.92494631625596 -437.72625218137546 0 -437.72625218137546 178.87388502112299 0 0 0 0 8.6576989660716208 -168.15169702997082 0 -168.15169702997082 367.38857526128413 0 0 0 0 166.65988217774429 -347.43802266939019 0 -347.43802266939019 102.51782629817171 0 0 0 0 396.32572729894309 -718.22826767864171 0 -718.22826767864171 734.06362091790652 0 0 0 0 636.0935755929022 3.9136400303978007 0 3.9136400303978007 803.16761487902841 0 0 0 0 320.44749335782399 -579.91007498977706 0 -579.91007498977706 231.28573916426103 0 0 0 0 -304.39867494900682 -684.89392243290786 0 -684.89392243290786 2351.0050929677964 0 0 0 0 91.228101288317703 -725.95197028291295 0 -725.95197028291295 2295.8202265581349 0 0 0 0 -105.37241966994043 647.07048425002722 0 647.07048425002722 1627.6107286450861 0 0 0 0 -24.050002411025961 -18.693678868559495 0 -18.693678868559495 12.918509348351733 0 0 0 0 -15.177960245859616 -22.723715785155747 0 -22.723715785155747 -5.0160856127569247 0 0 0 0 -50.106539302958481 -677.73531638385975 0 -677.73531638385975 -2475.8702090318257 0 0 0 0 -418.35202195286547 -870.58886699558934 0 -870.58886699558934 69.367254948592745 0 0 0 0 -251.21964085115542 -779.27423611821723 0 -779.27423611821723 -58.099959593808308 0 0 0 0 -275.17611217036028 -988.84305165974365 0 -988.84305165974365 836.35792263946496 0 0 0 0 113.18255159560795 -171.49209817618066 0 -171.49209817618066 -163.59688705775625 0 0 0 0 267.53227773404797 -152.02088697488216 0 -152.02088697488216 -150.07052735415346 0 0 0 0 12.247702272787137 -264.17171658507323 0 -264.17171658507323 47.8832274308661 0 0 0 0 96.745031031368853 -136.0037623465505 0 -136.0037623465505 -37.036398630222038 0 0 0 0 265.4890946867672 -170.56840550449488 0 -170.56840550449488 -76.90366655284015 0 0 0 0 13.163306605162845 -74.622020649320476 0 -74.622020649320476 -52.25618289330481 0 0 0 0 182.23853957599673 -83.288738107655831 0 -83.288738107655831 6.2377651993315766 0 0 0 0 144.49353922463342 -96.479392384397215 0 -96.479392384397215 47.274886771523597 0 0 0 0 222.1272297022806 -99.300453580544854 0 -99.300453580544854 -31.705859186618909 0 0 0 0 224.65690907576936 -71.206921807555773 0 -71.206921807555773 -101.67370614502579 0 0 0 0 46.189594001805602 -57.726427882797694 0 -57.726427882797694 28.207022382926297 0 0 0 0 -98.675039784133787 -263.37202814611055 0 -263.37202814611055 -113.82170706293255 0 0 0 0 40.973833709950895 -19.369151663191474 0 -19.369151663191474 0.85491680268194159 0 0 0 0 191.92870926549313 -213.8644606433154 0 -213.8644606433154 -135.14561952876829 0 0 0 0 8.0971754861899274 -79.173387861240997 0 -79.173387861240997 3.061125885967158 0 0 0 0 45.478350949382275 -63.94488123040901 0 -63.94488123040901 19.781256530477549 0 0 0 0 241.88888116987528 -180.18846867715183 0 -180.18846867715183 -39.91805284943257 0 0 0 0 251.99889818655038 -84.139425396559091 0 -84.139425396559091 -512.93738601937366 0 0 0 0 189.48061327516371 -81.989901116114197 0 -81.989901116114197 -58.582402782034478 0 0 0 0 186.5424001877991 -404.38151856490367 0 -404.38151856490367 -431.30245704831759 0 0 0 0 108.9961542992105 -337.05264439341045 0 -337.05264439341045 -469.35127375270531 0 0 0 0 21.034659214573821 -189.87462825240527 0 -189.87462825240527 -1103.7945651721093 0 0 0 0 6.6203217271985881 -91.103254105698625 0 -91.103254105698625 -89.976346404090322 0 0 0 0 -25.188768957761567 -329.84960980307369 0 -329.84960980307369 -388.92596329622029 0 0 0 0 25.776660186646396 -42.100123229757003 0 -42.100123229757003 -39.911889590796477 0 0 0 0 0.044178235994781545 4.0304496969952481 0 4.0304496969952481 0.0378588006784355 0 0 0 0 156.02987002441841 -605.82163769952604 0 -605.82163769952604 -403.87578237667913 0 0 0 0 34.479205812851433 -830.4173419920553 0 -830.4173419920553 -606.99495354352985 0 0 0 0 64.765781683012392 -481.67865382367745 0 -481.67865382367745 -395.03762032794475 0 0 0 0 386.63195551655735 -559.14622158218845 0 -559.14622158218845 -437.34992763292394 0 0 0 0 -240.62966073833195 -313.3034409880056 0 -313.3034409880056 31.399933828273788 0 0 0 0 -776.41624646260243 -627.92634975491092 0 -627.92634975491092 -67.490177131636301 0 0 0 0 -1.7593776668545615 -613.75237998131342 0 -613.75237998131342 -314.39776240292122 0 0 0 0 -856.651617763986 -64.094715336628724 0 -64.094715336628724 -11.929514057512279 0 0 0 0 -1.7388567718858443 -4.6308280839961107 0 -4.6308280839961107 -8.8514858096970386 0 0 0 0 340.00629746925642 20.048524421872571 0 20.048524421872571 -780.06930042603926 0 0 0 0 -2321.7351998714621 -294.97335344794556 0 -294.97335344794556 240.05476407182869 0 0 0 0 -10.391902693536188 -17.317703858960442 0 -17.317703858960442 -31.342194101196753 0 0 0 0 -1023.2230655150433 557.21769964478881 0 557.21769964478881 -535.66603949998444 0 0 0 0 -939.89245935308463 -1383.9968400823345 0 -1383.9968400823345 -297.90441743783595 0 0 0 0 59.240858626068075 -653.75789953306958 0 -653.75789953306958 -865.72018458030561 0 0 0 0 -132.50932224892495 -111.62417368578463 0 -111.62417368578463 -128.82167365668283 0 0 0 0 -48.62019270869132 -105.84204912583664 0 -105.84204912583664 -192.82086307634199 0 0 0 0 -116.95220568946024 -191.9714286129456 0 -191.9714286129456 172.20983316571983 0 0 0 0 -151.0216771701248 -176.93325502773769 0 -176.93325502773769 -200.16993423402164 0 0 0 0 -71.712350420321528 -145.93630795316855 0 -145.93630795316855 -3.0904864431824848 0 0 0 0 -211.90488450896737 -164.7246079429533 0 -164.7246079429533 516.47916100130533 0 0 0 0 -304.50587048085072 -106.15202662098454 0 -106.15202662098454 549.35217278412165 0 0 0 0 -162.49871963814826 -245.09967672081257 0 -245.09967672081257 506.91629105471657 0 0 0 0 -129.79071569287771 -288.06998854188714 0 -288.06998854188714 513.88104802776616 0 0 0 0 -152.0628074561846 -21.141878551672562 0 -21.141878551672562 -99.512620268433238 0 0 0 0 -6.8337860474629508 -23.231207236552081 0 -23.231207236552081 -15.076435552610519 0 0 0 0 -71.132685843717439 -80.066781286660543 0 -80.066781286660543 -11.624202624854988 0 0 0 0 -78.976449943100306 -113.13048722670646 0 -113.13048722670646 -5.0793997916280205 0 0 0 0 84.618940609094352 -389.30778937445575 0 -389.30778937445575 -360.99304025289166 0 0 0 0 -31.796126091709258 -81.287308810119072 0 -81.287308810119072 42.747035833391465 0 0 0 0 -184.26442038119058 -252.32293813654906 0 -252.32293813654906 124.22804171760799 0 0 0 0 -126.80845418101308 167.86086483026156 0 167.86086483026156 549.42157817416592 0 0 0 0 -305.71350501199413 -124.49015682644676 0 -124.49015682644676 1035.5064033200033 0 0 0 0 -120.49395030007918 105.81220383628443 0 105.81220383628443 831.41003027607803 0 0 0 0 -45.484300149283378 -27.127519325218486 0 -27.127519325218486 79.128435399464138 0 0 0 0 -55.08454211944354 -108.62959682730434 0 -108.62959682730434 -23.709388088580454 0 0 0 0 -18.490590161988347 -76.12521246135428 0 -76.12521246135428 0.36139845807258553 0 0 0 0 -97.252489769976364 -133.75274551234361 0 -133.75274551234361 126.43284300452797 0 0 0 0 651.37392125121551 1171.9749595069734 0 1171.9749595069734 884.78709650785459 0 0 0 0 575.3932007657786 237.83879425231135 0 237.83879425231135 -58.057002971094334 0 0 0 0 7508.314115310437 -545.69090944505297 0 -545.69090944505297 2794.3314854307391 0 0 0 0 -6.5187177584151357 -9.1210496439083215 0 -9.1210496439083215 0.98932145752306155 0 0 0 0 3649.7152984012428 18.011030941823265 0 18.011030941823265 -45.040914962707575 0 0 0 0 1093.8296376573185 1753.0410453767117 0 1753.0410453767117 2960.6725832933444 0 0 0 0 9.8751599394383049 -27.48047094119417 0 -27.48047094119417 16.62602788799461 0 0 0 0 -3.8148560652830668 -23.097495181289069 0 -23.097495181289069 3.8197157721948543 0 0 0 0 -1071.4152698347461 -884.0608551958976 0 -884.0608551958976 1492.0215705368901 0 0 0 0 -170.29244942833157 1471.7106769675265 0 1471.7106769675265 3798.6262029378267 0 0 0 0 -223.12114858520363 -731.36998903739732 0 -731.36998903739732 838.09446676232619 0 0 0 0 -550.67243268038874 -47.016818975025672 0 -47.016818975025672 2190.1517649114248 0 0 0 0 -552.56907411792122 -264.3042641218957 0 -264.3042641218957 959.63613745250041 0 0 0 0 -326.33350010830691 -419.19468932272866 0 -419.19468932272866 1057.4835400928278 0 0 0 0 -207.75474811800927 -518.18095103773157 0 -518.18095103773157 788.98786730674328 0 0 0 0 6.8861467834649162 -2.3736102261953818 0 -2.3736102261953818 -8.2764105536423358 0 0 0 0 89.840376671651029 -116.52553689165507 0 -116.52553689165507 92.988326775124563 0 0 0 0 -134.37305674449817 -360.88629718816082 0 -360.88629718816082 476.4944630197424 0 0 0 0 -29.549220846376556 -569.43865860634833 0 -569.43865860634833 793.81508975225734 0 0 0 0 -19.069178603986074 -324.41481047330308 0 -324.41481047330308 486.27735988575296 0 0 0 0 2.2423141614635824 -748.71672215756553 0 -748.71672215756553 811.53399028039712 0 0 0 0 -156.6459753455747 -116.11436653525743 0 -116.11436653525743 73.145247427404684 0 0 0 0 78.248024574488227 64.972773371180665 0 64.972773371180665 62.718757930066204 0 0 0 0 668.25245438052298 -496.85059704539162 0 -496.85059704539162 92.331014471594244 0 0 0 0 159.8100455613021 92.3797864376902 0 92.3797864376902 -94.407401743883383 0 0 0 0 -160.02109701174004 -331.69862435379036 0 -331.69862435379036 812.38918517448474 0 0 0 0 -62.791446594019902 -366.02033851740998 0 -366.02033851740998 824.45107247278793 0 0 0 0 -254.16393280923148 -325.46950135749648 0 -325.46950135749648 792.48580982284329 0 0 0 0 -270.89491375157377 -306.43448750566313 0 -306.43448750566313 838.73000602479442 0 0 0 0 -349.2220744060005 -314.49666039020485 0 -314.49666039020485 843.14322013067431 0 0 0 0 -238.37335779301429 -343.33137008472113 0 -343.33137008472113 835.17891718364262 0 0 0 0 -201.55055101972903 -249.00789665139746 0 -249.00789665139746 845.62306418269691 0 0 0 0 -146.66291498433566 -351.11823008632928 0 -351.11823008632928 815.44892886056914 0 0 0 0 -106.77245897638386 -124.62195309718663 0 -124.62195309718663 525.73129998899822 0 0 0 0 -173.44695983391921 -264.62526943384728 0 -264.62526943384728 848.32847625689465 0 0 0 0 -153.39494060921425 -35.568076674360782 0 -35.568076674360782 1117.2955147998728 0 0 0 0 -153.7090579465532 -136.83786028963914 0 -136.83786028963914 1073.6071093562932 0 0 0 0 -92.128333923132232 -14.302679593063658 0 -14.302679593063658 1034.2328431286805 0 0 0 0 -41.60326663421688 -215.56727329856949 0 -215.56727329856949 1122.8320926847809 0 0 0 0 -18.383449651323645 -97.672344672726467 0 -97.672344672726467 1066.8875623841013 0 0 0 0 253.02035237128439 112.7947270811419 0 112.7947270811419 1206.3860752743785 0 0 0 0 -180.02140229117913 -27.569552687054966 0 -27.569552687054966 1383.104904886568 0 0 0 0 -89.553601372064946 -179.41595426785352 0 -179.41595426785352 939.15400385344401 0 0 0 0 -46.562962198525383 -343.20660226501059 0 -343.20660226501059 1174.2155158979513 0 0 0 0 -85.877467655945111 -469.66746964532649 0 -469.66746964532649 852.03062265706831 0 0 0 0 89.571780761609261 -230.28652634940954 0 -230.28652634940954 1414.2097790196131 0 0 0 0 -202.03484775386823 -210.12694878494949 0 -210.12694878494949 1430.0672683588491 0 0 0 0 -26.903339150691409 -559.04204736632346 0 -559.04204736632346 749.1666908019688 0 0 0 0 -166.85470217817056 -511.9462290408992 0 -511.9462290408992 994.49000227465876 0 0 0 0 -103.44409102385657 -85.307232728418967 0 -85.307232728418967 1436.4776125891367 0 0 0 0 -578.87346959050092 -418.46568267475232 0 -418.46568267475232 -120.19378886493359 0 0 0 0 -231.28465704540031 209.78693908766581 0 209.78693908766581 2175.1886867010326 0 0 0 0 -176.83137056360101 -335.0175851987151 0 -335.0175851987151 1823.570285953334 0 0 0 0 -43.775252800343935 -34.351621073711812 0 -34.351621073711812 18.286876753781314 0 0 0 0 -327.14481322992287 -333.29989025503164 0 -333.29989025503164 -238.8889556809736 0 0 0 0 -287.72531063475253 510.77486514326301 0 510.77486514326301 3049.7882918670657 0 0 0 0 -38.932190707337625 -24.782055199845871 0 -24.782055199845871 13.328035288496352 0 0 0 0 -109.62617128738975 -503.79489667134476 0 -503.79489667134476 -901.38993977571954 0 0 0 0 -265.53891854713811 -959.50949145019695 0 -959.50949145019695 -1863.7862542167204 0 0 0 0 627.14642462157099 301.68752466731894 0 301.68752466731894 1233.817727709029 0 0 0 0 -404.16590347181773 -511.99903246578469 0 -511.99903246578469 2009.9648746992025 0 0 0 0 48.168860263353054 -13.885710553135141 0 -13.885710553135141 653.84411472798092 0 0 0 0 -377.3272894392212 -5.3752092217619065 0 -5.3752092217619065 654.64487960077531 0 0 0 0 -566.86656341857815 -640.75936364094377 0 -640.75936364094377 -90.423238701478112 0 0 0 0 27.521893760436331 -84.322766311691737 0 -84.322766311691737 -74.328017460353351 0 0 0 0 161.94510316722517 -200.61385667639115 0 -200.61385667639115 -405.77661229387741 0 0 0 0 -1322.4430551359656 -497.03613492016302 0 -497.03613492016302 1062.8046844919445 0 0 0 0 -65.113654915087807 -177.60295525544498 0 -177.60295525544498 -27.881989876876794 0 0 0 0 -268.41479715420428 -254.72748783275711 0 -254.72748783275711 -209.51352514733298 0 0 0 0 26.868502457044638 -57.827269304406109 0 -57.827269304406109 -73.304283506461189 0 0 0 0 -1.0291987897493691 -145.02341897923012 0 -145.02341897923012 -52.512792686881525 0 0 0 0 74.007241648923809 -194.29131267764024 0 -194.29131267764024 -284.20887636530824 0 0 0 0 -42.108969451386656 -167.51341550888174 0 -167.51341550888174 -24.134342183038825 0 0 0 0 -58.00416371584015 -204.73234768679686 0 -204.73234768679686 -78.819062643146026 0 0 0 0 10.177397353390916 -161.61562236523605 0 -161.61562236523605 -121.48103633066057 0 0 0 0 -63.240650850937527 -171.61716871259159 0 -171.61716871259159 -137.65111282010184 0 0 0 0 -35.905527231965102 -143.54210680073174 0 -143.54210680073174 -28.621730601459497 0 0 0 0 -12.456957503694412 -187.04282340458303 0 -187.04282340458303 23.472958358586766 0 0 0 0 12.538088423951194 -155.2435011704074 0 -155.2435011704074 -170.84621427712511 0 0 0 0 -29.971164528880763 -356.71727234269201 0 -356.71727234269201 362.3284486955672 0 0 0 0 -35.851978191071794 -277.87821726733819 0 -277.87821726733819 381.26413242568378 0 0 0 0 -52.166437919600867 -541.87686051124183 0 -541.87686051124183 449.48635416786419 0 0 0 0 -28.191459274493354 -300.55395232699448 0 -300.55395232699448 618.45759245293448 0 0 0 0 -611.57384648965535 -533.36894613018376 0 -533.36894613018376 748.98274744109949 0 0 0 0 -28.880917101885643 -172.15584736463643 0 -172.15584736463643 -277.86409455712419 0 0 0 0 -30.603966638682323 -508.17537253652699 0 -508.17537253652699 -314.20308018021751 0 0 0 0 -48.678440453297071 -138.55556212633564 0 -138.55556212633564 -77.996892443916295 0 0 0 0 -477.19115821008745 -341.78327384924341 0 -341.78327384924341 -164.74847063916968 0 0 0 0 -181.57344851500238 -407.29699407515363 0 -407.29699407515363 -912.7149077009235 0 0 0 0 -276.99237863055896 -354.87397925652476 0 -354.87397925652476 -365.89852146733574 0 0 0 0 -247.19281966803828 -468.95226690110576 0 -468.95226690110576 -105.18265922899445 0 0 0 0 -172.7800466355402 -282.96940577932401 0 -282.96940577932401 -345.64318510588055 0 0 0 0 -124.78263681698445 -277.00853052366438 0 -277.00853052366438 -220.74939045756764 0 0 0 0 -311.72821681744244 -362.67927686451185 0 -362.67927686451185 40.130340716947103 0 0 0 0 580.21317599255417 -199.11639300593743 0 -199.11639300593743 -266.9852981952863 0 0 0 0 60.783935120640407 -73.656619304358799 0 -73.656619304358799 -1.8411773916441234 0 0 0 0 -300.39714438176452 -174.9999662962091 0 -174.9999662962091 -104.02419359737542 0 0 0 0 150.39313101554944 -772.77806938089998 0 -772.77806938089998 -749.72633276323904 0 0 0 0 -317.26772502270614 -408.74396841611087 0 -408.74396841611087 300.3560447023774 0 0 0 0 -695.23082712361065 -794.08497884136523 0 -794.08497884136523 121.03661625489985 0 0 0 0 -510.19378899364892 -421.74728803867583 0 -421.74728803867583 796.62674534530379 0 0 0 0 -10.97450812810763 -6.3556948311872077 0 -6.3556948311872077 -3.5487543268201449 0 0 0 0 -64.75140289805131 148.8556908015089 0 148.8556908015089 -1620.564938122403 0 0 0 0 200.54171579994727 -23.333800512096786 0 -23.333800512096786 263.02040779326489 0 0 0 0 187.29055490531391 -345.68238718358043 0 -345.68238718358043 -412.87748851278593 0 0 0 0 -205.46062807450653 -322.53332827660051 0 -322.53332827660051 49.512118760503654 0 0 0 0 -42.441139541399025 -108.89281561718235 0 -108.89281561718235 -143.04083123010423 0 0 0 0 -195.58130681739567 -309.83565476047079 0 -309.83565476047079 -92.161428976076422 0 0 0 0 -206.62924959950033 -377.47402098113525 0 -377.47402098113525 -139.41755080095754 0 0 0 0 73.452242111567983 -41.559820183366526 0 -41.559820183366526 19.505181108203857 0 0 0 0 -44.739935530757066 -187.21509282675834 0 -187.21509282675834 -501.18763473537547 0 0 0 0 -81.526005128289398 -429.75672627118911 0 -429.75672627118911 -686.30804496577548 0 0 0 0 511.45353479243931 277.40594086819328 0 277.40594086819328 529.22591776936315 0 0 0 0 -469.79719037580071 328.90384117513167 0 328.90384117513167 858.7763882750296 0 0 0 0 -375.18554138587206 417.40564977296162 0 417.40564977296162 871.76234918634873 0 0 0 0 128.42323519106301 -62.038407191155045 0 -62.038407191155045 27.08229120421835 0 0 0 0 884.326521298226 -1184.146786739213 0 -1184.146786739213 -199.86898867807759 0 0 0 0 -1573.5162000070777 -634.76878890147782 0 -634.76878890147782 1888.5148648905929 0 0 0 0 -237.64353276366182 768.3241612412603 0 768.3241612412603 -629.28381972665375 0 0 0 0 840.37336800159028 -1650.5635166805441 0 -1650.5635166805441 2121.8514709029259 0 0 0 0 160.25161064859546 -67.873618455015773 0 -67.873618455015773 12.772974442733059 0 0 0 0 146.19710192603998 -352.1246111894734 0 -352.1246111894734 -30.030591274800827 0 0 0 0 1631.8924639470861 -1293.080399249855 0 -1293.080399249855 -1790.5395099380621 0 0 0 0 -31.26256483332827 -44.166285037093871 0 -44.166285037093871 -3.6079171455828458 0 0 0 0 25.502808279881719 -16.814453134204086 0 -16.814453134204086 78.348552933501196 0 0 0 0 124.29161577590367 -531.81213065367706 0 -531.81213065367706 425.90341617625381 0 0 0 0 48.881179540279845 176.08015227542273 0 176.08015227542273 -558.5550122013592 0 0 0 0 -29.920644003260122 -16.808125505189025 0 -16.808125505189025 -12.420477124913006 0 0 0 0 -136.27434693422038 29.886164936230671 0 29.886164936230671 -365.37366056075552 0 0 0 0 65.53643933650892 -3.4211503693404666 0 -3.4211503693404666 -154.64955036692845 0 0 0 0 111.59969286753039 12.805120650602476 0 12.805120650602476 -352.75063183526072 0 0 0 0 -50.055140902939456 -96.512303617691941 0 -96.512303617691941 -229.51252246790682 0 0 0 0 249.50880873807182 -91.366942027048935 0 -91.366942027048935 -291.39286551457917 0 0 0 0 12.387064079943229 -46.130391261125624 0 -46.130391261125624 -235.66349064612587 0 0 0 0 58.198816476389766 -175.25907511331025 0 -175.25907511331025 27.72487725418614 0 0 0 0 161.90136163373245 -253.04455769661035 0 -253.04455769661035 -129.39708645326027 0 0 0 0 43.979438861540984 -147.94451333225152 0 -147.94451333225152 -221.06715246439126 0 0 0 0 41.429386755407904 -205.17284778548856 0 -205.17284778548856 -100.55903505025344 0 0 0 0 53.017817391300923 -47.009480717264523 0 -47.009480717264523 -31.503523148632667 0 0 0 0 60.430844992371497 -37.697850313949544 0 -37.697850313949544 -10.720674829890186 0 0 0 0 323.52477199721034 1675.4881675443321 0 1675.4881675443321 -1393.7487399575039 0 0 0 0 49.216939144700973 -81.295135933917209 0 -81.295135933917209 -4.5468541169539094 0 0 0 0 49.81287641961265 -40.562276488828601 0 -40.562276488828601 3.0725400194685832 0 0 0 0 71.383664105043863 -136.38383330110082 0 -136.38383330110082 -218.61916577840748 0 0 0 0 -765.01242861564879 -103.27841492495645 0 -103.27841492495645 -692.83643518690951 0 0 0 0 -334.13834397116443 1408.2506654578829 0 1408.2506654578829 1875.5125648111716 0 0 0 0 3412.8393662230155 -432.61049189890036 0 -432.61049189890036 -669.10059128913599 0 0 0 0 -1004.2244778156273 -115.15514150945819 0 -115.15514150945819 -430.51337960283854 0 0 0 0 -997.23074615384394 297.69248372602306 0 297.69248372602306 121.50102091761801 0 0 0 0 -883.41935838249492 -1377.6316621686565 0 -1377.6316621686565 432.2946959080582 0 0 0 0 -1054.2375609379742 -686.54653641868208 0 -686.54653641868208 370.89715932108811 0 0 0 0 660.60289221962739 -1925.1828115792305 0 -1925.1828115792305 229.34451623294444 0 0 0 0 2040.3232108193133 -317.84342944825403 0 -317.84342944825403 47.275590724733775 0 0 0 0 656.99229817335072 -1081.4995255714857 0 -1081.4995255714857 553.82029642880661 0 0 0 0 428.73996225317893 -545.91362926642796 0 -545.91362926642796 18.331037950556492 0 0 0 0 -486.44809748775879 -1062.6055600177788 0 -1062.6055600177788 741.68307975528296 0 0 0 0 -159.93408772604016 -1563.431514962067 0 -1563.431514962067 395.13465425765025 0 0 0 0 -179.25570168899867 -776.24357788529596 0 -776.24357788529596 240.38173882503906 0 0 0 0 -409.99278406160738 -1962.5766096678417 0 -1962.5766096678417 309.90268138781539 0 0 0 0 1202.1718429292669 -1352.6334007821279 0 -1352.6334007821279 368.99949588711024 0 0 0 0 4243.06018749746 -3304.2449196797534 0 -3304.2449196797534 407.37189170293277 0 0 0 0 30.659349663124885 -60.840911915525794 0 -60.840911915525794 76.996470520505682 0 0 0 0 -26.091388083324048 -12.754415932583186 0 -12.754415932583186 11.575855027845648 0 0 0 0 -3133.56831734562 194.65244403928227 0 194.65244403928227 1370.5473900874058 0 0 0 0 1.3653109316067287 -29.440463736645029 0 -29.440463736645029 -7.7726992687992649 0 0 0 0 -2880.0258037567919 -5929.1002554176303 0 -5929.1002554176303 4144.89712164097 0 0 0 0 14.889781456142373 -50.513053664719337 0 -50.513053664719337 -3.6303073581948411 0 0 0 0 5.4732889036111345 -15.498158439564179 0 -15.498158439564179 -18.309786704809426 0 0 0 0 1.7858470667758723 -4.3116569236336204 0 -4.3116569236336204 -5.0237425776218743 0 0 0 0 35.584008457779419 -27.464203202282079 0 -27.464203202282079 31.508830542676151 0 0 0 0 15.66354332134506 -38.889797668382926 0 -38.889797668382926 -23.388039117562585 0 0 0 0 -9.9432491452098475 -40.921129232578096 0 -40.921129232578096 0.467971417325316 0 0 0 0 5.8420625622474773 -30.127440763515239 0 -30.127440763515239 -5.8439110487397983 0 0 0 0 19.604155687076855 -51.767754420725396 0 -51.767754420725396 72.981783996467129 0 0 0 0 -27.972124886695987 -3.7591087981742533 0 -3.7591087981742533 27.433332699872437 0 0 0 0 7.7399051866050286 -34.703749447515293 0 -34.703749447515293 48.500025628309231 0 0 0 0 -52.828762305376586 -75.606089108128799 0 -75.606089108128799 32.719794688731781 0 0 0 0 -16.15143479654877 -37.723996742314085 0 -37.723996742314085 -21.249035912821633 0 0 0 0 -7.3087366039067092 -29.860606522883245 0 -29.860606522883245 7.3943422390148044 0 0 0 0 -62.338816956369556 -64.493699336948339 0 -64.493699336948339 24.097169747285079 0 0 0 0 92.870090680014982 -75.55580857876339 0 -75.55580857876339 -13.561063153905707 0 0 0 0 10.195181609298743 -85.400503410302917 0 -85.400503410302917 -14.726217034327419 0 0 0 0 -16.53118222704785 -31.47229574163245 0 -31.47229574163245 -28.49094494982171 0 0 0 0 -9.1977501357614528 -117.81461693315941 0 -117.81461693315941 5.8976592456019716 0 0 0 0 -78.403585080923222 -113.89617414670647 0 -113.89617414670647 28.664972292695893 0 0 0 0 -26.382319237745833 -127.93565125136229 0 -127.93565125136229 30.248155353896436 0 0 0 0 -25.082157873257529 -122.03778497547319 0 -122.03778497547319 6.2184144105704036 0 0 0 0 -13.235666870023124 -38.379356476099929 0 -38.379356476099929 18.161475365515798 0 0 0 0 -25.038491007275098 -46.237750760243415 0 -46.237750760243415 -3.2590953062283532 0 0 0 0 -31.862354830795084 -92.511681227522786 0 -92.511681227522786 16.604192534548929 0 0 0 0 -30.411162460750347 -103.6586198488294 0 -103.6586198488294 -45.491485571837984 0 0 0 0 -31.656161473976681 -101.44063710959745 0 -101.44063710959745 -15.91755204013316 0 0 0 0 -34.157837299301377 -45.234060229922989 0 -45.234060229922989 1.7733718444297892 0 0 0 0 -3.7124888155277205 -45.171942673134367 0 -45.171942673134367 -16.880766284381878 0 0 0 0 -26.275124637783946 -48.273418249740274 0 -48.273418249740274 15.617029435215272 0 0 0 0 -21.356541395871318 -28.673934329877738 0 -28.673934329877738 18.593042284657713 0 0 0 0 -3.7333470830006519 -28.666386971709571 0 -28.666386971709571 -5.1850310325220903 0 0 0 0 -20.947931458833409 -26.367377016435057 0 -26.367377016435057 28.137193242902867 0 0 0 0 -27.415927205610814 -42.504161336149949 0 -42.504161336149949 -2.1952683824073915 0 0 0 0 -20.533238205662101 1.580148383281113 0 1.580148383281113 42.497998650285311 0 0 0 0 -69.473214253139304 -55.394026395319088 0 -55.394026395319088 123.35322309154435 0 0 0 0 -14.365104792639613 25.16832215001341 0 25.16832215001341 59.029181515739765 0 0 0 0 3.4706129837431945 -74.097068922332255 0 -74.097068922332255 95.86397227251291 0 0 0 0 -47.121860821702285 -92.385925861890428 0 -92.385925861890428 71.249606569384923 0 0 0 0 -33.077182262808222 -52.339301636825837 0 -52.339301636825837 53.970516527202534 0 0 0 0 -2.0383214883622713 -38.07626126537798 0 -38.07626126537798 224.79536077650846 0 0 0 0 -3.227240967520224 0.12826333081267194 0 0.12826333081267194 2.95174477610135 0 0 0 0 -26.730710298790655 -55.882029208121821 0 -55.882029208121821 -14.455666570516769 0 0 0 0 -26.421805571738332 -56.259296786025516 0 -56.259296786025516 -62.002668584347703 0 0 0 0 -41.792427511896484 -14.117093336445748 0 -14.117093336445748 30.800536888180943 0 0 0 0 -52.719108338475053 -86.671855600245181 0 -86.671855600245181 64.316865724744275 0 0 0 0 -41.753662413764687 -113.49110522044066 0 -113.49110522044066 39.489684662403306 0 0 0 0 -81.016566814527323 -142.57761175408086 0 -142.57761175408086 -28.709476481220918 0 0 0 0 -8.4765146261488553 -105.37519516081375 0 -105.37519516081375 -185.23397576666321 0 0 0 0 66.085362519501359 -108.1693595929537 0 -108.1693595929537 136.25666465767426 0 0 0 0 -30.805806846164188 -27.423047208141384 0 -27.423047208141384 4.1160996555524321 0 0 0 0 -41.933796649114811 -73.763349043729249 0 -73.763349043729249 211.75673202295002 0 0 0 0 -0.21447158636355823 0.06706710067336985 0 0.06706710067336985 3.7966250387646312 0 0 0 0 22.216364141068219 -17.878175094868368 0 -17.878175094868368 12.313543411384387 0 0 0 0 -9.64433164008733 532.70261609643785 0 532.70261609643785 2499.2250742189499 0 0 0 0 -39.625560712433689 -54.86313421747991 0 -54.86313421747991 34.742955470133012 0 0 0 0 101.44459247356281 -77.529072801698931 0 -77.529072801698931 120.2097562343115 0 0 0 0 57.083009972251602 138.67202612466644 0 138.67202612466644 115.7015735291352 0 0 0 0 -200.42175773860254 52.987881343637127 0 52.987881343637127 863.30255466360177 0 0 0 0 -28.240794467186788 -63.701706203602953 0 -63.701706203602953 56.645151641714619 0 0 0 0 1.9978490595029399 -2.1890001370696268 0 -2.1890001370696268 14.841334435874529 0 0 0 0 9.3488239063937542 -3.5357146277668221 0 -3.5357146277668221 14.932349341428846 0 0 0 0 -6.0728671236502123 -933.54036663712759 0 -933.54036663712759 1893.5605291451827 0 0 0 0 20.394912641389965 -8.4328414212432108 0 -8.4328414212432108 108.00175613522879 0 0 0 0 -231.27784816808708 -20.162889030674705 0 -20.162889030674705 549.50078955147183 0 0 0 0 -286.81397855732939 98.320320288359653 0 98.320320288359653 537.60990914478589 0 0 0 0 -286.75294928418487 102.23098202105234 0 102.23098202105234 623.78050094371429 0 0 0 0 -303.19900115779637 14.473131047763673 0 14.473131047763673 685.66285104159033 0 0 0 0 -302.17187369535168 13.952401722408467 0 13.952401722408467 534.26898687955691 0 0 0 0 -115.82667990545451 163.09519888367504 0 163.09519888367504 314.63648780711083 0 0 0 0 -115.93906208516273 15.029643427289557 0 15.029643427289557 369.74690284585085 0 0 0 0 110.75803438661387 392.16236125437172 0 392.16236125437172 534.72715547541156 0 0 0 0 -178.85599102815468 480.471869771005 0 480.471869771005 817.23232448415365 0 0 0 0 -318.84329954552959 320.22747992729273 0 320.22747992729273 715.9004849268822 0 0 0 0 -210.2135339287488 235.10905683916644 0 235.10905683916644 736.25616155256284 0 0 0 0 -289.74572801012653 160.0304129162887 0 160.0304129162887 566.2653968334489 0 0 0 0 -445.20123976991908 157.57032473541312 0 157.57032473541312 912.25116261243238 0 0 0 0 -460.32274154730112 22.732551931338094 0 22.732551931338094 1258.5121623939922 0 0 0 0 -183.66906850237865 -103.27881422684004 0 -103.27881422684004 999.89784155020607 0 0 0 0 -306.61651392998465 -374.92855799999961 0 -374.92855799999961 669.85808172855468 0 0 0 0 150.92592561492347 -360.664001430996 0 -360.664001430996 329.38845028059586 0 0 0 0 -58.923526224145462 -88.884403196414496 0 -88.884403196414496 19.54690510056389 0 0 0 0 0.29113118698559504 -30.175786869641662 0 -30.175786869641662 24.545923275751704 0 0 0 0 -41.813315491512185 -78.63676698207928 0 -78.63676698207928 -8.6794191980588948 0 0 0 0 -7.4685521733308633 -12.830822426820227 0 -12.830822426820227 -13.529244075695942 0 0 0 0 -65.134054776863195 -99.233640631340677 0 -99.233640631340677 59.320115703798365 0 0 0 0 55.660636163840536 -115.93285578825453 0 -115.93285578825453 61.459126942354487 0 0 0 0 -32.730908235680545 -51.080962909560185 0 -51.080962909560185 -12.952462700312026 0 0 0 0 -35.297137161710623 -59.533433283696468 0 -59.533433283696468 10.214353656577039 0 0 0 0 -187.70534878776743 -108.97582326482006 0 -108.97582326482006 181.69115218357183 0 0 0 0 -37.272707900803653 -79.462258503364865 0 -79.462258503364865 112.3299872209318 0 0 0 0 -23.085098455998434 -3.9032791182509357 0 -3.9032791182509357 38.212510379965977 0 0 0 0 -30.53565667286135 -45.075424993083658 0 -45.075424993083658 36.862961511118442 0 0 0 0 -35.385213770787232 -70.495240378237213 0 -70.495240378237213 46.868390947347507 0 0 0 0 -27.839747054429608 -81.056045272576739 0 -81.056045272576739 -26.011552756128367 0 0 0 0 -26.073660960129928 -18.462503894756082 0 -18.462503894756082 68.116389032242296 0 0 0 0 -38.18582266604821 -32.512222791906765 0 -32.512222791906765 58.595895946667952 0 0 0 0 -13.973155403924466 -71.04251666678465 0 -71.04251666678465 -7.3167261479175068 0 0 0 0 -85.103639553486573 -70.583321903963224 0 -70.583321903963224 24.940270344928649 0 0 0 0 -72.239351938475011 -66.047803691828449 0 -66.047803691828449 5.0230468121881131 0 0 0 0 -12.352959606123719 -31.041827416243677 0 -31.041827416243677 30.611868451705391 0 0 0 0 -24.030343382008141 -94.698289910360472 0 -94.698289910360472 -58.46695702750003 0 0 0 0 0.17297743031838309 -1.9307183650897173 0 -1.9307183650897173 14.332438545615005 0 0 0 0 -133.1672203381604 -86.814008441549959 0 -86.814008441549959 50.085592435883882 0 0 0 0 -24.105740782327246 -24.779863673548803 0 -24.779863673548803 68.689879107413333 0 0 0 0 -89.800446617187845 -144.8222100210005 0 -144.8222100210005 31.241811377374688 0 0 0 0 -77.675287349169253 -87.896915148902167 0 -87.896915148902167 48.453714806790231 0 0 0 0 -42.295817541976248 -53.167108823346098 0 -53.167108823346098 15.409471131744795 0 0 0 0 -6.3072098777797176 -36.870508212841116 0 -36.870508212841116 12.576063659840429 0 0 0 0 -24.211049455793727 -18.478719045160616 0 -18.478719045160616 38.42687583028615 0 0 0 0 -65.440788139632787 -79.812361942123971 0 -79.812361942123971 11.091842855181312 0 0 0 0 -59.720119338817312 -50.719913354856544 0 -50.719913354856544 9.1522914067791135 0 0 0 0 -4.2824223200914169 -15.99157512525521 0 -15.99157512525521 -2.2589268878980988 0 0 0 0 -83.01431764326162 -74.412711610537372 0 -74.412711610537372 1.9504042592016049 0 0 0 0 -9.490536346871167 -15.865921656229169 0 -15.865921656229169 26.46830275075331 0 0 0 0 -57.494181070382183 -69.530297310491733 0 -69.530297310491733 3.6925845094083343 0 0 0 0 -67.249731053203504 -77.651299846069378 0 -77.651299846069378 -9.8194347760581877 0 0 0 0 -18.993243641924451 -28.128431643179937 0 -28.128431643179937 39.192903505230191 0 0 0 0 -65.000845435046358 -68.342787766479887 0 -68.342787766479887 -16.55249853344867 0 0 0 0 -42.054967365989796 -38.5435892006426 0 -38.5435892006426 41.140053277951665 0 0 0 0 -41.811934757861309 -39.245466571243014 0 -39.245466571243014 41.507613642257638 0 0 0 0 -559.03376398514956 -163.22698728226533 0 -163.22698728226533 104.74518248365348 0 0 0 0 -306.54343070743198 -145.91293013076211 0 -145.91293013076211 103.49792846660421 0 0 0 0 -5.4842122955243013 -32.191342161202961 0 -32.191342161202961 44.940837066785718 0 0 0 0 -107.74936041650653 -77.23449276892643 0 -77.23449276892643 37.804453305550851 0 0 0 0 -10.97031849054963 -5.4911310617345777 0 -5.4911310617345777 6.2771960643107718 0 0 0 0 -4.1059630388999437 -77.692731729599188 0 -77.692731729599188 -14.77831296462125 0 0 0 0 -93.451530893944437 -99.791935538465623 0 -99.791935538465623 -31.418614237452857 0 0 0 0 -75.991213252113084 499.13729528308613 0 499.13729528308613 1007.7979914412717 0 0 0 0 -2.3496196194100776 -39.111409583070781 0 -39.111409583070781 4.8970378487438211 0 0 0 0 -10.741317506011846 -38.22103601553151 0 -38.22103601553151 7.4515837753959886 0 0 0 0 -2041.5516937140201 -1440.8105975742073 0 -1440.8105975742073 -3715.2836662032059 0 0 0 0 -5640.7316044053296 -3943.976867927413 0 -3943.976867927413 3425.5087525060226 0 0 0 0 -967.50453172528069 -1804.5578482109704 0 -1804.5578482109704 -1664.7793537615216 0 0 0 0 -477.87324687390355 -804.06791277538287 0 -804.06791277538287 333.20243621118425 0 0 0 0 -38.447539598302683 -614.05476920836372 0 -614.05476920836372 -1531.0970274908468 0 0 0 0 -24.667821850648522 -10.68501364731776 0 -10.68501364731776 -0.23266545087730606 0 0 0 0 -1479.9788864622242 682.99216754164809 0 682.99216754164809 955.87790035606304 0 0 0 0 -21.101448778426047 -30.049787685200513 0 -30.049787685200513 30.279693476692444 0 0 0 0 -539.95863526149697 -2521.2551291597192 0 -2521.2551291597192 -925.86432398171746 0 0 0 0 -1389.2444453543285 3909.5402800237171 0 3909.5402800237171 -1267.1935337545583 0 0 0 0 -18.974840151903777 -4.1229737989832529 0 -4.1229737989832529 11.374181440166996 0 0 0 0 -133.5623212417122 -507.7457688213326 0 -507.7457688213326 -1936.8036310432653 0 0 0 0 -1186.5131067202074 312.4208410021165 0 312.4208410021165 504.29036741102755 0 0 0 0 -3.5105268028014578 -8.5359162493383565 0 -8.5359162493383565 2.9693473477569796 0 0 0 0 813.03661777681555 -138.1034865071997 0 -138.1034865071997 92.620985112534072 0 0 0 0 -17.510529405244199 -31.218998525070617 0 -31.218998525070617 4.8349410436836644 0 0 0 0 -43.187557710563851 -48.424708896069205 0 -48.424708896069205 21.529149521440559 0 0 0 0 764.21280596923316 -236.41389799963508 0 -236.41389799963508 709.00233960662445 0 0 0 0 -430.60479352148832 737.8634604493709 0 737.8634604493709 2863.0091319906787 0 0 0 0 -211.52342537297591 -812.46877204425618 0 -812.46877204425618 -1187.5263584483328 0 0 0 0 -1898.4162400650966 -1290.5070445181555 0 -1290.5070445181555 2229.750162426004 0 0 0 0 22.238973570065923 -13.679377635540874 0 -13.679377635540874 7.7904737696325697 0 0 0 0 -131.14306480101368 -78.297234025987564 0 -78.297234025987564 23.900526102006552 0 0 0 0 -271.87458446029632 -204.86804963663599 0 -204.86804963663599 87.093895476311445 0 0 0 0 -9.6941227942006662 -449.59932222089265 0 -449.59932222089265 -127.00074586842584 0 0 0 0 115.46313797651237 -369.0002696788797 0 -369.0002696788797 -144.5128394914791 0 0 0 0 235.50670715526212 -229.30849724521977 0 -229.30849724521977 -99.618119397258852 0 0 0 0 71.994518654835701 -408.37424472912971 0 -408.37424472912971 -197.78124799588113 0 0 0 0 11.670042404319247 -151.06583232615958 0 -151.06583232615958 111.46219188492978 0 0 0 0 38.422421442912309 -298.10068102812511 0 -298.10068102812511 103.47983162107994 0 0 0 0 55.319799302436877 -34.01995079650078 0 -34.01995079650078 -128.07921726081986 0 0 0 0 -28.819516920295428 -23.054417230145191 0 -23.054417230145191 31.918426987016574 0 0 0 0 -1.3182248976856243 -2.2342024337989983 0 -2.2342024337989983 2.2450665453785632 0 0 0 0 -4.7280745901584567 -13.917302887600272 0 -13.917302887600272 -5.6195699418948379 0 0 0 0 -61.968258141831029 -64.376962436595932 0 -64.376962436595932 -19.566161495255074 0 0 0 0 168.38592730274104 -100.34946617041714 0 -100.34946617041714 95.848544770095032 0 0 0 0 269.84365203106427 -237.39168238255661 0 -237.39168238255661 46.817251116619445 0 0 0 0 134.53045930685767 -154.04167296004016 0 -154.04167296004016 102.95449123566505 0 0 0 0 41.794025083145243 -184.91914019087562 0 -184.91914019087562 119.84500776958885 0 0 0 0 36.014587863319321 -138.31086471234448 0 -138.31086471234448 130.39678197709145 0 0 0 0 4.4145734341000207 -141.37351384945214 0 -141.37351384945214 143.9008125995897 0 0 0 0 -3.7840674215403851 -114.7667615475948 0 -114.7667615475948 141.07470858667511 0 0 0 0 -16.729830032243626 -126.06460062763654 0 -126.06460062763654 146.07115121106108 0 0 0 0 -14.816526735623484 -123.50929912837455 0 -123.50929912837455 133.93715749506373 0 0 0 0 -30.900640143663622 -187.86928553739563 0 -187.86928553739563 86.018842178315026 0 0 0 0 -114.33304831029091 -113.96858851132856 0 -113.96858851132856 140.10119109466905 0 0 0 0 -84.660375821084017 -70.098812891286798 0 -70.098812891286798 108.22777610708727 0 0 0 0 -38.393222115526441 -128.22330829995917 0 -128.22330829995917 141.89948012695822 0 0 0 0 -61.257374306325801 -83.305423612764571 0 -83.305423612764571 130.55235251376871 0 0 0 0 -69.553980750497431 -111.60763228283031 0 -111.60763228283031 148.81361782754539 0 0 0 0 -32.502758196293144 -110.66614124318585 0 -110.66614124318585 139.22502669412643 0 0 0 0 -36.06446303499979 -117.75569852389162 0 -117.75569852389162 147.12235608685296 0 0 0 0 -35.4113478725194 -115.65693596395431 0 -115.65693596395431 143.74950046167942 0 0 0 0 -30.157368827087339 -111.75658844702411 0 -111.75658844702411 143.47970719425939 0 0 0 0 -20.089627433684655 -123.28015792771475 0 -123.28015792771475 144.83692322243587 0 0 0 0 -44.841549964621663 -106.33793576274184 0 -106.33793576274184 144.13081849052105 0 0 0 0 -40.626415813574567 -100.31612332706572 0 -100.31612332706572 131.9497240895289 0 0 0 0 -34.885148105706321 -74.16776263860811 0 -74.16776263860811 32.676021931678406 0 0 0 0 -19.624192851988482 -110.82806661946233 0 -110.82806661946233 136.43181534396717 0 0 0 0 -36.219274474860867 -107.42310837132391 0 -107.42310837132391 140.77474258566508 0 0 0 0 -18.840633897310767 -52.417249437071121 0 -52.417249437071121 -7.5251123820646342 0 0 0 0 -27.209683320310432 -111.84991141327191 0 -111.84991141327191 141.60062007461966 0 0 0 0 -23.980815874296241 -119.25337872549426 0 -119.25337872549426 144.07227320242964 0 0 0 0 -22.280145390803227 -117.23389722424326 0 -117.23389722424326 144.55871805013157 0 0 0 0 10.903161785827251 -113.99073643120937 0 -113.99073643120937 136.47535632169456 0 0 0 0 43.574992120906245 -137.62147983774776 0 -137.62147983774776 128.16871028154856 0 0 0 0 44.222231075546006 -132.42507240112172 0 -132.42507240112172 128.17656586693192 0 0 0 0 35.978499972050031 -130.24623730812687 0 -130.24623730812687 127.80534214980435 0 0 0 0 -10.299784164206358 -30.278489259035268 0 -30.278489259035268 50.212134407192934 0 0 0 0 -54.150122405357251 -64.894407539792155 0 -64.894407539792155 26.399362119002035 0 0 0 0 -53.695407570063253 -74.555455194597016 0 -74.555455194597016 35.4976784393657 0 0 0 0 -44.593583343237697 -78.649343738456082 0 -78.649343738456082 -9.6522343372344039 0 0 0 0 -14.39498826626722 -30.30113715045681 0 -30.30113715045681 28.637956562083502 0 0 0 0 -42.612701275007566 -38.816730552243826 0 -38.816730552243826 41.391864116711076 0 0 0 0 -15.942976301369299 -9.3588870766101167 0 -9.3588870766101167 39.584344339839902 0 0 0 0 -37.011803862194938 -37.780352850517374 0 -37.780352850517374 27.83199969989073 0 0 0 0 -42.879902636559564 -38.370515497932502 0 -38.370515497932502 41.394655368596432 0 0 0 0 -15.925594928965438 -29.552474022073511 0 -29.552474022073511 32.525127501401585 0 0 0 0 -1.1233929293801168 -32.706205700706306 0 -32.706205700706306 16.096649686020044 0 0 0 0 -7.0094745915284591 -22.912160183417313 0 -22.912160183417313 4.0496048223153593 0 0 0 0 -10.215591134357965 -27.911679882192402 0 -27.911679882192402 6.191982939519221 0 0 0 0 83.625663369501126 -107.33843263068411 0 -107.33843263068411 114.8156653631595 0 0 0 0 -9.2029852282205837 -22.249714199763105 0 -22.249714199763105 18.133444943776624 0 0 0 0 -27.08485795580782 -20.726763033104362 0 -20.726763033104362 25.589253269165056 0 0 0 0 -0.63586336475456662 -0.95368070611883127 0 -0.95368070611883127 21.35809775680957 0 0 0 0 -243.36821424049413 -30.318599472593633 0 -30.318599472593633 -23.811075140722096 0 0 0 0 -320.17762124491856 -81.32231433596462 0 -81.32231433596462 50.346744507434778 0 0 0 0 -45.887640165092307 -14.531632778744097 0 -14.531632778744097 29.970268764125649 0 0 0 0 -8.3963694369375652 -11.537199668841765 0 -11.537199668841765 38.441857917215941 0 0 0 0 -159.61924979524883 -82.196951599204112 0 -82.196951599204112 62.100289887428517 0 0 0 0 -212.4105414225196 -59.667403855419252 0 -59.667403855419252 54.196157966740429 0 0 0 0 -138.62768002320809 -109.52040341409156 0 -109.52040341409156 -123.13696840914781 0 0 0 0 -144.20155662340403 -150.01298340562062 0 -150.01298340562062 10.497720628482057 0 0 0 0 -381.35589154958143 -174.01241489395034 0 -174.01241489395034 -39.722929014111287 0 0 0 0 -245.39132810782758 -110.84786100586643 0 -110.84786100586643 -19.040742433455307 0 0 0 0 -261.19122493083705 -152.77044835136621 0 -152.77044835136621 17.086224958766252 0 0 0 0 -239.28407866209454 -81.147395823369152 0 -81.147395823369152 -187.39231231710801 0 0 0 0 -227.22732888546307 -149.75360261480091 0 -149.75360261480091 -271.69329093862325 0 0 0 0 -205.19081583971274 -184.23919448809465 0 -184.23919448809465 -206.96217358368449 0 0 0 0 -236.05455021157832 -122.65493117009464 0 -122.65493117009464 -191.21784667135216 0 0 0 0 -594.01595112073119 58.51621402559249 0 58.51621402559249 93.507419315807056 0 0 0 0 -427.32205916542443 -248.20441199990455 0 -248.20441199990455 -156.17019594815793 0 0 0 0 -287.83468417590484 -202.055932771691 0 -202.055932771691 -311.24409654462943 0 0 0 0 1.0245239835123812 -2.5314091106821479 0 -2.5314091106821479 0.35048796343400568 0 0 0 0 -419.64299454793218 -366.1355547978892 0 -366.1355547978892 -306.09610622230684 0 0 0 0 86.199990187771618 2.2853714125521947 0 2.2853714125521947 -85.72163136958261 0 0 0 0 -0.015432896928039952 -0.0091429999519760941 0 -0.0091429999519760941 -1.1082592204138564 0 0 0 0 -412.96804077229172 -64.28962134043104 0 -64.28962134043104 -273.20714457720169 0 0 0 0 -501.28889326645003 -332.20426598298945 0 -332.20426598298945 -275.41320653172443 0 0 0 0 -198.33361398009583 -213.43841161952878 0 -213.43841161952878 -271.04788183580604 0 0 0 0 -312.75775726856227 -89.355506520616473 0 -89.355506520616473 -139.46347608679207 0 0 0 0 -115.41827064577956 -132.34942780376878 0 -132.34942780376878 -89.957071264267142 0 0 0 0 -276.07619519311993 -305.70613909918757 0 -305.70613909918757 -91.298442743223859 0 0 0 0 79.796039917324379 -272.42128102895731 0 -272.42128102895731 -132.75047329149675 0 0 0 0 -122.23732052221021 -274.05791909001709 0 -274.05791909001709 -78.361560103759984 0 0 0 0 -256.44276982136944 -148.65087695088005 0 -148.65087695088005 -87.912932821534923 0 0 0 0 -139.74583248615454 -113.18860678919737 0 -113.18860678919737 -203.83130375976907 0 0 0 0 96.340314353863505 -34.660170175273379 0 -34.660170175273379 -534.28071515793999 0 0 0 0 -120.51401565614833 -174.76861223967899 0 -174.76861223967899 -276.73951954746735 0 0 0 0 76.977195839135675 -67.174327365501085 0 -67.174327365501085 -254.39461684620255 0 0 0 0 55.348147318290103 -153.26085000823878 0 -153.26085000823878 -106.01920679870818 0 0 0 0 221.36387437667508 -99.721512227784842 0 -99.721512227784842 -269.57899213356723 0 0 0 0 81.29884610362933 -66.812647235943587 0 -66.812647235943587 -221.52129283352406 0 0 0 0 -15.283249806379899 -139.48430201194424 0 -139.48430201194424 -46.743201694771415 0 0 0 0 -133.56703852017881 -150.56479478716847 0 -150.56479478716847 -29.879236331878928 0 0 0 0 -21.725395177629252 -157.44887039079913 0 -157.44887039079913 32.107207859444316 0 0 0 0 -157.16668155441948 -156.39601217058225 0 -156.39601217058225 65.465779238729738 0 0 0 0 -22.046943122020821 -161.38320574060072 0 -161.38320574060072 -6.4387755841307808 0 0 0 0 221.05589092956643 -6.5612580959314073 0 -6.5612580959314073 -85.330940380663378 0 0 0 0 35.546719299556571 -142.25521291517362 0 -142.25521291517362 -1.4843549492652528 0 0 0 0 176.99464275765786 -240.72131541937415 0 -240.72131541937415 20.49919830498402 0 0 0 0 -21.824215756003468 -127.93665095282995 0 -127.93665095282995 159.1238623430836 0 0 0 0 325.55747104227339 -126.52235146439489 0 -126.52235146439489 -105.8731459974224 0 0 0 0 33.052494865118206 -31.935718556276697 0 -31.935718556276697 -28.143762254185276 0 0 0 0 100.21156699254061 -170.11039204962435 0 -170.11039204962435 138.68091580745386 0 0 0 0 0.35825352999160032 -3.7741727770215334 0 -3.7741727770215334 1.2841980148487266 0 0 0 0 19.055421019835194 -26.55008816235204 0 -26.55008816235204 -34.429797888355097 0 0 0 0 16.900634465282565 -30.879552495705866 0 -30.879552495705866 -36.036731332278578 0 0 0 0 -4.8970372489300047 -22.899025410298549 0 -22.899025410298549 -33.651816808146293 0 0 0 0 6.297975217745261 -23.215579410345526 0 -23.215579410345526 -22.272897194509824 0 0 0 0 1.7893419825049932 -32.747860400893842 0 -32.747860400893842 -7.4399705288269615 0 0 0 0 2.8007477716728317 -13.011447803724877 0 -13.011447803724877 -19.121719330723863 0 0 0 0 2.579470627024449 -7.5041426174164485 0 -7.5041426174164485 -8.1313705843633386 0 0 0 0 17.20405582508829 -33.595243469739216 0 -33.595243469739216 -14.612441500583373 0 0 0 0 -2.7174280069931598 -2.1402279734193144 0 -2.1402279734193144 2.7062279598662258 0 0 0 0 29.897317719935018 -9.6055920982580574 0 -9.6055920982580574 -18.708590661830385 0 0 0 0 19.122371399807889 -23.875966487350524 0 -23.875966487350524 -32.264716399862664 0 0 0 0 257.71714424783568 24.212204072595341 0 24.212204072595341 -27.54501383513707 0 0 0 0 60.570434438533994 -259.62653209747805 0 -259.62653209747805 -447.3965539446217 0 0 0 0 -190.42470797631358 -221.86257680814742 0 -221.86257680814742 466.02998648068751 0 0 0 0 190.66680048240596 -141.75601907499367 0 -141.75601907499367 -345.45549828419462 0 0 0 0 156.39246986042599 -179.28586228079621 0 -179.28586228079621 -107.37953170252149 0 0 0 0 2.4924495663245523 -6.3067413417278715 0 -6.3067413417278715 -4.8532204496008262 0 0 0 0 -12.693799513894191 -54.415001331399253 0 -54.415001331399253 56.866211520478828 0 0 0 0 185.13266241549718 -84.258371097508643 0 -84.258371097508643 -42.32156540354481 0 0 0 0 -9.0790204419977272 -55.965679813574752 0 -55.965679813574752 -438.78587559369043 0 0 0 0 1.9720010482119079 -4.4287275112907594 0 -4.4287275112907594 -3.3549806039571024 0 0 0 0 -614.42137624743918 -472.25629933963501 0 -472.25629933963501 -101.70139597692469 0 0 0 0 -12.961826049315277 12.597356490812672 0 12.597356490812672 288.65918147498451 0 0 0 0 -0.2448655846416159 -4.7698653612988551 0 -4.7698653612988551 -4.1360690130078694 0 0 0 0 156.81655324957023 -117.13585075300989 0 -117.13585075300989 0.19431083530071191 0 0 0 0 -795.03091943133768 -368.55974929474178 0 -368.55974929474178 504.30985223992684 0 0 0 0 359.61000991255423 -177.85585775371874 0 -177.85585775371874 -51.42900894676859 0 0 0 0 212.25634808822542 -341.24295927497224 0 -341.24295927497224 258.87297016227967 0 0 0 0 -2.3782265862762841 -7.5024769099319428 0 -7.5024769099319428 -6.1082269014980568 0 0 0 0 150.41655640221143 -303.99614063151967 0 -303.99614063151967 212.06121173381689 0 0 0 0 156.79015789270284 -117.40054384751056 0 -117.40054384751056 0.10316554906603415 0 0 0 0 170.30563494218495 -107.9056899300549 0 -107.9056899300549 147.22687866787601 0 0 0 0 131.38164058019538 -104.12530357580181 0 -104.12530357580181 75.492154759413097 0 0 0 0 94.309067437217891 -190.46116448796602 0 -190.46116448796602 -125.4549352882168 0 0 0 0 120.95512808514832 -98.730390907694527 0 -98.730390907694527 140.50853652270598 0 0 0 0 2.7244475814848101 -4.496186114711179 0 -4.496186114711179 -3.6417568370690105 0 0 0 0 -63.455110319933738 -305.27049163874472 0 -305.27049163874472 291.64739709217974 0 0 0 0 42.440681073770975 -282.7989869067751 0 -282.7989869067751 0.1774834142778732 0 0 0 0 -117.4785789634152 -426.08718583588052 0 -426.08718583588052 23.184113107738085 0 0 0 0 -287.14709522011981 -243.15999784521409 0 -243.15999784521409 48.568340216166689 0 0 0 0 60.825019879106549 -416.83242988645361 0 -416.83242988645361 158.07880541688064 0 0 0 0 -70.406717142894195 -37.726802943259827 0 -37.726802943259827 147.90353543964738 0 0 0 0 0.51938548727002853 -4.6081408736725962 0 -4.6081408736725962 -4.3300301470835052 0 0 0 0 -192.18249875285619 -179.15094791613592 0 -179.15094791613592 238.42394159642572 0 0 0 0 -307.33179971211212 -278.99055097573 0 -278.99055097573 500.25930809912097 0 0 0 0 360.40932767959021 -162.18581635303053 0 -162.18581635303053 36.29625349426351 0 0 0 0 -588.81746245089016 18.617223357879993 0 18.617223357879993 300.05667407927103 0 0 0 0 -234.45463680365356 -381.22637899602705 0 -381.22637899602705 -0.011026352847693488 0 0 0 0 1.833988628617746 0.1195722955762335 0 0.1195722955762335 -4.1653823587008105 0 0 0 0 240.06253395746171 -343.34731348614878 0 -343.34731348614878 37.198578027508347 0 0 0 0 -144.20732965079515 -358.32126661229995 0 -358.32126661229995 90.635028413758846 0 0 0 0 -59.765340709307566 -139.23922111530737 0 -139.23922111530737 189.94667739339639 0 0 0 0 0.57273910913899329 -2.247068052767645 0 -2.247068052767645 -5.9508745353519998 0 0 0 0 1.7735987193065768 -0.65056716434554573 0 -0.65056716434554573 -4.9424136117183366 0 0 0 0 453.28087230469828 -512.40011868122383 0 -512.40011868122383 -124.53685524232833 0 0 0 0 370.06862684305088 -125.24238941436488 0 -125.24238941436488 -78.046165587169526 0 0 0 0 -183.25847569640064 -339.56331940583914 0 -339.56331940583914 -102.22750099920086 0 0 0 0 -362.00053243101138 -430.78728611476254 0 -430.78728611476254 139.67111064086203 0 0 0 0 -445.74798425133304 -231.99498252829108 0 -231.99498252829108 189.27675792761147 0 0 0 0 -809.24472677486119 -1300.1282791675476 0 -1300.1282791675476 -1523.7385031637386 0 0 0 0 -1409.168212112153 -1246.6741764282779 0 -1246.6741764282779 -710.11568525995244 0 0 0 0 -1118.0998137045667 -186.00222390098224 0 -186.00222390098224 -1272.361526192195 0 0 0 0 -706.50994435110078 -933.91469658821734 0 -933.91469658821734 -1670.6984020293203 0 0 0 0 -1651.4356170204319 -944.68895790673196 0 -944.68895790673196 -339.24639488838147 0 0 0 0 -1096.4646064896515 68.110839480403229 0 68.110839480403229 55.325866474828217 0 0 0 0 -8.8798651724569506 -12.101978088241083 0 -12.101978088241083 -8.4508116978086605 0 0 0 0 -308.43465061702682 -735.27844093153544 0 -735.27844093153544 -1794.5548302652023 0 0 0 0 -246.3298406735579 -552.44351442492916 0 -552.44351442492916 -1291.7425367711985 0 0 0 0 -6.8382627763787074 -0.27361865512095562 0 -0.27361865512095562 4.3194182267589554 0 0 0 0 -3.0582852444160515 -2.3326228288655386 0 -2.3326228288655386 7.4049660844884215 0 0 0 0 177.78634959680448 -288.9770396419699 0 -288.9770396419699 -133.04913968528854 0 0 0 0 597.8358904651318 -264.96498753187916 0 -264.96498753187916 -321.27402853462263 0 0 0 0 176.15107647054447 -298.70943521654408 0 -298.70943521654408 104.45954877650365 0 0 0 0 -151.85684749609027 -744.15032124934078 0 -744.15032124934078 -620.92648443102371 0 0 0 0 -113.47073332244145 -217.39820245737064 0 -217.39820245737064 -149.26708202104783 0 0 0 0 316.05802586652408 -580.26135620645073 0 -580.26135620645073 -566.16801800008398 0 0 0 0 -667.24088361444046 -926.64385009840771 0 -926.64385009840771 -560.50390415925358 0 0 0 0 -686.15349186993353 -1292.0022690807891 0 -1292.0022690807891 -618.59467296179537 0 0 0 0 -326.82305906482247 -1114.696647976054 0 -1114.696647976054 -810.93416162327048 0 0 0 0 -500.16521680086407 -737.55222976808363 0 -737.55222976808363 -520.57797181326896 0 0 0 0 -643.27506729071524 -1184.4031720704934 0 -1184.4031720704934 -1163.4072655197524 0 0 0 0 -801.15017103864216 -745.63251171109914 0 -745.63251171109914 -1077.3570644808642 0 0 0 0 -583.91512269670011 -896.3475596687349 0 -896.3475596687349 -878.28048713615863 0 0 0 0 -497.52275272443785 -976.90834081055073 0 -976.90834081055073 -821.23032578672792 0 0 0 0 -478.55941375891598 -673.15236888657091 0 -673.15236888657091 -483.12998466202407 0 0 0 0 -344.74291921392842 -721.70462020832929 0 -721.70462020832929 -498.01972969365306 0 0 0 0 -788.70271318705022 -902.25526143608295 0 -902.25526143608295 -519.23349100124324 0 0 0 0 -684.96957964355352 -905.01012590968458 0 -905.01012590968458 -564.0365697094021 0 0 0 0 -525.19103723239459 -807.26797293101845 0 -807.26797293101845 -666.31577554119576 0 0 0 0 -959.08250399076132 -571.62104949203786 0 -571.62104949203786 -277.80911486159312 0 0 0 0 -297.71520293974027 -583.14532701273856 0 -583.14532701273856 -270.37007661113603 0 0 0 0 -650.54039808445032 -293.02621612652001 0 -293.02621612652001 -503.60475442488678 0 0 0 0 -579.0538403242781 -296.63173364594695 0 -296.63173364594695 -143.44838268760941 0 0 0 0 266.47520999838162 27.577302735386183 0 27.577302735386183 -4.5553773250976519 0 0 0 0 -3.79674453701098 -3.7287199564707407 0 -3.7287199564707407 4.8560507488177223 0 0 0 0 -358.99577791256434 -454.29167261668772 0 -454.29167261668772 -388.9230403311667 0 0 0 0 -36.599798278371431 -40.069891181733709 0 -40.069891181733709 20.802450897810346 0 0 0 0 -134.92652984783854 81.712713408254785 0 81.712713408254785 271.30880320581491 0 0 0 0 58.92785501835715 -34.328667775727808 0 -34.328667775727808 44.8347461726662 0 0 0 0 2.8937577454307757 -259.46677847151295 0 -259.46677847151295 291.11710810469231 0 0 0 0 -11.493074372709088 16.424983504133706 0 16.424983504133706 88.023450698427041 0 0 0 0 -24.640745615912977 -45.651521364013291 0 -45.651521364013291 13.902243309525915 0 0 0 0 -575.34451466852806 -127.78969189133204 0 -127.78969189133204 21.836831954431545 0 0 0 0 -0.68796314481748766 -7.1544492554937733 0 -7.1544492554937733 4.5278227875867003 0 0 0 0 -255.72374614398359 224.47569164255401 0 224.47569164255401 100.06966292415746 0 0 0 0 -755.15432183373014 -542.01982966106152 0 -542.01982966106152 -250.89048437929159 0 0 0 0 108.73907575674821 -128.60028913307178 0 -128.60028913307178 -341.37312853353797 0 0 0 0 8.6591593756348573 -17.636849449335813 0 -17.636849449335813 -5.2115408967145669 0 0 0 0 18.034597547242811 -43.064554812666756 0 -43.064554812666756 -24.063427662971662 0 0 0 0 -7.9220253681542374 -29.366472736592982 0 -29.366472736592982 -28.735007906530882 0 0 0 0 -119.048670958 -163.45622739021201 0 -163.45622739021201 266.83906824787846 0 0 0 0 -0.5252462157732225 28.986732508536079 0 28.986732508536079 20.588259073789231 0 0 0 0 2.1909666114413255 -6.7135080215007576 0 -6.7135080215007576 7.1560390901776145 0 0 0 0 1.2874036825970308 -8.6266842989284953 0 -8.6266842989284953 3.4501531139459871 0 0 0 0 0.054259318332697148 -16.686694165648078 0 -16.686694165648078 -1.4521959050471196 0 0 0 0 0.68458876487358111 -11.457075642099852 0 -11.457075642099852 -14.556791218022681 0 0 0 0 2.503755455443752 -20.91152712139592 0 -20.91152712139592 -11.72310556260345 0 0 0 0 -2.7433768960517568 -2.8693089201224211 0 -2.8693089201224211 0.11946015434173773 0 0 0 0 -2.7237923165412212 146.35102566273417 0 146.35102566273417 -341.73166854512237 0 0 0 0 -65.608605164763503 -4.1824457927432377 0 -4.1824457927432377 -3.5882796321166097 0 0 0 0 -48.765341361726314 -19.513994897664816 0 -19.513994897664816 -894.43527127159177 0 0 0 0 3.1106745719255287 -2.4017391618250201 0 -2.4017391618250201 -6.393226759698166 0 0 0 0 10.230978408395458 -277.32777490773879 0 -277.32777490773879 -938.11139424028624 0 0 0 0 -431.38735572881274 -576.54268576843333 0 -576.54268576843333 -426.05897719915083 0 0 0 0 55.293511585103829 -86.894955491465453 0 -86.894955491465453 -307.03374304858153 0 0 0 0 -72.229819824784499 -266.77042372165306 0 -266.77042372165306 -559.26100214812323 0 0 0 0 -63.081459240649565 -397.8711078145061 0 -397.8711078145061 -1143.7398345444963 0 0 0 0 2.7512203839528198 -3.810517561943783 0 -3.810517561943783 -5.6924676012327495 0 0 0 0 -435.09948839480967 -538.93329162178998 0 -538.93329162178998 -689.45240538466896 0 0 0 0 -540.15238897966992 -703.42486732755788 0 -703.42486732755788 -884.02810231008334 0 0 0 0 -629.15603677284071 -599.59727471124643 0 -599.59727471124643 -718.86835752864135 0 0 0 0 -625.52419908764477 -753.7624318859489 0 -753.7624318859489 -760.9229483109375 0 0 0 0 -639.57572214583888 -694.25629423506689 0 -694.25629423506689 -366.37233681132784 0 0 0 0 -545.68432754029891 -678.57826524802658 0 -678.57826524802658 -364.00987299335247 0 0 0 0 -680.65585407714502 -710.89654629136203 0 -710.89654629136203 -174.75571707860217 0 0 0 0 -292.82152009747006 -498.3810444625924 0 -498.3810444625924 -189.32928992856068 0 0 0 0 -285.46457408766582 -522.24572481441282 0 -522.24572481441282 -407.08793561155471 0 0 0 0 -543.82239819819733 -656.43561960550142 0 -656.43561960550142 -101.79090617158363 0 0 0 0 -624.4595310821951 -556.58259990639635 0 -556.58259990639635 176.29074007140298 0 0 0 0 -677.46563754255658 -682.1683462562396 0 -682.1683462562396 -104.36503280358738 0 0 0 0 -626.31126861964367 -779.06011316985678 0 -779.06011316985678 -11.502301539163454 0 0 0 0 -974.05303932719107 -754.14870212286041 0 -754.14870212286041 134.5687465642859 0 0 0 0 -744.15945829774864 -850.59614469571534 0 -850.59614469571534 1.5101191428111633 0 0 0 0 -418.27035834813796 -727.77633729991794 0 -727.77633729991794 -182.84714836103012 0 0 0 0 -470.30897435096813 -875.0935574445175 0 -875.0935574445175 -1.5046480755117955 0 0 0 0 -617.95101211400743 -794.05664949776838 0 -794.05664949776838 -35.443280339881312 0 0 0 0 -363.63832469012141 -541.42413813737767 0 -541.42413813737767 -287.3272509076196 0 0 0 0 -308.00971938165276 -790.69298419898405 0 -790.69298419898405 -162.27709317760309 0 0 0 0 -3.349637913063674 -2.7355761968177035 0 -2.7355761968177035 6.0371197337877902 0 0 0 0 -17.897314749723591 -30.109086771095463 0 -30.109086771095463 -0.0058314171268607374 0 0 0 0 -1.7935034629277986 3.839518032829055 0 3.839518032829055 1.9137762353770995 0 0 0 0 -17.31406039147987 -27.736350501931156 0 -27.736350501931156 8.2880433171485492 0 0 0 0 45.539218380529746 3.4466956352844136 0 3.4466956352844136 -18.335400339841726 0 0 0 0 -1.773794357643375 -6.6678023098512824 0 -6.6678023098512824 10.595591883639145 0 0 0 0 2.1403548514099384 -27.727640284138033 0 -27.727640284138033 -16.399453003250528 0 0 0 0 -469.05255896424933 -443.75056210462208 0 -443.75056210462208 -218.76921166206012 0 0 0 0 -638.23898069785196 -446.10319801330024 0 -446.10319801330024 -94.653788999377866 0 0 0 0 -474.45526483851626 -62.592240511083844 0 -62.592240511083844 75.324781422648812 0 0 0 0 -697.43373962540682 -338.18400456021118 0 -338.18400456021118 6.7620162586099468 0 0 0 0 -1055.5495184166011 -721.83570115319162 0 -721.83570115319162 -221.73915038250561 0 0 0 0 -711.9560721848884 -310.79662494654622 0 -310.79662494654622 -43.220026194612728 0 0 0 0 -368.98523503240722 -109.7103193771909 0 -109.7103193771909 666.60954125790158 0 0 0 0 -39.899951485544264 -35.242163280821842 0 -35.242163280821842 9.9031078552361578 0 0 0 0 -11.983819301100485 -18.059096418712841 0 -18.059096418712841 -5.9037503851349129 0 0 0 0 336.12310902476747 495.56856295221951 0 495.56856295221951 491.59555221226765 0 0 0 0 113.17353147680842 149.63030050887755 0 149.63030050887755 -227.71066197164328 0 0 0 0 -16.774876410130616 -9.1553806062533454 0 -9.1553806062533454 12.070155775519368 0 0 0 0 -19.754983837638065 -20.520133732861723 0 -20.520133732861723 -2.112746531405719 0 0 0 0 -2.0766907854297778 -11.930685463228997 0 -11.930685463228997 -0.97299162873184741 0 0 0 0 -43.787671335448067 -25.263369037624216 0 -25.263369037624216 -1.0783445709384978 0 0 0 0 -47.473567075687242 -20.312137507688021 0 -20.312137507688021 1.8460122237156611 0 0 0 0 -40.750912291506211 -32.719493009994039 0 -32.719493009994039 2.5999901389004663 0 0 0 0 -46.996089654539901 -23.235878365856479 0 -23.235878365856479 6.5897045607603104 0 0 0 0 -40.122777957933749 -30.629677350749262 0 -30.629677350749262 6.4998011816642247 0 0 0 0 -38.614907315860307 -28.574106864543865 0 -28.574106864543865 9.1041266027896199 0 0 0 0 -35.09846095036437 -30.948516249918612 0 -30.948516249918612 10.002058530517388 0 0 0 0 -35.053619077284452 -22.982568603474647 0 -22.982568603474647 8.7818589736707509 0 0 0 0 -38.172048019105659 -18.668110532005812 0 -18.668110532005812 4.3801463937852532 0 0 0 0 -39.964264296507736 -27.07870162375184 0 -27.07870162375184 6.5004015680751763 0 0 0 0 -47.03899845547221 -21.951334519777447 0 -21.951334519777447 4.1725122867501341 0 0 0 0 -1.8743398469071266 1.5857476147597467 0 1.5857476147597467 1.1954331317962215 0 0 0 0 -52.878139109722724 -23.773532552499091 0 -23.773532552499091 1.6520229836023645 0 0 0 0 -50.48562454405419 -14.614164280763362 0 -14.614164280763362 -4.8237964352883864 0 0 0 0 -77.670466075375316 -16.692533087476477 0 -16.692533087476477 3.7754730476008262 0 0 0 0 -54.726253040166284 -21.39882104168646 0 -21.39882104168646 -1.452736074817949 0 0 0 0 -8.2640068373511895 -4.8227935110626277 0 -4.8227935110626277 -0.0087088732980191708 0 0 0 0 -41.67951247288147 -11.062823681699228 0 -11.062823681699228 -1.5028786455222871 0 0 0 0 -32.720360343683524 -20.665154192101909 0 -20.665154192101909 0.045306220694328658 0 0 0 0 -18.505141974489106 -13.840201702696504 0 -13.840201702696504 2.3078404223924736 0 0 0 0 -17.025714775490769 -8.615979274516576 0 -8.615979274516576 20.638777638043393 0 0 0 0 -16.061347123132691 -23.33460567772272 0 -23.33460567772272 14.638598925106635 0 0 0 0 -14.125954650794029 -16.698276168683151 0 -16.698276168683151 30.408988350915024 0 0 0 0 -34.437131187466775 -25.067628642471391 0 -25.067628642471391 10.164120518631535 0 0 0 0 -21.343202090909926 -20.590974461108999 0 -20.590974461108999 19.63368262804579 0 0 0 0 -22.440581202671638 -24.156787249376066 0 -24.156787249376066 8.4209454839437967 0 0 0 0 48.949990932680521 -88.366663176944712 0 -88.366663176944712 -195.3678911452007 0 0 0 0 -375.68176900121034 -124.30645399181958 0 -124.30645399181958 0.0099341438035480678 0 0 0 0 -4.8642172104728161 -8.902329124030075 0 -8.902329124030075 -0.13895563398546074 0 0 0 0 -15.465631411396316 3.427200752790668 0 3.427200752790668 36.613795943019795 0 0 0 0 35.602232084147545 107.50002661344479 0 107.50002661344479 235.82564125742647 0 0 0 0 -9.3948984309172374 -34.269493775063893 0 -34.269493775063893 53.607197532015562 0 0 0 0 -13.067533210242388 -9.2405892559778238 0 -9.2405892559778238 -5.9392025363642063 0 0 0 0 -2.9127492998459275 -24.527957897367742 0 -24.527957897367742 -92.266921342466958 0 0 0 0 -89.150058119692403 53.767153392938781 0 53.767153392938781 327.77269751238055 0 0 0 0 -37.790907140364652 -144.50745461985207 0 -144.50745461985207 630.42420215377933 0 0 0 0 252.03451693372335 65.121158297755755 0 65.121158297755755 244.12263952400826 0 0 0 0 -298.79741784778889 -24.674220005152165 0 -24.674220005152165 -131.30069705293863 0 0 0 0 -33.458165933123382 -146.97314027246466 0 -146.97314027246466 -663.10703763637866 0 0 0 0 -133.21868723981243 -267.68760091923468 0 -267.68760091923468 -172.74420420668321 0 0 0 0 -16.861487493758773 -7.1452229574781825 0 -7.1452229574781825 6.0243580405695809 0 0 0 0 -218.03964231293867 170.38079684587137 0 170.38079684587137 808.43809243595751 0 0 0 0 87.959247966868134 -375.80227533147263 0 -375.80227533147263 -159.87715216357901 0 0 0 0 -14.724433524354026 -32.714168630162021 0 -32.714168630162021 11.714556470979005 0 0 0 0 -387.86307606852642 102.21182130096713 0 102.21182130096713 974.96102826765855 0 0 0 0 -22.978029273600441 -28.085409876512131 0 -28.085409876512131 11.135993904186762 0 0 0 0 -34.18377337017705 -28.239764462545281 0 -28.239764462545281 14.834272718697321 0 0 0 0 -33.752469963434805 -26.349345902635832 0 -26.349345902635832 15.106587380520068 0 0 0 0 -24.525408253565729 -27.971224386652466 0 -27.971224386652466 11.642889686801936 0 0 0 0 -14.229730597469029 -36.463930563006215 0 -36.463930563006215 16.558288510539569 0 0 0 0 -19.993866695983343 -32.752792286832118 0 -32.752792286832118 21.900675092678284 0 0 0 0 -24.547228910081685 -27.460841032305325 0 -27.460841032305325 16.293198436498642 0 0 0 0 -160.49257789377862 117.49167742662758 0 117.49167742662758 1369.6068316095916 0 0 0 0 -23.729172256279639 -15.603437124079676 0 -15.603437124079676 -9.5020512212686867 0 0 0 0 -19.625030859793696 -36.321902559691807 0 -36.321902559691807 30.280897585791536 0 0 0 0 134.38676332257455 -475.66229528654367 0 -475.66229528654367 571.62257291353308 0 0 0 0 -6.6428936665630332 -3.7623979769901439 0 -3.7623979769901439 2.9421464892452889 0 0 0 0 -153.87501750278898 -824.0611269621877 0 -824.0611269621877 -690.51801581084146 0 0 0 0 -620.57752684063962 -417.01703401838313 0 -417.01703401838313 307.50966271210928 0 0 0 0 -227.36847525856865 -520.13591743135476 0 -520.13591743135476 -21.725218155392213 0 0 0 0 -231.66036675362398 -346.89329613959308 0 -346.89329613959308 89.638213529833592 0 0 0 0 162.09435887415748 -482.46703124715714 0 -482.46703124715714 118.06150345521746 0 0 0 0 -32.576441128536686 -23.885125652760792 0 -23.885125652760792 -10.439148018343218 0 0 0 0 445.68020637454174 -74.083642639758182 0 -74.083642639758182 11.601138451136649 0 0 0 0 -34.846363176385978 -30.548310721671442 0 -30.548310721671442 11.785050666134339 0 0 0 0 136.1749644800002 -114.38871357875178 0 -114.38871357875178 -12.042629100033082 0 0 0 0 289.6297708503771 -46.592491953604622 0 -46.592491953604622 7.3232488565408858 0 0 0 0 183.58926909132424 -220.2768068779842 0 -220.2768068779842 53.027804500219645 0 0 0 0 85.127052932020888 -311.46643190257601 0 -311.46643190257601 15.715689483040478 0 0 0 0 -155.04243913203391 -400.34361831762362 0 -400.34361831762362 -78.285010175874049 0 0 0 0 64.188538675589371 -266.05956578842597 0 -266.05956578842597 -68.608354803058319 0 0 0 0 19.729442384192225 -265.71251688999473 0 -265.71251688999473 17.518804609891959 0 0 0 0 -4.5287380745560206 -11.226835594947886 0 -11.226835594947886 4.2627774340582505 0 0 0 0 -302.58708578037113 -533.2976304567128 0 -533.2976304567128 1057.3837652098591 0 0 0 0 9.1003235799689719 -541.19667292045779 0 -541.19667292045779 788.98371901889914 0 0 0 0 533.99360481870826 -452.0891444812296 0 -452.0891444812296 204.15260702808155 0 0 0 0 19.220450357852769 892.60905671403634 0 892.60905671403634 876.0501878905925 0 0 0 0 -408.24982542018779 -145.3552118547741 0 -145.3552118547741 -22.313827920763288 0 0 0 0 -512.65214648835354 -440.30042825445707 0 -440.30042825445707 -266.67734872447909 0 0 0 0 -123.46646914577104 -103.37034863065492 0 -103.37034863065492 -292.04136770790137 0 0 0 0 -2.0363542606433143 -2.9856808521322193 0 -2.9856808521322193 7.1256963887321376 0 0 0 0 -121.64774063342156 -10.278003640516545 0 -10.278003640516545 32.430559801006893 0 0 0 0 -5.2070779772620881 199.26358004997019 0 199.26358004997019 -238.69208763688948 0 0 0 0 -193.97655341827704 -269.55999028059887 0 -269.55999028059887 461.20883439847967 0 0 0 0 -199.15862224970806 152.71161960359314 0 152.71161960359314 270.18489983218024 0 0 0 0 -198.61934082968946 -216.90024908503983 0 -216.90024908503983 -103.01893701648805 0 0 0 0 -240.13627102618193 48.192406538124487 0 48.192406538124487 17.418945504061412 0 0 0 0 -73.255303949412337 -138.85872222273611 0 -138.85872222273611 -77.458981269453943 0 0 0 0 -32.378464690425972 -85.126519929064671 0 -85.126519929064671 -7.079684996191645 0 0 0 0 336.77560768900003 -199.72334733871685 0 -199.72334733871685 -163.54505994586361 0 0 0 0 387.07034715659756 -14.112539835048665 0 -14.112539835048665 85.126310261301114 0 0 0 0 167.95905095642229 -164.36726847524551 0 -164.36726847524551 -4.9668171342782443 0 0 0 0 -65.028512895661152 29.13297538151528 0 29.13297538151528 45.050187060114695 0 0 0 0 8.1064241241406307 -208.35980436571117 0 -208.35980436571117 -75.260749954948551 0 0 0 0 -2.7625484115251737 -0.52195734000619609 0 -0.52195734000619609 3.4477083578388488 0 0 0 0 822.88373709257576 -174.39022209814721 0 -174.39022209814721 -26.731670690860483 0 0 0 0 368.68487213255685 -281.46537682856069 0 -281.46537682856069 114.64379259131965 0 0 0 0 70.963403091491273 -4.3582903697024449 0 -4.3582903697024449 187.37805371859577 0 0 0 0 -7.9381714897469848 -10.624744397157556 0 -10.624744397157556 -7.4758316651810901 0 0 0 0 755.58987488660568 -296.65899582993006 0 -296.65899582993006 -94.891005786252208 0 0 0 0 405.83690323285418 -139.66813773416106 0 -139.66813773416106 157.65533859672723 0 0 0 0 421.89502828753348 -54.376535199096907 0 -54.376535199096907 -158.45181523996871 0 0 0 0 242.40054117804539 -233.14320312652853 0 -233.14320312652853 10.04447570539196 0 0 0 0 -271.91947935643657 133.04065205247025 0 133.04065205247025 -197.3681288624357 0 0 0 0 -580.92714688854903 -658.15264105763345 0 -658.15264105763345 -455.5684186040744 0 0 0 0 -479.76726916681218 -954.66692834319838 0 -954.66692834319838 -1003.0721268410744 0 0 0 0 -1035.5906013598469 -681.35129005125782 0 -681.35129005125782 -167.68884298477496 0 0 0 0 -160.88629450756707 -486.03321960913308 0 -486.03321960913308 -187.60956823424203 0 0 0 0 -666.83654577935522 -852.74627957814664 0 -852.74627957814664 -301.96184462570818 0 0 0 0 409.99901322860387 -407.51643514833995 0 -407.51643514833995 -479.37508029270975 0 0 0 0 388.95403104370962 -184.04285918670121 0 -184.04285918670121 -8.8088247967534699 0 0 0 0 543.15381249585334 -330.54409286069858 0 -330.54409286069858 -265.26092332979897 0 0 0 0 236.72455418139725 -346.76892124602455 0 -346.76892124602455 -161.15613429265795 0 0 0 0 271.13598413927684 -434.91562004352454 0 -434.91562004352454 -236.3504938413389 0 0 0 0 -91.648585029099195 -587.32272212686075 0 -587.32272212686075 -222.71890011605865 0 0 0 0 -4.421578712957853 -505.14072933963325 0 -505.14072933963325 -174.87168522592401 0 0 0 0 -117.27643263588834 -413.90826035739883 0 -413.90826035739883 -75.457748080807505 0 0 0 0 191.00589971067529 -344.44928465105477 0 -344.44928465105477 -118.29647360005765 0 0 0 0 307.56732397911401 -371.5153500931483 0 -371.5153500931483 -207.25125429373293 0 0 0 0 69.003947364890337 -395.42928140015283 0 -395.42928140015283 -111.48914743348723 0 0 0 0 191.89301497668203 -299.93435232290358 0 -299.93435232290358 -82.999170493159909 0 0 0 0 11.575374697706138 -361.72089096478885 0 -361.72089096478885 -70.534621468279511 0 0 0 0 -334.40011379380303 -344.38192013763182 0 -344.38192013763182 8.5951070549490396 0 0 0 0 -101.42894503313437 -439.04556984553346 0 -439.04556984553346 -74.189681937074056 0 0 0 0 -402.7137415658799 -618.45997014566092 0 -618.45997014566092 -127.81033734387893 0 0 0 0 -706.30065703469882 -252.36360772203625 0 -252.36360772203625 55.750685285689542 0 0 0 0 -235.04195854576392 -232.64720504339493 0 -232.64720504339493 56.397786866244132 0 0 0 0 -99.911247803537663 -64.706486873155882 0 -64.706486873155882 -38.790266440948471 0 0 0 0 -323.02732330984509 -123.67217822372913 0 -123.67217822372913 18.136832077841973 0 0 0 0 -371.6118956790051 -16.839460873714415 0 -16.839460873714415 -18.699642927807872 0 0 0 0 -150.4186937832128 -29.670435390755301 0 -29.670435390755301 -29.849141203347244 0 0 0 0 -18.677539663829521 -78.828100959195581 0 -78.828100959195581 23.205166149953584 0 0 0 0 -14.83518303902693 -23.216347753016564 0 -23.216347753016564 -27.235329860860361 0 0 0 0 -34.726987063180786 14.12553543426111 0 14.12553543426111 -34.595652187359519 0 0 0 0 0.010580979006565627 -3.2412297471899159 0 -3.2412297471899159 -9.3563665896229509 0 0 0 0 -83.880674765841832 58.850105116522172 0 58.850105116522172 51.098198788462469 0 0 0 0 -9.1705995144193366 -7.9211886415499748 0 -7.9211886415499748 -7.7445173521653032 0 0 0 0 -1277.8933147893767 -46.433382396644447 0 -46.433382396644447 46.927205874599167 0 0 0 0 -151.98854899259823 -394.32350112359563 0 -394.32350112359563 -472.76555429949076 0 0 0 0 -621.91274778984371 -823.9903211210767 0 -823.9903211210767 -37.270389527504449 0 0 0 0 -809.25840039748437 -399.21138371057168 0 -399.21138371057168 -241.09381321932597 0 0 0 0 965.28989554727741 -315.72827604079794 0 -315.72827604079794 -268.12340426111768 0 0 0 0 0.39240593257341061 -0.49385324845018275 0 -0.49385324845018275 -4.4427773116951812 0 0 0 0 356.52697442288286 -483.20400369257413 0 -483.20400369257413 -281.88179322323413 0 0 0 0 -81.051294338212756 -470.65080793223751 0 -470.65080793223751 -213.07280150000588 0 0 0 0 -730.20788209400416 -650.03071920510047 0 -650.03071920510047 403.7537813935196 0 0 0 0 -426.44631995591772 205.62568586014095 0 205.62568586014095 730.1673570355415 0 0 0 0 -18.755481234126236 -6.7565591524315778 0 -6.7565591524315778 6.0750542507448415 0 0 0 0 104.17436311586789 -304.04781585073215 0 -304.04781585073215 -984.20916779330582 0 0 0 0 -8.4216439395304405 716.15860570715449 0 716.15860570715449 329.61386637989199 0 0 0 0 209.92798013579159 49.612908566879923 0 49.612908566879923 99.409351990092546 0 0 0 0 278.30291266459244 -388.75040235114284 0 -388.75040235114284 834.23408434483281 0 0 0 0 421.62274395987333 -109.01056632475229 0 -109.01056632475229 201.90108942778897 0 0 0 0 565.44833410072897 -293.15800059729372 0 -293.15800059729372 58.561472933244659 0 0 0 0 178.51743647074909 -134.25995841706754 0 -134.25995841706754 715.83184854706633 0 0 0 0 501.21307417275239 -291.41659563226858 0 -291.41659563226858 541.21263838134473 0 0 0 0 -327.01903992567168 437.18740592874383 0 437.18740592874383 1388.8969306123618 0 0 0 0 -7.9563348327692154 -2.4537803728785548 0 -2.4537803728785548 2.3739948976942173 0 0 0 0 379.85694296237489 -908.83799280095263 0 -908.83799280095263 -796.77317066432443 0 0 0 0 1122.6866458990407 -750.02666671195766 0 -750.02666671195766 -83.583609036155394 0 0 0 0 467.06508013744315 -192.26488694325963 0 -192.26488694325963 -476.98656740863225 0 0 0 0 -404.20068222561076 -355.12967115700121 0 -355.12967115700121 275.71290580209461 0 0 0 0 -357.52963764805463 -163.70581486983428 0 -163.70581486983428 192.06788532789506 0 0 0 0 -145.92540919959902 -406.51511707007739 0 -406.51511707007739 233.4660106493975 0 0 0 0 196.1541133006549 -533.99318859750565 0 -533.99318859750565 772.3489015440573 0 0 0 0 136.18847652599288 -202.53201025777526 0 -202.53201025777526 159.13949600768683 0 0 0 0 76.763048729830189 102.21945880127168 0 102.21945880127168 408.71373658729135 0 0 0 0 -160.60551685432074 -199.35197300399886 0 -199.35197300399886 211.80318967640051 0 0 0 0 -296.89876957071101 -364.63603721676918 0 -364.63603721676918 90.626611031402717 0 0 0 0 -406.73333286054913 -326.28973404713906 0 -326.28973404713906 297.70980415400118 0 0 0 0 -407.01914606927676 -326.04794778148062 0 -326.04794778148062 329.67791362997377 0 0 0 0 -276.51088689258904 -265.50336987087212 0 -265.50336987087212 332.9838401593006 0 0 0 0 -607.67847879302644 -307.19959559201379 0 -307.19959559201379 330.59770413741717 0 0 0 0 -495.1994051419606 38.419044799709809 0 38.419044799709809 328.27034647297342 0 0 0 0 -478.68292610905337 -118.58202666717989 0 -118.58202666717989 457.15073486862093 0 0 0 0 -664.85467904151665 315.6919322834874 0 315.6919322834874 -146.21571577173563 0 0 0 0 -3.0790079279041365 -4.0663886164958285 0 -4.0663886164958285 -3.9086534489797771 0 0 0 0 -380.11114689729584 -182.21986932477012 0 -182.21986932477012 166.96971021196805 0 0 0 0 -1098.6776118134294 -29.273420856901794 0 -29.273420856901794 138.92185791022348 0 0 0 0 -334.60258324750976 -320.82937068090541 0 -320.82937068090541 79.538820883492008 0 0 0 0 -752.86118810066546 -515.71901737964072 0 -515.71901737964072 10.308944051066646 0 0 0 0 -773.35083418973227 65.818279297425761 0 65.818279297425761 -358.90992861826817 0 0 0 0 -356.77830391458338 -339.04191535231439 0 -339.04191535231439 -0.16658166951674502 0 0 0 0 -157.95736711494465 -235.52812531616655 0 -235.52812531616655 -119.68655450441292 0 0 0 0 -1061.1515949568347 -336.81447921416839 0 -336.81447921416839 -23.108412466426671 0 0 0 0 -339.63667181134258 -385.83161182590425 0 -385.83161182590425 280.46874998790736 0 0 0 0 113.0317524120037 -115.92492922606471 0 -115.92492922606471 -32.403570330920047 0 0 0 0 245.25297227748069 -359.86304316716996 0 -359.86304316716996 -0.022907496619154699 0 0 0 0 795.01623010241019 -216.57004848909855 0 -216.57004848909855 68.422111982970819 0 0 0 0 328.02176750701619 -285.01079424140335 0 -285.01079424140335 60.034009404771496 0 0 0 0 377.67013788719669 -320.42118029941776 0 -320.42118029941776 -0.028448375029256567 0 0 0 0 59.879398645800393 -213.08604929515423 0 -213.08604929515423 83.052718336766702 0 0 0 0 183.54165269304212 -357.60935240846447 0 -357.60935240846447 128.98639920771529 0 0 0 0 138.58117350788052 -243.178233930028 0 -243.178233930028 0.14741683428292163 0 0 0 0 101.05973772809375 -250.9759085795522 0 -250.9759085795522 117.21664984032395 0 0 0 0 20.237952590548957 -300.13600143235817 0 -300.13600143235817 139.88391939608118 0 0 0 0 74.692602561546664 -181.35666697018314 0 -181.35666697018314 127.4904374104899 0 0 0 0 29.542876105177129 -128.20242849326314 0 -128.20242849326314 64.943262318571215 0 0 0 0 1.6653274388781938 -224.61752768760198 0 -224.61752768760198 107.96071646822384 0 0 0 0 -144.11571269902197 -190.70316748914775 0 -190.70316748914775 180.2398710678608 0 0 0 0 199.38078536026296 -145.22886319380996 0 -145.22886319380996 46.898249543446582 0 0 0 0 117.40087584404682 -241.20885448259651 0 -241.20885448259651 97.930721659649862 0 0 0 0 -189.13056843705272 -153.73091366083827 0 -153.73091366083827 289.92253020736098 0 0 0 0 -191.17401255048753 -98.659292302341782 0 -98.659292302341782 -201.3675329554826 0 0 0 0 1941.4873261565717 272.18213370921148 0 272.18213370921148 -129.68970851795166 0 0 0 0 -829.38141645608994 -172.14797603049374 0 -172.14797603049374 349.5464214142703 0 0 0 0 1.6885133839840343 -1.6816350297608125 0 -1.6816350297608125 8.1379783374945873 0 0 0 0 295.31197516654902 -527.6969723607981 0 -527.6969723607981 275.17424456831941 0 0 0 0 -254.9753913117529 -370.4263159694674 0 -370.4263159694674 355.83888624052634 0 0 0 0 80.755348857892386 -156.03176444841665 0 -156.03176444841665 58.180354282158987 0 0 0 0 105.13036233975072 -132.3549857562939 0 -132.3549857562939 59.805386297477526 0 0 0 0 -229.0076984829866 206.75293789817897 0 206.75293789817897 285.81247381566209 0 0 0 0 -3165.2000486477118 159.73196307836042 0 159.73196307836042 310.78355230687885 0 0 0 0 -12.245588513918278 -10.500264742679974 0 -10.500264742679974 -11.150296390481515 0 0 0 0 120.94280795249142 -128.17577372417145 0 -128.17577372417145 0.13983413914684206 0 0 0 0 80.164490085560828 -185.81338672176207 0 -185.81338672176207 67.171445842614048 0 0 0 0 81.901532493400737 -171.67338423144247 0 -171.67338423144247 0.023097744022379629 0 0 0 0 23.440375412050344 -175.59204270532064 0 -175.59204270532064 92.59320600295905 0 0 0 0 17.64818918288347 -154.65517895845187 0 -154.65517895845187 63.947181463183369 0 0 0 0 8.9021087311994052 -167.32565537463233 0 -167.32565537463233 52.472773079352919 0 0 0 0 -10.419471129280282 -126.49877404919243 0 -126.49877404919243 60.259955771700334 0 0 0 0 -34.970733843495253 -41.21359743273598 0 -41.21359743273598 -47.9611996190892 0 0 0 0 294.49379938250786 -297.57266709347459 0 -297.57266709347459 -61.245847581536509 0 0 0 0 53.300568702332384 -136.59236122523362 0 -136.59236122523362 57.415371733542997 0 0 0 0 -26.736866442206832 -29.861413074883046 0 -29.861413074883046 -31.346463948803375 0 0 0 0 2.6222715794283431 -814.59364851828286 0 -814.59364851828286 -189.85761390750122 0 0 0 0 -203.71939739778463 109.5831189092205 0 109.5831189092205 119.5636537289829 0 0 0 0 389.61282222587215 57.76682732205154 0 57.76682732205154 -336.44191123153723 0 0 0 0 -12.188057670407403 -6.182950120108913 0 -6.182950120108913 -3.4771815078326256 0 0 0 0 -190.8825523319947 90.453363303178776 0 90.453363303178776 -856.55648158350959 0 0 0 0 -66.962297550780931 -3.8415756007016171 0 -3.8415756007016171 -80.791968031742726 0 0 0 0 112.44244933073946 -139.45937279653799 0 -139.45937279653799 -135.15204149685451 0 0 0 0 -29.774460675112977 -19.648459395244743 0 -19.648459395244743 -14.294090387454958 0 0 0 0 58.335259078005038 -305.40269433909998 0 -305.40269433909998 174.82091079023667 0 0 0 0 61.933129662007559 302.76945546730713 0 302.76945546730713 -334.81020607302173 0 0 0 0 109.07393931991805 -297.23907001298608 0 -297.23907001298608 56.101161158643663 0 0 0 0 50.528220056796272 -127.86326390757313 0 -127.86326390757313 167.252899833431 0 0 0 0 75.567566894344054 -21.600554176402511 0 -21.600554176402511 -156.30550377778854 0 0 0 0 17.451512769217516 -164.42408549238462 0 -164.42408549238462 -101.83493016316788 0 0 0 0 75.101009128731675 -107.64544559693604 0 -107.64544559693604 -46.577099183290557 0 0 0 0 80.976929728785763 -118.05655020626182 0 -118.05655020626182 -16.236394107123488 0 0 0 0 100.79422526291455 -74.641637318869471 0 -74.641637318869471 -37.17399246007335 0 0 0 0 79.651579182973364 -73.729258199775359 0 -73.729258199775359 -35.569679431937402 0 0 0 0 -230.35233760732081 -77.873069838748052 0 -77.873069838748052 129.91421770048328 0 0 0 0 -39.082040039146847 -50.75915764377433 0 -50.75915764377433 -57.710800828718106 0 0 0 0 104.37627691948001 -44.087514368755365 0 -44.087514368755365 -254.4540003764414 0 0 0 0 -62.851149565765809 -124.51281753205694 0 -124.51281753205694 -50.84488002017315 0 0 0 0 -42.308170224247789 -37.223709631184278 0 -37.223709631184278 -21.650691699446043 0 0 0 0 -17.126870069638244 -114.29410248110071 0 -114.29410248110071 -74.416179922234733 0 0 0 0 -55.152573953018162 -87.634555826512042 0 -87.634555826512042 -74.995670511634955 0 0 0 0 -59.453573514169648 -112.85346346447909 0 -112.85346346447909 -26.018206523789559 0 0 0 0 36.916244003630709 -103.21330682217376 0 -103.21330682217376 -18.730260181706399 0 0 0 0 9.6941106796430461 -29.880481260391463 0 -29.880481260391463 7.1387656988503068 0 0 0 0 -65.296582346072682 -168.12608837401785 0 -168.12608837401785 -24.118739587633172 0 0 0 0 -168.8458026892622 156.23716801943829 0 156.23716801943829 174.54470534597931 0 0 0 0 -85.684381280516391 -258.46834692201082 0 -258.46834692201082 -174.4960723990589 0 0 0 0 8.3840084303146227 -5.4088483040180222 0 -5.4088483040180222 7.9572579696623507 0 0 0 0 62.233808086704812 -6.1841845519447816 0 -6.1841845519447816 -0.22282378285308369 0 0 0 0 45.845387828414459 -47.7893733200317 0 -47.7893733200317 -54.52406197343953 0 0 0 0 99.615300419463892 -64.511963213226409 0 -64.511963213226409 -88.508078012964688 0 0 0 0 60.905379643962078 22.100702785661269 0 22.100702785661269 -92.348987151664915 0 0 0 0 60.729017890276737 18.538148671854287 0 18.538148671854287 -108.1786432376939 0 0 0 0 104.62223970350169 101.51142223129864 0 101.51142223129864 -82.270919513612171 0 0 0 0 139.36730473255739 27.676921733465861 0 27.676921733465861 -438.55990263202693 0 0 0 0 47.474569748948852 70.89576599450811 0 70.89576599450811 -93.210675553564215 0 0 0 0 19.532294940123393 116.4237404215346 0 116.4237404215346 25.432873547397321 0 0 0 0 76.328754624613794 154.50433234259981 0 154.50433234259981 -112.08714628111011 0 0 0 0 32.867526346788509 1.0403837852063589 0 1.0403837852063589 -146.5134528403396 0 0 0 0 40.990181686684082 28.252084367639327 0 28.252084367639327 -236.80845326227427 0 0 0 0 35.362396883010661 -80.048548171872426 0 -80.048548171872426 -291.81041853786155 0 0 0 0 66.551722555013839 37.894955821393523 0 37.894955821393523 -164.20539931452367 0 0 0 0 23.15638114119065 -38.748157808979158 0 -38.748157808979158 -135.50913627585396 0 0 0 0 -44.830829798469495 -153.74362494061643 0 -153.74362494061643 -116.97365063530742 0 0 0 0 -255.90796172456248 -175.95291148450633 0 -175.95291148450633 -52.533065714320401 0 0 0 0 671.40633878178778 138.54719042814395 0 138.54719042814395 46.612520821980752 0 0 0 0 1498.742440638729 191.01931623398559 0 191.01931623398559 47.349554418034586 0 0 0 0 750.86476007466263 -232.40575791875017 0 -232.40575791875017 196.21906902246701 0 0 0 0 543.55305873531324 -179.92444320299546 0 -179.92444320299546 184.89158389866498 0 0 0 0 579.19340635405388 -509.45902696801932 0 -509.45902696801932 416.59255840531841 0 0 0 0 1096.8905890506721 -537.74257010188012 0 -537.74257010188012 320.94278742518509 0 0 0 0 479.54760570348299 -342.77101172576658 0 -342.77101172576658 528.91352253734658 0 0 0 0 -12.389946653516688 -3.8921103133149302 0 -3.8921103133149302 7.8250769422164694 0 0 0 0 1105.740881075737 -254.02081125006225 0 -254.02081125006225 74.815051382611273 0 0 0 0 1267.204298864006 143.4447301866312 0 143.4447301866312 -425.67069725376496 0 0 0 0 0.75110004470901615 -13.907468413983949 0 -13.907468413983949 21.417418298452731 0 0 0 0 116.11716281584177 -167.35368221278986 0 -167.35368221278986 91.291082386742346 0 0 0 0 -423.59862380220147 -377.63522000560988 0 -377.63522000560988 15.827374578133458 0 0 0 0 269.08364117064775 -25.517394974140188 0 -25.517394974140188 -103.73165505734505 0 0 0 0 134.64675493645336 -357.36524511492462 0 -357.36524511492462 -96.226096161830355 0 0 0 0 -2.5979808629381154 -1.7971440329659742 0 -1.7971440329659742 4.3277006471726054 0 0 0 0 -18.368688746617408 -76.25597602740163 0 -76.25597602740163 -23.446820264223788 0 0 0 0 -9.884473875281401 -65.027804394012492 0 -65.027804394012492 -11.830773359746672 0 0 0 0 -33.325108748200762 -58.500436142706604 0 -58.500436142706604 -57.445564455340275 0 0 0 0 -14.733382929561188 -19.9784777219391 0 -19.9784777219391 -10.797609077285642 0 0 0 0 7.6697230667923577 -84.156206133484375 0 -84.156206133484375 -96.776272457442246 0 0 0 0 -34.465798302087933 -112.62428637243283 0 -112.62428637243283 -100.5642242385893 0 0 0 0 -40.963749752860764 -55.187225649800538 0 -55.187225649800538 -49.136302862564605 0 0 0 0 -48.267429292209272 -134.89940445775574 0 -134.89940445775574 -107.81088027775695 0 0 0 0 -10.911835590537521 -122.66286203965137 0 -122.66286203965137 -137.27207206047024 0 0 0 0 -28.988045962956676 -125.39586785814026 0 -125.39586785814026 -103.84376709946082 0 0 0 0 -51.28599787895655 -136.77050576136753 0 -136.77050576136753 -108.02074803535652 0 0 0 0 -75.740660736771133 -140.7334825286398 0 -140.7334825286398 -75.023733126901789 0 0 0 0 8.0716723661171272 -64.189110083912965 0 -64.189110083912965 -16.660149340692442 0 0 0 0 -36.578122965828385 -59.52587183659336 0 -59.52587183659336 -44.964017974880676 0 0 0 0 -27.736711758843938 -63.434470752886099 0 -63.434470752886099 -66.242716166295963 0 0 0 0 8.2068757202270177 -5.8556544560392467 0 -5.8556544560392467 -2.1669359010847415 0 0 0 0 -59.242069388012169 -133.04461352326325 0 -133.04461352326325 -59.918526379900868 0 0 0 0 -59.127643558409545 -124.34286690387773 0 -124.34286690387773 -68.278896270872792 0 0 0 0 -38.245855131826829 -147.44530416042107 0 -147.44530416042107 -151.0372841431963 0 0 0 0 -61.846104605087021 -175.04309955862664 0 -175.04309955862664 -105.51391382238944 0 0 0 0 16.603535050686332 -69.130990771322104 0 -69.130990771322104 -63.88113433586841 0 0 0 0 -40.950630884297425 -143.23091492465755 0 -143.23091492465755 -107.44018350786155 0 0 0 0 16.542699879969746 -74.155397833603047 0 -74.155397833603047 -76.631158302188851 0 0 0 0 61.39472418402147 -25.980131057352992 0 -25.980131057352992 -103.60146430908935 0 0 0 0 -12.949338359322411 -79.094779692836227 0 -79.094779692836227 -83.437264665886346 0 0 0 0 33.961968676499254 -34.792113134709552 0 -34.792113134709552 -25.863682598367973 0 0 0 0 -0.96977556799386377 -38.707914796128911 0 -38.707914796128911 -58.864346774940032 0 0 0 0 -15.006913019642525 -84.50409508177836 0 -84.50409508177836 -57.090520850972098 0 0 0 0 6.1529757812962309 -31.936928548204477 0 -31.936928548204477 -31.478399852828545 0 0 0 0 26.181762575411994 -22.44949158836971 0 -22.44949158836971 -63.041628233040683 0 0 0 0 325.46717380431437 -81.330332609861216 0 -81.330332609861216 -65.823826357634971 0 0 0 0 286.57741692401123 -100.90965697445972 0 -100.90965697445972 -12.688685299275676 0 0 0 0 322.71881158597898 -91.123251906486985 0 -91.123251906486985 -95.891898745670915 0 0 0 0 -84.140012949479569 -177.97391738070291 0 -177.97391738070291 -109.04292897894993 0 0 0 0 -16.893531942664453 -26.393992643235492 0 -26.393992643235492 37.124253908710443 0 0 0 0 -69.75235609839001 -85.475420466478681 0 -85.475420466478681 -30.688613422855269 0 0 0 0 -114.9517636460514 -87.360510421131039 0 -87.360510421131039 -30.714915107993875 0 0 0 0 12.52384630243224 -33.71494484352452 0 -33.71494484352452 -20.189018227731765 0 0 0 0 554.17124094562132 18.449257060550735 0 18.449257060550735 -56.368878565641353 0 0 0 0 824.55826577986591 -197.31697678477212 0 -197.31697678477212 -88.828797470720019 0 0 0 0 506.81802089339908 -121.21185573359253 0 -121.21185573359253 -94.168052706634626 0 0 0 0 498.25766357131943 20.571970329125179 0 20.571970329125179 -32.88032240368193 0 0 0 0 495.67254552214581 -199.23874954989878 0 -199.23874954989878 -195.55822749792424 0 0 0 0 346.62673065428771 -196.69032438307113 0 -196.69032438307113 -112.34855301532662 0 0 0 0 277.03395538935001 -147.92507403975469 0 -147.92507403975469 -94.140891643415671 0 0 0 0 339.79405528577627 -110.80022130845464 0 -110.80022130845464 -73.21707103587687 0 0 0 0 313.52065590749407 -237.25960716119152 0 -237.25960716119152 -141.82681635349581 0 0 0 0 166.98369103838195 -245.6843368500995 0 -245.6843368500995 -63.062463039706927 0 0 0 0 96.329964010554249 -250.80205084243789 0 -250.80205084243789 24.856611690716818 0 0 0 0 181.77487450742046 -246.29180688901397 0 -246.29180688901397 -66.842723079491407 0 0 0 0 194.77274066741757 -154.41292848930061 0 -154.41292848930061 -22.952440761378966 0 0 0 0 76.728322673596267 -140.43298935948405 0 -140.43298935948405 144.82022884482285 0 0 0 0 258.28764022760879 -128.36946787289344 0 -128.36946787289344 -13.775248897261918 0 0 0 0 -61.791509617276461 -331.34056041062286 0 -331.34056041062286 0.67495005612727255 0 0 0 0 -116.54084109989617 -498.45812796445807 0 -498.45812796445807 -101.2424490256235 0 0 0 0 -561.5024068259263 -179.36749324412085 0 -179.36749324412085 -21.270410626821104 0 0 0 0 -4.4683647023977642 -3.4992504288971986 0 -3.4992504288971986 -1.505394344597903 0 0 0 0 230.25976570061175 955.48697112937225 0 955.48697112937225 128.27203002187889 0 0 0 0 -145.65599341296183 -309.46199078450445 0 -309.46199078450445 97.213699688698398 0 0 0 0 -513.1456906381427 227.15324124851031 0 227.15324124851031 422.68296591588296 0 0 0 0 2.5253327260031995 -3.5332340997267693 0 -3.5332340997267693 -12.489217555727322 0 0 0 0 833.70918307564716 219.28983287559822 0 219.28983287559822 -1314.381862238457 0 0 0 0 797.63619229434698 126.75129645378911 0 126.75129645378911 -206.59121522889836 0 0 0 0 48.296239894087194 -90.274330705084139 0 -90.274330705084139 -93.439061174736707 0 0 0 0 31.66983603450899 -84.10290526665267 0 -84.10290526665267 -89.187392700987402 0 0 0 0 12.937096019744132 10.979386409736023 0 10.979386409736023 -3.0702812287474899 0 0 0 0 36.611755620542681 -44.4307916787875 0 -44.4307916787875 -9.2087858142331243 0 0 0 0 -1.2895216952179709 -53.775958586530564 0 -53.775958586530564 -14.292284138740911 0 0 0 0 44.036476949879003 -44.86240761178918 0 -44.86240761178918 -68.927517952301685 0 0 0 0 68.784685053082868 -91.163152222012087 0 -91.163152222012087 -36.768134526081468 0 0 0 0 30.180369996996887 -93.18274612458481 0 -93.18274612458481 -78.614979062287603 0 0 0 0 8.5363629910179313 -68.132803284116292 0 -68.132803284116292 -74.518440623714014 0 0 0 0 26.370569015780347 -98.836690040050598 0 -98.836690040050598 -85.502109020104399 0 0 0 0 33.844563436185126 -104.21746566498769 0 -104.21746566498769 -100.12882375560002 0 0 0 0 -143.97597716104065 -95.355895550805144 0 -95.355895550805144 4.1237820615933742 0 0 0 0 55.875818690226879 -97.076745766564272 0 -97.076745766564272 -111.93200490422896 0 0 0 0 3.196794573443043 -65.027034018800236 0 -65.027034018800236 -69.39629007721706 0 0 0 0 31.524283663158712 -156.19190674685524 0 -156.19190674685524 -237.90217132761609 0 0 0 0 30.126934097074951 -82.633404596864722 0 -82.633404596864722 -100.8201365794211 0 0 0 0 74.317461010155967 -84.082932043122128 0 -84.082932043122128 -106.38191503743292 0 0 0 0 2.3095534793126014 -50.174217247121845 0 -50.174217247121845 -64.239029482801129 0 0 0 0 33.6419590738642 -68.197708064286417 0 -68.197708064286417 -66.096256114338757 0 0 0 0 76.694208069638989 -36.576755609363317 0 -36.576755609363317 -171.20046947743685 0 0 0 0 -118.73265515128151 -55.255579084099736 0 -55.255579084099736 63.845367423491552 0 0 0 0 13.259657290200266 -240.64918418895832 0 -240.64918418895832 -522.73343260859838 0 0 0 0 -3.1737487723472029 -9.1461831624654621 0 -9.1461831624654621 4.0248082652898347 0 0 0 0 182.98164975437976 -212.58517002123699 0 -212.58517002123699 -524.77145767083857 0 0 0 0 11.366435955321535 -11.257228320738619 0 -11.257228320738619 -23.354419105745137 0 0 0 0 258.82448606286903 -141.31773605391254 0 -141.31773605391254 -26.093405143998098 0 0 0 0 0.069804154190933332 -169.26443345838925 0 -169.26443345838925 -267.81756657955702 0 0 0 0 1.4417329162824899 -59.107669984805398 0 -59.107669984805398 -60.106835405124002 0 0 0 0 13.420558889309177 -74.291598349620472 0 -74.291598349620472 -41.425665076531004 0 0 0 0 969.51664045330836 1182.2808592887013 0 1182.2808592887013 101.87490692546999 0 0 0 0 -13.92626713289792 -89.699848465992545 0 -89.699848465992545 -86.024194729237934 0 0 0 0 10.544394478740287 -101.46968810494582 0 -101.46968810494582 -134.41530854056691 0 0 0 0 14.961791611925634 -72.82929720537804 0 -72.82929720537804 -9.7440355712594098 0 0 0 0 47.249512438575636 -25.649565147802321 0 -25.649565147802321 -30.257416217486025 0 0 0 0 1053.5618912790878 535.38778344310867 0 535.38778344310867 -792.13393919305236 0 0 0 0 770.26370096544269 -727.44492179595545 0 -727.44492179595545 -209.70393556209456 0 0 0 0 84.651149340861593 -488.92617094326124 0 -488.92617094326124 300.70458637381671 0 0 0 0 3.6147323166872241 -68.683729971281167 0 -68.683729971281167 -40.462082849916399 0 0 0 0 -5.2875343097018686 -11.690062040598789 0 -11.690062040598789 1.4616533660992239 0 0 0 0 -163.57838171628828 -97.468364475062117 0 -97.468364475062117 -258.73858748377825 0 0 0 0 -50.744846386456629 -51.896609601129967 0 -51.896609601129967 -197.87483118099044 0 0 0 0 235.84461432187527 -290.41750189183222 0 -290.41750189183222 -533.08227784556948 0 0 0 0 -110.89379699850906 -72.862077205092646 0 -72.862077205092646 -204.11464237593464 0 0 0 0 -148.0307339242845 -38.447678884123889 0 -38.447678884123889 -145.14926468896738 0 0 0 0 -217.6506290236357 -63.031749209159898 0 -63.031749209159898 116.77814875652984 0 0 0 0 140.65056348642065 -46.947916645440273 0 -46.947916645440273 32.439043171401863 0 0 0 0 56.105579941606265 -30.774489853356499 0 -30.774489853356499 -36.682594152613092 0 0 0 0 27.534392591411361 -67.382305040923285 0 -67.382305040923285 19.90113903373117 0 0 0 0 165.07084167536414 77.315924978388466 0 77.315924978388466 334.42673129154718 0 0 0 0 164.7081443619536 91.316029223708028 0 91.316029223708028 97.124057071865536 0 0 0 0 185.0470420870115 -93.454097656278464 0 -93.454097656278464 40.038142737910675 0 0 0 0 93.44353303155367 -146.61838830478882 0 -146.61838830478882 -59.08214171580039 0 0 0 0 107.88420768236392 -12.59570246376461 0 -12.59570246376461 379.97683807417343 0 0 0 0 243.88424547380419 -32.23782543726702 0 -32.23782543726702 -21.561555963984574 0 0 0 0 494.89456642745063 -5.2339461653027683 0 -5.2339461653027683 -23.157664491336618 0 0 0 0 -1.7378374874751898 65.121763974002533 0 65.121763974002533 59.736459182466206 0 0 0 0 210.82383706380642 -172.55448668167628 0 -172.55448668167628 10.537657195483916 0 0 0 0 38.96005492418044 -187.68981675070972 0 -187.68981675070972 12.974862604256487 0 0 0 0 194.66748340922641 161.06325990932964 0 161.06325990932964 22.775553331130368 0 0 0 0 136.01180145261242 -135.23772981560614 0 -135.23772981560614 -23.626548523578094 0 0 0 0 4.7115639457769873 -119.94800062557179 0 -119.94800062557179 -36.327320522411121 0 0 0 0 -55.680743351435012 -69.36272120466856 0 -69.36272120466856 190.72265963623067 0 0 0 0 -61.369235898826446 -38.570479837530002 0 -38.570479837530002 247.70109957756995 0 0 0 0 -4.3947511439280404 -19.354562468794036 0 -19.354562468794036 40.55239965344964 0 0 0 0 37.483480567927472 -28.186838906709454 0 -28.186838906709454 12.808605123282177 0 0 0 0 -47.495070387354644 -86.955425807953361 0 -86.955425807953361 55.895062770636287 0 0 0 0 9.9439572256674147 -16.27675470269919 0 -16.27675470269919 8.2617606857106693 0 0 0 0 25.472221214085252 -56.626721504387874 0 -56.626721504387874 -27.630576949159497 0 0 0 0 14.288807326542155 -59.944934209284838 0 -59.944934209284838 456.15120153677708 0 0 0 0 -100.61600056436146 -218.65286093242321 0 -218.65286093242321 267.65419065409515 0 0 0 0 48.054219329642365 -4.2525188092549797 0 -4.2525188092549797 289.88325742006418 0 0 0 0 -0.60392604998793331 3.1331310304728106 0 3.1331310304728106 -1.6019352270152183 0 0 0 0 -25.578830837373971 60.629887683906418 0 60.629887683906418 187.01998236202053 0 0 0 0 -0.90748272749624448 53.517980141747103 0 53.517980141747103 115.59101495241339 0 0 0 0 -12.659916329110274 -22.269062052742811 0 -22.269062052742811 104.97929664276307 0 0 0 0 2.3546579453517893 -0.38747304676311956 0 -0.38747304676311956 -1.3089599550579578 0 0 0 0 372.10988802099018 363.84671350455028 0 363.84671350455028 -121.23662838192831 0 0 0 0 -1012.6646772279055 -520.47487200859177 0 -520.47487200859177 218.54595221019736 0 0 0 0 -117.89691725879675 -126.93886815264705 0 -126.93886815264705 350.79250238870736 0 0 0 0 612.07071413477388 85.506123804902018 0 85.506123804902018 -900.99857798451558 0 0 0 0 -78.531849457853241 -437.58139908099838 0 -437.58139908099838 -508.09931416081963 0 0 0 0 -679.46131193863403 -323.44516236830532 0 -323.44516236830532 148.66624411453085 0 0 0 0 -225.58688075466489 -225.42689651240653 0 -225.42689651240653 344.75820397632197 0 0 0 0 -222.10905721237941 -222.57061449240427 0 -222.57061449240427 170.4725667720304 0 0 0 0 -192.73192822997953 -277.88419625687311 0 -277.88419625687311 233.63597400617437 0 0 0 0 -70.054600541690888 -10.441034158429829 0 -10.441034158429829 41.430392939248122 0 0 0 0 -226.69810816081008 -148.96394995304581 0 -148.96394995304581 -79.631756584451068 0 0 0 0 -26.878941261224099 -311.81059451560577 0 -311.81059451560577 -922.7343701468053 0 0 0 0 -9.28927239082185 2.0591586026121433 0 2.0591586026121433 0.38983413354719687 0 0 0 0 -380.25680568599637 42.241070885458612 0 42.241070885458612 230.38590239766927 0 0 0 0 -7.456816025369335 -137.34075350524654 0 -137.34075350524654 -201.92296284616168 0 0 0 0 -18.401675703049591 -22.449674220289154 0 -22.449674220289154 4.8184818159281093 0 0 0 0 -42.675296183530008 -103.57857049192535 0 -103.57857049192535 -228.11016862990073 0 0 0 0 -939.52198453971505 -538.66681902224082 0 -538.66681902224082 -166.90628186936374 0 0 0 0 -91.227847947404371 -178.81086734798009 0 -178.81086734798009 57.439240787529343 0 0 0 0 5.3590948946449544 -7.4602440080534507 0 -7.4602440080534507 9.8522367215898612 0 0 0 0 64.053236141542357 -69.895662170134472 0 -69.895662170134472 42.683148694607667 0 0 0 0 -1205.5378963788899 -768.44730470929971 0 -768.44730470929971 448.47040041979199 0 0 0 0 -230.87168113044754 -375.52757717527129 0 -375.52757717527129 -298.0942471173621 0 0 0 0 9.0275934878103214 -23.501460163846929 0 -23.501460163846929 32.082690976056568 0 0 0 0 -179.35941669941531 -421.61639136483427 0 -421.61639136483427 -258.0592212570773 0 0 0 0 314.30042646318907 -152.08587921801518 0 -152.08587921801518 180.4777741698781 0 0 0 0 280.43305302199587 -239.21955694542339 0 -239.21955694542339 -21.659905320746475 0 0 0 0 493.52213115468476 -200.10340852702211 0 -200.10340852702211 -113.56921438998688 0 0 0 0 5.2344904559762 -8.2807591840052766 0 -8.2807591840052766 -2.756098185939436 0 0 0 0 -661.76131472659472 -243.08154606546486 0 -243.08154606546486 54.197616511417436 0 0 0 0 -113.22213213497889 -323.22177845505212 0 -323.22177845505212 -80.263128491395037 0 0 0 0 -65.792085700421012 -350.32141229899571 0 -350.32141229899571 3.8976746057160199 0 0 0 0 52.67359888546207 -45.693284070928968 0 -45.693284070928968 36.305835710620499 0 0 0 0 -229.77850014581145 -90.361995791769459 0 -90.361995791769459 -246.52661603248271 0 0 0 0 -291.69165807623358 -435.75594727111456 0 -435.75594727111456 121.67224662642548 0 0 0 0 -288.7747868342999 -339.40758503784355 0 -339.40758503784355 504.41215199467842 0 0 0 0 -40.430547478597873 -556.55979332121024 0 -556.55979332121024 159.02796757582109 0 0 0 0 -568.88369523749134 -631.30804869825806 0 -631.30804869825806 377.2383182837948 0 0 0 0 -88.698127715178998 -50.248569272960594 0 -50.248569272960594 -135.78474129659298 0 0 0 0 -307.93999335440458 -781.71390063615399 0 -781.71390063615399 -27.748907860681356 0 0 0 0 37.353262345830444 765.81268272400484 0 765.81268272400484 -1231.7496925310988 0 0 0 0 41.673320887479861 -33.57649648942629 0 -33.57649648942629 20.926795641689807 0 0 0 0 247.65591196005698 -16.924516816281539 0 -16.924516816281539 -2211.8530502485592 0 0 0 0 -400.56709722115556 -326.68097104205117 0 -326.68097104205117 754.81988295802148 0 0 0 0 -12.035955060265451 -7.8568210986198892 0 -7.8568210986198892 -5.2409878566824375 0 0 0 0 -120.01409335995868 -218.70702876083851 0 -218.70702876083851 471.95867361471755 0 0 0 0 -123.46137954865117 -273.72801075976895 0 -273.72801075976895 310.10244601616432 0 0 0 0 36.12652713360427 -28.311755351542018 0 -28.311755351542018 18.481511928558632 0 0 0 0 -65.091148173938564 -233.3830697247322 0 -233.3830697247322 -105.36200297439063 0 0 0 0 -212.37071528202341 36.54958251652306 0 36.54958251652306 334.53636078504496 0 0 0 0 -119.98278946106439 -1371.3589688848151 0 -1371.3589688848151 -804.92075096895132 0 0 0 0 -305.10748060274636 -22.956800002837554 0 -22.956800002837554 -130.81987301624031 0 0 0 0 -83.679620259421426 -77.924069144180976 0 -77.924069144180976 37.527589601915679 0 0 0 0 -126.68988801146043 -487.28164396174543 0 -487.28164396174543 464.66696692575351 0 0 0 0 6.4580321446159843 -16.240338946875369 0 -16.240338946875369 47.451247444171997 0 0 0 0 -67.869539825176616 -261.58262281904899 0 -261.58262281904899 263.60619726337609 0 0 0 0 127.33206083804544 -104.19282789343924 0 -104.19282789343924 -350.22579392105399 0 0 0 0 -135.72637682667846 40.584721562463528 0 40.584721562463528 55.23188350050259 0 0 0 0 -71.927013267224538 0.74539964149880689 0 0.74539964149880689 41.291266134649049 0 0 0 0 9.2853903718881163 -28.242696068062031 0 -28.242696068062031 21.29083916693034 0 0 0 0 -3.5963394873624708 -9.7357138039606639 0 -9.7357138039606639 36.04748427123107 0 0 0 0 -58.976592667873774 -65.670100560279025 0 -65.670100560279025 9.3730426192923915 0 0 0 0 -340.02294612934929 -257.50861824177264 0 -257.50861824177264 -71.650124916195637 0 0 0 0 -186.01033029081918 -6.0256489342327768 0 -6.0256489342327768 266.16903203882976 0 0 0 0 91.637362351670163 -8.6619877078701393 0 -8.6619877078701393 -55.67527723677631 0 0 0 0 5.9530084807192623 -5.4034538857643923 0 -5.4034538857643923 0.42797500447892389 0 0 0 0 523.20325257178592 61.546749737482969 0 61.546749737482969 -30.246414948793245 0 0 0 0 211.20772900160227 49.805719664502249 0 49.805719664502249 48.789658836307353 0 0 0 0 114.6813417958474 -22.751058951893356 0 -22.751058951893356 -4.9225197607302107 0 0 0 0 116.36312141754934 -16.625954265486143 0 -16.625954265486143 14.120634019607678 0 0 0 0 149.26852936236537 -51.829417270510021 0 -51.829417270510021 -0.68270147034490947 0 0 0 0 71.499517443069635 -28.36017231490041 0 -28.36017231490041 34.999677182568121 0 0 0 0 89.012297176675929 -70.963452754695027 0 -70.963452754695027 -3.0440624139882857 0 0 0 0 62.482630036476621 -45.37191619137775 0 -45.37191619137775 13.325224375788821 0 0 0 0 63.289382095055771 -60.995530328989844 0 -60.995530328989844 2.0423158386402065 0 0 0 0 66.511722423048923 -66.036620665647206 0 -66.036620665647206 6.7900705369756906 0 0 0 0 95.635822481672221 -61.673852160471142 0 -61.673852160471142 7.1016848469444085 0 0 0 0 29.610745631682221 -48.640561849344522 0 -48.640561849344522 25.525607046867663 0 0 0 0 18.354561674299475 -49.626113621714467 0 -49.626113621714467 35.759612498142815 0 0 0 0 18.28280015571363 -58.11512338094326 0 -58.11512338094326 27.5041548365989 0 0 0 0 -17.336318295430829 -17.5506237936861 0 -17.5506237936861 47.511107198632089 0 0 0 0 3.6212474717948311 -29.107631540354518 0 -29.107631540354518 18.46567231904632 0 0 0 0 46.914245855659829 -59.499085271898366 0 -59.499085271898366 10.448684576054802 0 0 0 0 -4.1635925984845414 -7.1259732048225572 0 -7.1259732048225572 4.6506877575783108 0 0 0 0 7.3281567503800034 -43.332924013535376 0 -43.332924013535376 2.4997536043138098 0 0 0 0 -30.82145881827455 -48.671017454274988 0 -48.671017454274988 10.493883652106888 0 0 0 0 -28.886108653581061 -22.275795201813622 0 -22.275795201813622 40.220198764791107 0 0 0 0 -4.09693352241284 -24.913962885212072 0 -24.913962885212072 32.678921922168428 0 0 0 0 -46.285208562316257 -34.147549683031684 0 -34.147549683031684 6.4937230316500063 0 0 0 0 8.5744597661296886 -27.488299927149882 0 -27.488299927149882 29.460291150401446 0 0 0 0 -1.7017065124958748 -8.2823959663983402 0 -8.2823959663983402 13.641428978477222 0 0 0 0 -29.456446059815789 -84.48717849949935 0 -84.48717849949935 16.7315622344031 0 0 0 0 1.4549861537489051 -41.634988441735914 0 -41.634988441735914 6.208118043228751 0 0 0 0 -240.12294571131679 342.63606598368824 0 342.63606598368824 -405.18966444613761 0 0 0 0 -35.015972460314515 20.984062396157242 0 20.984062396157242 0.34952324148616754 0 0 0 0 -0.42309398214651139 -0.013287136215097917 0 -0.013287136215097917 4.7240929067414186 0 0 0 0 -70.550914443370857 -59.027509561497936 0 -59.027509561497936 41.673443607061927 0 0 0 0 -1.0792508052821717 -30.877989555785774 0 -30.877989555785774 45.758450214415063 0 0 0 0 -78.519635492513771 -307.69086651023099 0 -307.69086651023099 100.92831920092431 0 0 0 0 -19.254646346778145 -22.866811367959031 0 -22.866811367959031 21.359820708837049 0 0 0 0 -168.70854953945673 -69.245722261461196 0 -69.245722261461196 -28.039628971222555 0 0 0 0 -37.762226414364704 -42.226678898914543 0 -42.226678898914543 10.85853721073363 0 0 0 0 -8.8019204152320327 -12.202223079797506 0 -12.202223079797506 6.3909418164590761 0 0 0 0 -80.54772179806605 -43.206926787563134 0 -43.206926787563134 13.505349148021196 0 0 0 0 -123.22649542735599 -33.863697702050558 0 -33.863697702050558 74.230029226018814 0 0 0 0 -54.983795833075419 -15.099806319503841 0 -15.099806319503841 42.273083803389454 0 0 0 0 -111.05859571680776 -13.835344585851999 0 -13.835344585851999 107.08754637023958 0 0 0 0 -255.64243466619155 78.812770756256214 0 78.812770756256214 152.5731569687232 0 0 0 0 216.64048892921528 -182.06336035324603 0 -182.06336035324603 -67.95583394113055 0 0 0 0 -54.61057169247033 25.561211614187414 0 25.561211614187414 9.1736931112391176 0 0 0 0 -3.1356795244179452 -3.3816094450910654 0 -3.3816094450910654 17.761574486257302 0 0 0 0 453.90527368481162 -145.90607215250566 0 -145.90607215250566 -97.565423470106907 0 0 0 0 -153.5461882529562 61.546810170322715 0 61.546810170322715 140.57849329337114 0 0 0 0 -3.3263476930226101 -7.5698179206261642 0 -7.5698179206261642 3.9220759635821594 0 0 0 0 -262.90189069703774 -153.45805417713564 0 -153.45805417713564 214.82129737752257 0 0 0 0 25.287624272320912 -69.234144477511592 0 -69.234144477511592 32.284658246841843 0 0 0 0 -47.131612261335249 -167.90507279503436 0 -167.90507279503436 114.48327265144326 0 0 0 0 442.07157328758149 -227.80318530033128 0 -227.80318530033128 21.70501868876454 0 0 0 0 134.81148285951895 -89.6332480825331 0 -89.6332480825331 -99.897310575601296 0 0 0 0 139.24005437299638 -117.4787652528903 0 -117.4787652528903 68.381863186099508 0 0 0 0 -34.804104569091578 -183.0846504928777 0 -183.0846504928777 17.996174283114669 0 0 0 0 277.88983501824623 -64.802098277892583 0 -64.802098277892583 -67.883179266777006 0 0 0 0 210.21937809031988 -274.61613510061579 0 -274.61613510061579 6.5961528076222748 0 0 0 0 216.59210183051255 94.747282159882161 0 94.747282159882161 13.910123701387647 0 0 0 0 25.836536216030424 -70.268884844949852 0 -70.268884844949852 36.195071020331824 0 0 0 0 196.91533621359486 -265.47861488180206 0 -265.47861488180206 81.431685683473916 0 0 0 0 -205.91271275529743 -171.71057797507183 0 -171.71057797507183 199.35529687898816 0 0 0 0 92.972556106280535 -76.906342670954473 0 -76.906342670954473 -0.095686011009092908 0 0 0 0 77.256296946732618 -77.212281999425613 0 -77.212281999425613 2.8381096624216298 0 0 0 0 97.547773828948266 -107.85020470846939 0 -107.85020470846939 -33.846211580690579 0 0 0 0 25.744893628225697 -68.954507150747389 0 -68.954507150747389 34.765229116496471 0 0 0 0 84.481960615594289 -81.1724293457155 0 -81.1724293457155 4.7497437046440609 0 0 0 0 -82.845392790139158 -63.009216822898452 0 -63.009216822898452 85.767743691470969 0 0 0 0 34.368401965835801 -9.1250893285687198 0 -9.1250893285687198 84.869883295311809 0 0 0 0 137.85882866794782 -119.77727552765282 0 -119.77727552765282 73.269664422776259 0 0 0 0 623.55414841331367 -164.74170107340433 0 -164.74170107340433 -92.993412731790158 0 0 0 0 -1.0821234535274069 -6.0338514634546279 0 -6.0338514634546279 2.1063953604787002 0 0 0 0 312.92405189969213 -207.78187372461616 0 -207.78187372461616 34.915775367840979 0 0 0 0 147.73100000289014 -89.362515766901197 0 -89.362515766901197 153.39370106693241 0 0 0 0 -776.93242410361563 -262.74336100191067 0 -262.74336100191067 -49.968605371945614 0 0 0 0 -277.92941463086026 -105.98933862659396 0 -105.98933862659396 -37.423185426638156 0 0 0 0 -181.30356849705095 -66.287550603172349 0 -66.287550603172349 -15.586098207866598 0 0 0 0 -3.9209155498591599 -8.2966188443311388 0 -8.2966188443311388 8.9804928898012122 0 0 0 0 -145.07887033115912 -95.728828994255309 0 -95.728828994255309 -118.27475514647813 0 0 0 0 -56.113292932113836 37.561312122670643 0 37.561312122670643 -27.22266482321038 0 0 0 0 -32.605887585323217 -69.410715103909752 0 -69.410715103909752 -91.63579276829114 0 0 0 0 -251.66053052789357 -146.76865147396347 0 -146.76865147396347 -51.162396305480797 0 0 0 0 0.3348856378797791 -29.524574127390224 0 -29.524574127390224 17.996886330880443 0 0 0 0 -110.45574715901421 -12.849903273247037 0 -12.849903273247037 16.259806237852899 0 0 0 0 -39.930007254362863 45.799490165925818 0 45.799490165925818 29.836715827696025 0 0 0 0 -192.8624867385297 -153.20909424394995 0 -153.20909424394995 22.242425300331888 0 0 0 0 -188.1012190496258 -112.08925550906133 0 -112.08925550906133 -65.27239288216515 0 0 0 0 -138.75656984006764 -296.45025876711543 0 -296.45025876711543 -320.27300488552282 0 0 0 0 -294.84867419313741 -299.86414265075837 0 -299.86414265075837 -243.37375141154189 0 0 0 0 -480.44897454266174 -431.20081304946143 0 -431.20081304946143 -219.94389142291038 0 0 0 0 -199.6898077306214 -173.41420223620298 0 -173.41420223620298 -131.85397977953835 0 0 0 0 -285.15106754934823 -311.88064990863131 0 -311.88064990863131 -232.51385906612632 0 0 0 0 -406.08746670931941 -327.5774032969739 0 -327.5774032969739 -195.48369680424366 0 0 0 0 -321.34539189374846 -334.64044373101569 0 -334.64044373101569 -252.69606069236397 0 0 0 0 -376.09826687357418 -380.53008523893004 0 -380.53008523893004 -245.40044659742171 0 0 0 0 -519.67736421596783 -276.38096031173154 0 -276.38096031173154 -235.52906560495467 0 0 0 0 -791.2596634745878 -272.91114172799644 0 -272.91114172799644 -160.28081097082759 0 0 0 0 -657.34641432557328 -434.30858614895624 0 -434.30858614895624 -217.30500213843698 0 0 0 0 -972.85799184683128 -367.91988481228327 0 -367.91988481228327 -77.087580506520226 0 0 0 0 -892.30042310067074 -424.88274718049161 0 -424.88274718049161 -62.243345056660473 0 0 0 0 -747.38986781471795 -612.36689361104072 0 -612.36689361104072 -280.67909582627908 0 0 0 0 -1030.431307326493 -410.90619867703936 0 -410.90619867703936 -62.671014099036256 0 0 0 0 -558.10577471276702 -344.89633938645056 0 -344.89633938645056 -190.36760681113265 0 0 0 0 -3.0143274238915474 -23.01220809369471 0 -23.01220809369471 -65.781281290121228 0 0 0 0 -235.44941812892648 -299.88836765603082 0 -299.88836765603082 -359.29755632671731 0 0 0 0 103.69481291585544 -193.13808687376149 0 -193.13808687376149 -146.82350917498843 0 0 0 0 -977.53388482268929 -308.08995365146257 0 -308.08995365146257 45.553046041706693 0 0 0 0 -757.17173080146313 -163.47948367305435 0 -163.47948367305435 56.670794011872204 0 0 0 0 -622.02047215025959 -340.39336427695525 0 -340.39336427695525 -178.75052140328626 0 0 0 0 -467.28295103035634 -106.47003011541165 0 -106.47003011541165 -93.524792620861263 0 0 0 0 -1281.279002957388 -307.757073294164 0 -307.757073294164 20.064311909352 0 0 0 0 -1017.4239882632246 -417.84237246888915 0 -417.84237246888915 -151.55620610001642 0 0 0 0 274.69406977523249 -190.26317304342228 0 -190.26317304342228 -115.32995405277688 0 0 0 0 -3.4345030627071793 -14.178793074920996 0 -14.178793074920996 -42.794629510257693 0 0 0 0 -199.21462357435666 -146.00765567935559 0 -146.00765567935559 89.025573910912499 0 0 0 0 -85.705315922146838 13.34017395079718 0 13.34017395079718 87.754303326390072 0 0 0 0 -1641.3568226581483 -321.05261663386409 0 -321.05261663386409 -165.21622830830893 0 0 0 0 -3122.167940354404 -757.3759573046882 0 -757.3759573046882 1.5382880955039582 0 0 0 0 -1386.4950044487123 -1202.5297871095099 0 -1202.5297871095099 -937.74900620803965 0 0 0 0 613.05206532321608 -99.805952404592063 0 -99.805952404592063 -385.30288049190131 0 0 0 0 -2.5849313294542178 -5.7805899641683425 0 -5.7805899641683425 -14.694466956196038 0 0 0 0 -693.22609262834158 -477.90586664182774 0 -477.90586664182774 -214.63390014570177 0 0 0 0 -982.97145995053143 -864.09056873010195 0 -864.09056873010195 -542.15877714282396 0 0 0 0 -611.40224390405638 -453.55008746121166 0 -453.55008746121166 -116.96668524119741 0 0 0 0 -620.95925977823936 -331.9816572851887 0 -331.9816572851887 -621.4576177126828 0 0 0 0 -326.81649195611681 -403.29150945960282 0 -403.29150945960282 -526.81206492825731 0 0 0 0 -354.28946889423241 -353.34436843172807 0 -353.34436843172807 -50.840281655859144 0 0 0 0 -108.6461505185398 14.241320927638299 0 14.241320927638299 -38.499641284328391 0 0 0 0 -111.09431182835033 -330.86589285227819 0 -330.86589285227819 -200.09091471875217 0 0 0 0 -862.30051005078349 -277.3835009865852 0 -277.3835009865852 1022.4690210148328 0 0 0 0 -1121.6041445865958 -361.10545779275708 0 -361.10545779275708 215.53161862147681 0 0 0 0 -67.469023230144032 -168.56556443837118 0 -168.56556443837118 -15.02000891549433 0 0 0 0 238.85543920624332 8.5877746358601144 0 8.5877746358601144 -461.19602032224066 0 0 0 0 -22.078808676601668 -67.020939817366383 0 -67.020939817366383 -45.29815803814904 0 0 0 0 34.356448005004495 -109.31452525274653 0 -109.31452525274653 8.6785326210374478 0 0 0 0 351.13858416276526 -164.22258355309168 0 -164.22258355309168 -354.56475604427396 0 0 0 0 -1714.1043454050559 -790.70228944785595 0 -790.70228944785595 819.74582165324682 0 0 0 0 -196.42851913649065 -728.75526782296947 0 -728.75526782296947 -865.73029957262042 0 0 0 0 -601.62304678293731 -9.6845915738813346 0 -9.6845915738813346 -640.24423441306863 0 0 0 0 -1246.2312669787061 -210.31925520750519 0 -210.31925520750519 1221.8786313393794 0 0 0 0 -1191.7153208266936 -461.58304988255259 0 -461.58304988255259 110.95397249978851 0 0 0 0 -276.07862876217405 235.34263796424784 0 235.34263796424784 19.221668615315139 0 0 0 0 -67.045675765224047 -167.61636903665291 0 -167.61636903665291 -34.892477992493262 0 0 0 0 -1436.5849964606623 567.51586075824889 0 567.51586075824889 4308.9578893300495 0 0 0 0 -1751.5854190571517 -1033.2869920723169 0 -1033.2869920723169 1088.6759600905643 0 0 0 0 -1238.1057323849036 -1317.7726121504529 0 -1317.7726121504529 -157.37292524371878 0 0 0 0 -1879.5173188829017 -540.57482189049188 0 -540.57482189049188 33.187940693809651 0 0 0 0 -707.04786351615985 -460.99381469424407 0 -460.99381469424407 -611.51461810998444 0 0 0 0 -1198.9519992378428 -2147.4666414644162 0 -2147.4666414644162 -3135.8944415826409 0 0 0 0 -16.515556929399622 -9.8477618421811997 0 -9.8477618421811997 5.2890844466229083 0 0 0 0 151.0007382874428 43.729806368151912 0 43.729806368151912 -79.427932141625206 0 0 0 0 -23.045046207171254 -54.989576705211221 0 -54.989576705211221 -22.351922658010153 0 0 0 0 -16.961864228390468 -33.032855150423075 0 -33.032855150423075 -45.92964329693126 0 0 0 0 11.201364916714859 -3.8643660052859161 0 -3.8643660052859161 -15.966143704677961 0 0 0 0 -17.643728142735199 -53.231922122708056 0 -53.231922122708056 -22.332915623264853 0 0 0 0 -86.53051596185469 -107.55166185939015 0 -107.55166185939015 122.69935366977006 0 0 0 0 -38.973319899138005 187.25384303090686 0 187.25384303090686 -322.278160301139 0 0 0 0 -721.78273997377619 -854.05009990182589 0 -854.05009990182589 332.72958664965699 0 0 0 0 -1.6926721866701371 -2.1507846350437489 0 -2.1507846350437489 -1.9574267974576287 0 0 0 0 -745.07498960207522 -818.86076001373294 0 -818.86076001373294 325.16160382147064 0 0 0 0 68.570578304272203 -188.63627484088647 0 -188.63627484088647 278.10654129870636 0 0 0 0 291.21825471488046 -400.51643589009473 0 -400.51643589009473 -428.2208052736969 0 0 0 0 172.96211892457723 -21.653288032015553 0 -21.653288032015553 -233.0422967155464 0 0 0 0 -679.21200422499533 -607.16786563911592 0 -607.16786563911592 94.382770069467369 0 0 0 0 717.31597929424424 -565.81833983331308 0 -565.81833983331308 -32.930130152119091 0 0 0 0 549.17034095224699 -68.759408714431629 0 -68.759408714431629 -58.68075294434675 0 0 0 0 305.74728328875335 -304.11670153336308 0 -304.11670153336308 150.03889363969211 0 0 0 0 -90.803144540601352 -26.784268298346433 0 -26.784268298346433 -46.787218977813609 0 0 0 0 -24.513987133817864 -43.157528817144339 0 -43.157528817144339 -50.92941042323946 0 0 0 0 -19.62338204254047 -86.798465451269294 0 -86.798465451269294 9.9989956908393651 0 0 0 0 -21.133733463273529 -72.350370319356443 0 -72.350370319356443 29.993200769764371 0 0 0 0 -65.351098809624091 -52.814390591534902 0 -52.814390591534902 -5.2717710626020562 0 0 0 0 11.459100557382044 -141.79388956770708 0 -141.79388956770708 40.534819602878997 0 0 0 0 -91.228391204422223 -97.684230721366475 0 -97.684230721366475 25.085701338291983 0 0 0 0 -48.508225510302509 -95.343037162157998 0 -95.343037162157998 -7.0000975357252173 0 0 0 0 -135.88820955438132 -61.300798213022063 0 -61.300798213022063 -20.248694971189252 0 0 0 0 -114.6651597844475 -154.15652292689811 0 -154.15652292689811 19.750145867030369 0 0 0 0 -146.39502216641995 -179.39925172438234 0 -179.39925172438234 -0.30716267296520527 0 0 0 0 -122.92862521007919 -316.15653329269844 0 -316.15653329269844 -9.5110702273086645 0 0 0 0 -11.435912359767826 -299.29190083796857 0 -299.29190083796857 -26.799459375004517 0 0 0 0 22.280224209513108 -353.09883967461064 0 -353.09883967461064 -54.814456200852874 0 0 0 0 22.110704652666755 -354.72905870864633 0 -354.72905870864633 -46.616162073099986 0 0 0 0 -69.075575804701657 -406.75567744023283 0 -406.75567744023283 -52.786157541988359 0 0 0 0 -38.650229484766896 -351.0920992927422 0 -351.0920992927422 -113.68991091102362 0 0 0 0 -23.03502427211788 -386.9764644089737 0 -386.9764644089737 -38.255239454480034 0 0 0 0 10.743503170830081 -352.71607789257541 0 -352.71607789257541 -28.288771056657424 0 0 0 0 103.66840461434549 -343.78188591981598 0 -343.78188591981598 -361.53046997580532 0 0 0 0 157.06977926997934 -232.88521557425702 0 -232.88521557425702 -131.55220013166218 0 0 0 0 -20.462907435299712 -175.27698613240136 0 -175.27698613240136 -13.095343765133293 0 0 0 0 49.578537750527175 -108.91588043082447 0 -108.91588043082447 41.868377582912217 0 0 0 0 -34.048244381621771 -143.16955821283045 0 -143.16955821283045 106.47106023682863 0 0 0 0 -2.4242733325730228 -121.47864976854235 0 -121.47864976854235 -18.113607485169247 0 0 0 0 -118.31607375451131 -97.053413700421515 0 -97.053413700421515 501.08678879660874 0 0 0 0 4.0296290078913444 -13.138999064703967 0 -13.138999064703967 169.65234038558265 0 0 0 0 -11.943903810370102 -70.200530481659371 0 -70.200530481659371 85.952236553232069 0 0 0 0 34.659769206159126 -150.84909891163261 0 -150.84909891163261 256.13386913136492 0 0 0 0 -73.196330966573441 10.053804822513484 0 10.053804822513484 169.51820091464469 0 0 0 0 24.916885672180797 -134.33125824655144 0 -134.33125824655144 14.498453423435421 0 0 0 0 50.276873487724515 22.664543547351059 0 22.664543547351059 184.44994505575232 0 0 0 0 -192.80976505271246 -191.12377432573521 0 -191.12377432573521 582.91604792921135 0 0 0 0 -23.266228926557233 -101.23855903213553 0 -101.23855903213553 67.683795710705454 0 0 0 0 -1.81332670490238 -127.3337778077853 0 -127.3337778077853 -51.958141673355385 0 0 0 0 -81.7849251673033 -390.75537193047057 0 -390.75537193047057 -436.08077711932674 0 0 0 0 0.12936695067860432 -259.12915277352607 0 -259.12915277352607 -244.5172719394468 0 0 0 0 -165.83700079956907 -321.06846701963514 0 -321.06846701963514 -183.67406735185796 0 0 0 0 -218.1089560797991 -128.25418528004229 0 -128.25418528004229 126.36397570993722 0 0 0 0 -446.6343025611568 -330.42440359067768 0 -330.42440359067768 -20.661063475890842 0 0 0 0 21.035065486216581 -43.834496791023014 0 -43.834496791023014 33.58026441168056 0 0 0 0 -11.13262799243239 -114.21611544502957 0 -114.21611544502957 142.39176754155778 0 0 0 0 81.153215540965903 -308.30326252894884 0 -308.30326252894884 -324.03782196296379 0 0 0 0 -33.282210799243074 -90.429131466252656 0 -90.429131466252656 -58.271120439069989 0 0 0 0 -22.776376090652775 131.61170557900914 0 131.61170557900914 126.29578912604848 0 0 0 0 479.02369017104502 -301.98314282066713 0 -301.98314282066713 -425.8002495999026 0 0 0 0 -28.554987956726109 202.38088157746461 0 202.38088157746461 -392.87742799610169 0 0 0 0 -1427.6440096181141 -251.00338564481353 0 -251.00338564481353 30.883529157086741 0 0 0 0 -287.62837024024338 -708.65567122543871 0 -708.65567122543871 -548.02286939618898 0 0 0 0 -197.85700231765804 -81.902727024862543 0 -81.902727024862543 281.67150810628664 0 0 0 0 -200.61237812551553 -422.41977873028372 0 -422.41977873028372 27.072693009191426 0 0 0 0 122.77391475965851 -117.0197162663535 0 -117.0197162663535 110.31597222274286 0 0 0 0 97.68753424147144 -484.73815962740628 0 -484.73815962740628 -377.35565980128013 0 0 0 0 300.09746873584663 -44.364301978253934 0 -44.364301978253934 -273.07817560381955 0 0 0 0 -42.674463604286217 -71.561626022006905 0 -71.561626022006905 -57.250028212481197 0 0 0 0 22.850265921911785 -0.20371318595670118 0 -0.20371318595670118 -10.797231247839534 0 0 0 0 550.19719848968089 -1329.397788400398 0 -1329.397788400398 -89.143964376176882 0 0 0 0 -667.50230995414313 -670.38804304538644 0 -670.38804304538644 305.45870469188958 0 0 0 0 -773.49641214325675 -325.54992121805844 0 -325.54992121805844 61.328221917239716 0 0 0 0 -4.4167947953856164 -10.693559411064854 0 -10.693559411064854 -23.303926821925984 0 0 0 0 -440.8370395808015 -487.92204929664149 0 -487.92204929664149 -40.54974063834743 0 0 0 0 -205.68986486703216 -206.71512635033287 0 -206.71512635033287 -61.152343531575752 0 0 0 0 15.604951545668882 -55.100684168428415 0 -55.100684168428415 -2.1334021152288187 0 0 0 0 -31.215159789455356 -89.561767254832375 0 -89.561767254832375 -26.923409822906251 0 0 0 0 0.062612547054612833 -5.7129274489257682 0 -5.7129274489257682 -7.6911178340935749 0 0 0 0 100.46342319567339 17.106798862282176 0 17.106798862282176 -87.660508816639776 0 0 0 0 0.001900392264360562 -235.49019700551435 0 -235.49019700551435 -62.121481573456549 0 0 0 0 136.62422782261274 -110.98460447268735 0 -110.98460447268735 -408.73193664366681 0 0 0 0 3.849275930625538 2.5915130384640861 0 2.5915130384640861 -2.7761231251282368 0 0 0 0 -35.93221062988323 -38.997687902375674 0 -38.997687902375674 196.03517479967559 0 0 0 0 0.006835087166109588 -48.719615683414304 0 -48.719615683414304 -57.490712262209854 0 0 0 0 -0.037382762267952785 -33.707991215473157 0 -33.707991215473157 -106.34321330737293 0 0 0 0 -2.797721304508741 -59.063407278263185 0 -59.063407278263185 -81.730009998864261 0 0 0 0 -16.972468429856235 -50.313657570557552 0 -50.313657570557552 -61.847555347558227 0 0 0 0 -1.948243364749942 -53.534077685122611 0 -53.534077685122611 -98.909338679193752 0 0 0 0 1.5717981113014048 -4.5893301253768755 0 -4.5893301253768755 -12.832795222886091 0 0 0 0 -17.646138060255907 -37.883459175616736 0 -37.883459175616736 -77.147567829248146 0 0 0 0 1.3283397944196622 -62.922717689550154 0 -62.922717689550154 -63.458915546318167 0 0 0 0 -82.450369786136434 -92.098019662364095 0 -92.098019662364095 11.345802368101431 0 0 0 0 -25.651267091900536 -33.913721328500046 0 -33.913721328500046 -43.993272999571104 0 0 0 0 -21.671324127736625 141.37325253180779 0 141.37325253180779 -3024.2171686250513 0 0 0 0 -11.128997079229009 -11.890144018628789 0 -11.890144018628789 -14.640138954103691 0 0 0 0 -4.1721864304527116 -40.297414296140232 0 -40.297414296140232 -0.8429256981034996 0 0 0 0 -674.22985768436047 -1811.2964155273294 0 -1811.2964155273294 -4.5728433880940429 0 0 0 0 -23.068624107780124 101.57621266274691 0 101.57621266274691 -102.26837051840266 0 0 0 0 -761.82629245329008 -966.83561256707617 0 -966.83561256707617 -1156.5520395148633 0 0 0 0 6.0294826521421783 -4227.8796012023668 0 -4227.8796012023668 -3885.871532815534 0 0 0 0 9.174625582065346 -40.305789661397284 0 -40.305789661397284 -19.146258734501316 0 0 0 0 16.180808269768022 -58.712918747878575 0 -58.712918747878575 0.087436182648956431 0 0 0 0 93.894061495407186 -24.241132191931683 0 -24.241132191931683 -20.089500792702893 0 0 0 0 -0.095795685614135095 4.0706857293239977 0 4.0706857293239977 -4.0059351769338605 0 0 0 0 -5.9049115329689812 -42.448758904327406 0 -42.448758904327406 -7.7766495643409144 0 0 0 0 -2.702970720914891 -75.359326389476337 0 -75.359326389476337 -78.067820709737134 0 0 0 0 5.5886361527664121 -44.775406502736587 0 -44.775406502736587 -62.105047943405225 0 0 0 0 13.85796947403287 -49.008898793741537 0 -49.008898793741537 -52.01062555910903 0 0 0 0 -10.214318031470526 -6.0267210169284908 0 -6.0267210169284908 -10.715338895858622 0 0 0 0 -38.827487301459769 -38.066718235306325 0 -38.066718235306325 -42.827738311665598 0 0 0 0 -13.046621055633295 -34.122481457365211 0 -34.122481457365211 -15.2072111320158 0 0 0 0 -19.193713705185903 -32.95718345321626 0 -32.95718345321626 -38.793707134246688 0 0 0 0 -14.751907805089161 -35.015264346913142 0 -35.015264346913142 -33.39822818012226 0 0 0 0 -38.468453428127305 -25.342764438496886 0 -25.342764438496886 -33.08033552366291 0 0 0 0 -396.32239826046862 -383.37366046299576 0 -383.37366046299576 -47.756708393042572 0 0 0 0 -64.029590535336069 -57.293370110027354 0 -57.293370110027354 -24.390090071565339 0 0 0 0 -384.8218242721432 -233.77847191318233 0 -233.77847191318233 -302.43790475750575 0 0 0 0 177.72139404853806 97.377306323949597 0 97.377306323949597 -426.53016826453677 0 0 0 0 10.931098555564347 -28.982775680236102 0 -28.982775680236102 3.0316453327737918 0 0 0 0 446.95151096553309 -425.96327997249318 0 -425.96327997249318 -399.23701088037524 0 0 0 0 837.30919024755713 -406.82316450936196 0 -406.82316450936196 -443.95271003054222 0 0 0 0 366.52586483434425 -83.94783946753887 0 -83.94783946753887 -328.60817026800942 0 0 0 0 225.9113531781768 -38.912721134656749 0 -38.912721134656749 -261.44983732170658 0 0 0 0 -109.56697109834931 -710.85371866075002 0 -710.85371866075002 -1547.435398321948 0 0 0 0 -942.00933555554366 -848.38416096901346 0 -848.38416096901346 -652.73018086048614 0 0 0 0 -1027.4685969823913 -1174.4732938373927 0 -1174.4732938373927 -367.30523062963039 0 0 0 0 164.84997409061179 -364.39927683075075 0 -364.39927683075075 -806.82328464977036 0 0 0 0 153.23047840516665 412.99216186221747 0 412.99216186221747 -1204.199381472401 0 0 0 0 -57.88030612791772 -315.29381761059631 0 -315.29381761059631 -599.16492223824025 0 0 0 0 -280.04665642773034 -342.20334723475025 0 -342.20334723475025 -276.48887772695161 0 0 0 0 -163.60785599183146 -439.60801147580787 0 -439.60801147580787 -560.99797270409181 0 0 0 0 8.6945513711260674 -15.67698323223857 0 -15.67698323223857 13.514745099821965 0 0 0 0 -16.474234008404892 -38.421776681199844 0 -38.421776681199844 -14.315099488616397 0 0 0 0 -16.820899284073676 -57.643988838790392 0 -57.643988838790392 -17.544821657735156 0 0 0 0 -6.5028013437986374 -62.731466354838631 0 -62.731466354838631 -61.834133367687173 0 0 0 0 -18.333598641795106 -48.835414007073268 0 -48.835414007073268 0.00095483949553454295 0 0 0 0 -7.976958696017391 -29.887137477067881 0 -29.887137477067881 -7.6573923652904341 0 0 0 0 -12.96695410511893 -39.863087232417456 0 -39.863087232417456 -27.517663698963588 0 0 0 0 -232.71660020954732 -485.36034291493706 0 -485.36034291493706 -719.26427147751383 0 0 0 0 5.5772328003441771 -14.823915954062841 0 -14.823915954062841 10.194602607669083 0 0 0 0 -442.33838070368802 -623.66021610258031 0 -623.66021610258031 -994.59810529879178 0 0 0 0 -256.39099603089562 -431.9133066059585 0 -431.9133066059585 -625.3422934412265 0 0 0 0 -315.65802323858225 -405.76433593962429 0 -405.76433593962429 -625.13442914759798 0 0 0 0 -135.25952940568095 -409.91006562752591 0 -409.91006562752591 -668.68086582430988 0 0 0 0 -93.929296192261972 -183.10845842890558 0 -183.10845842890558 -315.18379558145534 0 0 0 0 -259.86182220897172 -436.38156290971529 0 -436.38156290971529 -491.51014553252026 0 0 0 0 78.983268725773087 62.588631921244087 0 62.588631921244087 -279.25138103627251 0 0 0 0 13.042395978302778 -9.6454024404567917 0 -9.6454024404567917 6.7792923691430929 0 0 0 0 0.19957750807225239 -226.94068641187914 0 -226.94068641187914 -221.80004931978328 0 0 0 0 39.267741067276802 -98.768334169697482 0 -98.768334169697482 -157.74875652752235 0 0 0 0 60.078924785571871 -93.618049935168528 0 -93.618049935168528 -416.36713920667535 0 0 0 0 310.28717873497226 -539.72875237529297 0 -539.72875237529297 196.34203181910561 0 0 0 0 1.8099228444159507 -3.0221858062020033 0 -3.0221858062020033 2.8285554130917205 0 0 0 0 142.33576385494234 -334.28870811117667 0 -334.28870811117667 -444.07361921895063 0 0 0 0 -15.597778333545591 -74.826935728273696 0 -74.826935728273696 -56.74394061524427 0 0 0 0 7.9647014582587872 -360.57901154805222 0 -360.57901154805222 258.74253803733154 0 0 0 0 91.968634863878833 -0.23077758830913808 0 -0.23077758830913808 -124.83486660048948 0 0 0 0 125.40332638756081 -265.41477513784776 0 -265.41477513784776 157.41023510109517 0 0 0 0 -107.92870523763122 -301.74840483925072 0 -301.74840483925072 152.30951005980751 0 0 0 0 8.6651389468970592 -249.33739303842231 0 -249.33739303842231 219.7608184346027 0 0 0 0 -124.65184333339857 -177.7152258544229 0 -177.7152258544229 397.21487340836029 0 0 0 0 -197.8206432708248 -52.648433108042809 0 -52.648433108042809 225.06266651541227 0 0 0 0 -151.92757539325976 -58.222094394004671 0 -58.222094394004671 185.4938233062137 0 0 0 0 -58.712360379198799 -174.51559494370304 0 -174.51559494370304 115.75687096902402 0 0 0 0 -178.97406442038482 -202.86727285941015 0 -202.86727285941015 226.02365637783078 0 0 0 0 1.3671286016324302 -102.24406385740076 0 -102.24406385740076 273.88456162891816 0 0 0 0 0.72522585256956518 -137.76954186477815 0 -137.76954186477815 243.25089386662876 0 0 0 0 -35.781566302811598 -87.588487721612324 0 -87.588487721612324 -28.785643884036347 0 0 0 0 -194.12930717474228 206.22217896925576 0 206.22217896925576 12.180309486633632 0 0 0 0 -98.593827756816609 -271.11897959153794 0 -271.11897959153794 74.827744886526489 0 0 0 0 18.635604615869596 -26.983996088092624 0 -26.983996088092624 1.9358140792752465 0 0 0 0 0.37923014420499612 -10.506535871504752 0 -10.506535871504752 20.608741816439533 0 0 0 0 1.6501978216983844 -217.48372063171701 0 -217.48372063171701 181.13167793859748 0 0 0 0 12.571107650597696 -234.59789437572181 0 -234.59789437572181 -527.38930920037092 0 0 0 0 -168.1753773863893 357.35768038447713 0 357.35768038447713 198.2513946491672 0 0 0 0 -0.25560780244214243 0.65459610634880505 0 0.65459610634880505 -10.94465997664031 0 0 0 0 -2062.913657280762 130.9970675490913 0 130.9970675490913 178.89797058762633 0 0 0 0 672.5383773848298 -59.153830195253249 0 -59.153830195253249 -1285.035780918377 0 0 0 0 -298.37415693316143 -280.45243051301804 0 -280.45243051301804 -531.52347841252049 0 0 0 0 -67.981336974356964 244.97617446383083 0 244.97617446383083 640.43494650628418 0 0 0 0 -6.7325273526477645 -31.906775804902821 0 -31.906775804902821 -19.531918219556417 0 0 0 0 -886.318130002619 -178.43951121623104 0 -178.43951121623104 551.47311950707808 0 0 0 0 -274.58734483021544 -599.47788121091435 0 -599.47788121091435 295.21830779903394 0 0 0 0 -530.46000691206427 -131.01560527535912 0 -131.01560527535912 -11.36517515667947 0 0 0 0 -18.776154817588179 -38.001832093617338 0 -38.001832093617338 39.659489314672385 0 0 0 0 -120.07586529490072 -232.00990780364373 0 -232.00990780364373 -254.03151659488503 0 0 0 0 -186.41040681133745 -352.52548185692285 0 -352.52548185692285 -178.7074406734464 0 0 0 0 -185.80294475228584 -366.25541974931548 0 -366.25541974931548 -332.75156120408792 0 0 0 0 -38.012277806730708 -20.493737740282086 0 -20.493737740282086 169.81669154771953 0 0 0 0 -17.075254263137253 -65.475650834701042 0 -65.475650834701042 110.88359359316385 0 0 0 0 -58.489371801086236 6.7654160949023208 0 6.7654160949023208 160.25994617475953 0 0 0 0 -58.360991247871425 14.960921374251484 0 14.960921374251484 131.16041041485732 0 0 0 0 -295.40911885877722 -173.57127048076654 0 -173.57127048076654 -14.723400436263546 0 0 0 0 -50.819797158367294 -69.622840290389234 0 -69.622840290389234 -41.703106525616789 0 0 0 0 -151.24314804506139 -26.923351467412431 0 -26.923351467412431 142.40181549126646 0 0 0 0 -44.445179797767196 105.73862531165651 0 105.73862531165651 16.014538300951244 0 0 0 0 165.32711009730701 -34.950799005106091 0 -34.950799005106091 79.699136075163551 0 0 0 0 -23.38373605482775 34.597794149744004 0 34.597794149744004 149.59751660062466 0 0 0 0 -70.624352083206134 -50.149824879545577 0 -50.149824879545577 76.277742636016342 0 0 0 0 -123.39204751403304 -262.70917099656072 0 -262.70917099656072 -496.99120023014257 0 0 0 0 -17.682206427454162 10.890707837054634 0 10.890707837054634 39.237327380816595 0 0 0 0 -52.0027653035404 -44.16986954500446 0 -44.16986954500446 47.739088057558945 0 0 0 0 -45.849469198088627 -50.316762807709893 0 -50.316762807709893 56.359340817696648 0 0 0 0 -33.609316299291407 -47.316960757943278 0 -47.316960757943278 47.487277366052467 0 0 0 0 -76.360008092888165 -49.500265805567324 0 -49.500265805567324 117.9415944328357 0 0 0 0 -73.341805230214959 -51.768962696885865 0 -51.768962696885865 45.788857135368744 0 0 0 0 -6.8833750937203462 -18.37311586477631 0 -18.37311586477631 5.0640445009368591 0 0 0 0 94.560336776266922 -109.68388733410757 0 -109.68388733410757 -0.99730648169497726 0 0 0 0 -216.87928639390157 -35.181204926702776 0 -35.181204926702776 117.0364237119793 0 0 0 0 -62.693854370198096 -197.06661677395095 0 -197.06661677395095 48.864943057662458 0 0 0 0 -209.90237406120286 -120.37781926200478 0 -120.37781926200478 214.00925382159767 0 0 0 0 -228.83305703301448 -108.56142671301495 0 -108.56142671301495 267.57655137286929 0 0 0 0 -11.811037461521948 -4.4531383284320611 0 -4.4531383284320611 58.886916782228752 0 0 0 0 -250.56227070256136 -84.98887513790396 0 -84.98887513790396 255.87666448736854 0 0 0 0 -215.61029436391254 -64.187785402380541 0 -64.187785402380541 33.247770976595348 0 0 0 0 -142.5936255568522 -127.99690495472896 0 -127.99690495472896 96.091429754742421 0 0 0 0 -131.27388887276175 -85.816818733175751 0 -85.816818733175751 198.96560615195267 0 0 0 0 -131.20706596024684 -60.623043525847606 0 -60.623043525847606 248.55504666826164 0 0 0 0 86.19537922082236 -119.98038771031133 0 -119.98038771031133 183.05212338658748 0 0 0 0 130.62959752667666 -287.68229060224621 0 -287.68229060224621 180.80419794190675 0 0 0 0 -77.572746745434415 -185.03172221355544 0 -185.03172221355544 118.8702476771723 0 0 0 0 -60.268598289287183 -263.04981774819316 0 -263.04981774819316 207.51780051305104 0 0 0 0 -51.479661550312528 -67.354770203908529 0 -67.354770203908529 -48.676131616722415 0 0 0 0 -97.579306672123494 -385.73302267687905 0 -385.73302267687905 464.56024070103012 0 0 0 0 89.148224996926729 106.65652080081054 0 106.65652080081054 327.46440239284129 0 0 0 0 57.222751855122624 -152.09401676814014 0 -152.09401676814014 -523.12234497730969 0 0 0 0 -1.7553208915876439 -6.5460979519730245 0 -6.5460979519730245 -4.9924545376965028 0 0 0 0 658.52382325485814 441.67454011418158 0 441.67454011418158 462.40514409208845 0 0 0 0 -189.51273459062213 -200.49492706469027 0 -200.49492706469027 506.85936129648326 0 0 0 0 25.736409405111772 14.58273608620766 0 14.58273608620766 -91.925655805098359 0 0 0 0 74.863019527576398 -14.450540969177382 0 -14.450540969177382 -309.55930747510865 0 0 0 0 40.046650881064124 -288.44969753368059 0 -288.44969753368059 -349.81649578799261 0 0 0 0 -28.888644198537804 -261.78661240967631 0 -261.78661240967631 -216.39478653742117 0 0 0 0 104.64731235586169 -298.07744738893371 0 -298.07744738893371 -94.834527422761312 0 0 0 0 120.61846160025743 -174.900994144984 0 -174.900994144984 -92.956169995770324 0 0 0 0 108.19360118464101 -225.38584382273257 0 -225.38584382273257 -231.40952653078421 0 0 0 0 55.123714828805532 -213.144871525903 0 -213.144871525903 -159.21099248842802 0 0 0 0 106.36442789388821 -265.76846448151628 0 -265.76846448151628 -189.96773438839591 0 0 0 0 -45.56897676186054 -296.11240233767603 0 -296.11240233767603 -15.770638498273911 0 0 0 0 34.78762840681884 -292.13715752580902 0 -292.13715752580902 -16.090637490386143 0 0 0 0 -70.303803589515155 -371.72119949855551 0 -371.72119949855551 -200.31255195755512 0 0 0 0 -289.38861132157035 -282.19521758935298 0 -282.19521758935298 69.362118332224782 0 0 0 0 -198.27528610930312 -243.53131821728311 0 -243.53131821728311 7.7390517726307735 0 0 0 0 -168.12742158185574 14.62214392482565 0 14.62214392482565 46.983618223428493 0 0 0 0 -334.21706147945952 -92.528074468107661 0 -92.528074468107661 184.88186298051733 0 0 0 0 -207.28328188619344 -146.70016293841763 0 -146.70016293841763 67.32190541527234 0 0 0 0 -510.3198325567646 -182.61990388363483 0 -182.61990388363483 71.405636798281193 0 0 0 0 -544.6435161284171 -422.42264962324407 0 -422.42264962324407 -242.46011198090855 0 0 0 0 -808.37080626643728 -150.83158877392998 0 -150.83158877392998 12.787024952558568 0 0 0 0 -299.33776913545444 -103.57168627486681 0 -103.57168627486681 -15.282589395414107 0 0 0 0 -711.58087008842267 -1044.1581667636055 0 -1044.1581667636055 -1317.7669841262978 0 0 0 0 -467.87953608407406 48.501876233087387 0 48.501876233087387 63.887207321677124 0 0 0 0 -239.59352769469842 -500.42366586055141 0 -500.42366586055141 -475.92372468301619 0 0 0 0 -580.47653197037289 -561.27391426774557 0 -561.27391426774557 -265.48792773339665 0 0 0 0 -99.022260083584115 -396.09132543782471 0 -396.09132543782471 -426.31151650621905 0 0 0 0 -302.9708174544794 -364.42021532823856 0 -364.42021532823856 -131.73296706145629 0 0 0 0 -396.64262151275761 -396.77745961074834 0 -396.77745961074834 -126.31101847114041 0 0 0 0 104.97809930352378 -162.13073086929217 0 -162.13073086929217 -69.744648507155944 0 0 0 0 112.93899092180072 -141.12506349317846 0 -141.12506349317846 -27.411719909054227 0 0 0 0 186.14949525771954 -214.45836710435105 0 -214.45836710435105 -90.743993167940062 0 0 0 0 173.1417179812197 -71.898072448511812 0 -71.898072448511812 -1.1139459399273619 0 0 0 0 197.18696043081582 -187.26011076732539 0 -187.26011076732539 -19.289057077392499 0 0 0 0 106.8188079042593 -11.135021607071394 0 -11.135021607071394 -9.3386065060039982 0 0 0 0 130.613660395029 -105.99246464978205 0 -105.99246464978205 -27.669208387804247 0 0 0 0 61.559605775313685 -40.55358856204839 0 -40.55358856204839 -26.788136585179018 0 0 0 0 91.358213077328401 -29.07491333859798 0 -29.07491333859798 -99.637623501883354 0 0 0 0 35.690620825451333 -67.835164444346447 0 -67.835164444346447 -32.174453335643193 0 0 0 0 15.169881933979923 11.91998332694493 0 11.91998332694493 -104.52575438108761 0 0 0 0 -48.551496395259164 -67.668473518366227 0 -67.668473518366227 -109.09515928164183 0 0 0 0 -15.593484356766567 -148.42085057529766 0 -148.42085057529766 -288.36832529865205 0 0 0 0 2.6882566326821689 10.395459358056542 0 10.395459358056542 -110.37791064576595 0 0 0 0 12.95777909273238 -6.7735238217463518 0 -6.7735238217463518 -28.688473097258765 0 0 0 0 -39.518945953808725 -130.4699711491121 0 -130.4699711491121 -74.329968048070441 0 0 0 0 118.82310985808726 -214.08695546587114 0 -214.08695546587114 -157.74250966406544 0 0 0 0 186.03785611514468 -207.23640220359084 0 -207.23640220359084 -76.327358952486975 0 0 0 0 144.73477813501086 -172.09507746201416 0 -172.09507746201416 -92.755278166441713 0 0 0 0 150.95011151843937 -239.33737422976992 0 -239.33737422976992 -26.274418749836514 0 0 0 0 144.93318917123543 -222.34715970169782 0 -222.34715970169782 -73.30677679728251 0 0 0 0 208.39177875721361 -197.95699313044315 0 -197.95699313044315 -43.786812680657022 0 0 0 0 169.74465192126809 -188.75498763250653 0 -188.75498763250653 53.4707414751756 0 0 0 0 170.01494816507329 -211.02993068515207 0 -211.02993068515207 -75.482493663963396 0 0 0 0 203.33711297181435 -237.22098712960724 0 -237.22098712960724 -69.624725810615928 0 0 0 0 181.05979242912144 -189.96820992612629 0 -189.96820992612629 -29.110026217647828 0 0 0 0 233.34401346015511 -226.11343520283117 0 -226.11343520283117 -27.882331674818488 0 0 0 0 255.15121594304219 -390.38591549143894 0 -390.38591549143894 394.06186992049334 0 0 0 0 -931.05733575043269 -876.99212468855694 0 -876.99212468855694 -181.81943290811614 0 0 0 0 61.66538542683702 -278.0508992477844 0 -278.0508992477844 444.3291084232842 0 0 0 0 -8.3522230874663705 -11.083441000821878 0 -11.083441000821878 -6.6545320252597264 0 0 0 0 250.88385512284003 -237.16000046071713 0 -237.16000046071713 58.475541227424401 0 0 0 0 182.05010930454591 -223.23239058477338 0 -223.23239058477338 65.881209233717527 0 0 0 0 156.21843730464843 -205.93007336994106 0 -205.93007336994106 216.26337255229009 0 0 0 0 205.03612140663608 -217.97144222156203 0 -217.97144222156203 176.35347996314522 0 0 0 0 22.444878719232292 -19.141847856501045 0 -19.141847856501045 118.43694770074217 0 0 0 0 32.268026082019787 -115.28825046512065 0 -115.28825046512065 378.940144724329 0 0 0 0 156.23238051409135 -204.4636825255875 0 -204.4636825255875 63.947303960158024 0 0 0 0 240.61486397730187 -351.2385353614809 0 -351.2385353614809 272.20507473516773 0 0 0 0 720.03004796805908 -314.12221347939339 0 -314.12221347939339 181.56476771546272 0 0 0 0 292.17572540335823 -229.52082648751093 0 -229.52082648751093 180.34579399884706 0 0 0 0 414.92473899381002 -211.01176945571206 0 -211.01176945571206 117.00390532746678 0 0 0 0 345.44711850726162 -254.86032119623269 0 -254.86032119623269 144.28176447364967 0 0 0 0 291.84362213537679 -204.34287502118968 0 -204.34287502118968 49.977093034540303 0 0 0 0 234.6277069534699 -169.54255686742545 0 -169.54255686742545 116.68661566841183 0 0 0 0 182.3141632383049 -161.62117545916408 0 -161.62117545916408 53.865346859267447 0 0 0 0 54.820417715120129 -34.546703729312867 0 -34.546703729312867 87.868669394112658 0 0 0 0 180.30553517490625 -34.400724200328114 0 -34.400724200328114 -10.430025021640176 0 0 0 0 158.21118290879531 -103.23574713233393 0 -103.23574713233393 39.568914768315153 0 0 0 0 184.18410237558419 8.5622596851753769 0 8.5622596851753769 102.1616528169252 0 0 0 0 342.63335684561753 -89.917701515470981 0 -89.917701515470981 29.568734972446691 0 0 0 0 -18.523649278678931 66.435490524367196 0 66.435490524367196 282.70019858804881 0 0 0 0 376.76668732984035 -14.120100531465141 0 -14.120100531465141 98.38174495648127 0 0 0 0 682.21074007364223 315.04604436564841 0 315.04604436564841 339.43766100081848 0 0 0 0 -263.9850576732133 -497.57667775973823 0 -497.57667775973823 -29.563293840543338 0 0 0 0 -11.919600309921179 -95.672749831976944 0 -95.672749831976944 65.903058145238901 0 0 0 0 -9.8285577072016679 -5.4765801011086808 0 -5.4765801011086808 -1.439831575261735 0 0 0 0 -2570.9119293238618 -789.50701411248883 0 -789.50701411248883 246.89514294937544 0 0 0 0 55.712609149021773 -49.660392696457166 0 -49.660392696457166 -7.0982926843571477 0 0 0 0 -72.674466494661829 -443.76100042556573 0 -443.76100042556573 -2258.3235851253703 0 0 0 0 -21.647182806613273 -2519.0282002747408 0 -2519.0282002747408 -740.65966292157827 0 0 0 0 -169.9601647184827 134.0443714345347 0 134.0443714345347 -257.42417724631377 0 0 0 0 -1486.0832010986633 27.002141782460967 0 27.002141782460967 79.229725658307871 0 0 0 0 281.39080437758867 -18.707860150521356 0 -18.707860150521356 9.8555967433057958 0 0 0 0 -27.890597220276078 -18.703929712087131 0 -18.703929712087131 -4.6335282581055992 0 0 0 0 42.81774074196619 -88.81406931154379 0 -88.81406931154379 -40.220371075323783 0 0 0 0 6.4076926173884328 -7.7121454587111913 0 -7.7121454587111913 1.2097517096806882 0 0 0 0 -3.8139004842669237 -68.982489492191235 0 -68.982489492191235 -9.6956178381224163 0 0 0 0 56.188315513194539 16.283945512273931 0 16.283945512273931 -134.79893563882797 0 0 0 0 -7.6699052417756661 -45.745005341989994 0 -45.745005341989994 -14.837142699785133 0 0 0 0 60.594396222120849 -29.181986814568518 0 -29.181986814568518 -110.18289399190689 0 0 0 0 87.548303651361493 -11.976573520507372 0 -11.976573520507372 -118.39847938463208 0 0 0 0 34.437070847096038 -36.484001074866683 0 -36.484001074866683 9.0131693764997181 0 0 0 0 10.175004566040457 -63.731322695527098 0 -63.731322695527098 -1.3465055218659359 0 0 0 0 -20.763943755708169 -83.603614822524833 0 -83.603614822524833 -8.2116898406948167 0 0 0 0 -4.0466137183902902 -69.348913949193957 0 -69.348913949193957 -20.36019937810488 0 0 0 0 -11.139197672600858 -62.685285964631476 0 -62.685285964631476 -0.40348086569429142 0 0 0 0 6.4812832992911762 -36.042357784841698 0 -36.042357784841698 -11.489929977480472 0 0 0 0 -24.059138061908016 -84.314466280367924 0 -84.314466280367924 -32.867714320949744 0 0 0 0 1.7581655073948212 -17.465285637776958 0 -17.465285637776958 22.636840639800653 0 0 0 0 -600.2838649441328 278.54707405751105 0 278.54707405751105 -15.781148580121226 0 0 0 0 -73.405571457653423 1.0421476546762278 0 1.0421476546762278 -5.120920723220479 0 0 0 0 -7.8263932823999198 -8.2883226597715804 0 -8.2883226597715804 5.5722717264067114 0 0 0 0 0.54639049556791974 -37.925000141245306 0 -37.925000141245306 21.600517207976281 0 0 0 0 -40.674288234105916 -55.965101003748714 0 -55.965101003748714 40.124901047725871 0 0 0 0 -46.027869576239027 -71.712355480223778 0 -71.712355480223778 41.552106834598817 0 0 0 0 3.6816315106943307 -34.49659235055617 0 -34.49659235055617 36.0970381497321 0 0 0 0 -45.16952259138634 -87.875760884504416 0 -87.875760884504416 24.371837981569115 0 0 0 0 -35.617946682701586 -39.545837908852263 0 -39.545837908852263 81.737035627869773 0 0 0 0 -19.948599962415756 -20.600079480296699 0 -20.600079480296699 135.55384446540847 0 0 0 0 4.4885451862355694 -25.591265303577529 0 -25.591265303577529 107.10091579479194 0 0 0 0 -22.099667205446167 -118.61995498386386 0 -118.61995498386386 32.058619202816772 0 0 0 0 -28.077509009777714 -78.727361601089797 0 -78.727361601089797 126.75997879367787 0 0 0 0 -40.143538587231888 -88.058712470839964 0 -88.058712470839964 65.422256420904887 0 0 0 0 -23.252544376911828 -85.089182919284212 0 -85.089182919284212 33.563073924480705 0 0 0 0 -10.490380158968037 -120.98706828326976 0 -120.98706828326976 -16.837286253139609 0 0 0 0 -28.039157377163065 -69.322513879509643 0 -69.322513879509643 14.903090726555092 0 0 0 0 -8.1632849554880522 -106.50876041450647 0 -106.50876041450647 28.179340360598871 0 0 0 0 24.665986889266321 -46.13784717691226 0 -46.13784717691226 14.126953824808822 0 0 0 0 100.89140304518514 -156.40876445636241 0 -156.40876445636241 -32.005483940745762 0 0 0 0 40.030762202775804 -119.65992002710118 0 -119.65992002710118 -80.819393750905874 0 0 0 0 3.8246877447730867 -70.894394136443509 0 -70.894394136443509 -47.685195416527677 0 0 0 0 131.86108164300094 -191.04950158172869 0 -191.04950158172869 -23.602490670915358 0 0 0 0 136.65451065494562 -166.96884429757483 0 -166.96884429757483 -83.23485529937534 0 0 0 0 -14.771930369461188 -216.42925309427665 0 -216.42925309427665 79.365751319986884 0 0 0 0 -69.019553267818992 105.26001943058509 0 105.26001943058509 576.62504418278695 0 0 0 0 -23.57237292881473 -74.720058980485192 0 -74.720058980485192 246.96478779344761 0 0 0 0 59.105510265537305 10.339783904288197 0 10.339783904288197 165.40445849552634 0 0 0 0 8.8247725130495382 -37.778266283392441 0 -37.778266283392441 140.70442797694704 0 0 0 0 -1.0691074043876938 -1.3360507842431844 0 -1.3360507842431844 1.0316756277988759 0 0 0 0 -406.39381279208465 15.645186126726912 0 15.645186126726912 337.19202397909976 0 0 0 0 189.36113157586078 -609.50139801009209 0 -609.50139801009209 -789.52893246576423 0 0 0 0 449.54924707007012 -202.07404924416915 0 -202.07404924416915 -430.91490653177607 0 0 0 0 -509.15016187822039 -270.12376826516993 0 -270.12376826516993 -224.20866206623032 0 0 0 0 -3.6463345896045212 14.070626868327963 0 14.070626868327963 154.51397506592912 0 0 0 0 6.0217617308464355 -6.2461667589404328 0 -6.2461667589404328 5.507760303452784 0 0 0 0 264.70720427477499 -17.669765476515749 0 -17.669765476515749 -246.26634043792728 0 0 0 0 -22.079662160836961 -42.117094677553723 0 -42.117094677553723 73.884292631555581 0 0 0 0 -4.5096567151485942 -3.7574396481795702 0 -3.7574396481795702 79.852064520091517 0 0 0 0 13.612257899774704 25.207046241441276 0 25.207046241441276 92.371172837229096 0 0 0 0 17.374982365130563 -2.0977470416255528 0 -2.0977470416255528 34.512870322563685 0 0 0 0 23.415746143058641 7.2269087462336756 0 7.2269087462336756 47.465657945489511 0 0 0 0 358.17995005493867 -57.721628061874071 0 -57.721628061874071 -755.65598603330727 0 0 0 0 157.97486027688137 -275.99403385244659 0 -275.99403385244659 -408.05031907856028 0 0 0 0 -418.75880093254818 -281.10076945508627 0 -281.10076945508627 -388.92818387856823 0 0 0 0 687.36759419542796 456.23852263537992 0 456.23852263537992 -214.75870510951063 0 0 0 0 -68.773811672348529 -152.78492331304005 0 -152.78492331304005 73.336088011681568 0 0 0 0 2.9818506271022045 -3.070916779414631 0 -3.070916779414631 1.766454610994515 0 0 0 0 207.51362625460388 -448.44058124724143 0 -448.44058124724143 -257.22822126676328 0 0 0 0 4.4891331925904865 -10.960851992495463 0 -10.960851992495463 7.067702272149063 0 0 0 0 -261.20522468697163 -633.05142244292801 0 -633.05142244292801 -1023.1805186944111 0 0 0 0 -388.42404750690184 -729.88753463132161 0 -729.88753463132161 -1053.9270721325884 0 0 0 0 -7.0589254866645206 -16.81469730414392 0 -16.81469730414392 -0.030068392348766793 0 0 0 0 -2.5167465995036764 -798.34627460347838 0 -798.34627460347838 -1042.2421748721499 0 0 0 0 41.487677062861621 -452.23150564960088 0 -452.23150564960088 -444.5911821158079 0 0 0 0 572.5828953235723 -415.18605412872057 0 -415.18605412872057 -616.96463407675037 0 0 0 0 -313.39393086056225 -536.5129014562408 0 -536.5129014562408 -460.22771354048746 0 0 0 0 -96.954248385576648 -271.88053290038806 0 -271.88053290038806 -597.58771281575901 0 0 0 0 82.598593018468819 -40.921127201523632 0 -40.921127201523632 -845.36818183942523 0 0 0 0 9.9878328266349854 -220.26316555156518 0 -220.26316555156518 -1013.8725968473882 0 0 0 0 0.68104144706700254 -5.7026314996568317 0 -5.7026314996568317 3.5200524506909687 0 0 0 0 -143.17249931032711 -547.78980429422518 0 -547.78980429422518 -554.0364699192578 0 0 0 0 -537.57142827530697 -752.15114694010117 0 -752.15114694010117 -1.4338890633662231 0 0 0 0 -3.8568026725697564 -175.52579448378674 0 -175.52579448378674 -1123.906559617084 0 0 0 0 -839.14186012076971 -645.59216964979714 0 -645.59216964979714 -501.93209658487467 0 0 0 0 -284.45929273386719 -567.80960078827047 0 -567.80960078827047 -1064.4978320966802 0 0 0 0 3.1349873601973606 -1.8329941340267624 0 -1.8329941340267624 -6.821189252412637 0 0 0 0 -9.4408557193237357 -71.516036097717006 0 -71.516036097717006 -81.888639883021824 0 0 0 0 13.533693396682168 -20.557105281140764 0 -20.557105281140764 12.492866792828835 0 0 0 0 12.87500074057516 48.79199449385078 0 48.79199449385078 -434.67470579972723 0 0 0 0 -8.580494115507463 -346.20251939730952 0 -346.20251939730952 -601.16572181967786 0 0 0 0 -73.995995778226643 -65.656366292823805 0 -65.656366292823805 57.587918886827538 0 0 0 0 24.964667040844716 -30.805075462478669 0 -30.805075462478669 14.054938406219719 0 0 0 0 -107.34631761219498 -156.11452544517306 0 -156.11452544517306 -45.541201190877473 0 0 0 0 -19.325629017374013 -65.151588747859932 0 -65.151588747859932 -85.069384324393468 0 0 0 0 -137.70465653998326 -91.609228889708902 0 -91.609228889708902 119.32152888039127 0 0 0 0 -215.61540928995964 -128.85728502780694 0 -128.85728502780694 159.59166449667828 0 0 0 0 -27.453345895337407 -19.933503384731011 0 -19.933503384731011 22.588701771397609 0 0 0 0 -330.8198469580384 -403.88245280808042 0 -403.88245280808042 -319.56556841886777 0 0 0 0 0.29347043825714536 -12.220314151980119 0 -12.220314151980119 9.6809469989226216 0 0 0 0 -18.898903804540168 10.057738420146052 0 10.057738420146052 54.542517439636867 0 0 0 0 7.7350814925359472 -36.903680814335729 0 -36.903680814335729 14.13041747059799 0 0 0 0 -6.7586589142065918 -6.4240046369015431 0 -6.4240046369015431 3.410289624237862 0 0 0 0 -536.28265505174932 -409.33205758676195 0 -409.33205758676195 -319.70892458749586 0 0 0 0 33.596451997280155 -37.06977242851049 0 -37.06977242851049 0.67019005281440513 0 0 0 0 -41.312678640184458 -12.819553977045871 0 -12.819553977045871 29.982235909614246 0 0 0 0 -11.119647544226609 -20.836855580710107 0 -20.836855580710107 22.631190789554239 0 0 0 0 -30.84990396698413 -9.0613830807706108 0 -9.0613830807706108 29.41159528400749 0 0 0 0 -26.844392315397272 -26.71319099329412 0 -26.71319099329412 23.063485292805126 0 0 0 0 -40.9548632853257 -56.827566248219227 0 -56.827566248219227 43.189689537743106 0 0 0 0 -26.752875336445868 -28.455637579434551 0 -28.455637579434551 53.139255515940022 0 0 0 0 4.7369771695448435 1.2610399095865432 0 1.2610399095865432 54.847908527764957 0 0 0 0 -73.463190675940496 -1.0063222019061868 0 -1.0063222019061868 56.346452236117329 0 0 0 0 -51.371221211215016 -65.182628831666079 0 -65.182628831666079 31.231857330683852 0 0 0 0 -75.947655383583651 -156.22293755889234 0 -156.22293755889234 -6.5201953611685894 0 0 0 0 -49.233400832275947 116.50074477640374 0 116.50074477640374 290.89139415312093 0 0 0 0 -51.571079543893575 94.954591974470532 0 94.954591974470532 -175.63903025383479 0 0 0 0 3.6068046063795975 -0.56939178737684415 0 -0.56939178737684415 -1.0434083657638098 0 0 0 0 -749.9778561561543 -523.71828246911173 0 -523.71828246911173 -203.67526249338698 0 0 0 0 -594.19400599979053 -697.80822353334588 0 -697.80822353334588 -304.19192676985404 0 0 0 0 -663.40797366762126 -555.76019471409381 0 -555.76019471409381 -292.24641876848182 0 0 0 0 2.6307279070809528 -4.0586498382205036 0 -4.0586498382205036 3.7647843875674312 0 0 0 0 65.193861692649079 63.163138357485877 0 63.163138357485877 126.7017172036285 0 0 0 0 -411.13265207197401 -446.44196549199114 0 -446.44196549199114 -406.51829704384727 0 0 0 0 -31.138920357829193 -26.913688869419275 0 -26.913688869419275 371.34034983045422 0 0 0 0 -153.21097138801997 -137.88023219033494 0 -137.88023219033494 219.70842221377825 0 0 0 0 -71.153899888311571 -70.564029525783553 0 -70.564029525783553 -42.443522143759765 0 0 0 0 -173.41811991584837 -369.27502683037892 0 -369.27502683037892 -219.53766749300848 0 0 0 0 28.953934216793414 -10.23834544371465 0 -10.23834544371465 -1.2707665950678688 0 0 0 0 -179.56314831829513 -72.124702982677263 0 -72.124702982677263 156.35296421512248 0 0 0 0 231.75414323098084 -57.338430977208191 0 -57.338430977208191 -285.78967279015342 0 0 0 0 36.193698959217215 -25.753126391730575 0 -25.753126391730575 11.293100733560209 0 0 0 0 -242.2169408503687 -346.54402816202492 0 -346.54402816202492 -152.44764671148732 0 0 0 0 28.135003639574165 -18.955578465830285 0 -18.955578465830285 9.408255957578092 0 0 0 0 -38.9043386674457 -452.42963507712557 0 -452.42963507712557 -409.84553490192047 0 0 0 0 40.609709003081662 -168.16760389276897 0 -168.16760389276897 -162.46082179511723 0 0 0 0 -89.034714204957709 -263.51977562450338 0 -263.51977562450338 0.67247183462313842 0 0 0 0 -50.324801399308853 -161.5930622563792 0 -161.5930622563792 -147.03168252750766 0 0 0 0 -121.46373389026121 -395.89089827385487 0 -395.89089827385487 -184.22560279161553 0 0 0 0 79.170391001389362 -185.67070366475673 0 -185.67070366475673 -384.07924132264452 0 0 0 0 -3381.1228597537411 -2080.9407875275938 0 -2080.9407875275938 1540.6652151990711 0 0 0 0 751.01507067753118 -1593.3194608903141 0 -1593.3194608903141 0.31653974621658387 0 0 0 0 9.3096538601888881 -7.4041644669181892 0 -7.4041644669181892 4.2763567096206145 0 0 0 0 -609.44595442514401 -551.88614626509661 0 -551.88614626509661 -679.51318517394247 0 0 0 0 -18.698618486665509 -345.40271861347719 0 -345.40271861347719 896.21596291274182 0 0 0 0 -96.078469085996403 -126.21054313833065 0 -126.21054313833065 -358.58115696720779 0 0 0 0 -1688.4385345156697 -682.97245785903215 0 -682.97245785903215 59.815415327659139 0 0 0 0 -455.93999653145147 -954.78680692674607 0 -954.78680692674607 119.17739340334083 0 0 0 0 -1524.6936261894152 -923.28957400570653 0 -923.28957400570653 -389.72276525762572 0 0 0 0 -452.72835722043601 -695.65174691056291 0 -695.65174691056291 -638.81681555289833 0 0 0 0 -1086.7485305833616 -48.344910690604593 0 -48.344910690604593 -28.364244126729318 0 0 0 0 -800.93651792942546 -911.30032371984271 0 -911.30032371984271 -524.35512574077438 0 0 0 0 -1033.1021046275055 -96.059399092431704 0 -96.059399092431704 343.89711175044067 0 0 0 0 -1185.7508874725972 -869.39561810737359 0 -869.39561810737359 -128.65500663980492 0 0 0 0 -358.24797273542208 -409.80846144363022 0 -409.80846144363022 -303.63783397197403 0 0 0 0 -362.91370727930189 -168.00004181848635 0 -168.00004181848635 -110.86045461449248 0 0 0 0 -825.80448493928816 -695.05275708403678 0 -695.05275708403678 -84.652453104965389 0 0 0 0 -761.08290211824351 -495.69747842403012 0 -495.69747842403012 73.172978081056499 0 0 0 0 -937.44766551646171 -656.83309782222204 0 -656.83309782222204 52.489426821775851 0 0 0 0 -868.69316400161188 -808.51789268841094 0 -808.51789268841094 -230.95174291441799 0 0 0 0 -854.94639826529601 -702.01506275295833 0 -702.01506275295833 -73.574094866155065 0 0 0 0 -881.30306003559963 -580.74166191092809 0 -580.74166191092809 -40.143828527769074 0 0 0 0 -872.30529262055643 -592.43483448281768 0 -592.43483448281768 -60.513606765569421 0 0 0 0 -734.2075990842568 -405.3533084148512 0 -405.3533084148512 -32.734472412470495 0 0 0 0 5.7783969270207081 -9.1336373399284128 0 -9.1336373399284128 13.825831693627379 0 0 0 0 -916.01140989438863 -518.43196506408276 0 -518.43196506408276 60.756267577511608 0 0 0 0 -852.42787393701292 -573.50965906937199 0 -573.50965906937199 -50.364688309768098 0 0 0 0 -926.85733237306704 -512.53721093188506 0 -512.53721093188506 -73.698113529200782 0 0 0 0 -1039.8526616901145 -833.98637043899362 0 -833.98637043899362 -173.85324095319811 0 0 0 0 -1087.6096057763207 -586.97146410439746 0 -586.97146410439746 1.7346201778273098 0 0 0 0 -682.08771560127207 -1103.874758631966 0 -1103.874758631966 -2379.0247579178395 0 0 0 0 -571.85623871848838 -572.05098507254934 0 -572.05098507254934 -425.63678942338447 0 0 0 0 -2219.2715704639704 -1029.5048403167893 0 -1029.5048403167893 -135.53112164471258 0 0 0 0 -2452.8448818763281 -394.50816238394327 0 -394.50816238394327 386.2671006423916 0 0 0 0 -1126.9064159529953 655.39387017209083 0 655.39387017209083 -1446.381708787274 0 0 0 0 65.777441409642051 252.6505405370408 0 252.6505405370408 -102.08577222900203 0 0 0 0 213.93728815310897 -21.287270170039847 0 -21.287270170039847 -1119.8993268170379 0 0 0 0 117.52854996347742 101.58071098788059 0 101.58071098788059 -288.65433612900233 0 0 0 0 51.815967325761449 -228.26952514869845 0 -228.26952514869845 -687.20353288858314 0 0 0 0 -14.850898428849177 5.848702206480084 0 5.848702206480084 -183.96542535757908 0 0 0 0 -377.21383368595707 -382.93605741675128 0 -382.93605741675128 -249.82866683151224 0 0 0 0 -417.70646268507699 -684.04550409311923 0 -684.04550409311923 -636.74381984247157 0 0 0 0 180.04587719660776 -298.99789738027903 0 -298.99789738027903 673.16983113836977 0 0 0 0 -124.63474674103782 73.044755740527762 0 73.044755740527762 806.67428301903419 0 0 0 0 122.67701894450329 -54.740778257806596 0 -54.740778257806596 279.29570629430236 0 0 0 0 99.79941283116932 43.921532845284673 0 43.921532845284673 275.95913515455322 0 0 0 0 -4.2991341854985023 3.9877980082785029 0 3.9877980082785029 -1.2099322131082317 0 0 0 0 -58.971422130354767 112.21004227947924 0 112.21004227947924 362.46285505268315 0 0 0 0 52.763780382469122 -31.540275686478708 0 -31.540275686478708 296.24456617471878 0 0 0 0 -36.743997663856135 63.832692776762997 0 63.832692776762997 289.62853668862226 0 0 0 0 -3.0875880060619636 1.8612433394773689 0 1.8612433394773689 0.2330810157158254 0 0 0 0 -1081.6600244492511 80.979914223564265 0 80.979914223564265 696.88809863883944 0 0 0 0 -503.15024484499008 -364.39395234306721 0 -364.39395234306721 160.42755315091927 0 0 0 0 -253.81179081223672 -1067.1861886856022 0 -1067.1861886856022 578.8298146421439 0 0 0 0 314.48924915280077 -539.68800474364252 0 -539.68800474364252 1039.0298589020822 0 0 0 0 -70.129857151804487 -49.840503243513439 0 -49.840503243513439 -27.560105034003215 0 0 0 0 -111.14082893601153 -999.82821298269846 0 -999.82821298269846 1498.4065243177174 0 0 0 0 -195.17081438920286 -68.436143825187173 0 -68.436143825187173 82.726071054650674 0 0 0 0 -457.08563036481792 -1461.772329797197 0 -1461.772329797197 897.29110790553568 0 0 0 0 252.54963789716567 37.409580865954922 0 37.409580865954922 1046.477766723212 0 0 0 0 -19.178333667397965 -340.09322155403788 0 -340.09322155403788 1296.8534231932317 0 0 0 0 122.01657264141249 -187.79317150317365 0 -187.79317150317365 897.09056943134783 0 0 0 0 -57.514223714345945 -36.772397491292494 0 -36.772397491292494 -19.414846574949564 0 0 0 0 16.088601403040229 -50.526773887759191 0 -50.526773887759191 -207.78618477268901 0 0 0 0 -64.577004576698528 -141.59397215200443 0 -141.59397215200443 -93.539375830863719 0 0 0 0 1.4440846249271999 -29.25495206296182 0 -29.25495206296182 -97.922348031686852 0 0 0 0 -45.500126930695842 -84.53714222189592 0 -84.53714222189592 -155.96978363655217 0 0 0 0 -90.507178967789514 -20.343657066623564 0 -20.343657066623564 39.482491019589361 0 0 0 0 -172.4547325958556 -114.18549648098997 0 -114.18549648098997 -64.325567231775494 0 0 0 0 -110.66211502887381 -137.40519930046185 0 -137.40519930046185 -163.4405502110385 0 0 0 0 -648.2026340503071 -443.65711073817511 0 -443.65711073817511 -301.43277614410545 0 0 0 0 -83.718652851719526 -258.86709513806272 0 -258.86709513806272 -346.78384784438094 0 0 0 0 34.728474227173137 -213.68265589819202 0 -213.68265589819202 -493.83141953774611 0 0 0 0 100.5664113672683 -163.92181766530848 0 -163.92181766530848 -541.52998911432951 0 0 0 0 14.194030811675475 6.7517301094540016 0 6.7517301094540016 -590.27848331788118 0 0 0 0 -34.903800068262115 -23.709328326377957 0 -23.709328326377957 -13.525326736580951 0 0 0 0 44.354878330988868 -377.05420879807934 0 -377.05420879807934 802.33275148312532 0 0 0 0 171.94966315249621 -132.90649874757219 0 -132.90649874757219 470.91448782293446 0 0 0 0 -109.10895506521774 -32.181625637604157 0 -32.181625637604157 -723.30774329561973 0 0 0 0 -61.951793165135314 -175.08556146711271 0 -175.08556146711271 -410.65930887227296 0 0 0 0 -157.64508024718361 -371.78808472348737 0 -371.78808472348737 -264.71277575139538 0 0 0 0 34.58764269996027 -97.208261518520885 0 -97.208261518520885 -350.59462364281353 0 0 0 0 50.916550938898581 -162.03127802781273 0 -162.03127802781273 -272.39616394904442 0 0 0 0 -96.639581232026103 -330.64162795917946 0 -330.64162795917946 -197.73070883358014 0 0 0 0 -114.04239448421868 -280.01153845072622 0 -280.01153845072622 247.83849380543688 0 0 0 0 -97.297563372922014 -318.97021890754695 0 -318.97021890754695 -175.49554540809186 0 0 0 0 -154.21471763950831 -285.47248155690613 0 -285.47248155690613 -30.452256761127501 0 0 0 0 26.193003226949429 -33.229850162050184 0 -33.229850162050184 20.972881916083111 0 0 0 0 -118.62702459588763 -100.71794849031721 0 -100.71794849031721 17.490964957833057 0 0 0 0 -41.098737706110114 -26.712233601356274 0 -26.712233601356274 24.566333106800812 0 0 0 0 -1.9682796438482342 -9.1805835840264152 0 -9.1805835840264152 -3.4864114145634346 0 0 0 0 -48.112539547233609 -117.23756503195909 0 -117.23756503195909 -217.12815845444493 0 0 0 0 76.898160545679275 -17.467149785457877 0 -17.467149785457877 17.075598594950861 0 0 0 0 -49.981381817458896 -69.145820310004638 0 -69.145820310004638 -0.27306774919270538 0 0 0 0 135.79814009602705 -118.03317657717707 0 -118.03317657717707 -664.943939140765 0 0 0 0 231.25990445254138 -45.712756352033466 0 -45.712756352033466 19.675940671964781 0 0 0 0 -52.196754224583856 0.57302411928685615 0 0.57302411928685615 329.55899952606705 0 0 0 0 -7.0811743162908272 -5.9606230390834014 0 -5.9606230390834014 2.1085857981540528 0 0 0 0 -64.773328719005804 -67.315767095569754 0 -67.315767095569754 25.828851099984604 0 0 0 0 -84.752984265476698 -70.894369572328287 0 -70.894369572328287 153.76545429922407 0 0 0 0 -58.911451004634728 -59.037042437768832 0 -59.037042437768832 86.846424207469681 0 0 0 0 -8.048613918828778 -52.474486349965446 0 -52.474486349965446 109.59466040658299 0 0 0 0 -48.838334468389064 -31.464864212774899 0 -31.464864212774899 10.429823644738974 0 0 0 0 -128.42911317882681 -179.48647094226544 0 -179.48647094226544 18.491571309859864 0 0 0 0 -88.540253138009575 -145.02153809885931 0 -145.02153809885931 -30.37833889558533 0 0 0 0 -41.40960150709725 -109.48479555688391 0 -109.48479555688391 11.0705575053953 0 0 0 0 -77.086493147799047 -63.806385404997854 0 -63.806385404997854 123.37101937312946 0 0 0 0 111.79771734104725 -243.16943787432683 0 -243.16943787432683 182.55403807655966 0 0 0 0 -72.6856892904907 -104.02743500551151 0 -104.02743500551151 364.55163235665532 0 0 0 0 -22.283424122113502 -130.17318032046023 0 -130.17318032046023 87.42410387347627 0 0 0 0 -78.949167180049699 -218.56000474531902 0 -218.56000474531902 110.11164772443135 0 0 0 0 -26.920632427441888 -170.32925513820373 0 -170.32925513820373 -4.8933360446535517 0 0 0 0 -10.846564336301526 -202.29092245773063 0 -202.29092245773063 35.543272435475956 0 0 0 0 -201.30662440392189 -288.20890986577433 0 -288.20890986577433 -75.885999078454915 0 0 0 0 -14.455220748117426 -25.986652923187648 0 -25.986652923187648 -276.88486786341309 0 0 0 0 -88.15508861203125 -297.71327777462284 0 -297.71327777462284 -204.99386990131461 0 0 0 0 62.608301585034496 -139.35170114517314 0 -139.35170114517314 -193.27741691548727 0 0 0 0 4.59340306104707 -6.4026672928650328 0 -6.4026672928650328 6.9556692054315477 0 0 0 0 -148.97785890051819 232.52654526398874 0 232.52654526398874 91.856328119320096 0 0 0 0 370.71209448607988 -289.64067120748223 0 -289.64067120748223 -171.60374092833081 0 0 0 0 179.56920504686423 -1220.1041256733588 0 -1220.1041256733588 -179.64689166672906 0 0 0 0 101.26487906638067 183.47925060492707 0 183.47925060492707 -1605.2891603799071 0 0 0 0 287.5282997751201 117.18585109159176 0 117.18585109159176 145.87004389123467 0 0 0 0 -78.988919374882244 -148.54539391052094 0 -148.54539391052094 566.37661254275008 0 0 0 0 300.07522208770388 -121.7659549543896 0 -121.7659549543896 -489.30209608350697 0 0 0 0 23.66123612201045 -182.28885598394481 0 -182.28885598394481 -195.88299214826839 0 0 0 0 239.04588604246965 -38.178652850110666 0 -38.178652850110666 -211.34800916799577 0 0 0 0 36.94668102664582 -87.936781464119122 0 -87.936781464119122 -718.15944719205436 0 0 0 0 -436.05222312884871 -357.16052599991963 0 -357.16052599991963 -592.99177134836646 0 0 0 0 -519.4780534645688 -295.91015109224463 0 -295.91015109224463 -217.67534769167833 0 0 0 0 -590.51061511162698 -587.49288070244074 0 -587.49288070244074 -348.98445060258382 0 0 0 0 -773.21854195320338 -172.59956426196732 0 -172.59956426196732 -89.298189559965977 0 0 0 0 -286.68847639851447 -564.0897826100263 0 -564.0897826100263 -478.0680063524851 0 0 0 0 19.471937339750752 -18.576856874124758 0 -18.576856874124758 18.040213667144656 0 0 0 0 -41.154933204234112 -27.21371633146191 0 -27.21371633146191 51.988565258027847 0 0 0 0 -356.10708048212109 -190.37941282303655 0 -190.37941282303655 68.623219721310306 0 0 0 0 61.624763418309158 -388.90186481598357 0 -388.90186481598357 -504.26109284017002 0 0 0 0 444.91752168897074 -67.29547894159623 0 -67.29547894159623 -238.34451759615331 0 0 0 0 -2.5099490917430529 3.4047129558922222 0 3.4047129558922222 -3.392452366981729 0 0 0 0 28.812859527800015 -36.505780365457639 0 -36.505780365457639 24.916979009754499 0 0 0 0 -131.71338704279333 -143.43909673547751 0 -143.43909673547751 15.147678896260913 0 0 0 0 82.211698245257139 -126.54812741945352 0 -126.54812741945352 -17.808895369562379 0 0 0 0 -51.725482154815836 -65.045370341649686 0 -65.045370341649686 16.491586092641228 0 0 0 0 -32.057622940628789 -61.688833693042397 0 -61.688833693042397 -73.71330033767299 0 0 0 0 -73.012894625222543 -264.93656104114052 0 -264.93656104114052 -168.30594840248523 0 0 0 0 547.71517194944317 27.565508262036019 0 27.565508262036019 54.887466154163121 0 0 0 0 -347.11362949173781 -999.84224967366026 0 -999.84224967366026 680.36754951030161 0 0 0 0 -1092.9569670374622 -157.7470560800939 0 -157.7470560800939 -166.85270823539031 0 0 0 0 7.7845282524688741 -7.1409659295028121 0 -7.1409659295028121 -17.485467492228963 0 0 0 0 -1244.7733365395834 -610.79265738496179 0 -610.79265738496179 137.4182300711509 0 0 0 0 -2156.4262765878339 -775.38181753508252 0 -775.38181753508252 -30.183182251115795 0 0 0 0 -464.80337483098265 -617.20168993499829 0 -617.20168993499829 -438.69962897025107 0 0 0 0 -344.11301852059114 -285.0774550760616 0 -285.0774550760616 -19.037809871719219 0 0 0 0 -620.65118797575997 -103.84622527276952 0 -103.84622527276952 -274.61194476864512 0 0 0 0 -115.07449939291109 -192.86835597893514 0 -192.86835597893514 -334.05812138333204 0 0 0 0 -235.35909351732334 -286.17893699309934 0 -286.17893699309934 -61.590593743574573 0 0 0 0 -264.67118057954576 -382.64986905192563 0 -382.64986905192563 -243.20064707889105 0 0 0 0 -842.13977791328216 -315.25769860884611 0 -315.25769860884611 -237.47119444450072 0 0 0 0 -866.47678657685174 -705.73916121570801 0 -705.73916121570801 -705.70402212186309 0 0 0 0 -546.90106276894221 -321.85943694640082 0 -321.85943694640082 -185.45090798061574 0 0 0 0 -523.10408367704076 -314.7973974783381 0 -314.7973974783381 -256.77962833768106 0 0 0 0 -462.76623746224504 -137.2179659069152 0 -137.2179659069152 -144.2566743751886 0 0 0 0 -95.650189106439939 -194.0576156296811 0 -194.0576156296811 -255.43316390934342 0 0 0 0 -333.42117895264528 -220.01622334607237 0 -220.01622334607237 -233.28914816315955 0 0 0 0 -371.93090194576507 -290.18138253643519 0 -290.18138253643519 -221.21035121886234 0 0 0 0 -311.20021801328403 -323.13233200177638 0 -323.13233200177638 -302.68637015753484 0 0 0 0 -334.32520099690009 -284.81622409317788 0 -284.81622409317788 -222.71565137317521 0 0 0 0 -143.19529823059565 -245.30100226293871 0 -245.30100226293871 -278.31343579530949 0 0 0 0 -199.01219634286826 -341.72589221315866 0 -341.72589221315866 -308.46607992070494 0 0 0 0 -335.18055619462393 -369.13221657105896 0 -369.13221657105896 -296.6942480247526 0 0 0 0 -500.46959302309551 -383.05771047472808 0 -383.05771047472808 -235.66140789444762 0 0 0 0 -571.15415790998668 -294.89793674937391 0 -294.89793674937391 -140.57919611790567 0 0 0 0 -333.70157498499611 -385.38495276676258 0 -385.38495276676258 -261.43380814148259 0 0 0 0 -484.25083695404464 -227.91134498272004 0 -227.91134498272004 -176.16240565198314 0 0 0 0 -558.47460965721984 -288.73976185423453 0 -288.73976185423453 -143.17430504580261 0 0 0 0 -532.72947394657967 -57.062503253844625 0 -57.062503253844625 -13.879923934160615 0 0 0 0 -620.11392628143949 -201.94825891353685 0 -201.94825891353685 -245.4354088629043 0 0 0 0 2.5522307624215443 5.3228968941191965 0 5.3228968941191965 -8.6597558173707512 0 0 0 0 -275.01477850138326 -103.73040832477636 0 -103.73040832477636 -393.28061774816888 0 0 0 0 -15.139501913875378 -7.9738015613366713 0 -7.9738015613366713 -16.185835595668664 0 0 0 0 -216.63753652955347 -99.660998266746901 0 -99.660998266746901 37.827506522779004 0 0 0 0 -1183.7218041834567 -337.20036245475421 0 -337.20036245475421 -39.110111840323952 0 0 0 0 -775.10990352154477 -337.33705638838001 0 -337.33705638838001 -174.8028324345687 0 0 0 0 -902.70520535271498 -166.88553614485863 0 -166.88553614485863 55.075372532737674 0 0 0 0 -673.0294034172839 -376.31360754699926 0 -376.31360754699926 -169.29863883520011 0 0 0 0 -903.75095207479171 -476.95980595833316 0 -476.95980595833316 -321.6230449173745 0 0 0 0 -782.17450902878772 -229.34429437927611 0 -229.34429437927611 -408.69555208367092 0 0 0 0 -743.7237351830845 -359.54903195846236 0 -359.54903195846236 -426.63199505770172 0 0 0 0 -2505.4400262800918 -1691.5200805294044 0 -1691.5200805294044 -1079.2805871142191 0 0 0 0 2301.0241866874312 -1385.5816927925753 0 -1385.5816927925753 -581.71770826418651 0 0 0 0 -19.898837698492791 -14.133453335894231 0 -14.133453335894231 11.265117881863659 0 0 0 0 374.57619689009152 -393.98167733191804 0 -393.98167733191804 1255.7021809151411 0 0 0 0 -49.660322902199709 -69.230898964854077 0 -69.230898964854077 -49.765638212668108 0 0 0 0 -3.6555447866768986 -7.5148103802537349 0 -7.5148103802537349 -4.7924649459320676 0 0 0 0 -928.78739959083032 -759.62389800400706 0 -759.62389800400706 -176.15174063688755 0 0 0 0 -2777.2163851398145 -923.65826787781225 0 -923.65826787781225 519.73564520580112 0 0 0 0 -3056.7422137439426 -1766.6269465559017 0 -1766.6269465559017 -464.23499742796412 0 0 0 0 -1962.7459233937261 -454.02702911455708 0 -454.02702911455708 512.75595695074298 0 0 0 0 -47.364467714199122 -68.195893243755449 0 -68.195893243755449 -49.575885503582299 0 0 0 0 856.87477467156714 585.68576991121517 0 585.68576991121517 373.41695892831194 0 0 0 0 709.45860020589316 126.54995639322442 0 126.54995639322442 497.30770679049601 0 0 0 0 -943.93916242333944 -328.24598077782139 0 -328.24598077782139 -144.82193055230891 0 0 0 0 -590.5192230361281 -525.64995023772644 0 -525.64995023772644 -125.06565824030258 0 0 0 0 -283.25094032788184 -491.88940988092509 0 -491.88940988092509 -215.17385857048794 0 0 0 0 123.24699985326151 -339.08731154905036 0 -339.08731154905036 -144.00049266399583 0 0 0 0 -191.56737667840207 -484.4636310160713 0 -484.4636310160713 -128.53016828696127 0 0 0 0 186.0575663196214 -231.62401108330232 0 -231.62401108330232 -149.63781349663623 0 0 0 0 271.51207361173874 -95.881145170216769 0 -95.881145170216769 -2.7826869590498973 0 0 0 0 200.19295994438289 26.067220531273051 0 26.067220531273051 155.57613819287508 0 0 0 0 -42.805244889052119 -282.30506087389949 0 -282.30506087389949 -106.78957592826919 0 0 0 0 60.120247447979636 -357.84784601521096 0 -357.84784601521096 -235.5763086383522 0 0 0 0 -117.71619918313809 -481.63434041888104 0 -481.63434041888104 -191.88242836033169 0 0 0 0 -247.34508520667441 -418.28227532564779 0 -418.28227532564779 -208.98748094341136 0 0 0 0 -303.17522710467165 -473.0769080907703 0 -473.0769080907703 -240.67152179667028 0 0 0 0 -140.72400716194534 -474.46243323920862 0 -474.46243323920862 -273.64732052091858 0 0 0 0 -117.20995901810966 -310.15064639259253 0 -310.15064639259253 -210.43466011044802 0 0 0 0 -86.760983783140546 -411.53049328731868 0 -411.53049328731868 -293.45354235811101 0 0 0 0 -161.90910904860357 -400.19818876904901 0 -400.19818876904901 -220.17450292795547 0 0 0 0 -181.34436646608174 -412.12896299288923 0 -412.12896299288923 -316.94769330804411 0 0 0 0 -196.56090501215658 -369.09796713411197 0 -369.09796713411197 -292.03828340387554 0 0 0 0 -553.18618406628957 -422.58999429842515 0 -422.58999429842515 -231.2616540328454 0 0 0 0 -551.98325247457251 -426.72828248223232 0 -426.72828248223232 -276.57752938987687 0 0 0 0 -793.87801652724738 -364.2520415984327 0 -364.2520415984327 -229.19754459640535 0 0 0 0 -580.26389201005804 -398.63275598321343 0 -398.63275598321343 -241.59608506653603 0 0 0 0 -317.12438498312258 -438.18232781292318 0 -438.18232781292318 -289.25354737931048 0 0 0 0 -605.86787147697396 -517.77623762175972 0 -517.77623762175972 -194.67173681798158 0 0 0 0 -413.76161091495305 -141.98201742672973 0 -141.98201742672973 -110.98650523538527 0 0 0 0 -375.30469682495459 -76.047976826666854 0 -76.047976826666854 -158.22051104795901 0 0 0 0 -451.58165636201738 -280.83716791879851 0 -280.83716791879851 -175.29806244478095 0 0 0 0 -191.27620934369043 -341.94726580471615 0 -341.94726580471615 -288.59636586486113 0 0 0 0 -203.14730104786577 -305.00950110012491 0 -305.00950110012491 -177.60315097350394 0 0 0 0 -79.479055802628864 -315.24722252770152 0 -315.24722252770152 -289.61695158959355 0 0 0 0 -169.44222903827904 -178.65933564506122 0 -178.65933564506122 -139.16312950214342 0 0 0 0 -128.57831543816428 -123.34625481210242 0 -123.34625481210242 2.3040400471945759 0 0 0 0 -50.207845889177406 -189.95336899122049 0 -189.95336899122049 -107.12161866876704 0 0 0 0 -109.58053760201437 -242.98710536088038 0 -242.98710536088038 -18.604014958415064 0 0 0 0 -14.01597756575211 -341.70292886787502 0 -341.70292886787502 -216.97722222248558 0 0 0 0 -53.666887964180205 -7.795847011366277 0 -7.795847011366277 422.93553456490918 0 0 0 0 1.2325443690060638 -92.539335108998785 0 -92.539335108998785 68.114641795837088 0 0 0 0 -28.577958511625184 -161.23134717337962 0 -161.23134717337962 125.39920291997259 0 0 0 0 -125.85832555859815 -219.76274208587711 0 -219.76274208587711 222.43080233081128 0 0 0 0 -128.54903789790114 -225.9634766526724 0 -225.9634766526724 73.553965160943335 0 0 0 0 -138.28329246887733 -150.79381537640802 0 -150.79381537640802 193.08538353870972 0 0 0 0 -104.4335543057532 -317.31021465397498 0 -317.31021465397498 307.61437302903505 0 0 0 0 -223.93862188355706 -136.43926012599695 0 -136.43926012599695 162.62133573301253 0 0 0 0 -234.54749138318584 -222.23181670349732 0 -222.23181670349732 -77.374640101828845 0 0 0 0 -296.9440839279705 -40.114703951625415 0 -40.114703951625415 -22.282218205844401 0 0 0 0 -351.83299062671722 -38.076063417611294 0 -38.076063417611294 111.58554069069214 0 0 0 0 -183.23706054751528 -136.06220406920329 0 -136.06220406920329 -6.7923824701229023 0 0 0 0 -607.10212163123651 26.948300717558595 0 26.948300717558595 66.597409473673906 0 0 0 0 0.74398300755902369 3.1236980197471098 0 3.1236980197471098 31.918770706251507 0 0 0 0 329.66683076438494 -249.8299739992035 0 -249.8299739992035 18.032606020264211 0 0 0 0 -306.64764254667898 114.22846998914065 0 114.22846998914065 -17.99525221742806 0 0 0 0 1.3790115639758795 2.457271749267619 0 2.457271749267619 -2.5765164061066343 0 0 0 0 348.21028829373245 -356.60117124980025 0 -356.60117124980025 74.620876306507853 0 0 0 0 -352.02273862640141 104.3562957484537 0 104.3562957484537 175.61242798615604 0 0 0 0 171.12728750399401 -247.68418988384292 0 -247.68418988384292 157.81840595410904 0 0 0 0 48.600098156442982 -96.220389092835831 0 -96.220389092835831 272.18866916439583 0 0 0 0 992.93693781403999 -741.36880509022376 0 -741.36880509022376 253.74911918131693 0 0 0 0 -0.094953976405562912 1.0719848729038119 0 1.0719848729038119 10.497679169854223 0 0 0 0 46.667166367158643 -129.61018903876538 0 -129.61018903876538 433.71638777345652 0 0 0 0 320.83313688635826 -149.6914711628051 0 -149.6914711628051 280.84686526740552 0 0 0 0 -1218.7013893227268 -645.74683952709893 0 -645.74683952709893 -150.08179833419672 0 0 0 0 -81.320273994104355 121.84304118070577 0 121.84304118070577 -18.892530706027173 0 0 0 0 -660.01986726108589 -927.20436639043328 0 -927.20436639043328 735.37182324718742 0 0 0 0 -680.19071998965228 -1425.4170289668182 0 -1425.4170289668182 -2170.4730924399919 0 0 0 0 -767.16977098793723 181.39246562492917 0 181.39246562492917 -362.07226721241022 0 0 0 0 833.82512791155023 -1341.1069383105496 0 -1341.1069383105496 -1335.2629095907905 0 0 0 0 -825.96954290462782 -1798.8151163147436 0 -1798.8151163147436 -313.18463098292705 0 0 0 0 -331.80520637067514 -671.10397876206252 0 -671.10397876206252 -405.44422200978443 0 0 0 0 -330.31390097178519 -974.67904073848331 0 -974.67904073848331 407.34984420509136 0 0 0 0 -765.02352296229219 -133.04894823361974 0 -133.04894823361974 -128.79981343014515 0 0 0 0 -1459.712155685389 -453.35931091724706 0 -453.35931091724706 185.95849813710083 0 0 0 0 -422.99535046253004 -452.82914283780337 0 -452.82914283780337 -290.87147578557779 0 0 0 0 -177.75697855267208 -356.80223017897515 0 -356.80223017897515 -336.40926729334751 0 0 0 0 -175.38739678534057 -332.34164268949735 0 -332.34164268949735 -323.20090557311778 0 0 0 0 -197.51583139420836 -357.55262002362724 0 -357.55262002362724 -315.30367483364535 0 0 0 0 -176.09504631781601 -363.55303354280477 0 -363.55303354280477 -314.45660481612504 0 0 0 0 -197.28016860134812 -349.93556929075476 0 -349.93556929075476 -337.89263179939007 0 0 0 0 -134.69464221914313 -334.1444831882045 0 -334.1444831882045 -361.50304573774338 0 0 0 0 -155.24215491121868 -345.9509498761181 0 -345.9509498761181 -343.88759025451145 0 0 0 0 -91.658646789350314 -499.76431617075286 0 -499.76431617075286 -284.22298804673119 0 0 0 0 203.99391011806438 -559.68960027073626 0 -559.68960027073626 -458.17337217673776 0 0 0 0 136.19206036924152 -217.22563604153402 0 -217.22563604153402 -312.61713242634141 0 0 0 0 -102.6724510539434 -279.3237430234517 0 -279.3237430234517 -223.5894483680604 0 0 0 0 268.43034541612724 -155.50669734331314 0 -155.50669734331314 -220.19733118399745 0 0 0 0 1521.4270496364043 176.24218079714774 0 176.24218079714774 -139.11187405645614 0 0 0 0 624.36852777574677 -360.3133990472852 0 -360.3133990472852 -424.9947263157519 0 0 0 0 501.71809423694503 -449.2368862489966 0 -449.2368862489966 -342.7057313095429 0 0 0 0 610.46069388328056 -327.35891946432241 0 -327.35891946432241 164.09598656206799 0 0 0 0 638.72727890357783 -67.886225469530473 0 -67.886225469530473 234.71226385483169 0 0 0 0 216.37602976782364 -369.39401837618061 0 -369.39401837618061 -134.20127272591708 0 0 0 0 -69.998336193624709 -89.040187760827394 0 -89.040187760827394 -155.95518076253938 0 0 0 0 712.57844154451595 -124.9775119652877 0 -124.9775119652877 -197.67935660017247 0 0 0 0 613.35415963729611 -444.54583345023275 0 -444.54583345023275 -183.30106246500509 0 0 0 0 327.80825594139606 -402.2059399246491 0 -402.2059399246491 -14.944699025596492 0 0 0 0 337.13267892916338 -312.37654865993682 0 -312.37654865993682 -419.77245819804375 0 0 0 0 893.06611869840708 -365.76499183056876 0 -365.76499183056876 -108.04924685594597 0 0 0 0 305.95004878204782 -248.29669481871679 0 -248.29669481871679 69.038051138093579 0 0 0 0 410.23266213595343 -266.89214066554268 0 -266.89214066554268 -128.98700637876755 0 0 0 0 572.31344674550928 -785.12568231957266 0 -785.12568231957266 -219.15210795457824 0 0 0 0 257.85305655706907 -612.78134065147606 0 -612.78134065147606 -208.31909329302289 0 0 0 0 -974.22330554272048 -1412.9998402350975 0 -1412.9998402350975 -2148.48623470436 0 0 0 0 -419.6329221814085 -197.01003884545571 0 -197.01003884545571 -792.32576713526214 0 0 0 0 -2679.5225890808215 -932.84854344559062 0 -932.84854344559062 105.24585183548334 0 0 0 0 704.50329001281352 95.36755418957182 0 95.36755418957182 -268.17251039703842 0 0 0 0 7.050416175028559 -9.1170960456462922 0 -9.1170960456462922 -108.34006919776132 0 0 0 0 334.95929542447266 -43.841814048124434 0 -43.841814048124434 -14.526044604514027 0 0 0 0 5.8421807407104609 -10.812922151480109 0 -10.812922151480109 -66.616976334786557 0 0 0 0 1181.4708119653515 97.093383959916537 0 97.093383959916537 -80.672802696999497 0 0 0 0 -2390.6262879703863 -1185.2858096310265 0 -1185.2858096310265 -90.205117712444917 0 0 0 0 -2209.7840128250209 -796.27357196225284 0 -796.27357196225284 -614.78676992167311 0 0 0 0 -2184.4520255704119 -1214.442300285089 0 -1214.442300285089 -340.6434625076763 0 0 0 0 2.4155770079957506 -2.7367171411444247 0 -2.7367171411444247 -4.2417599382972355 0 0 0 0 -1619.4216554838408 -319.24743421845176 0 -319.24743421845176 1036.023948832837 0 0 0 0 -1643.1529027245185 -1265.7084807326728 0 -1265.7084807326728 -548.20052966475487 0 0 0 0 -2116.4669679611106 34.478118971746881 0 34.478118971746881 -290.46714049760703 0 0 0 0 0.59165099423859147 -3.9541708324802869 0 -3.9541708324802869 -20.659085168270053 0 0 0 0 -4263.4838234221534 -1881.2009730311747 0 -1881.2009730311747 -70.208261512278114 0 0 0 0 2653.8732507384702 -228.91908697176041 0 -228.91908697176041 -877.82014981959219 0 0 0 0 -1117.1052476700133 -994.76293721353431 0 -994.76293721353431 7.1594306111219339 0 0 0 0 1.3169076976846554 370.43962073076545 0 370.43962073076545 -357.61071874280606 0 0 0 0 -473.75747623729694 -197.61990903496189 0 -197.61990903496189 3.1366762046236545 0 0 0 0 -19.264291987623437 -124.06599207497493 0 -124.06599207497493 -31.438257191897719 0 0 0 0 -44.11138744523123 -270.43485835396086 0 -270.43485835396086 -571.42405453158426 0 0 0 0 -55.484931423416128 -87.196509535941004 0 -87.196509535941004 -68.431417393127049 0 0 0 0 -3.0037883742780878 -15.900850438847598 0 -15.900850438847598 -13.276239914827372 0 0 0 0 -5.443430868321272 -15.91526050726165 0 -15.91526050726165 -5.3444411088577226 0 0 0 0 813.91417088039452 -671.00561957227183 0 -671.00561957227183 -592.70657908048452 0 0 0 0 335.41553337938967 -758.70003697219363 0 -758.70003697219363 907.83390379666525 0 0 0 0 450.93297982504009 -373.99610862210102 0 -373.99610862210102 672.85292755309638 0 0 0 0 451.89132820320083 -776.96191242229179 0 -776.96191242229179 507.35802653852443 0 0 0 0 346.17185603977487 -400.56075924141442 0 -400.56075924141442 539.46889498368546 0 0 0 0 512.93596941494616 -352.04359936204855 0 -352.04359936204855 133.12309468214517 0 0 0 0 423.97606601654115 -864.27303999640026 0 -864.27303999640026 -458.71995402791072 0 0 0 0 403.76727159920847 -508.48393952315382 0 -508.48393952315382 -674.6992781895533 0 0 0 0 -2.7127662020323839 -12.11719706872114 0 -12.11719706872114 -13.866691151565362 0 0 0 0 777.8794930462318 -1080.8505779456536 0 -1080.8505779456536 -1402.0894341192761 0 0 0 0 1032.603544841666 -486.50204524628134 0 -486.50204524628134 -591.7968275420717 0 0 0 0 80.294845586991869 -281.89232684377203 0 -281.89232684377203 -702.2823222371735 0 0 0 0 -297.85459735235781 -885.33805984659557 0 -885.33805984659557 -481.35558580894576 0 0 0 0 103.90149032084446 -664.40903221160261 0 -664.40903221160261 394.09399411278719 0 0 0 0 347.24578096871846 -558.79703507851809 0 -558.79703507851809 -343.79825723100657 0 0 0 0 0.053795527506736107 -775.60417302164933 0 -775.60417302164933 -153.88554936701621 0 0 0 0 -271.06444207850291 -571.07554708335738 0 -571.07554708335738 720.29805519965885 0 0 0 0 -0.058214773598592728 -761.38939311898866 0 -761.38939311898866 1542.5556416687105 0 0 0 0 316.46192744925793 -397.1685612453075 0 -397.1685612453075 762.40068561613407 0 0 0 0 -7.281809665213359 -10.649607991991886 0 -10.649607991991886 -5.8193913067421903 0 0 0 0 86.924445912969531 -920.08504578907377 0 -920.08504578907377 1425.344339655654 0 0 0 0 165.62856397836003 -628.3098316027681 0 -628.3098316027681 -113.01138791402627 0 0 0 0 -3.9988799793774774 -3.3918293109034394 0 -3.3918293109034394 -1.4345518146119929 0 0 0 0 183.73176841602253 -355.99556987786491 0 -355.99556987786491 -1950.1286932117437 0 0 0 0 -42.280797709419858 -288.72587731484964 0 -288.72587731484964 -39.412315916582884 0 0 0 0 -94.305385637635482 333.68639777640055 0 333.68639777640055 1987.729058277866 0 0 0 0 1.3043369175090151 -1351.3622373447072 0 -1351.3622373447072 -47.059083208965603 0 0 0 0 6.3946413428195683 -5.5953837317268267 0 -5.5953837317268267 6.3735191733714487 0 0 0 0 -451.4959067779273 -423.15233897110011 0 -423.15233897110011 317.06609224872955 0 0 0 0 -430.71705447792192 -178.75033496637479 0 -178.75033496637479 -71.130479112121975 0 0 0 0 -2.1496464501771015 -9.0614861303259318 0 -9.0614861303259318 -9.5970076330841039 0 0 0 0 981.88109090374201 -344.83113179073916 0 -344.83113179073916 -194.91560221141845 0 0 0 0 915.42473217399674 -294.68699880702479 0 -294.68699880702479 114.13281355278741 0 0 0 0 -1.1772115460156272 -3.4226409598510088 0 -3.4226409598510088 -3.532673408344408 0 0 0 0 203.53043439483008 205.02448409662611 0 205.02448409662611 89.509150878991932 0 0 0 0 -1340.6336994284939 -67.137097454127797 0 -67.137097454127797 289.94755801619613 0 0 0 0 -143.23732857562209 215.20541069130286 0 215.20541069130286 536.64999677516607 0 0 0 0 -565.1103301564508 -530.96013063535429 0 -530.96013063535429 217.67800233794696 0 0 0 0 -18.057743656667299 -464.0639955096849 0 -464.0639955096849 89.206877109430934 0 0 0 0 -333.50794752674847 -178.5098534138815 0 -178.5098534138815 302.08022446180985 0 0 0 0 -7.7092017047980335 -149.598649015923 0 -149.598649015923 149.33017964956525 0 0 0 0 18.170665397870778 -17.995914202136703 0 -17.995914202136703 23.570439887094693 0 0 0 0 -59.965299060859252 -16.167842703638598 0 -16.167842703638598 84.126831097775721 0 0 0 0 -0.15106269216630608 -168.78623888640141 0 -168.78623888640141 -48.393536765994213 0 0 0 0 -117.34209088036732 -120.82889863484888 0 -120.82889863484888 -39.338403551548254 0 0 0 0 -0.1820595565087246 -106.16386541125051 0 -106.16386541125051 -37.667576082938467 0 0 0 0 5.0250998085102765 -39.192533716028265 0 -39.192533716028265 -82.087123346806038 0 0 0 0 -0.12454905750718126 -1.9464740118464618 0 -1.9464740118464618 -0.045907334879233375 0 0 0 0 -23.80856060309452 -21.48089375768177 0 -21.48089375768177 15.602737242016019 0 0 0 0 -52.378071902043303 -54.261504675276228 0 -54.261504675276228 -19.971490061288932 0 0 0 0 -0.035967962117865682 -28.514454892461799 0 -28.514454892461799 -62.324370037429617 0 0 0 0 -3.159835893791751 -45.561717447348201 0 -45.561717447348201 -64.866972802221426 0 0 0 0 17.971936956818354 -5.2393343988954939 0 -5.2393343988954939 -13.703074884775035 0 0 0 0 -48.455174142611213 -58.919955204197322 0 -58.919955204197322 -14.488981953065377 0 0 0 0 644.16220611234894 -322.0408343822819 0 -322.0408343822819 143.3998262682162 0 0 0 0 158.57834726963483 -726.53716776281726 0 -726.53716776281726 773.70853958491716 0 0 0 0 -35.289923668955453 -48.299732454641344 0 -48.299732454641344 -38.647471814318124 0 0 0 0 -21.878144041673067 -10.550629948349602 0 -10.550629948349602 1.1210007968141866 0 0 0 0 3.5721069300825548 -3.298934995791452 0 -3.298934995791452 -8.8182758022120211 0 0 0 0 -0.0027326676063239574 -8.7586227658757707 0 -8.7586227658757707 -10.82291317571071 0 0 0 0 -5.4876953334861582 -8.3564381467386681 0 -8.3564381467386681 -11.232243059693928 0 0 0 0 -1.6740690393111208 -7.3171306275863515 0 -7.3171306275863515 1.1767462584870998 0 0 0 0 -33.372001121082576 376.33764448564398 0 376.33764448564398 1843.5841356617202 0 0 0 0 -19.149026175837889 -9.6654064393205346 0 -9.6654064393205346 0.36868486511890808 0 0 0 0 123.78644138929667 101.41376821005542 0 101.41376821005542 783.92018966634714 0 0 0 0 -59.206632999528665 4.8585352008485643 0 4.8585352008485643 3.6242859660851536 0 0 0 0 -3.9456298413855393 -16.052130997598425 0 -16.052130997598425 8.4899840251238174 0 0 0 0 -21.16537250764668 -32.610378522167593 0 -32.610378522167593 23.529474816663424 0 0 0 0 10.498450037150178 -71.874837747653146 0 -71.874837747653146 18.143689801603614 0 0 0 0 83.05003037644201 -3.4792037997267471 0 -3.4792037997267471 -58.197294134406548 0 0 0 0 -85.472541548180743 -17.039481354266172 0 -17.039481354266172 96.212970064399997 0 0 0 0 -56.382509925111663 -13.356928194356442 0 -13.356928194356442 87.503555412346032 0 0 0 0 -6.0800515401036819 -8.1549579957650735 0 -8.1549579957650735 -6.0049511404952796 0 0 0 0 -13.526869995286688 16.027737198561226 0 16.027737198561226 62.312552334291468 0 0 0 0 -31.855646973432158 -26.173900816624155 0 -26.173900816624155 22.064496637916818 0 0 0 0 -46.237855985498754 -31.002019069430389 0 -31.002019069430389 48.488199980165518 0 0 0 0 -35.454537021403667 -4.5957924624017323 0 -4.5957924624017323 48.300690309777565 0 0 0 0 -40.113076137171049 -17.872307953407699 0 -17.872307953407699 4.0612031559147557 0 0 0 0 -30.687677141919266 -5.4555406437066267 0 -5.4555406437066267 45.152630294185656 0 0 0 0 -72.732921323447954 -64.370633148691923 0 -64.370633148691923 10.877341239684029 0 0 0 0 12.688101605802473 -25.489865980387322 0 -25.489865980387322 -1.2679308078400311 0 0 0 0 -37.519633735413663 -29.024737737036048 0 -29.024737737036048 4.8799138705398946 0 0 0 0 -20.581085788948258 -36.125652584084946 0 -36.125652584084946 -13.399612107892608 0 0 0 0 -37.063580858579371 -53.171394880107982 0 -53.171394880107982 -18.832701606023875 0 0 0 0 -20.551991488460772 -21.734905506786973 0 -21.734905506786973 4.382210983380662 0 0 0 0 -79.863508832000662 -78.033921617927263 0 -78.033921617927263 -13.18628518996411 0 0 0 0 22.302420531297855 -13.174291101429333 0 -13.174291101429333 -15.552432662092855 0 0 0 0 -12.80535074765794 -65.188965386943892 0 -65.188965386943892 -52.047504721514997 0 0 0 0 -24.658609468082432 -26.081277424324981 0 -26.081277424324981 -18.160140099484124 0 0 0 0 -93.243390755960718 -72.467383603856433 0 -72.467383603856433 -4.0469057690352201 0 0 0 0 8.4225157151268775 -26.799461246323602 0 -26.799461246323602 -0.79448604121688504 0 0 0 0 -19.104160902003059 -66.996735321161395 0 -66.996735321161395 -49.107704209469375 0 0 0 0 -56.374102979549207 -79.323972184269223 0 -79.323972184269223 -69.608996215363732 0 0 0 0 15.544501666080464 -12.463499208558687 0 -12.463499208558687 -18.424449677832172 0 0 0 0 21.12227204088822 -16.126606581812723 0 -16.126606581812723 -19.144873512611383 0 0 0 0 13.247987063186088 -32.75696545382236 0 -32.75696545382236 -41.017811193766363 0 0 0 0 -30.867057987808948 -68.144354952147751 0 -68.144354952147751 -54.985497622539697 0 0 0 0 -4.9454354532135767 -71.273234505684741 0 -71.273234505684741 -117.29450661638839 0 0 0 0 -21.2861432954669 -43.302173703494191 0 -43.302173703494191 -61.591780690396263 0 0 0 0 22.137870586833969 -3.9520659004028289 0 -3.9520659004028289 -10.633345736556734 0 0 0 0 -19.203952004376333 -65.601900592973834 0 -65.601900592973834 -71.140661311605072 0 0 0 0 -16.909325929872466 -45.314281802595133 0 -45.314281802595133 -63.337593087991991 0 0 0 0 0.0093192242493387312 -54.517467617260991 0 -54.517467617260991 -59.563551689068845 0 0 0 0 -11.022253109011217 -40.931547017175035 0 -40.931547017175035 -46.361903051780246 0 0 0 0 -0.018730660391156562 -60.214838492378476 0 -60.214838492378476 -26.186814200242225 0 0 0 0 -8.9718533588420541 -56.791107091401045 0 -56.791107091401045 -48.037108982403879 0 0 0 0 -19.421780988610408 -31.916596046343329 0 -31.916596046343329 7.5803543525762507 0 0 0 0 -9.6664841211604653 -40.025012651853103 0 -40.025012651853103 -28.397193918244739 0 0 0 0 2.9582985572263851 -0.40943244000266077 0 -0.40943244000266077 -9.6921225584146242 0 0 0 0 0.34435382623479721 -326.66083213839863 0 -326.66083213839863 -2091.6807973061077 0 0 0 0 -496.405202398033 -255.25537406577496 0 -255.25537406577496 -157.51046523474724 0 0 0 0 -6.1840816347956888 -4.5594350497764395 0 -4.5594350497764395 -9.9167708735515134 0 0 0 0 24.426192746585002 177.13801179911025 0 177.13801179911025 -2631.6685210208598 0 0 0 0 284.5208745047712 -519.20899798980827 0 -519.20899798980827 -1094.9355629505153 0 0 0 0 -108.90352512475511 -1192.928682523323 0 -1192.928682523323 -1908.4259943416837 0 0 0 0 -682.49767019640421 -551.83048731919553 0 -551.83048731919553 -797.30185863591032 0 0 0 0 -0.30097333583221114 -322.7705802525017 0 -322.7705802525017 -2093.0902921255765 0 0 0 0 -43.970767256672843 -1212.6503336521382 0 -1212.6503336521382 -1312.5223499493477 0 0 0 0 283.76335090154316 -943.56767366669737 0 -943.56767366669737 -1206.6590957883527 0 0 0 0 297.89637568657054 -702.48254025852293 0 -702.48254025852293 -1524.284803615461 0 0 0 0 149.7909455934132 -284.02518686144685 0 -284.02518686144685 -1066.6579940800657 0 0 0 0 5.20715312367156 11.870538003338538 0 11.870538003338538 -19.475397592132168 0 0 0 0 -7.7001106722891564 -12.027752043375585 0 -12.027752043375585 -109.80896217093687 0 0 0 0 -18.841766080782691 -27.76363374893117 0 -27.76363374893117 -69.404088924115058 0 0 0 0 -10.964903864020016 -50.373236203988199 0 -50.373236203988199 -45.553252622339642 0 0 0 0 -6.3808828483452089 -50.549223548106966 0 -50.549223548106966 -59.649387370678596 0 0 0 0 -13.428050211718073 -31.616647044116689 0 -31.616647044116689 -82.517609030997846 0 0 0 0 -0.77225013781571761 -41.740967552133952 0 -41.740967552133952 -101.0428258329157 0 0 0 0 -19.629155810257885 -29.97579867315649 0 -29.97579867315649 -43.627199918635256 0 0 0 0 -24.421513139939634 -41.439455472296686 0 -41.439455472296686 -25.836966475166264 0 0 0 0 -9.4653100421055569 -51.440551852154385 0 -51.440551852154385 -56.780269983595645 0 0 0 0 3.4725359906765334 -53.089046763262331 0 -53.089046763262331 -62.031786836276297 0 0 0 0 2.9438857666682452 -68.520786460096133 0 -68.520786460096133 -50.750851324173709 0 0 0 0 -19.52574015877218 -40.123898117300826 0 -40.123898117300826 -42.886418734774509 0 0 0 0 1.696862185109751 -31.428430322094329 0 -31.428430322094329 -16.518944039139797 0 0 0 0 20.349466953386639 -23.169673585210035 0 -23.169673585210035 -40.960534990392915 0 0 0 0 -45.074563699075952 -64.750488090299768 0 -64.750488090299768 -67.226098446873948 0 0 0 0 29.18634108182448 -44.109002852587807 0 -44.109002852587807 -36.475850394722656 0 0 0 0 21.992596326640751 -38.082643690901051 0 -38.082643690901051 -28.615428208866007 0 0 0 0 22.59299312903353 -33.20465547749248 0 -33.20465547749248 -30.818668845227734 0 0 0 0 46.839497068169294 -24.552672016783617 0 -24.552672016783617 -50.472305980052624 0 0 0 0 46.014809035681537 -44.383434908831987 0 -44.383434908831987 -54.446978157779085 0 0 0 0 -34.148465192003641 -93.966299138875911 0 -93.966299138875911 -50.61167143543571 0 0 0 0 847.7857775130833 -523.14131979897138 0 -523.14131979897138 -543.19304066527184 0 0 0 0 9.5949905650350047 -40.451755578319109 0 -40.451755578319109 -60.385777250026678 0 0 0 0 -341.24496371306304 -4.8015051497059176 0 -4.8015051497059176 177.94491891410144 0 0 0 0 -524.44951804658922 -674.83866940222833 0 -674.83866940222833 714.35673728546681 0 0 0 0 -13.658263156350884 -24.608982060456356 0 -24.608982060456356 155.78427007977052 0 0 0 0 -2236.9613702825154 -173.37847491096181 0 -173.37847491096181 892.60528234925005 0 0 0 0 -5.9372348978608329 5.3793688626481071 0 5.3793688626481071 30.483213850909578 0 0 0 0 -1296.203012743732 -1246.3218891439465 0 -1246.3218891439465 -1304.1414085603756 0 0 0 0 9.8256403718746697 -30.225747396828439 0 -30.225747396828439 -16.828818541478881 0 0 0 0 -70.915638349135406 -65.234471747520729 0 -65.234471747520729 -37.806685620731514 0 0 0 0 7.5166702085317638 -30.356050997698532 0 -30.356050997698532 15.491662074323585 0 0 0 0 246.78795247570088 1060.7143322592892 0 1060.7143322592892 -256.34151871266658 0 0 0 0 42.926137660316641 -27.439068555793824 0 -27.439068555793824 -20.773946060208289 0 0 0 0 638.53258691710653 -202.22084960786742 0 -202.22084960786742 -796.47506960801547 0 0 0 0 -445.85397805774119 368.51906830890221 0 368.51906830890221 -821.69103861314215 0 0 0 0 -907.36315826934879 -1120.7001502404746 0 -1120.7001502404746 -1476.7714546917123 0 0 0 0 19.331856770821986 -13.382904106664881 0 -13.382904106664881 -110.62763458482431 0 0 0 0 2.941375195117871 -279.02661624894063 0 -279.02661624894063 -192.00166739549604 0 0 0 0 -4.0162315267662052 -31.425120849409723 0 -31.425120849409723 -90.921814474218991 0 0 0 0 -2.8272553936694749 -31.934365746466938 0 -31.934365746466938 -91.61498885187757 0 0 0 0 -0.024680714210262522 -50.761664634868794 0 -50.761664634868794 -111.74891940594534 0 0 0 0 -15.564178085332969 -31.548456041033205 0 -31.548456041033205 -122.62379596041501 0 0 0 0 9.7308131059875791 -4.5352906235666808 0 -4.5352906235666808 -97.629490038633719 0 0 0 0 -1.6066674956792326 8.5132787392851696 0 8.5132787392851696 -30.379883772089656 0 0 0 0 226.37788267631549 28.14318275100959 0 28.14318275100959 -304.76675459830221 0 0 0 0 542.98317962800502 -76.921318708569743 0 -76.921318708569743 -434.36453189284657 0 0 0 0 6.5521001810164421 -1.2711511382381673 0 -1.2711511382381673 -6.0450399413704758 0 0 0 0 -640.3574861450179 -723.96390570494259 0 -723.96390570494259 -405.76075930570369 0 0 0 0 1003.621065613901 441.60309950202645 0 441.60309950202645 52.569555199297611 0 0 0 0 710.64987192002445 29.860010270891507 0 29.860010270891507 -184.35900208324892 0 0 0 0 116.49588966880401 -367.25802090757497 0 -367.25802090757497 -38.014308730664197 0 0 0 0 -1.6357719416995451 -8.3109731388220212 0 -8.3109731388220212 -24.531830994021277 0 0 0 0 92.295724517782219 -99.503028830862604 0 -99.503028830862604 -630.78906270247535 0 0 0 0 159.38333874155069 247.90244034594798 0 247.90244034594798 -71.779080970940413 0 0 0 0 -1154.6211454567238 -482.0127038449973 0 -482.0127038449973 -8.1231990346786915 0 0 0 0 1226.2880351825588 807.91379457126459 0 807.91379457126459 156.40729735716013 0 0 0 0 1197.3749324786359 -665.58846846800861 0 -665.58846846800861 -353.5103523771686 0 0 0 0 283.15388754702872 -307.86444585109712 0 -307.86444585109712 -297.50737606627808 0 0 0 0 8.7909643208404304 -5.0170241821347759 0 -5.0170241821347759 3.1465378770506902 0 0 0 0 779.51559751474997 1210.3430641372615 0 1210.3430641372615 899.60032105798018 0 0 0 0 -350.3552370723919 -868.02206835662946 0 -868.02206835662946 -195.78997064050418 0 0 0 0 -490.55184747331077 -209.17428873866447 0 -209.17428873866447 -219.42400160679244 0 0 0 0 -309.96439614775591 -348.67680713403388 0 -348.67680713403388 -121.22631327991803 0 0 0 0 233.17574721869096 -115.78221068156927 0 -115.78221068156927 -370.25809540937189 0 0 0 0 -337.25376916040841 -436.16260957012491 0 -436.16260957012491 -638.22905937788892 0 0 0 0 -459.04231753235217 -156.43249736384314 0 -156.43249736384314 -240.58013525586284 0 0 0 0 362.99509825091809 -48.816239622043213 0 -48.816239622043213 865.22476770289995 0 0 0 0 839.20572882218403 -20.030648750420369 0 -20.030648750420369 -298.05376746621914 0 0 0 0 524.15550337778404 129.57023364055203 0 129.57023364055203 -274.28603275719797 0 0 0 0 -63.468525597767439 -358.64669578553003 0 -358.64669578553003 -733.86162862920901 0 0 0 0 631.32655564715969 826.76324043245404 0 826.76324043245404 542.74096412578365 0 0 0 0 22.929862760567289 -20.807640416125764 0 -20.807640416125764 8.7201723862094696 0 0 0 0 -158.32285949232755 -161.43519850043231 0 -161.43519850043231 797.86853663162037 0 0 0 0 63.806574057380203 -573.43152167726657 0 -573.43152167726657 446.18380026119121 0 0 0 0 -163.68425690790173 -448.87072793621337 0 -448.87072793621337 -232.51801956570125 0 0 0 0 112.83559045664151 7.9005998961947626 0 7.9005998961947626 73.912978496722644 0 0 0 0 -57.861135901592206 -615.3210805915005 0 -615.3210805915005 -575.57184516402776 0 0 0 0 -196.02066587947775 -971.23036214784952 0 -971.23036214784952 -838.64936982476502 0 0 0 0 -354.02194185409462 -1215.2852887326153 0 -1215.2852887326153 -982.96331348047534 0 0 0 0 -386.5117814947298 -1396.7833593800824 0 -1396.7833593800824 -1294.1453854680294 0 0 0 0 63.316161958849989 -898.60632930341671 0 -898.60632930341671 -1516.578141438833 0 0 0 0 48.42745865881443 -826.15642798243789 0 -826.15642798243789 -1015.1592393542523 0 0 0 0 -130.55793227627873 -798.19038167907274 0 -798.19038167907274 -709.17202770337462 0 0 0 0 251.31629776532645 -480.46551233377249 0 -480.46551233377249 -554.22490995004773 0 0 0 0 280.64361258700956 -401.49960504329647 0 -401.49960504329647 -893.43501648848178 0 0 0 0 122.52166424371535 -261.01929904436111 0 -261.01929904436111 -540.81454909173772 0 0 0 0 120.01608263423304 -552.15145681472268 0 -552.15145681472268 -1129.7424934159499 0 0 0 0 503.97744973524823 237.56033437170845 0 237.56033437170845 -330.06126958184177 0 0 0 0 78.419997785473242 -361.71803671197267 0 -361.71803671197267 -266.15655706258258 0 0 0 0 -563.12258652345918 -969.01688197114709 0 -969.01688197114709 -739.92226816285984 0 0 0 0 -155.98115219478495 -359.11236218229169 0 -359.11236218229169 -596.35666378644237 0 0 0 0 119.41150179249234 -258.28247085504699 0 -258.28247085504699 -874.10437740699854 0 0 0 0 57.211142496496905 -34.792799991293577 0 -34.792799991293577 -624.28502384963213 0 0 0 0 -151.79395075142384 -646.58032797600026 0 -646.58032797600026 -1102.2850094433816 0 0 0 0 -681.58336816681549 -431.069415203674 0 -431.069415203674 -1139.4535874558496 0 0 0 0 -679.53438081332024 -709.82487894584278 0 -709.82487894584278 -1148.849720361759 0 0 0 0 -80.354421832947992 -1099.0508105458575 0 -1099.0508105458575 -2099.8053612362128 0 0 0 0 -1566.178142040153 -318.15356172627071 0 -318.15356172627071 -1298.2946140386048 0 0 0 0 -556.73768301005475 -371.55334828002378 0 -371.55334828002378 -2103.7963688430318 0 0 0 0 -203.3931158039486 -831.74617695505731 0 -831.74617695505731 -1541.1537014936912 0 0 0 0 -184.398409200483 -639.0230784243613 0 -639.0230784243613 -1020.6922378325544 0 0 0 0 -51.064637798531749 -74.421010586380049 0 -74.421010586380049 58.068268344622872 0 0 0 0 -533.01580983944586 -1732.5808943412485 0 -1732.5808943412485 -1543.3532104430196 0 0 0 0 -274.18346007491346 420.16254923554516 0 420.16254923554516 -142.31976408035098 0 0 0 0 -4.5708329582989791 1.6325388115200212 0 1.6325388115200212 3.751794636821046 0 0 0 0 -1292.6662617261754 -1413.4945288678864 0 -1413.4945288678864 -588.96664960679482 0 0 0 0 -78.239858362125233 -1095.8803922071238 0 -1095.8803922071238 -343.33118192042457 0 0 0 0 -49.478469775058329 -509.14835018324084 0 -509.14835018324084 -1032.6277087591588 0 0 0 0 -30.97850755349549 -64.701485483823376 0 -64.701485483823376 78.896875210329441 0 0 0 0 411.39779966586502 -705.13115562443272 0 -705.13115562443272 -410.59869462705683 0 0 0 0 142.51545812253607 -418.67395264473453 0 -418.67395264473453 -706.61976747063454 0 0 0 0 145.25442133536853 -655.39270070394195 0 -655.39270070394195 -533.9683632797678 0 0 0 0 79.327819223282859 -770.40381190695916 0 -770.40381190695916 -852.41097473200352 0 0 0 0 -160.9790303017071 -801.86696121917339 0 -801.86696121917339 -691.23004664026666 0 0 0 0 -317.45036483870354 -460.20255905302474 0 -460.20255905302474 -614.25121247807692 0 0 0 0 -740.85746216174448 -638.01196452439763 0 -638.01196452439763 -343.48380331508815 0 0 0 0 -1104.5350837638834 -483.39884806492773 0 -483.39884806492773 -677.21333289146423 0 0 0 0 -214.86365756290616 -539.18360566423507 0 -539.18360566423507 -1007.7282058951096 0 0 0 0 -71.776047836086946 -137.37822254630737 0 -137.37822254630737 -1816.3456798304687 0 0 0 0 -281.02454578454854 -734.97724695747092 0 -734.97724695747092 -931.99623690947192 0 0 0 0 225.61081838471 91.381476085105533 0 91.381476085105533 -47.675635157967918 0 0 0 0 105.81567300940515 -147.03054360648093 0 -147.03054360648093 -232.73760903783841 0 0 0 0 -60.643068537392537 99.052091227538767 0 99.052091227538767 590.74200326480786 0 0 0 0 -92.333115050205379 -64.67507562780338 0 -64.67507562780338 18.366965407956741 0 0 0 0 -94.213747573710862 -67.080012764061394 0 -67.080012764061394 88.580636524529837 0 0 0 0 -122.84418147927499 -81.805861789045593 0 -81.805861789045593 85.51826394706859 0 0 0 0 -135.47193790620076 -150.61901739522364 0 -150.61901739522364 83.154290897175088 0 0 0 0 -119.88751267951739 -311.10446213746218 0 -311.10446213746218 182.8698755769874 0 0 0 0 -17.794689763715724 -344.97235178703522 0 -344.97235178703522 154.89119990640211 0 0 0 0 -139.91792536318826 -99.87920615477924 0 -99.87920615477924 190.50095245819102 0 0 0 0 -165.30826717265882 -342.56570806205491 0 -342.56570806205491 253.42588403588888 0 0 0 0 -81.100704547707437 -421.6795547947948 0 -421.6795547947948 99.193664622383949 0 0 0 0 -81.889640252993331 -486.15474255143874 0 -486.15474255143874 297.48345035996317 0 0 0 0 -1178.6685602935322 197.66052591762673 0 197.66052591762673 469.00154659149666 0 0 0 0 -435.09306548110908 -285.96234250489215 0 -285.96234250489215 718.54023238119407 0 0 0 0 648.58296689632698 -903.34700091081322 0 -903.34700091081322 398.03530226681323 0 0 0 0 -319.65340092455153 144.75876387106655 0 144.75876387106655 70.394183454252925 0 0 0 0 -516.10921825336482 61.977463896213521 0 61.977463896213521 51.261565793425689 0 0 0 0 -194.59456977131777 -300.0018075431326 0 -300.0018075431326 90.493715054461973 0 0 0 0 -259.14719156967476 -380.94760680300169 0 -380.94760680300169 244.12218665191904 0 0 0 0 -243.18276182014961 -372.83600171589933 0 -372.83600171589933 258.11656924533236 0 0 0 0 2.3585018411071275 -6.7839153653938808 0 -6.7839153653938808 5.999208766568799 0 0 0 0 -271.10070386933512 -317.40793858636243 0 -317.40793858636243 513.55784929681977 0 0 0 0 -132.14575688123296 -205.17068917411598 0 -205.17068917411598 76.750452502978078 0 0 0 0 -408.81084696502694 -279.25617223805421 0 -279.25617223805421 92.971792514908884 0 0 0 0 381.73858406108775 580.04751163597484 0 580.04751163597484 -53.010907322968706 0 0 0 0 -7.2913212363836237 -3.1218900234250953 0 -3.1218900234250953 134.38412233882511 0 0 0 0 -23.668737175001297 -79.793260434413241 0 -79.793260434413241 -4.0169787924969569 0 0 0 0 -13.746371470624581 -65.493916534251184 0 -65.493916534251184 -59.509173605008982 0 0 0 0 -56.536873607197776 -44.737446758605074 0 -44.737446758605074 19.495339863235131 0 0 0 0 1.0029692401279817 -7.5113985416626576 0 -7.5113985416626576 -3.1563888698824769 0 0 0 0 -10.185772661670342 -65.084986184197817 0 -65.084986184197817 -37.380386760080285 0 0 0 0 -53.741381472940191 -62.218027356598 0 -62.218027356598 -22.124727017506473 0 0 0 0 -59.621634341747267 -94.025297667931227 0 -94.025297667931227 -23.540683709150471 0 0 0 0 -43.434241087445116 -59.109949718977077 0 -59.109949718977077 29.785769775437075 0 0 0 0 -341.12776238391234 -80.71376864690501 0 -80.71376864690501 243.33418090996929 0 0 0 0 -1.7728622900141175 -7.6264014754457605 0 -7.6264014754457605 22.532409628252779 0 0 0 0 -82.253407169861021 141.5286507227429 0 141.5286507227429 119.10627261852642 0 0 0 0 91.411443967779633 61.674382644656362 0 61.674382644656362 45.162424756104883 0 0 0 0 -392.7440984917921 -35.851740709675141 0 -35.851740709675141 31.580286088123103 0 0 0 0 -21.152895575597356 -36.451565258259421 0 -36.451565258259421 69.514462268481623 0 0 0 0 -159.95171029863559 -8.0578995273881446 0 -8.0578995273881446 135.66026891784713 0 0 0 0 -83.248382821970154 -12.061206498528918 0 -12.061206498528918 61.276169105778536 0 0 0 0 -31.195764968989693 -1.4567802051622465 0 -1.4567802051622465 33.862051418334943 0 0 0 0 -21.113991579529284 -19.218488874679338 0 -19.218488874679338 47.975813804404652 0 0 0 0 -32.344458801177097 -8.1485935969831189 0 -8.1485935969831189 45.193472356071425 0 0 0 0 -74.931178357743192 -51.30056743890691 0 -51.30056743890691 39.055461090581957 0 0 0 0 -0.13362200039796335 -1.850868317056694 0 -1.850868317056694 4.2573007326309016 0 0 0 0 -19.533962119428907 -43.986138257878338 0 -43.986138257878338 17.51970542462368 0 0 0 0 -43.646291515717166 -37.55868486133113 0 -37.55868486133113 66.112765456244233 0 0 0 0 -27.006153426442097 -14.982607351004333 0 -14.982607351004333 19.701395376631865 0 0 0 0 -36.287198323901976 -13.344231410756038 0 -13.344231410756038 49.953968675875558 0 0 0 0 -36.188676912890514 -8.6482605424716894 0 -8.6482605424716894 43.082003419905959 0 0 0 0 -14.369079387516521 -7.9246952653161031 0 -7.9246952653161031 34.08713492789586 0 0 0 0 -29.329149686142046 -9.5796565599671339 0 -9.5796565599671339 38.795678891750867 0 0 0 0 -24.862858164716442 -0.27205857540921841 0 -0.27205857540921841 26.141175308516512 0 0 0 0 -463.27693780447589 -252.25917741494413 0 -252.25917741494413 -69.563885543541801 0 0 0 0 -53.023360857005116 19.996759039750657 0 19.996759039750657 8.3140890172666797 0 0 0 0 -296.02442269946914 -20.307726438981263 0 -20.307726438981263 61.062579188682321 0 0 0 0 -174.4597284058691 39.890594496724589 0 39.890594496724589 177.067492435448 0 0 0 0 -245.07670366523962 -388.82690023511054 0 -388.82690023511054 -388.86158741618419 0 0 0 0 -608.73393306838989 40.805806050776482 0 40.805806050776482 98.160285846710394 0 0 0 0 -1235.3498986695777 -422.03520657230547 0 -422.03520657230547 -47.129400466375955 0 0 0 0 -2703.9973555197066 -294.04954220668151 0 -294.04954220668151 366.40345534624453 0 0 0 0 -994.62441375752678 182.75749965295927 0 182.75749965295927 293.93033376946914 0 0 0 0 -1346.5779886680248 -1119.0064295380089 0 -1119.0064295380089 -841.99180294430607 0 0 0 0 -16.879610139962267 8.267837856593161 0 8.267837856593161 -3.9683571969381557 0 0 0 0 -373.19991151802242 678.399428129027 0 678.399428129027 -694.64621244238151 0 0 0 0 -669.74574105566717 969.82617250984913 0 969.82617250984913 -1320.8545055192189 0 0 0 0 944.26264619774884 -1949.5481781546314 0 -1949.5481781546314 -917.15489068714669 0 0 0 0 -2486.0444906620833 583.69602779215711 0 583.69602779215711 929.60203664573419 0 0 0 0 -754.27575414153398 -595.62836196273383 0 -595.62836196273383 1495.3251774919463 0 0 0 0 -463.15232867543818 378.11669676964812 0 378.11669676964812 -145.85090285984188 0 0 0 0 -400.91271033661906 38.443952629742853 0 38.443952629742853 23.24217168091127 0 0 0 0 -109.73556619291776 -21.49770780102881 0 -21.49770780102881 119.20736597822179 0 0 0 0 -119.66048272894113 26.296124648897603 0 26.296124648897603 18.82191262159904 0 0 0 0 -160.48325138015207 50.376192478712255 0 50.376192478712255 142.7160841549121 0 0 0 0 -17.372483824961819 207.67078632106677 0 207.67078632106677 -82.171696028704901 0 0 0 0 -50.148450465870837 -44.601123749906769 0 -44.601123749906769 -7.3182949169953719 0 0 0 0 71.984133217556519 11.822763495885283 0 11.822763495885283 201.74312590067893 0 0 0 0 -123.27498453046428 136.62745737665955 0 136.62745737665955 675.71448811106711 0 0 0 0 841.63706560950959 -1523.1284360557202 0 -1523.1284360557202 1530.6330213632932 0 0 0 0 13.523309226910555 -10.220963168141672 0 -10.220963168141672 -8.4462017106230398 0 0 0 0 622.56542998629448 -936.02073733299085 0 -936.02073733299085 1026.0170222561865 0 0 0 0 2139.9103984413377 -971.77941567167181 0 -971.77941567167181 -158.90900434074683 0 0 0 0 -8.0833921878722066 -13.771824183889663 0 -13.771824183889663 7.2683934542228492 0 0 0 0 1225.713505618507 -579.93264731954514 0 -579.93264731954514 66.812040007182077 0 0 0 0 276.93123298572027 814.31577579616351 0 814.31577579616351 217.43769840893765 0 0 0 0 75.460143954522209 -489.64611766176495 0 -489.64611766176495 967.80151047841809 0 0 0 0 -1.7020546627027215 -235.82397194816872 0 -235.82397194816872 316.46703074166544 0 0 0 0 -28.172048479988007 -259.426936936934 0 -259.426936936934 350.46944329883809 0 0 0 0 -24.724727593245916 -255.4598985925104 0 -255.4598985925104 245.43165086763747 0 0 0 0 -33.585966706901672 -201.37708414382314 0 -201.37708414382314 133.20769357825884 0 0 0 0 -111.15814118244452 -145.12199580719061 0 -145.12199580719061 318.21589490097267 0 0 0 0 -21.31310461749672 -181.58270664495285 0 -181.58270664495285 160.53873933040086 0 0 0 0 -13.406502291269135 -129.40814476356172 0 -129.40814476356172 191.69797706397731 0 0 0 0 -0.55222919722405095 -6.5954733573059059 0 -6.5954733573059059 -9.0845625624654858 0 0 0 0 -30.921947717315788 -37.409414774569186 0 -37.409414774569186 0.051261080207567034 0 0 0 0 -57.623043114028405 -115.13674257987077 0 -115.13674257987077 73.413675371018144 0 0 0 0 -12.950088889396284 -80.411061564545889 0 -80.411061564545889 38.650062678889299 0 0 0 0 -39.864415411720984 -72.806154084310947 0 -72.806154084310947 239.19889581891584 0 0 0 0 -73.678762569179526 -119.45473126844445 0 -119.45473126844445 192.32526905071472 0 0 0 0 -81.764323622614029 -153.1937719669636 0 -153.1937719669636 418.08809784234654 0 0 0 0 -104.40034347129404 -90.133115346885461 0 -90.133115346885461 252.16358248970573 0 0 0 0 -73.14785004715668 -124.26780106076603 0 -124.26780106076603 221.23160670381185 0 0 0 0 -84.682536539068678 -54.324677705340036 0 -54.324677705340036 124.2895442260924 0 0 0 0 -32.719225441534945 -55.948745097021856 0 -55.948745097021856 -10.03241447403343 0 0 0 0 -29.836565898076515 -67.320617209705233 0 -67.320617209705233 29.061728669565127 0 0 0 0 -3.2154256945214001 -61.864048197629018 0 -61.864048197629018 7.8772113986997283 0 0 0 0 -43.686345376554527 -76.671553754960769 0 -76.671553754960769 9.5466752658176119 0 0 0 0 -20.810333025990985 -75.522981794718362 0 -75.522981794718362 7.4432335148367201 0 0 0 0 -71.0179411383142 -88.80172695507099 0 -88.80172695507099 10.785118282587064 0 0 0 0 -46.525889996817568 -65.71918266468856 0 -65.71918266468856 -15.989790674628239 0 0 0 0 17.870997811337517 -54.188531879142403 0 -54.188531879142403 9.9153379808344653 0 0 0 0 -84.760860615126148 -65.283798481122176 0 -65.283798481122176 -7.0803517482454481 0 0 0 0 -47.536697906936752 -71.100584972620709 0 -71.100584972620709 -20.101724255875524 0 0 0 0 -118.37308702940209 -206.02175234082824 0 -206.02175234082824 45.349481739209295 0 0 0 0 15.012842022711482 -53.333731231367523 0 -53.333731231367523 -29.287126166025416 0 0 0 0 257.32155699800933 -104.52813447141125 0 -104.52813447141125 -311.3966300827683 0 0 0 0 18.533043044590158 -122.31776412375802 0 -122.31776412375802 -62.312734462186199 0 0 0 0 -269.78559273507562 -108.02375139606193 0 -108.02375139606193 74.134395572869835 0 0 0 0 -159.41420427532285 -86.638178207042984 0 -86.638178207042984 13.196835912320239 0 0 0 0 -217.03633501689183 -53.409840355503547 0 -53.409840355503547 37.757671613115235 0 0 0 0 -9.8423727469443349 -68.948457574188268 0 -68.948457574188268 43.961846165333952 0 0 0 0 -53.293880264855034 -114.62066490189181 0 -114.62066490189181 173.40798719139275 0 0 0 0 -38.560421061043598 -94.978706747366914 0 -94.978706747366914 55.940963846500381 0 0 0 0 -245.48084606515476 -78.13629543342995 0 -78.13629543342995 42.515817170293303 0 0 0 0 -189.56110585847637 -103.39367080794182 0 -103.39367080794182 20.348387124133296 0 0 0 0 -63.207606508396566 -91.989515431079781 0 -91.989515431079781 -10.69471012964641 0 0 0 0 -23.050081962021068 -87.459940387750976 0 -87.459940387750976 17.147283724581939 0 0 0 0 -51.100946121648121 -88.519598875568676 0 -88.519598875568676 55.112671754591446 0 0 0 0 -36.153831535312406 -106.23795262390378 0 -106.23795262390378 14.475664127804009 0 0 0 0 -59.975208446426592 -94.471277470188312 0 -94.471277470188312 35.019229754657772 0 0 0 0 -164.39519652817398 -124.47663983588063 0 -124.47663983588063 -30.928497603239521 0 0 0 0 59.725377151014982 54.669467666673881 0 54.669467666673881 257.33042611877318 0 0 0 0 -215.92016145022353 -21.816381019089022 0 -21.816381019089022 -63.06756667081936 0 0 0 0 -213.01739599936991 -52.383346476679435 0 -52.383346476679435 35.453162729281757 0 0 0 0 -210.83512198628159 -45.138958135576104 0 -45.138958135576104 54.77771480139927 0 0 0 0 -177.44646005134564 -22.359373415121809 0 -22.359373415121809 66.798910297227849 0 0 0 0 -13.201441412829354 -23.954061984508712 0 -23.954061984508712 -6.5492719946066842 0 0 0 0 33.650512626103591 -383.5409652878443 0 -383.5409652878443 -223.75656541845092 0 0 0 0 -68.445433709715473 -72.205257447096955 0 -72.205257447096955 64.475425409625501 0 0 0 0 -39.874895677372251 4.2386936564160749 0 4.2386936564160749 65.069047760515389 0 0 0 0 -138.18574153380177 -45.499774512718432 0 -45.499774512718432 266.38116067898227 0 0 0 0 129.40600712352898 18.937526987690944 0 18.937526987690944 -4.8080724678729894 0 0 0 0 -64.250397131065256 -77.727697903923399 0 -77.727697903923399 -15.3086644843861 0 0 0 0 -1671.2270879083662 -684.31601169368514 0 -684.31601169368514 -806.73671884031501 0 0 0 0 -1029.1940570361912 -1719.7543983551259 0 -1719.7543983551259 -1249.089717519877 0 0 0 0 3.5745632194106065 -21.809505138420832 0 -21.809505138420832 22.842562775088339 0 0 0 0 0.69279426799039356 -126.8698494326527 0 -126.8698494326527 -28.940864103564309 0 0 0 0 -1526.6639892311359 -850.32952645793557 0 -850.32952645793557 -662.26612133037997 0 0 0 0 -2.1098566801040306 -11.978824438848505 0 -11.978824438848505 14.988290615770502 0 0 0 0 -48.196704697662312 -61.493363485204782 0 -61.493363485204782 18.688899522339511 0 0 0 0 -81.800311041995883 -121.26238730340992 0 -121.26238730340992 -2.3774828681634972 0 0 0 0 -76.91742789366981 -132.81453405044158 0 -132.81453405044158 21.788213787214772 0 0 0 0 -21.02021066544161 -88.569932975063722 0 -88.569932975063722 -16.802684825132928 0 0 0 0 14.141224285422176 -42.71516167917747 0 -42.71516167917747 -21.497287342433424 0 0 0 0 -3.5661181761547027 -28.884671516600463 0 -28.884671516600463 24.23441033965085 0 0 0 0 3.3335393123707036 -74.315679632469255 0 -74.315679632469255 -59.986109709760058 0 0 0 0 -875.35330113979762 -785.30431526788561 0 -785.30431526788561 -402.18957800205681 0 0 0 0 -807.43532418710311 -472.72159096759788 0 -472.72159096759788 128.00724131715833 0 0 0 0 -82.73043110940489 -144.34200042582233 0 -144.34200042582233 -227.44122410520504 0 0 0 0 -328.3923770065594 -1082.1807771230087 0 -1082.1807771230087 -1291.2212836980234 0 0 0 0 0.84672925437592994 0.81133503359993142 0 0.81133503359993142 1.5169576902938786 0 0 0 0 137.75235408355366 -70.064437399585586 0 -70.064437399585586 -398.02331985704222 0 0 0 0 -147.55416229467664 16.662169371778873 0 16.662169371778873 247.02387026323413 0 0 0 0 -97.82822240999667 -142.02580710661277 0 -142.02580710661277 173.6181656994595 0 0 0 0 21.111708673503017 -47.76214858541789 0 -47.76214858541789 -4.3779346869505389 0 0 0 0 -62.189582638375214 -68.861737508822443 0 -68.861737508822443 -3.4611708628945053 0 0 0 0 -8.6849643072191611 -13.236876113717528 0 -13.236876113717528 -14.130151372112252 0 0 0 0 9.3392051456028753 -62.533867883947707 0 -62.533867883947707 32.106652420742329 0 0 0 0 -154.90245596776367 -202.69545666348131 0 -202.69545666348131 -101.53206814749865 0 0 0 0 25.682161518081557 -147.80821144016227 0 -147.80821144016227 -15.98603055968124 0 0 0 0 -30.088856007592653 -56.648845101330522 0 -56.648845101330522 17.405222800650204 0 0 0 0 -28.864774535268225 -84.482193931778966 0 -84.482193931778966 -9.9408387850999134 0 0 0 0 -35.296969357030321 25.090337193710184 0 25.090337193710184 -44.065631631987344 0 0 0 0 -10.113125521026802 -50.577575182348284 0 -50.577575182348284 32.827702813562027 0 0 0 0 -7.9677962435695235 -50.926089734931452 0 -50.926089734931452 4.5788157007603161 0 0 0 0 -93.1778307069726 -99.227262506813076 0 -99.227262506813076 232.81770830196547 0 0 0 0 -61.536059637393919 -224.79019946814697 0 -224.79019946814697 41.201179028037586 0 0 0 0 -53.080447931571371 -38.426623411344274 0 -38.426623411344274 0.67868837236129309 0 0 0 0 -48.215682335896417 -64.091072173784596 0 -64.091072173784596 36.971887049205179 0 0 0 0 -20.708290406224478 -74.892840485702663 0 -74.892840485702663 10.981657782256661 0 0 0 0 -63.500691867797286 -12.32319191172428 0 -12.32319191172428 191.60711896010616 0 0 0 0 -54.836454598723549 -29.153093593321557 0 -29.153093593321557 -14.260334432847287 0 0 0 0 324.52832057829073 -288.66243968627714 0 -288.66243968627714 167.67789767753129 0 0 0 0 -10.261643872650382 -4.7929954925383811 0 -4.7929954925383811 5.1579071552065585 0 0 0 0 10.723367327978963 -2.8492590063123604 0 -2.8492590063123604 -4.7512793744893855 0 0 0 0 185.41540075221565 -214.75674961432742 0 -214.75674961432742 162.71158060909511 0 0 0 0 159.49630073696608 -246.52323423677808 0 -246.52323423677808 226.05441440507275 0 0 0 0 51.740405187796568 -194.3903856578363 0 -194.3903856578363 230.21949164770194 0 0 0 0 7.106080899015069 -42.528522880420496 0 -42.528522880420496 67.991158499946323 0 0 0 0 59.568196634267224 -42.557434687645582 0 -42.557434687645582 -69.09894131123292 0 0 0 0 79.754732561148558 -217.67427568016046 0 -217.67427568016046 288.13424270054384 0 0 0 0 179.81160139961867 -233.85212880013751 0 -233.85212880013751 -262.97924182047063 0 0 0 0 -35.17792942840606 24.503242972597945 0 24.503242972597945 51.434649128179444 0 0 0 0 -142.88789514018572 -142.26362568552577 0 -142.26362568552577 -49.637646402929022 0 0 0 0 -12.69935452600896 -47.54305478059203 0 -47.54305478059203 33.281492425338747 0 0 0 0 90.02990662411321 -11.361547162590796 0 -11.361547162590796 -275.99770138335225 0 0 0 0 -11.18247470445931 4.726093627337832 0 4.726093627337832 -38.058503443462541 0 0 0 0 211.51548989841831 185.10350164671399 0 185.10350164671399 52.524491064657923 0 0 0 0 -10.754839250659757 -50.8126070295163 0 -50.8126070295163 3.5418201249548105 0 0 0 0 74.2638273928751 -61.690989721893857 0 -61.690989721893857 -147.10301994257316 0 0 0 0 -33.104197144268255 -23.626224567989993 0 -23.626224567989993 53.650353718781844 0 0 0 0 -84.927875767389196 -89.249160586063226 0 -89.249160586063226 70.875765318749472 0 0 0 0 4.0661115241236985 -209.96033360627189 0 -209.96033360627189 -36.503978980683314 0 0 0 0 -6.0914049889338457 -50.348056773413674 0 -50.348056773413674 30.471537922649446 0 0 0 0 -12.796701295637376 -67.650871673718257 0 -67.650871673718257 -5.1490029456253978 0 0 0 0 -30.332026141638494 -55.872824656378171 0 -55.872824656378171 6.8419260308896952 0 0 0 0 1.407988038027371 -68.695049160958746 0 -68.695049160958746 -0.5903100576920508 0 0 0 0 -76.302524270518916 12.736192807293264 0 12.736192807293264 55.384729863435496 0 0 0 0 -0.76828191299516568 -31.877006682729046 0 -31.877006682729046 3.3898167104833306 0 0 0 0 -137.24188548299026 21.278946993691534 0 21.278946993691534 91.520557251089485 0 0 0 0 -81.989502769443789 -292.83318013569806 0 -292.83318013569806 175.59643693181715 0 0 0 0 -10.253007075400092 -110.91421586059732 0 -110.91421586059732 -8.3334352975634829 0 0 0 0 -87.84083034368814 -32.728749123249145 0 -32.728749123249145 -104.75953160361678 0 0 0 0 -47.763879390215152 4.5346186087735987 0 4.5346186087735987 -84.832936644692381 0 0 0 0 -43.481091406298219 -32.112976486430853 0 -32.112976486430853 -69.146993507689331 0 0 0 0 -104.35583774017869 -46.470402364295296 0 -46.470402364295296 -43.482181602870696 0 0 0 0 -67.653774655569578 -58.225819061539369 0 -58.225819061539369 -125.73183695629086 0 0 0 0 -189.39743244356941 -39.591635298547772 0 -39.591635298547772 -40.441634178670938 0 0 0 0 -134.52972823585151 -95.860311642158194 0 -95.860311642158194 -110.5221623032412 0 0 0 0 -67.085607130196877 -73.563114528355072 0 -73.563114528355072 -103.95581942712306 0 0 0 0 33.254767701854519 -40.696932968150122 0 -40.696932968150122 -10.938065455408918 0 0 0 0 -41.788191455416381 -86.293770782940555 0 -86.293770782940555 -118.37156007587328 0 0 0 0 -36.016262141725747 -59.109518903351272 0 -59.109518903351272 -4.7130179964879062 0 0 0 0 1.1622709008032643 -34.336897249490448 0 -34.336897249490448 -43.573863174890533 0 0 0 0 17.036300099258483 -24.05972632521059 0 -24.05972632521059 -11.916598830931207 0 0 0 0 -12.201119436749181 -25.198286215579401 0 -25.198286215579401 -7.0275501463203511 0 0 0 0 -38.239888684441212 -33.058249557722093 0 -33.058249557722093 -31.570777195636765 0 0 0 0 4.6138200359923793 1.779920429709648 0 1.779920429709648 0.025546184292934981 0 0 0 0 -283.32328323693946 -27.147499537975818 0 -27.147499537975818 3.1855900651644333 0 0 0 0 2.9857348674215372 -42.270706761907803 0 -42.270706761907803 4.6339178971071249 0 0 0 0 -21.168707455486583 -35.165963416226077 0 -35.165963416226077 20.199019001294801 0 0 0 0 28.438784014856537 -24.939872513677244 0 -24.939872513677244 -55.681444915928296 0 0 0 0 -7.6506235766690907 -3.4781667021583473 0 -3.4781667021583473 -2.0305874815466893 0 0 0 0 -74.15246862208005 -26.421298642060606 0 -26.421298642060606 -20.311792004766176 0 0 0 0 -14.498788038931309 -2.0826830508929675 0 -2.0826830508929675 1.5979224795024436 0 0 0 0 -139.7812260275241 22.120410734132747 0 22.120410734132747 -51.595563836381189 0 0 0 0 -190.32111179869389 -9.5241234413915663 0 -9.5241234413915663 -66.937973036012409 0 0 0 0 -30.413952855640673 -3.5329890667671862 0 -3.5329890667671862 4.627830791658198 0 0 0 0 -77.380612879729597 21.451833655351948 0 21.451833655351948 -63.620170568035974 0 0 0 0 -134.10611602320569 24.142615817843762 0 24.142615817843762 -46.821922709626961 0 0 0 0 -97.656688617484178 -20.903752588841598 0 -20.903752588841598 -55.937754913968092 0 0 0 0 -34.218899457337102 -24.103602595831035 0 -24.103602595831035 -70.711911322323431 0 0 0 0 -184.85026092061889 -44.12393470985262 0 -44.12393470985262 -18.746577660000185 0 0 0 0 -19.245066231776946 16.365446906895386 0 16.365446906895386 -19.657308811998519 0 0 0 0 -10.742418369714869 -104.85744932876696 0 -104.85744932876696 34.291788885806454 0 0 0 0 111.76622828061954 -46.010741032394435 0 -46.010741032394435 53.757564078863652 0 0 0 0 -29.214937016280601 -119.62402984750952 0 -119.62402984750952 79.064354353446106 0 0 0 0 -49.304940967209404 -109.31984428710348 0 -109.31984428710348 214.43520218728008 0 0 0 0 -42.801521489818697 -44.337297316069453 0 -44.337297316069453 74.453471756778526 0 0 0 0 -276.09920202774811 9.6285200005968363 0 9.6285200005968363 97.577527873589133 0 0 0 0 -104.62537491187686 54.875125136391944 0 54.875125136391944 -87.971844966203207 0 0 0 0 -276.1476945984241 -132.69608564222807 0 -132.69608564222807 181.05270868363732 0 0 0 0 0.24383715930915839 -40.424270514471061 0 -40.424270514471061 27.107678964361028 0 0 0 0 54.38811645012288 0.94624954501281877 0 0.94624954501281877 -52.682444325386314 0 0 0 0 6.0897621685167884 -55.03786074307925 0 -55.03786074307925 47.823204926988495 0 0 0 0 22.675378569045279 -80.570033208624864 0 -80.570033208624864 26.437790194237095 0 0 0 0 -23.388625578452775 -108.34289966299002 0 -108.34289966299002 75.296052540619712 0 0 0 0 -27.754867171344813 -163.25162566444487 0 -163.25162566444487 25.317088922000039 0 0 0 0 115.08209455834003 -208.49097841400544 0 -208.49097841400544 15.601387908896868 0 0 0 0 63.768474952797987 -86.200880879467149 0 -86.200880879467149 -40.247749288145314 0 0 0 0 176.54219401564478 -108.76929064070009 0 -108.76929064070009 -46.055888208029501 0 0 0 0 309.48477701893717 -238.0369568923561 0 -238.0369568923561 33.518173588352511 0 0 0 0 -69.612980086443713 18.461423343494971 0 18.461423343494971 171.83135622142072 0 0 0 0 -0.57941334518989152 2.3252036105475788 0 2.3252036105475788 2.7356305311309512 0 0 0 0 67.206318807773641 10.338310739773078 0 10.338310739773078 -174.23366514370355 0 0 0 0 30.414205293818668 -42.906743998861202 0 -42.906743998861202 2.438134970037936 0 0 0 0 110.45890997809329 -340.33538370210772 0 -340.33538370210772 536.44908737406513 0 0 0 0 68.589231775360531 -41.477171136300967 0 -41.477171136300967 -68.81982242479171 0 0 0 0 -26.131099452686612 -69.419163104368636 0 -69.419163104368636 5.7515309962273022 0 0 0 0 -21.270674058698461 -35.076053646231514 0 -35.076053646231514 -17.448985260048204 0 0 0 0 3.7106247623742092 -68.136484980097521 0 -68.136484980097521 12.25271776480804 0 0 0 0 -3.4619082376854067 -48.098966571472687 0 -48.098966571472687 1.9748707722421841 0 0 0 0 49.12493179179728 -80.54086881528201 0 -80.54086881528201 -29.939268471220203 0 0 0 0 48.787438498105246 -78.226781024092759 0 -78.226781024092759 18.045294439231821 0 0 0 0 57.504843056398386 -87.747070176112175 0 -87.747070176112175 -26.662977648516971 0 0 0 0 210.22235839426867 -142.58454954565605 0 -142.58454954565605 166.25733860799482 0 0 0 0 -80.197989299515029 -37.443937456663207 0 -37.443937456663207 256.65744201144116 0 0 0 0 6.3831761474325504 -31.453674604802757 0 -31.453674604802757 26.40681755574489 0 0 0 0 -35.581172924592394 -106.67486555134528 0 -106.67486555134528 122.66976213552586 0 0 0 0 15.49897875374154 -93.245777906646254 0 -93.245777906646254 61.520104742659896 0 0 0 0 21.153892314065615 -61.690309391448992 0 -61.690309391448992 1.0465303385103271 0 0 0 0 -36.106999484570679 -33.504136032027333 0 -33.504136032027333 26.324128653020669 0 0 0 0 -9.5102569594746456 -66.7764326853885 0 -66.7764326853885 63.444641261603465 0 0 0 0 -4.4101030975216418 -49.02206011645967 0 -49.02206011645967 100.3214658204306 0 0 0 0 -26.022348309168592 -89.416954967997299 0 -89.416954967997299 88.586875624769164 0 0 0 0 -12.460690714040538 -50.011049645906496 0 -50.011049645906496 117.00091677642922 0 0 0 0 -6.0100519278639695 -80.038701264041265 0 -80.038701264041265 93.916955859443988 0 0 0 0 -16.471166843555693 -114.2945782494653 0 -114.2945782494653 117.98701506482939 0 0 0 0 -27.354814868624089 -88.591854907130255 0 -88.591854907130255 141.20440117907037 0 0 0 0 11.279682808119105 -122.40751655756503 0 -122.40751655756503 120.22751536485976 0 0 0 0 103.22012556710979 -64.123162437848805 0 -64.123162437848805 102.79056087093602 0 0 0 0 -28.645562938993564 -49.341954408700957 0 -49.341954408700957 74.324281513628165 0 0 0 0 148.25303915651602 -172.09604072281354 0 -172.09604072281354 87.353309844173054 0 0 0 0 -50.960759168796358 -78.319509363091584 0 -78.319509363091584 113.09279760295794 0 0 0 0 82.604896610544529 -139.12714828930257 0 -139.12714828930257 91.063183074109475 0 0 0 0 24.437413038642262 -109.19647261541195 0 -109.19647261541195 80.536619818304644 0 0 0 0 31.059438754411531 -170.86324196251553 0 -170.86324196251553 114.59353662496869 0 0 0 0 24.893548055115389 -165.24022353383043 0 -165.24022353383043 114.99545782107361 0 0 0 0 -12.594021319877356 -173.4700495723755 0 -173.4700495723755 120.24559202044111 0 0 0 0 88.669778661667806 -243.84607861826362 0 -243.84607861826362 94.735267342894076 0 0 0 0 21.814803435354406 -226.7336594222993 0 -226.7336594222993 118.90612392971161 0 0 0 0 50.915352197160246 -178.00805796919758 0 -178.00805796919758 28.56455679643841 0 0 0 0 101.27329485758787 -117.92139192490484 0 -117.92139192490484 -8.0708333930597291 0 0 0 0 14.921190524017025 -42.854546137458271 0 -42.854546137458271 -1.1575671152788303 0 0 0 0 9.8513762429798248 -59.679677825103077 0 -59.679677825103077 24.125609046813299 0 0 0 0 -2.1026000717683928 -49.609052102496662 0 -49.609052102496662 10.935077779759013 0 0 0 0 -3.1203433893251713 -126.03948980595415 0 -126.03948980595415 25.976510709693684 0 0 0 0 65.874811057874467 -108.87643071690945 0 -108.87643071690945 5.2161722718381043 0 0 0 0 67.937059199543285 -73.130481156100757 0 -73.130481156100757 5.0088635449587713 0 0 0 0 67.876110880897613 -109.81546991597133 0 -109.81546991597133 38.655032900700462 0 0 0 0 24.587133045788505 -167.36375694950038 0 -167.36375694950038 209.56576562674309 0 0 0 0 0.39778481518442277 -96.237185927740484 0 -96.237185927740484 82.734179180377396 0 0 0 0 -0.40290006282003787 -2.5053962161001095 0 -2.5053962161001095 -5.1631189909607471 0 0 0 0 -627.80085988202336 -384.57957263982598 0 -384.57957263982598 -87.312327353867659 0 0 0 0 -666.03098877228331 -378.36336489066161 0 -378.36336489066161 -792.97999702889865 0 0 0 0 19.646546245814534 -691.93246636990989 0 -691.93246636990989 -656.28401802108965 0 0 0 0 -350.12189344121725 -1191.4439496983018 0 -1191.4439496983018 -628.05013839783715 0 0 0 0 -1.7133231073747766 -12.83191788094191 0 -12.83191788094191 9.7723166276012652 0 0 0 0 -595.51190339961613 -691.81685359841867 0 -691.81685359841867 -645.05109613058448 0 0 0 0 -743.15362293249927 -711.75031589162018 0 -711.75031589162018 -39.001236619686097 0 0 0 0 -536.6816680672564 -837.51808624698288 0 -837.51808624698288 -1079.2210836896775 0 0 0 0 -829.24925446993439 -842.55510702485662 0 -842.55510702485662 -745.38599277215826 0 0 0 0 -498.35775090687093 -159.14894030924188 0 -159.14894030924188 -814.74139795051451 0 0 0 0 554.26407082050719 -164.66226364113163 0 -164.66226364113163 -320.08699972537215 0 0 0 0 611.63457631175697 -345.88060230489191 0 -345.88060230489191 -468.41298547125189 0 0 0 0 667.62974104235764 -198.75601838004059 0 -198.75601838004059 -372.22169943722383 0 0 0 0 -48.88824709264145 -250.67397209891584 0 -250.67397209891584 126.62539682532588 0 0 0 0 -9.6535530385868924 -12.138604516435601 0 -12.138604516435601 21.776401021923547 0 0 0 0 36.320724576420616 -138.00588307073212 0 -138.00588307073212 145.94085509593242 0 0 0 0 -55.457186551684572 -164.47408212160468 0 -164.47408212160468 187.71952577292177 0 0 0 0 -43.197688189698965 -80.475276469790515 0 -80.475276469790515 275.66444538066389 0 0 0 0 49.71357173359138 -109.61952525865036 0 -109.61952525865036 67.073441884131171 0 0 0 0 -16.254059978629812 -60.47910307107486 0 -60.47910307107486 163.32089485448614 0 0 0 0 -15.055286566827817 -46.293464847060875 0 -46.293464847060875 80.969149132622334 0 0 0 0 25.342855099181179 -92.070964078809993 0 -92.070964078809993 98.527940729065449 0 0 0 0 24.471845231571933 -99.930424179536203 0 -99.930424179536203 86.603651905657898 0 0 0 0 -33.413743290439015 -101.79955210932894 0 -101.79955210932894 90.153101729779337 0 0 0 0 140.60455277647998 -129.38965670236576 0 -129.38965670236576 66.629428751326486 0 0 0 0 38.391504983104824 -51.75630148147593 0 -51.75630148147593 81.676972495144582 0 0 0 0 57.580396863473254 -41.252726328302614 0 -41.252726328302614 19.442775451176153 0 0 0 0 56.208556470319309 -6.8687295025787876 0 -6.8687295025787876 -86.827412163019744 0 0 0 0 52.449818676356244 -29.30957040288466 0 -29.30957040288466 0.9196827545481483 0 0 0 0 276.14257669163635 -91.765499690174693 0 -91.765499690174693 -142.7652344265407 0 0 0 0 -18.250642547238385 -53.592074914708064 0 -53.592074914708064 85.345906023066163 0 0 0 0 58.510012630926894 -53.563464890911909 0 -53.563464890911909 29.644245850754039 0 0 0 0 -12.069219254219206 -137.53541362498618 0 -137.53541362498618 -388.68025059967567 0 0 0 0 16.316472111851908 -131.24865189599495 0 -131.24865189599495 53.24010930543227 0 0 0 0 33.025907842888046 -70.390027797897076 0 -70.390027797897076 21.419506027124271 0 0 0 0 38.312213169798099 -27.57044993067576 0 -27.57044993067576 5.1421396509461079 0 0 0 0 29.698908416787162 -39.893933315672484 0 -39.893933315672484 -2.6753985131557556 0 0 0 0 59.216790496429894 -187.05180895553349 0 -187.05180895553349 382.29259037786051 0 0 0 0 21.668911623257443 -33.138896744334801 0 -33.138896744334801 42.684250171761157 0 0 0 0 172.27387822186574 86.315216079568927 0 86.315216079568927 -862.50202134285428 0 0 0 0 -485.88962490746053 -583.7804016618029 0 -583.7804016618029 -549.71520673907708 0 0 0 0 5.8443909958455436 -9.3437107490854885 0 -9.3437107490854885 2.198782131737957 0 0 0 0 -480.4359963285533 -347.42696079288908 0 -347.42696079288908 24.841013250521428 0 0 0 0 -85.553058977064211 -292.62423196051441 0 -292.62423196051441 -375.47691878907744 0 0 0 0 -84.772652365649265 -307.66682114606152 0 -307.66682114606152 -136.73577366528116 0 0 0 0 34.277620484495856 -161.78628001725508 0 -161.78628001725508 -93.802651501475339 0 0 0 0 39.769060494581936 -176.39383939194795 0 -176.39383939194795 -456.30702253840082 0 0 0 0 -12.934162726494833 -259.1689246505216 0 -259.1689246505216 -106.26101549821306 0 0 0 0 12.440672159362293 -299.99325450089054 0 -299.99325450089054 -110.98058514598961 0 0 0 0 -50.289386212265526 -212.64587065385604 0 -212.64587065385604 79.551654405339832 0 0 0 0 -136.81273131004127 -302.95715559793734 0 -302.95715559793734 -3.346239728081855 0 0 0 0 -6.4394067144021392 -170.70461039323254 0 -170.70461039323254 61.463316270410814 0 0 0 0 -84.24673883145806 -159.40686126742958 0 -159.40686126742958 45.361553456872571 0 0 0 0 -206.51794998376135 -165.20981312247136 0 -165.20981312247136 165.85308228517169 0 0 0 0 -54.227850941490033 71.559849971359199 0 71.559849971359199 132.02414745245051 0 0 0 0 155.51355051160499 10.851725256991813 0 10.851725256991813 42.336282446266523 0 0 0 0 -479.3119623742823 42.239271898644802 0 42.239271898644802 225.58154624683448 0 0 0 0 -243.68697883373534 -162.31568687680192 0 -162.31568687680192 -233.80101149478651 0 0 0 0 -722.95533543115016 -284.62706103011715 0 -284.62706103011715 -144.03880169144395 0 0 0 0 -3.0731632508773714 -5.9643470611337648 0 -5.9643470611337648 -7.7195239712924568 0 0 0 0 420.41464101224847 -515.73812050822107 0 -515.73812050822107 201.94340681497579 0 0 0 0 276.35643597915259 -104.11224156283447 0 -104.11224156283447 347.40422877014953 0 0 0 0 185.8028794478214 -112.1986651046268 0 -112.1986651046268 116.00136486941847 0 0 0 0 50.963695834128885 -36.336019564258095 0 -36.336019564258095 178.04461727215221 0 0 0 0 31.223798537084804 -82.064652493572908 0 -82.064652493572908 217.19158266305021 0 0 0 0 -53.132527872818173 -141.27588587241689 0 -141.27588587241689 411.43670903365683 0 0 0 0 217.23278211983416 -91.561630164566964 0 -91.561630164566964 -543.9687664769483 0 0 0 0 0.54450074125423953 -4.2208313172729675 0 -4.2208313172729675 1.1950155344710145 0 0 0 0 -34.111545671301428 81.221024051428458 0 81.221024051428458 632.81358090366882 0 0 0 0 -105.4502554132705 78.892859694382537 0 78.892859694382537 -246.61352408595832 0 0 0 0 -345.17999567833249 -304.84555864650184 0 -304.84555864650184 -128.55411109359125 0 0 0 0 335.73214526110496 -11.287130265205741 0 -11.287130265205741 -424.04367479697339 0 0 0 0 191.95649938827773 -498.26452800040693 0 -498.26452800040693 445.68729653921866 0 0 0 0 -1047.3846866001259 -512.04302217647557 0 -512.04302217647557 1085.0713404103128 0 0 0 0 -483.61771297478117 399.54692841548717 0 399.54692841548717 493.43111482703353 0 0 0 0 -474.79035456619749 -717.91014595447496 0 -717.91014595447496 1928.4898248862796 0 0 0 0 -81.156426260785338 -39.26955670638629 0 -39.26955670638629 -15.009549169086583 0 0 0 0 -60.516893267544049 -35.340478918257034 0 -35.340478918257034 -15.662997842765805 0 0 0 0 -6.7115519042126834 -1372.1237647890589 0 -1372.1237647890589 438.40822994888799 0 0 0 0 122.85326969157177 -340.53104140705716 0 -340.53104140705716 -124.18673266233554 0 0 0 0 -46.128554004942998 52.757045012908065 0 52.757045012908065 -100.95774626139905 0 0 0 0 -125.60426598627237 -326.98590612219971 0 -326.98590612219971 349.68231755653051 0 0 0 0 186.03954697978043 -159.22981810911074 0 -159.22981810911074 -510.17761764271745 0 0 0 0 -158.29512226347288 129.03736783143705 0 129.03736783143705 134.52204236659577 0 0 0 0 -59.71622038820351 -4.3729671290431753 0 -4.3729671290431753 453.58761815840143 0 0 0 0 1.9649423276755442 -5.7785338542414415 0 -5.7785338542414415 2.8636437175270726 0 0 0 0 61.702202253494761 -3.9487159559451186 0 -3.9487159559451186 182.33757284975076 0 0 0 0 3.1744304922176525 -90.149971060380494 0 -90.149971060380494 290.01335832100631 0 0 0 0 -99.885546629680903 -207.23234129640446 0 -207.23234129640446 165.87649968609639 0 0 0 0 -0.42689885679283179 -18.382022326997685 0 -18.382022326997685 241.12444599610512 0 0 0 0 -36.082945658781682 -75.778889106156839 0 -75.778889106156839 285.02873650735273 0 0 0 0 -7.5370328765766317 -159.01913464342152 0 -159.01913464342152 71.819658259390053 0 0 0 0 -64.805868355775601 -123.66265845518546 0 -123.66265845518546 20.565856130698194 0 0 0 0 -40.257376574372756 -166.15720028832766 0 -166.15720028832766 75.877980368109547 0 0 0 0 -39.903303063445492 -88.361136819558169 0 -88.361136819558169 209.95423706167412 0 0 0 0 -171.17327515152283 -145.42504846379779 0 -145.42504846379779 -48.863921105423287 0 0 0 0 -90.696298698720057 -204.34530565693149 0 -204.34530565693149 -16.218803499551768 0 0 0 0 -64.540099271689542 -97.601700844455308 0 -97.601700844455308 35.758810814754384 0 0 0 0 -166.09323831165966 -226.10244160388021 0 -226.10244160388021 -29.210337172693926 0 0 0 0 -63.353761572943768 -123.5043897255465 0 -123.5043897255465 81.176252592783385 0 0 0 0 -41.584130283634295 22.052456607040654 0 22.052456607040654 156.66557854351663 0 0 0 0 -1.2914943100513483 -71.089762413968145 0 -71.089762413968145 1.8706134959097653 0 0 0 0 -79.345771926775342 -25.469831606683101 0 -25.469831606683101 276.17226653055457 0 0 0 0 -44.32425060152309 -54.835205337145908 0 -54.835205337145908 149.87657627770989 0 0 0 0 14.122389902215218 -93.619838435237284 0 -93.619838435237284 175.49236464173563 0 0 0 0 9.2975430668757326 -239.54268093315207 0 -239.54268093315207 -89.699157785496027 0 0 0 0 -3.7453109797591537 -18.629238965684404 0 -18.629238965684404 -4.2057604806029989 0 0 0 0 -151.37104453804204 -320.11492998631365 0 -320.11492998631365 1536.1346152232272 0 0 0 0 -85.148624815937012 -33.382261101529416 0 -33.382261101529416 -10.672329278011338 0 0 0 0 46.864695525655407 -286.97412452573053 0 -286.97412452573053 1193.7656047811815 0 0 0 0 31.859971763144131 -246.94802667718545 0 -246.94802667718545 720.95941035429132 0 0 0 0 1.1031046652169607 -210.82288695430861 0 -210.82288695430861 1191.2950444759954 0 0 0 0 165.05783153566881 -465.12853113521305 0 -465.12853113521305 764.49181682080143 0 0 0 0 73.876323884003796 -214.99048716117341 0 -214.99048716117341 714.36915277562366 0 0 0 0 201.37741752690636 -178.61793579120058 0 -178.61793579120058 354.86525251953208 0 0 0 0 57.571171016359585 100.27662132818205 0 100.27662132818205 629.58419873862294 0 0 0 0 214.91880918972311 -240.15442814499352 0 -240.15442814499352 68.28054245426938 0 0 0 0 -124.77549887410714 32.544640189669735 0 32.544640189669735 1354.2402091163094 0 0 0 0 542.64821427063725 -816.15224185664056 0 -816.15224185664056 805.82313028839144 0 0 0 0 706.89954345181468 -1137.3593870617597 0 -1137.3593870617597 1429.6072519041809 0 0 0 0 333.91231838906242 -825.27315226315886 0 -825.27315226315886 1351.8483025889673 0 0 0 0 163.55768799730868 -469.48791719548535 0 -469.48791719548535 800.21138042061466 0 0 0 0 -228.32858875594684 -489.23582363195601 0 -489.23582363195601 1351.582675678841 0 0 0 0 -26.998773429426365 -222.7389067848917 0 -222.7389067848917 153.50100080162383 0 0 0 0 -22.930584481335245 -282.41053838888956 0 -282.41053838888956 1555.1373628808687 0 0 0 0 -8.7692445578290403 -26.24921810470223 0 -26.24921810470223 -6.4720843009646281 0 0 0 0 -31.349217375100125 322.91683764112531 0 322.91683764112531 1173.0421758249183 0 0 0 0 250.28267559868982 -634.05276108273665 0 -634.05276108273665 1140.9713125763592 0 0 0 0 153.13232610004343 -946.6981464596073 0 -946.6981464596073 2272.2137471628521 0 0 0 0 1496.729889501119 -1072.5566146572783 0 -1072.5566146572783 1313.5989385321218 0 0 0 0 -6.5390227112344519 -12.542927030561202 0 -12.542927030561202 -1.2111674424103036 0 0 0 0 -128.25490114305285 15.087454345131391 0 15.087454345131391 2083.2818514797655 0 0 0 0 40.27815724355986 -53.391625346089668 0 -53.391625346089668 13.473563558291866 0 0 0 0 87.211064324132167 -55.27957218668962 0 -55.27957218668962 -10.186358144903807 0 0 0 0 -193.48040412444971 -168.8181482615521 0 -168.8181482615521 105.11551223880178 0 0 0 0 -75.900576712072677 -43.382033270543076 0 -43.382033270543076 -9.6607302058214284 0 0 0 0 24.503645528210114 -29.100703393125684 0 -29.100703393125684 -5.673572530226445 0 0 0 0 -374.19943801264162 -134.30443233387541 0 -134.30443233387541 4.5144708185825948 0 0 0 0 24.502725428186722 -6.0451060617470489 0 -6.0451060617470489 -0.51147671717421872 0 0 0 0 25.276224235461626 -33.032354777950786 0 -33.032354777950786 25.391004268392265 0 0 0 0 -185.29637627386546 -181.88693186760656 0 -181.88693186760656 -2.5499109389281784 0 0 0 0 50.896037239013822 -59.415476621131695 0 -59.415476621131695 -3.1380817964803214 0 0 0 0 41.622663744565216 -47.880246043264833 0 -47.880246043264833 7.7922750470154369 0 0 0 0 53.078706181389862 -54.577659428745392 0 -54.577659428745392 6.7131137602214039 0 0 0 0 48.203837772009138 -47.640621303947569 0 -47.640621303947569 -2.4724497224696051 0 0 0 0 8.8112451993947616 -53.608669222874823 0 -53.608669222874823 15.029491433355361 0 0 0 0 0.088958227162947878 -39.169889590571529 0 -39.169889590571529 7.9987124280924036 0 0 0 0 -8.4312998456007335 -27.398285178586548 0 -27.398285178586548 18.279975697513692 0 0 0 0 -15.076073503639236 -40.633985842198172 0 -40.633985842198172 23.35529244555001 0 0 0 0 -27.270361809667946 -15.638439935427073 0 -15.638439935427073 22.522342888009664 0 0 0 0 2.7237858555745333 -72.508808392963147 0 -72.508808392963147 20.327047649268934 0 0 0 0 -13.667853917111643 -44.930234491639567 0 -44.930234491639567 32.792285231711503 0 0 0 0 11.665594025143662 -32.877641298506774 0 -32.877641298506774 16.310313375405215 0 0 0 0 13.981533488899004 -69.249850275909921 0 -69.249850275909921 0.91556500141496144 0 0 0 0 52.459455637348583 -67.777920452214204 0 -67.777920452214204 14.260190595778795 0 0 0 0 31.231960515957326 -42.43765781101817 0 -42.43765781101817 38.311671873313216 0 0 0 0 1.3899356274341699 -55.319181038369607 0 -55.319181038369607 44.391565785277635 0 0 0 0 23.13296265547217 -40.633742573434674 0 -40.633742573434674 18.82247416275478 0 0 0 0 19.555110829751357 -22.060698115210386 0 -22.060698115210386 2.7969358531421733 0 0 0 0 -119.95649312571913 -216.05312380675059 0 -216.05312380675059 -92.446168495965594 0 0 0 0 -101.49083101301221 -153.13919088999955 0 -153.13919088999955 -114.61966926980858 0 0 0 0 -18.315442367216747 -63.507911924986729 0 -63.507911924986729 12.168564476981373 0 0 0 0 28.252954674334433 -23.535559156362623 0 -23.535559156362623 13.906074176989469 0 0 0 0 -7.1106617528712377 -180.33902734530511 0 -180.33902734530511 -96.436817796311516 0 0 0 0 -32.907924139886745 -219.73757184980695 0 -219.73757184980695 -49.984598693326916 0 0 0 0 39.195595338722342 -274.22042944391706 0 -274.22042944391706 -100.69551870708665 0 0 0 0 51.174110317201382 -40.418999716370365 0 -40.418999716370365 20.469496732173909 0 0 0 0 19.204185149574187 -16.986641214029987 0 -16.986641214029987 -29.321732170385076 0 0 0 0 4.7572255386621691 -187.88999980380322 0 -187.88999980380322 147.12649015970601 0 0 0 0 19.086925875868474 -217.45258555496957 0 -217.45258555496957 -260.85609317357012 0 0 0 0 -7.6468971661237219 -12.004281738743252 0 -12.004281738743252 8.0435676030132157 0 0 0 0 70.038524097297341 -49.779807284653771 0 -49.779807284653771 -59.258050941227566 0 0 0 0 -7.5618392130363645 -26.955803942877139 0 -26.955803942877139 53.623778034641873 0 0 0 0 19.558870874088882 -39.192780201449395 0 -39.192780201449395 27.934287341754107 0 0 0 0 30.366311270743608 -4.3879466398102522 0 -4.3879466398102522 -13.24622075591833 0 0 0 0 15.302833843388044 -23.836264123274702 0 -23.836264123274702 4.6409952161873926 0 0 0 0 94.017672663001576 -163.02654098125367 0 -163.02654098125367 -241.35226517413867 0 0 0 0 19.334572958493936 -28.583863468660525 0 -28.583863468660525 14.378112929491829 0 0 0 0 -1.0526724747905973 -92.002839452865373 0 -92.002839452865373 -91.471614320162189 0 0 0 0 82.700016121845692 -125.31195165024474 0 -125.31195165024474 -212.52347360155909 0 0 0 0 32.558137783425821 -75.486024616987692 0 -75.486024616987692 44.590875131980567 0 0 0 0 -16.412372002931079 -158.24389420199441 0 -158.24389420199441 -93.642350170326608 0 0 0 0 30.40002504959898 -5.808096323504401 0 -5.808096323504401 -23.767711089609762 0 0 0 0 -47.784834380290704 -182.65849870826605 0 -182.65849870826605 12.387715201548417 0 0 0 0 68.441668651037617 -219.14832794552785 0 -219.14832794552785 8.550727402083794 0 0 0 0 -16.346321697631538 -212.68557088363457 0 -212.68557088363457 93.636889229150256 0 0 0 0 27.965899055328919 -170.84911478142749 0 -170.84911478142749 126.25425827163963 0 0 0 0 25.415210466308054 -144.57559389218113 0 -144.57559389218113 71.946934998493816 0 0 0 0 97.396128487889655 -171.48036632941864 0 -171.48036632941864 -136.21392116356219 0 0 0 0 79.481307012145407 -258.02873477977118 0 -258.02873477977118 -37.057296747337659 0 0 0 0 -15.73996462170453 -198.59921796040865 0 -198.59921796040865 132.60917293023522 0 0 0 0 318.59948939646574 -57.553325800643677 0 -57.553325800643677 -207.9665103179359 0 0 0 0 305.394252003578 -422.82427749358521 0 -422.82427749358521 82.672197062132909 0 0 0 0 79.648112193710404 -104.29859387535726 0 -104.29859387535726 -178.43283902850453 0 0 0 0 135.08001399926434 -10.548238399076126 0 -10.548238399076126 -526.31942720790175 0 0 0 0 -4.4675123834703072 -22.926848690554699 0 -22.926848690554699 3.9475319004596763 0 0 0 0 -145.36110669946356 222.33718084037309 0 222.33718084037309 -370.79950130490033 0 0 0 0 15.964297209131473 35.281444549669231 0 35.281444549669231 -271.62571231148286 0 0 0 0 32.858410083310446 -172.27077463781279 0 -172.27077463781279 -126.34710770752008 0 0 0 0 160.46575076025329 22.544767913596843 0 22.544767913596843 -353.12153808409312 0 0 0 0 -362.11585090955487 -408.25011443564108 0 -408.25011443564108 -408.92286338741906 0 0 0 0 -417.75476165651344 -456.12912406959731 0 -456.12912406959731 -223.15162380683159 0 0 0 0 -738.36939390969928 -555.63085966262224 0 -555.63085966262224 -86.13273068064882 0 0 0 0 -708.17030538196559 -508.03697346643457 0 -508.03697346643457 -14.457187825657456 0 0 0 0 -476.79745159583399 -536.74079857375727 0 -536.74079857375727 -284.58367523381094 0 0 0 0 -645.39104517386295 -757.5967237484283 0 -757.5967237484283 -411.18381879338995 0 0 0 0 -678.23589112160698 -650.46608930255707 0 -650.46608930255707 -37.96058343607001 0 0 0 0 -67.113829174923012 -139.54940945132876 0 -139.54940945132876 -361.17610393066889 0 0 0 0 -175.37733470526291 -396.48938181626181 0 -396.48938181626181 -849.68017444948055 0 0 0 0 -314.45018751724274 -88.755732277859352 0 -88.755732277859352 -3.1996004895499937 0 0 0 0 -349.99934104678687 -242.21784088940876 0 -242.21784088940876 -145.00863524883607 0 0 0 0 -4.3773495751167388 -1.5659075499654875 0 -1.5659075499654875 -2.347002853951409 0 0 0 0 -244.98669116910605 -295.5343795215158 0 -295.5343795215158 -322.14395633149616 0 0 0 0 -418.6442636551219 -272.00077946879901 0 -272.00077946879901 -300.9437547838952 0 0 0 0 -676.58318252008758 121.54507573706178 0 121.54507573706178 119.2348625287168 0 0 0 0 -739.41496558893414 -17.834138915698077 0 -17.834138915698077 -109.63424756866152 0 0 0 0 -293.8593760671647 -133.0395428584352 0 -133.0395428584352 -74.963832776778872 0 0 0 0 -475.10234730248339 -198.8632436665539 0 -198.8632436665539 14.188767889646442 0 0 0 0 -545.4807595613529 -339.77947694646718 0 -339.77947694646718 -175.18898827420708 0 0 0 0 -574.01955550543789 -248.19580532021064 0 -248.19580532021064 186.02119594694159 0 0 0 0 -244.67874147391558 62.472469884980001 0 62.472469884980001 92.018083155533532 0 0 0 0 -36.031408751543495 -5.3066466173322624 0 -5.3066466173322624 30.358104604061737 0 0 0 0 -14.004444740958448 8.7533621734948497 0 8.7533621734948497 24.474790167052795 0 0 0 0 -13.318548166933809 -3.1679791498557961 0 -3.1679791498557961 18.423272350364613 0 0 0 0 -18.421135780023178 -2.1594015217265223 0 -2.1594015217265223 17.656878946949291 0 0 0 0 -29.526853755363845 -0.37449256172703826 0 -0.37449256172703826 21.236916489524447 0 0 0 0 -19.756999187970052 0.054525576406106779 0 0.054525576406106779 11.664395421192946 0 0 0 0 1220.8013977604569 -709.59593933802535 0 -709.59593933802535 418.72001734359219 0 0 0 0 -27.799792425961641 -15.987862032547582 0 -15.987862032547582 586.65363458389402 0 0 0 0 119.68999904761586 100.61636724446362 0 100.61636724446362 -401.42722902096648 0 0 0 0 -0.30059082999288478 -4.8055306687724624 0 -4.8055306687724624 1.218092933481131 0 0 0 0 1203.138669755077 -582.67429674290906 0 -582.67429674290906 120.94644529115612 0 0 0 0 -3.0835760983321734 -5.6029898265734062 0 -5.6029898265734062 12.150852883156553 0 0 0 0 -69.05757778811676 -179.94371121227505 0 -179.94371121227505 571.73048349706551 0 0 0 0 -1046.8576823563781 -938.32571981943511 0 -938.32571981943511 -119.44037139901047 0 0 0 0 -847.70937546565256 -286.06070779006495 0 -286.06070779006495 740.72940860233211 0 0 0 0 -788.77259095193585 -1127.8370589247024 0 -1127.8370589247024 -736.07801127004495 0 0 0 0 -1487.0758524053381 33.177989922751294 0 33.177989922751294 204.94263889210924 0 0 0 0 -842.86914870020337 273.86651609592627 0 273.86651609592627 -1167.1124129615782 0 0 0 0 -1759.9228722790722 121.58197336598278 0 121.58197336598278 1411.8497448381022 0 0 0 0 -1819.7798811938264 -1130.1051119534422 0 -1130.1051119534422 2180.6366130225269 0 0 0 0 -1718.7081546252302 86.489390107652071 0 86.489390107652071 414.02968600486929 0 0 0 0 -1874.8290252000588 -787.52788220332968 0 -787.52788220332968 597.78455094000674 0 0 0 0 -144.12918581833947 -181.15096985395212 0 -181.15096985395212 1104.0806262448823 0 0 0 0 10.675181824612082 -502.81327222664004 0 -502.81327222664004 1349.7163251783422 0 0 0 0 246.22436468920205 -697.66341833755723 0 -697.66341833755723 286.72401587772401 0 0 0 0 224.22620006062789 -706.35644967733242 0 -706.35644967733242 1322.6553826513882 0 0 0 0 1335.9692110774049 -1296.3920283949592 0 -1296.3920283949592 2212.7561317195432 0 0 0 0 861.57292410649825 -1067.7805144602607 0 -1067.7805144602607 1367.9796574619868 0 0 0 0 1135.4790465771803 -1681.5132285218715 0 -1681.5132285218715 1492.4820070782471 0 0 0 0 1582.7947064317996 -633.02470450743203 0 -633.02470450743203 1428.5650544793405 0 0 0 0 2091.1545878023608 -2262.3514681591228 0 -2262.3514681591228 358.63420015737574 0 0 0 0 1075.1153367683 -1426.7301727036802 0 -1426.7301727036802 418.9486147163334 0 0 0 0 244.55661387101281 -1451.6370887586381 0 -1451.6370887586381 9.9763602268576506 0 0 0 0 414.99964573318721 -1084.2974684853489 0 -1084.2974684853489 244.1885397662154 0 0 0 0 1982.502970951813 -1800.0962033276337 0 -1800.0962033276337 -1419.1831801442231 0 0 0 0 -688.97545972294756 -653.87930657963898 0 -653.87930657963898 768.06227241347369 0 0 0 0 -904.21706979104783 -1143.9258585877969 0 -1143.9258585877969 83.311737096152683 0 0 0 0 393.77399877988501 -1749.3168502022218 0 -1749.3168502022218 357.07599149118323 0 0 0 0 362.55626867216779 -987.63343804316173 0 -987.63343804316173 521.66619909303517 0 0 0 0 126.54189237918763 -1123.02390506238 0 -1123.02390506238 -693.30181185492438 0 0 0 0 -365.38140060019214 -271.16706680141033 0 -271.16706680141033 -441.66079936051574 0 0 0 0 132.22047974835732 -144.0760794817752 0 -144.0760794817752 -454.71416235014203 0 0 0 0 77.251055635948433 210.47623671165547 0 210.47623671165547 74.567726351217061 0 0 0 0 -622.86961329143378 -3.388051266221737 0 -3.388051266221737 1162.6646561726247 0 0 0 0 -335.61498811788624 -472.17495626937671 0 -472.17495626937671 -114.06911834011407 0 0 0 0 -175.79023802984739 140.82377018178158 0 140.82377018178158 775.50956311561276 0 0 0 0 -915.462313750264 -498.19193872623146 0 -498.19193872623146 -472.04964204528915 0 0 0 0 -10.916626841015159 -0.63543371979267249 0 -0.63543371979267249 -0.65174999976060377 0 0 0 0 -259.41959703573957 21.287873798915825 0 21.287873798915825 -365.28605640214028 0 0 0 0 -251.90427474293392 -910.67736758370847 0 -910.67736758370847 -1446.6551347140212 0 0 0 0 -863.07481717166957 193.19973837528232 0 193.19973837528232 245.5488299774579 0 0 0 0 -5.8184012698353627 3.8938797649059893 0 3.8938797649059893 -1.6683996936258616 0 0 0 0 297.36495056810963 258.04078842363197 0 258.04078842363197 -268.3246701275275 0 0 0 0 184.98606518443557 -166.3046727802539 0 -166.3046727802539 98.390722238820672 0 0 0 0 -112.38344765891088 -85.541957737541452 0 -85.541957737541452 340.58454573622748 0 0 0 0 -23.034543359544614 -3.6590514779856704 0 -3.6590514779856704 8.2472175603055238 0 0 0 0 -28.948166651787346 -4.4741904509088215 0 -4.4741904509088215 2.847096752339624 0 0 0 0 4.2445522015987081 -30.460899702592087 0 -30.460899702592087 0.81708502714354836 0 0 0 0 67.82079423279913 -38.467803722911398 0 -38.467803722911398 12.580579234205336 0 0 0 0 -82.56150120618986 -290.74858832430527 0 -290.74858832430527 142.2659792731838 0 0 0 0 40.197294650104595 -260.26582496826177 0 -260.26582496826177 -128.59319787936238 0 0 0 0 38.534091111214366 -42.305751660928081 0 -42.305751660928081 6.4589495402840384 0 0 0 0 606.99568442441523 -1266.6950845469382 0 -1266.6950845469382 2170.5567532041473 0 0 0 0 -147.08376885438338 -592.63290148198939 0 -592.63290148198939 -591.05241186786543 0 0 0 0 36.247979296488836 -13.99092454561837 0 -13.99092454561837 3.6036496200040782 0 0 0 0 32.424686315725921 -10.174212679857078 0 -10.174212679857078 -3.3953586268237359 0 0 0 0 20.936098385118839 -11.780872803091512 0 -11.780872803091512 -4.6541729811895305 0 0 0 0 645.61382761067944 -1565.9808345369772 0 -1565.9808345369772 2161.1716660696561 0 0 0 0 483.59292036241459 -1252.1845970044437 0 -1252.1845970044437 1819.9076159759334 0 0 0 0 14.189027918369902 -24.142920162532086 0 -24.142920162532086 -11.631596700514766 0 0 0 0 419.63955202321813 -1065.1817859031253 0 -1065.1817859031253 1723.190728496249 0 0 0 0 42.535108597832732 -46.377717220217733 0 -46.377717220217733 9.3550163988261374 0 0 0 0 1219.2156866473379 -885.43725985878245 0 -885.43725985878245 570.35450490421726 0 0 0 0 1036.6879309061624 -848.41162373236966 0 -848.41162373236966 1779.0688536410705 0 0 0 0 1404.2758522058139 -684.42079408664119 0 -684.42079408664119 1326.3391622099862 0 0 0 0 693.77650095251738 -1396.8209747563478 0 -1396.8209747563478 1625.0560469103661 0 0 0 0 320.01654664763191 -1093.6318157594969 0 -1093.6318157594969 1450.7044551303861 0 0 0 0 622.26038621152111 -1358.3464127895998 0 -1358.3464127895998 1352.4616236966776 0 0 0 0 257.27988912008004 -1491.6004677379997 0 -1491.6004677379997 1197.879482292426 0 0 0 0 1403.3519376765471 -1077.1628745427706 0 -1077.1628745427706 1215.3328172561378 0 0 0 0 1087.565650112374 -642.41521065925917 0 -642.41521065925917 1511.9297403004202 0 0 0 0 1479.8858742671146 -720.16153738735966 0 -720.16153738735966 1278.7540721557907 0 0 0 0 204.4874164271896 -89.726622085550616 0 -89.726622085550616 829.23887552665656 0 0 0 0 142.29295654007001 -109.99911745778923 0 -109.99911745778923 841.6376276318415 0 0 0 0 14.978576546534896 -48.809261325436182 0 -48.809261325436182 816.11815976909497 0 0 0 0 67.958617778349435 -191.59755427312439 0 -191.59755427312439 684.88594218664866 0 0 0 0 -178.83108033475582 -211.52747009144923 0 -211.52747009144923 944.77517240410361 0 0 0 0 -328.6391310695908 -581.00040840034899 0 -581.00040840034899 1237.5182631829191 0 0 0 0 -7.753420799432206 -489.54325535291844 0 -489.54325535291844 851.7921153710422 0 0 0 0 409.99375303374836 -1050.31565521212 0 -1050.31565521212 1438.1287538960134 0 0 0 0 322.17724638819345 -470.39082761504915 0 -470.39082761504915 1044.6585071528586 0 0 0 0 153.87646668666275 -529.65441170173563 0 -529.65441170173563 1088.6300862315629 0 0 0 0 751.04770543621271 -883.37305068133355 0 -883.37305068133355 1253.8567029592491 0 0 0 0 586.77198778407183 -945.31929913336171 0 -945.31929913336171 1263.4793557736402 0 0 0 0 496.88089072318689 -412.594385295488 0 -412.594385295488 908.63856625232984 0 0 0 0 637.6249150326621 -326.14885407808902 0 -326.14885407808902 877.23983124630104 0 0 0 0 290.04003865965933 129.71965390190473 0 129.71965390190473 631.11453595206467 0 0 0 0 948.37752552688471 -397.97831065783248 0 -397.97831065783248 570.82744820647031 0 0 0 0 896.00709290470695 -379.35653330733658 0 -379.35653330733658 909.55167597812897 0 0 0 0 1364.0525983552798 -863.42047673016577 0 -863.42047673016577 940.26684269673274 0 0 0 0 2239.0833928294305 -1621.1358000863727 0 -1621.1358000863727 1206.8494595942925 0 0 0 0 1326.3773632543744 -1540.2367889792549 0 -1540.2367889792549 3198.5982345613511 0 0 0 0 1533.3534948896267 -306.68229585470999 0 -306.68229585470999 57.753985188808201 0 0 0 0 930.71305279918306 -1314.9238811612299 0 -1314.9238811612299 1581.8416276988273 0 0 0 0 1004.7443512837344 -1222.6139490559331 0 -1222.6139490559331 1645.7615594029953 0 0 0 0 1300.2739142628852 -1952.1527836418902 0 -1952.1527836418902 2395.591930103772 0 0 0 0 1786.1880684820062 -1207.1912662568461 0 -1207.1912662568461 2660.6883131564682 0 0 0 0 191.10716100991704 -1762.372038296563 0 -1762.372038296563 4729.0476696965779 0 0 0 0 5.5932970647935463 5.8918283102623974 0 5.8918283102623974 -6.7787915998376143 0 0 0 0 15.11808903853148 -2.8724598408283128 0 -2.8724598408283128 -0.0063559510438515598 0 0 0 0 1005.5274560923281 -25.958925016863532 0 -25.958925016863532 -3025.5844579598379 0 0 0 0 1162.4119363970822 -2455.670814112008 0 -2455.670814112008 5260.6673716470668 0 0 0 0 1429.2228174245683 -3308.9809999684035 0 -3308.9809999684035 4409.5016171756815 0 0 0 0 2961.9542304043862 -2481.2993022276019 0 -2481.2993022276019 1662.5269175404446 0 0 0 0 1182.7413489592727 -1242.4131357267984 0 -1242.4131357267984 3440.8156274687863 0 0 0 0 1012.2534788668563 208.16230360871577 0 208.16230360871577 -1075.3836322320906 0 0 0 0 -407.67678716170485 -276.39802141116525 0 -276.39802141116525 -753.85369001412164 0 0 0 0 -938.58078294941515 -959.74542289357623 0 -959.74542289357623 -403.72300385694325 0 0 0 0 10.633752133551866 -24.262137361351165 0 -24.262137361351165 35.415876995668036 0 0 0 0 -2281.8926681957746 -972.61770058093362 0 -972.61770058093362 1056.2721967405878 0 0 0 0 -6.9051184403360821 35.76074434066436 0 35.76074434066436 895.26874351174547 0 0 0 0 -121.01846050051972 -521.7030321447387 0 -521.7030321447387 -129.44847181805449 0 0 0 0 -17.592687313212082 -16.726926474574157 0 -16.726926474574157 860.74921296849288 0 0 0 0 -214.52752007635718 399.85444340526942 0 399.85444340526942 174.84872386145571 0 0 0 0 -987.37633672272204 275.37548480255521 0 275.37548480255521 906.9885741356818 0 0 0 0 -1156.625454890851 -256.54071862223441 0 -256.54071862223441 1808.7982490353302 0 0 0 0 -72.30990891707188 -265.22155059592774 0 -265.22155059592774 1220.3573046654024 0 0 0 0 -40.029273599211592 14.634061149646641 0 14.634061149646641 833.99983628948928 0 0 0 0 143.68463482019752 45.112402551636727 0 45.112402551636727 805.74149783670555 0 0 0 0 -12.41410098457709 -873.98796034615816 0 -873.98796034615816 700.84925222205538 0 0 0 0 -6.5707191534456797 -868.46499029110919 0 -868.46499029110919 701.84943387219641 0 0 0 0 876.03121788942371 597.15863103801883 0 597.15863103801883 370.33218521948959 0 0 0 0 69.410384503367823 -1054.8427836679325 0 -1054.8427836679325 1418.1838135361777 0 0 0 0 -11.912940276204608 -980.64583636439943 0 -980.64583636439943 2241.9927702742189 0 0 0 0 5.0492034264919141 -10.650141993824775 0 -10.650141993824775 15.943669148594655 0 0 0 0 787.81762928843091 -1159.3698115958714 0 -1159.3698115958714 215.66168296342039 0 0 0 0 -0.2025910265656421 -879.90368721849541 0 -879.90368721849541 698.41559401782251 0 0 0 0 320.93526829377515 -1107.7198586117938 0 -1107.7198586117938 243.06769526260359 0 0 0 0 0.61619691654050257 -648.86792166270516 0 -648.86792166270516 -271.14735320082491 0 0 0 0 -675.18944829318207 -401.4746642275295 0 -401.4746642275295 -138.33778762687962 0 0 0 0 220.12452766252682 -453.81850853405467 0 -453.81850853405467 -442.18728912798997 0 0 0 0 5.8194938058732077 -498.68665493906701 0 -498.68665493906701 -442.08820636923156 0 0 0 0 -455.83372756250901 -299.70985604624548 0 -299.70985604624548 279.09755891313762 0 0 0 0 4.9409191570885014 -490.14619819125073 0 -490.14619819125073 -2.7054545028677239 0 0 0 0 -262.07654820304015 -471.31134618615761 0 -471.31134618615761 823.07972938153102 0 0 0 0 -0.19597842015218811 -644.98044053909109 0 -644.98044053909109 148.43793093460772 0 0 0 0 55.996046065818518 -638.28296006695746 0 -638.28296006695746 834.37902813539904 0 0 0 0 -790.56408617109992 -505.7899166510997 0 -505.7899166510997 1290.731669590441 0 0 0 0 -253.77742972114356 -954.47544115237179 0 -954.47544115237179 1392.233725083639 0 0 0 0 -309.84797956657712 -693.28633815435569 0 -693.28633815435569 1227.14676427429 0 0 0 0 -201.04386079167307 -540.34994196192747 0 -540.34994196192747 405.44327907433762 0 0 0 0 -1289.8283487746958 11.285464887678245 0 11.285464887678245 653.28085170484337 0 0 0 0 -530.24554412681027 -850.07181095753731 0 -850.07181095753731 1325.3327401570004 0 0 0 0 1987.4612646643363 -2426.8387925912039 0 -2426.8387925912039 267.86756243258878 0 0 0 0 8.6322848406523462 -15.472607597400753 0 -15.472607597400753 17.051475723193704 0 0 0 0 -1386.8303562651472 -1046.5609157085735 0 -1046.5609157085735 1625.6458030119975 0 0 0 0 1609.7430916424055 -357.32944055828125 0 -357.32944055828125 2447.3426765545446 0 0 0 0 3662.6130203892244 -216.8925361683323 0 -216.8925361683323 1309.5388616177734 0 0 0 0 2882.771336601756 -2151.4471615863049 0 -2151.4471615863049 1588.2230681579313 0 0 0 0 137.71084210468689 -2066.821717837407 0 -2066.821717837407 2260.2543577963588 0 0 0 0 424.22845045488793 -1464.4099899337853 0 -1464.4099899337853 1292.2115391454572 0 0 0 0 1367.3487051003031 -2161.1820224839648 0 -2161.1820224839648 1618.14420430465 0 0 0 0 1115.0136731842067 -863.32352278838152 0 -863.32352278838152 1130.540055545338 0 0 0 0 2238.6956528113224 -356.07152776071234 0 -356.07152776071234 1303.3539445359008 0 0 0 0 -308.85403077304363 -848.72308398897076 0 -848.72308398897076 1256.0565829878169 0 0 0 0 -936.78553832504258 -863.99292638158477 0 -863.99292638158477 1701.7742274137308 0 0 0 0 -490.65133394760778 -1109.6819813620332 0 -1109.6819813620332 1592.2116693924982 0 0 0 0 0.82942962227389216 -1593.6792243997297 0 -1593.6792243997297 1980.3245743213247 0 0 0 0 -131.26500646036584 -1119.5628837563127 0 -1119.5628837563127 1323.5084368786629 0 0 0 0 -188.42879529095808 -959.33008999003187 0 -959.33008999003187 1375.4337428203435 0 0 0 0 110.92727257881779 -1334.8424339988669 0 -1334.8424339988669 1510.8230769789916 0 0 0 0 274.52372977601772 -1197.6671979376606 0 -1197.6671979376606 1115.402332686579 0 0 0 0 234.86732350631792 -1118.9711728187503 0 -1118.9711728187503 1120.3845747435989 0 0 0 0 218.73140383332793 -1097.7084293533899 0 -1097.7084293533899 1126.2048448494243 0 0 0 0 89.785822191217449 -886.22097259360453 0 -886.22097259360453 965.04021220362483 0 0 0 0 934.05404286785051 -522.88700231095572 0 -522.88700231095572 367.05989527525526 0 0 0 0 1163.91605990674 -890.84544904790164 0 -890.84544904790164 888.94330189128959 0 0 0 0 740.44628331251442 -1080.8072027557137 0 -1080.8072027557137 831.34989536182184 0 0 0 0 1340.8386674365465 -1096.6516758016787 0 -1096.6516758016787 718.04750920948572 0 0 0 0 602.77532424690435 -1503.885718636011 0 -1503.885718636011 1280.9926799025943 0 0 0 0 169.86207618005574 -781.24591697291908 0 -781.24591697291908 803.2333052046597 0 0 0 0 540.01096980142756 -910.10833948355685 0 -910.10833948355685 692.07207128289883 0 0 0 0 -18.1856548578412 -0.58271216923131419 0 -0.58271216923131419 7.6275932673671534 0 0 0 0 -19.99716198514551 -8.598740095222098 0 -8.598740095222098 11.731638817472621 0 0 0 0 442.09373599878745 89.670909758628113 0 89.670909758628113 -82.044449106005914 0 0 0 0 857.00604675564682 -261.92539959664646 0 -261.92539959664646 -104.37726655519873 0 0 0 0 -537.25126379475114 -587.21110239710833 0 -587.21110239710833 970.82790291585115 0 0 0 0 -26.078556748414655 -12.262364881824773 0 -12.262364881824773 -1.2265619154143437 0 0 0 0 377.64047975768335 -471.92674057403929 0 -471.92674057403929 492.90222748756787 0 0 0 0 -7.2122888120211428 -819.48499547380379 0 -819.48499547380379 1102.3866792403132 0 0 0 0 -55.829370587242011 -893.38521747941832 0 -893.38521747941832 1331.1352363498663 0 0 0 0 94.255157226754818 -714.2686474460279 0 -714.2686474460279 1173.0902284509139 0 0 0 0 288.99786446004873 -723.1697136965231 0 -723.1697136965231 682.65514893236832 0 0 0 0 154.98123078973731 -799.77727881658211 0 -799.77727881658211 1033.8118254231158 0 0 0 0 -2.7020416424398945 -5.3368937074988168 0 -5.3368937074988168 -1.0690166943855601 0 0 0 0 -110.12679784113425 -453.42316806685358 0 -453.42316806685358 950.24287217776873 0 0 0 0 -158.24091944748216 -605.54983314594256 0 -605.54983314594256 1321.6853496443873 0 0 0 0 -204.52529151763883 -563.26615261948245 0 -563.26615261948245 2192.0249093674938 0 0 0 0 234.66901532749762 -1009.6471992698171 0 -1009.6471992698171 1671.4472426755055 0 0 0 0 -149.67239038783009 -551.4217233186173 0 -551.4217233186173 1125.8052084629599 0 0 0 0 -0.20078126594307832 -369.89736668945079 0 -369.89736668945079 2180.7419809525454 0 0 0 0 567.66306053793232 -499.06373032716783 0 -499.06373032716783 1543.2717347193393 0 0 0 0 -26.203886374336435 -626.53510515698144 0 -626.53510515698144 1521.77952613661 0 0 0 0 0.19956630452361424 -759.77009921482204 0 -759.77009921482204 1174.9146138225333 0 0 0 0 87.502591405456769 -905.7777419515437 0 -905.7777419515437 1322.3914006209452 0 0 0 0 -111.11550212439033 -917.58483733756839 0 -917.58483733756839 1326.721166640662 0 0 0 0 -134.96391992972349 -836.87602100599725 0 -836.87602100599725 1594.4184295817031 0 0 0 0 -119.06354732028558 -248.47527780082964 0 -248.47527780082964 -203.81385351928475 0 0 0 0 -357.75591495379922 284.23359925722525 0 284.23359925722525 75.519308951894345 0 0 0 0 14.142216853779246 -2.2234014105870301 0 -2.2234014105870301 -130.87123609492301 0 0 0 0 -479.36630299558601 -230.04579285095861 0 -230.04579285095861 23.318779438144247 0 0 0 0 -441.15373627297959 -60.85195100346391 0 -60.85195100346391 -5.5020854314388998 0 0 0 0 -205.27588562419987 -202.10495871209787 0 -202.10495871209787 -135.95382725853415 0 0 0 0 -291.57115203700232 -204.14721085389465 0 -204.14721085389465 -125.12687533313692 0 0 0 0 -9.5378162504912325 -617.50966893442728 0 -617.50966893442728 32.785440845014818 0 0 0 0 4.939161604327289 -8.749285189503432 0 -8.749285189503432 -9.5542981864010272 0 0 0 0 -442.69969623501675 -371.21747807965676 0 -371.21747807965676 -192.24204078823823 0 0 0 0 -670.44858346739056 -186.77191041591323 0 -186.77191041591323 -172.01409244259094 0 0 0 0 -67.464383012546449 -394.55332846058491 0 -394.55332846058491 -415.39594755486542 0 0 0 0 -1156.762957426803 -846.15712205438467 0 -846.15712205438467 -216.87096734014267 0 0 0 0 2.5339079253488777 -4.2435444928504111 0 -4.2435444928504111 -6.0785152766499237 0 0 0 0 -22.640555850444485 6.969456572351767 0 6.969456572351767 -2.1648282490852324 0 0 0 0 -445.75292244737284 32.368892976483949 0 32.368892976483949 140.52727859104107 0 0 0 0 420.65370088408235 -136.66735939741193 0 -136.66735939741193 -1760.7785068158591 0 0 0 0 8.2106679238131619 82.352940836639391 0 82.352940836639391 -119.19636510181044 0 0 0 0 -12.353864944685483 12.959736891893044 0 12.959736891893044 -173.87260566314581 0 0 0 0 -75.432298825693579 44.925691343009021 0 44.925691343009021 -65.455646897045881 0 0 0 0 -198.87131870639132 -179.831952841163 0 -179.831952841163 -233.76805456051989 0 0 0 0 -296.41343398379831 -55.245859980420391 0 -55.245859980420391 -66.085657006753536 0 0 0 0 -68.349455379923739 13.869443893916756 0 13.869443893916756 91.794579079598407 0 0 0 0 -18.757665576926968 6.6001738214983732 0 6.6001738214983732 -2.4836321787186471 0 0 0 0 -1003.0834592067622 -684.46762376780771 0 -684.46762376780771 -475.12138487729317 0 0 0 0 -6.9382217783719966 3.574530375604084 0 3.574530375604084 -2.2385694656777453 0 0 0 0 -905.78805081584869 -427.21246821051227 0 -427.21246821051227 -170.07667063434928 0 0 0 0 -259.79941198396136 -356.75964420402141 0 -356.75964420402141 -370.14053979398341 0 0 0 0 -924.45030005812441 -304.16891385928739 0 -304.16891385928739 -197.42494369187989 0 0 0 0 -919.16673859217553 -372.58957875310989 0 -372.58957875310989 -304.08391048695376 0 0 0 0 -627.37498788580706 -289.61085565610119 0 -289.61085565610119 -403.40657871686744 0 0 0 0 -871.14815420090599 -404.72935124060677 0 -404.72935124060677 -367.46264680247077 0 0 0 0 -621.52527864245349 -422.74804533806855 0 -422.74804533806855 -438.43076068361552 0 0 0 0 -385.24557713059767 -393.45627486156354 0 -393.45627486156354 -389.02896498782502 0 0 0 0 -786.65685683784614 -70.604934351040356 0 -70.604934351040356 -429.9516354146399 0 0 0 0 -1273.7940331613136 -224.85291955672983 0 -224.85291955672983 -212.58198940642797 0 0 0 0 -143.50184567981341 -296.3493803219626 0 -296.3493803219626 -510.63120670737408 0 0 0 0 -168.72698687824595 -310.0160411720035 0 -310.0160411720035 -363.2521312779063 0 0 0 0 -256.93415505683515 -407.59132655871326 0 -407.59132655871326 -464.61328450243309 0 0 0 0 -342.17681445361086 -376.88902308964225 0 -376.88902308964225 -368.46072920387451 0 0 0 0 -349.03704773376376 -409.46070757121015 0 -409.46070757121015 -506.37591373917166 0 0 0 0 -622.81133893596416 -431.07782439732 0 -431.07782439732 -485.75643881794895 0 0 0 0 -385.50790525598859 -373.9058788967177 0 -373.9058788967177 -343.24535981224471 0 0 0 0 -343.35408063732029 -494.06080400132669 0 -494.06080400132669 -236.05411769191596 0 0 0 0 -274.64427913502732 -395.32149530419156 0 -395.32149530419156 -389.24471216728125 0 0 0 0 -272.76192325734883 -405.94683182181507 0 -405.94683182181507 -329.37571067067393 0 0 0 0 -369.47919596363499 -453.87532265227674 0 -453.87532265227674 -183.64673174059863 0 0 0 0 -356.20608491508028 -413.68843355591071 0 -413.68843355591071 -67.118815601435927 0 0 0 0 -297.95033460441482 -631.37873260407468 0 -631.37873260407468 -154.65025126888759 0 0 0 0 -429.5527432558556 -546.51650661939584 0 -546.51650661939584 130.80096608837812 0 0 0 0 2.2566688616262098 -4.4385503516939906 0 -4.4385503516939906 2.4307262242136005 0 0 0 0 -525.05217889389314 -177.53488590175766 0 -177.53488590175766 56.19799488874196 0 0 0 0 -467.34091699172313 -360.47085307858697 0 -360.47085307858697 199.70819686439063 0 0 0 0 -458.59903703455348 -344.2195227836055 0 -344.2195227836055 -44.640796556728219 0 0 0 0 -979.87665274436586 163.34299521293542 0 163.34299521293542 166.28763528967102 0 0 0 0 -1049.4491159908575 -440.11281261781005 0 -440.11281261781005 323.50894037426406 0 0 0 0 -263.94610417410149 -296.53725578489684 0 -296.53725578489684 -458.52509847569945 0 0 0 0 -182.69244817101207 -307.47659515540909 0 -307.47659515540909 35.843466626884037 0 0 0 0 -459.44569996489736 -497.88797461439935 0 -497.88797461439935 259.67981986704763 0 0 0 0 -559.95665571034442 -408.51329271778809 0 -408.51329271778809 89.101329776916828 0 0 0 0 -639.56952581089354 -349.43241693167329 0 -349.43241693167329 140.23038723796162 0 0 0 0 -530.67580225415986 -222.30173392323081 0 -222.30173392323081 15.383721078560484 0 0 0 0 -507.54614320114342 -190.01264222753525 0 -190.01264222753525 49.663660437636281 0 0 0 0 -1021.5105487500841 -230.6621129277446 0 -230.6621129277446 153.70424625921623 0 0 0 0 -625.74997633091334 -356.84414307249062 0 -356.84414307249062 56.56948427628231 0 0 0 0 -357.71503212599782 -262.11684394481563 0 -262.11684394481563 -104.97988765399168 0 0 0 0 -390.16776933684741 -258.21008840079048 0 -258.21008840079048 -90.269621127716164 0 0 0 0 -385.19144535840314 -238.62394041908738 0 -238.62394041908738 -98.752751141910267 0 0 0 0 -381.41499381056201 7.2268403317075354 0 7.2268403317075354 -1.2987662166342488 0 0 0 0 -467.81034670339068 -250.96533104555419 0 -250.96533104555419 -67.890938945420203 0 0 0 0 5.0600223149317429 -8.0875444187986147 0 -8.0875444187986147 10.690059941649224 0 0 0 0 -322.83388559504237 -143.49416157769883 0 -143.49416157769883 43.401758149366287 0 0 0 0 -402.14211447680282 -191.44421605649404 0 -191.44421605649404 -77.639551847823896 0 0 0 0 -347.37593858315086 -199.04506766832856 0 -199.04506766832856 -86.346062771921424 0 0 0 0 -302.56780136680754 -236.5581615863739 0 -236.5581615863739 -96.028448393479266 0 0 0 0 -371.54143332598323 -232.80390422795608 0 -232.80390422795608 -87.194240977813024 0 0 0 0 -336.65340561107223 -229.97666914067622 0 -229.97666914067622 -103.55003960063914 0 0 0 0 -219.94677373245213 -228.7123181974348 0 -228.7123181974348 -84.222573210201517 0 0 0 0 -314.09677314761211 -152.88975477526401 0 -152.88975477526401 -22.403122171468567 0 0 0 0 16.93874505101121 -75.934016416191298 0 -75.934016416191298 -19.133563964685891 0 0 0 0 -4.9740625979579107 -18.229150683226891 0 -18.229150683226891 15.790385859940528 0 0 0 0 -25.578065008710837 -199.62285972254904 0 -199.62285972254904 -34.481827535470075 0 0 0 0 -298.50289681334834 -305.36980568071704 0 -305.36980568071704 -68.284776904423779 0 0 0 0 -287.36879684861924 -482.25955103287197 0 -482.25955103287197 -159.06927465053741 0 0 0 0 71.75350603206607 -111.41569975431776 0 -111.41569975431776 -21.098089523100498 0 0 0 0 -16.441039956669073 -9.6562644577394536 0 -9.6562644577394536 -5.0732453579171164 0 0 0 0 -730.38166422615905 152.26585551575772 0 152.26585551575772 50.334373397359741 0 0 0 0 -196.37323977691995 52.430304230812908 0 52.430304230812908 -57.843498511436337 0 0 0 0 -61.451948435653321 67.450295946911865 0 67.450295946911865 -147.03618261123484 0 0 0 0 -609.21566957453615 -522.35466455993264 0 -522.35466455993264 -453.31067208241802 0 0 0 0 -956.55312852930365 -474.72975603610575 0 -474.72975603610575 -223.34923524359237 0 0 0 0 -10.365615307448081 -2.9445500136026084 0 -2.9445500136026084 -12.678991411215193 0 0 0 0 157.95455514909918 -60.394673475966556 0 -60.394673475966556 -88.859998602827545 0 0 0 0 24.489143393817358 -33.662372223261627 0 -33.662372223261627 -30.057444222562481 0 0 0 0 -95.967088729084935 3.1965563897974789 0 3.1965563897974789 24.18533647665754 0 0 0 0 -8.7656657200771235 -16.1882356436641 0 -16.1882356436641 3.3098595741601002 0 0 0 0 -15.131721602253187 -66.363751971363598 0 -66.363751971363598 -8.1840491587957729 0 0 0 0 -4.1242204399073632 -47.472952585343293 0 -47.472952585343293 -23.444646934380671 0 0 0 0 -41.274769919455139 -45.824802888329941 0 -45.824802888329941 -17.491263552743476 0 0 0 0 13.589032819375461 -64.066109470371742 0 -64.066109470371742 -29.053127391704066 0 0 0 0 149.19115894450806 -207.73658302934928 0 -207.73658302934928 -150.70461891280138 0 0 0 0 -112.97966164558602 -71.731917104583772 0 -71.731917104583772 -32.455521796364337 0 0 0 0 -51.530921872714259 -31.142939410972716 0 -31.142939410972716 20.934270437814362 0 0 0 0 -35.072350820858077 -65.318149712737778 0 -65.318149712737778 -12.527022158711119 0 0 0 0 -44.217620471042068 -37.95881451044302 0 -37.95881451044302 -18.479815010292981 0 0 0 0 319.04823791073431 40.961306381926988 0 40.961306381926988 -6.0405113235901808 0 0 0 0 167.48960221760353 -165.2719584244287 0 -165.2719584244287 -120.7366080423235 0 0 0 0 -627.01106017072016 -252.29181766256806 0 -252.29181766256806 -484.73930976578231 0 0 0 0 -774.73214274876955 -560.62555534883359 0 -560.62555534883359 -220.71280580328676 0 0 0 0 -987.80079462338472 -208.93909094369883 0 -208.93909094369883 -171.50604278419632 0 0 0 0 -1063.541156033607 -364.19363670573512 0 -364.19363670573512 -77.138343341703603 0 0 0 0 -614.68999302198608 -379.61092658872144 0 -379.61092658872144 -184.10817605952616 0 0 0 0 -390.3951755737653 -336.92066475157117 0 -336.92066475157117 -309.78480748600487 0 0 0 0 -376.67705558195303 -299.86038889799784 0 -299.86038889799784 -209.67347850403166 0 0 0 0 -255.42794793267967 -382.08573367312783 0 -382.08573367312783 -269.38845400831906 0 0 0 0 -317.31497812491216 -410.48742521966415 0 -410.48742521966415 -233.38530640819954 0 0 0 0 -228.77992035946954 -275.47528491823778 0 -275.47528491823778 -96.561488423714763 0 0 0 0 -41.183435480488697 -521.37842863222431 0 -521.37842863222431 -194.86846706070355 0 0 0 0 -312.50263750107115 -394.00625777449022 0 -394.00625777449022 -241.40929373490599 0 0 0 0 -425.71626079589623 -276.09986419020424 0 -276.09986419020424 -163.28620510442488 0 0 0 0 -482.46713773838565 -478.76599146945409 0 -478.76599146945409 -126.03323267981159 0 0 0 0 -402.86936858544505 -340.28848629791446 0 -340.28848629791446 -12.716011765558505 0 0 0 0 -111.23180186888931 -458.32325907636186 0 -458.32325907636186 -132.97297043437084 0 0 0 0 -8.7818763258082981 -173.14386656789156 0 -173.14386656789156 -13.906020381135022 0 0 0 0 -189.6525077359056 -317.73959856367856 0 -317.73959856367856 -49.444228255695634 0 0 0 0 -317.17082800932803 -292.84533448333968 0 -292.84533448333968 -54.302437059694057 0 0 0 0 -648.05271246756638 -384.68050632583891 0 -384.68050632583891 -156.05836838891992 0 0 0 0 -766.28825525726279 -531.12433097843677 0 -531.12433097843677 -177.96992302385479 0 0 0 0 4.6051669349017956 -9.3054616476714216 0 -9.3054616476714216 -5.9071644356726836 0 0 0 0 -131.77918054351176 -241.59273578459579 0 -241.59273578459579 -117.14765226047712 0 0 0 0 -231.33058155879371 -284.88487252738832 0 -284.88487252738832 -31.591079263733263 0 0 0 0 -522.36211207707674 -461.10675349387384 0 -461.10675349387384 -311.57533099711145 0 0 0 0 -711.17611915611997 -243.96925048108642 0 -243.96925048108642 -179.03178228321485 0 0 0 0 -267.45960336537246 -528.1001149298354 0 -528.1001149298354 -124.62723183163507 0 0 0 0 2.4353600328467664 -5.5888956160261785 0 -5.5888956160261785 -2.9163208265675706 0 0 0 0 -1370.8421058935983 -810.38825700740017 0 -810.38825700740017 -96.140363503807748 0 0 0 0 581.73799628588677 -219.9207635192688 0 -219.9207635192688 -254.74917290190206 0 0 0 0 -787.76802922656134 -608.23713113281701 0 -608.23713113281701 -304.26108930969349 0 0 0 0 -336.22323319443603 -341.39544000667229 0 -341.39544000667229 -247.25370460163685 0 0 0 0 -2.5902829685630273 -5.1222078600939938 0 -5.1222078600939938 2.9541931453454708 0 0 0 0 -1061.0617602188431 -367.82375342162686 0 -367.82375342162686 -12.297161626294837 0 0 0 0 607.4407284103645 -334.69997739453902 0 -334.69997739453902 -112.15186648775853 0 0 0 0 184.17051519834604 -43.388400842405645 0 -43.388400842405645 38.692275928406161 0 0 0 0 187.5435384089833 -28.237400558489753 0 -28.237400558489753 106.74254498416303 0 0 0 0 48.835467933751715 -140.93789141974412 0 -140.93789141974412 -156.67326774462344 0 0 0 0 -82.268737815636996 -88.823754353101322 0 -88.823754353101322 19.552472826646408 0 0 0 0 17.487336435642646 -34.774086832043395 0 -34.774086832043395 -26.98543725842319 0 0 0 0 38.668265128861094 -103.8465965513933 0 -103.8465965513933 21.41620840545238 0 0 0 0 19.198753469523126 -10.856156874843236 0 -10.856156874843236 39.516199373210839 0 0 0 0 74.510004830015532 -80.178289951178158 0 -80.178289951178158 26.191590669273864 0 0 0 0 25.044048427372054 -69.055728657628521 0 -69.055728657628521 31.150109106022271 0 0 0 0 8.1202403665774909 -42.464507419363144 0 -42.464507419363144 5.935440036100772 0 0 0 0 108.59206088995961 -59.480584118270599 0 -59.480584118270599 21.739935541307204 0 0 0 0 -5.035644415554998 -45.323412067114987 0 -45.323412067114987 20.835801858091145 0 0 0 0 -14.161629221578551 -17.100326315655366 0 -17.100326315655366 27.811718134966213 0 0 0 0 43.581331583934116 -90.748578929635187 0 -90.748578929635187 44.415641501836944 0 0 0 0 78.868687961623436 -36.672236380677987 0 -36.672236380677987 4.9765399914394948 0 0 0 0 15.724165718258931 -19.306807409957532 0 -19.306807409957532 6.0219562586333666 0 0 0 0 85.066082412223977 -120.60179055190747 0 -120.60179055190747 37.72787282999343 0 0 0 0 158.17635041069298 -2.1928655817537219 0 -2.1928655817537219 -44.682511588347552 0 0 0 0 92.429217184730078 -114.7131961282048 0 -114.7131961282048 22.556507246787078 0 0 0 0 9.6775819028343832 -64.705423904680586 0 -64.705423904680586 21.876663007240182 0 0 0 0 36.775759101959174 -18.20277421546929 0 -18.20277421546929 -17.475330300472223 0 0 0 0 28.424530803264751 -68.738060915986154 0 -68.738060915986154 -10.856687724761429 0 0 0 0 122.46015483308474 -58.497670258987455 0 -58.497670258987455 -13.719704858023761 0 0 0 0 166.09582030398451 -76.320998031914314 0 -76.320998031914314 -145.83264062656235 0 0 0 0 59.17093976324395 -140.88855563359903 0 -140.88855563359903 1.5109753520309823 0 0 0 0 53.660785216401564 -92.579822196415989 0 -92.579822196415989 -418.73772789437135 0 0 0 0 -7.3696176111034788 0.053013902888952913 0 0.053013902888952913 4.7779936164752428 0 0 0 0 -249.08121400405071 -173.16480259840682 0 -173.16480259840682 122.6051692730216 0 0 0 0 -241.57601988552233 -361.98613376271533 0 -361.98613376271533 -215.66171417365331 0 0 0 0 -215.43704163584698 -365.04556897878138 0 -365.04556897878138 -302.30337859370047 0 0 0 0 -342.93873290970441 -312.83197533173916 0 -312.83197533173916 -210.47884758167129 0 0 0 0 -356.02336084455237 -274.14789305340491 0 -274.14789305340491 -134.28330717726749 0 0 0 0 -344.98848467628704 -265.74495612732426 0 -265.74495612732426 -219.8475512693185 0 0 0 0 -256.95305271298639 -355.18852749649341 0 -355.18852749649341 -215.20537242641876 0 0 0 0 -150.81188796085189 -149.63590035618836 0 -149.63590035618836 -67.766346958107533 0 0 0 0 -88.643531298359449 -173.76768203631036 0 -173.76768203631036 -94.681991562742041 0 0 0 0 7.4997190934373066 -71.903230097253982 0 -71.903230097253982 3.442623027600348 0 0 0 0 1.6352397845621454 -64.716003432447906 0 -64.716003432447906 20.015590831826557 0 0 0 0 12.052433481083426 -83.019524456805811 0 -83.019524456805811 28.371614025731105 0 0 0 0 11.374851048858886 -45.085633314168348 0 -45.085633314168348 5.4703256318713329 0 0 0 0 7.6511284394364338 -70.619531416479731 0 -70.619531416479731 7.9759951460255252 0 0 0 0 -12.27658998217521 -53.390094850949481 0 -53.390094850949481 -0.04853618869674392 0 0 0 0 7.4884715548105305 -62.348098112172011 0 -62.348098112172011 4.89875425529317 0 0 0 0 -6.2187349794849638 -64.777236683687008 0 -64.777236683687008 -13.764767192623964 0 0 0 0 -24.192771881296096 -59.548993751993123 0 -59.548993751993123 22.802151152661313 0 0 0 0 -50.335162822389975 -103.21964461097377 0 -103.21964461097377 -37.007905308542831 0 0 0 0 -3.5158136526760302 -14.937316468325378 0 -14.937316468325378 7.2372643280174671 0 0 0 0 -61.306164198747865 -87.211330356951294 0 -87.211330356951294 -6.8842805055319332 0 0 0 0 -51.646922076364717 -106.75224427817375 0 -106.75224427817375 -30.900914469821146 0 0 0 0 7.6579996864144562 -61.052268307777126 0 -61.052268307777126 14.335841250885892 0 0 0 0 -10.291647818278989 -58.727857092813679 0 -58.727857092813679 43.362638675195257 0 0 0 0 -29.424454136224938 -42.567711564344066 0 -42.567711564344066 38.15060799337607 0 0 0 0 -31.006167985455249 -51.726125493893051 0 -51.726125493893051 39.987400894169696 0 0 0 0 -33.837024777955833 -76.389004251182001 0 -76.389004251182001 37.134044715699531 0 0 0 0 155.28925076002997 -142.2817888738191 0 -142.2817888738191 -47.430467692902312 0 0 0 0 -24.116532085521612 -204.97195060364902 0 -204.97195060364902 79.92554791290604 0 0 0 0 9.9681737319333479 -97.255100122682052 0 -97.255100122682052 43.822274145059055 0 0 0 0 8.6268660619680304 -105.04510310652495 0 -105.04510310652495 41.145940779650118 0 0 0 0 -13.856470773814607 -70.841551831593932 0 -70.841551831593932 48.742605792779045 0 0 0 0 8.0650531238352414 -106.78354045833476 0 -106.78354045833476 38.252782771596685 0 0 0 0 -8.302057915891055 -95.205378961196402 0 -95.205378961196402 52.611668849160196 0 0 0 0 35.50298403587658 -106.02476215132629 0 -106.02476215132629 -30.074807019060245 0 0 0 0 10.805620166414883 -97.522378609341104 0 -97.522378609341104 39.53172811375407 0 0 0 0 4.8622384440386668 -84.706423840907519 0 -84.706423840907519 29.781694907076599 0 0 0 0 -13.887574250665978 -36.976295530971498 0 -36.976295530971498 4.8704813047295659 0 0 0 0 -0.040712597126145056 -33.679158514511016 0 -33.679158514511016 19.107172144671893 0 0 0 0 1.7547431780694751 -106.46818183065261 0 -106.46818183065261 59.228968052615528 0 0 0 0 -6.37482405413175 -84.652543912103283 0 -84.652543912103283 65.037260632368998 0 0 0 0 -18.776213622229989 -42.343571927172889 0 -42.343571927172889 41.763717279984121 0 0 0 0 -45.542057254642714 -65.298947805247735 0 -65.298947805247735 26.850572451061453 0 0 0 0 3.37869892087474 -81.48796703363405 0 -81.48796703363405 35.892423000623239 0 0 0 0 -41.040822629619583 -42.131470816197563 0 -42.131470816197563 22.885621663074758 0 0 0 0 -28.077443593880162 -58.533781920195906 0 -58.533781920195906 25.04747546868748 0 0 0 0 -4.7687770297634415 -72.284829727846954 0 -72.284829727846954 53.574007024639286 0 0 0 0 5.0328367769470788 -71.378103810100583 0 -71.378103810100583 31.221644778794143 0 0 0 0 5.0180841491965111 -86.992011989095772 0 -86.992011989095772 47.465615207431256 0 0 0 0 2.5905581968836486 -70.919100348481152 0 -70.919100348481152 32.482416026861756 0 0 0 0 -14.678026240537292 -56.913145632570377 0 -56.913145632570377 22.021693884875276 0 0 0 0 -12.523130697547458 -80.520095378913538 0 -80.520095378913538 35.928153060250224 0 0 0 0 20.659823051435524 -84.431422189406021 0 -84.431422189406021 55.458895170988399 0 0 0 0 31.35322577272018 -41.279324679017009 0 -41.279324679017009 63.889814140650742 0 0 0 0 -6.5408442519032803 -22.734404978167952 0 -22.734404978167952 -7.891607851900666 0 0 0 0 -4.9307639535152248 -23.103771253513113 0 -23.103771253513113 -17.06925552378236 0 0 0 0 -14.621458812340279 -43.185380776230886 0 -43.185380776230886 24.013242733635707 0 0 0 0 -16.5834534966462 -32.78815788889284 0 -32.78815788889284 33.752872946439766 0 0 0 0 42.448839667682478 -71.611313906621945 0 -71.611313906621945 15.069358228436613 0 0 0 0 -30.696308847123873 -57.378718144798768 0 -57.378718144798768 5.1604230003431439 0 0 0 0 8.7396587346975139 -5.2979926760161646 0 -5.2979926760161646 -0.54863173634105067 0 0 0 0 -65.795497519749915 -34.62601515930146 0 -34.62601515930146 36.522312307817629 0 0 0 0 -17.322398694792355 -63.806482574347683 0 -63.806482574347683 -5.6638489274773747 0 0 0 0 8.6492252817678619 -38.617872249468277 0 -38.617872249468277 1.0881995255652441 0 0 0 0 12.585683615150629 -57.223099710528913 0 -57.223099710528913 17.09513170493301 0 0 0 0 54.26006854546722 -52.190164207622729 0 -52.190164207622729 6.2147095777600043 0 0 0 0 54.232837870949879 -53.595562297490687 0 -53.595562297490687 35.824353653223625 0 0 0 0 24.187360162112981 -16.919772173790488 0 -16.919772173790488 -9.0567813235705614 0 0 0 0 52.172832651689532 -107.37798117155035 0 -107.37798117155035 40.053530411423708 0 0 0 0 -9.3123317323765491 -36.765989562911372 0 -36.765989562911372 -17.81563909026913 0 0 0 0 7.2009993419342209 -87.441645133651036 0 -87.441645133651036 -6.8824871138185699 0 0 0 0 56.747968306768598 -77.649543426072341 0 -77.649543426072341 49.610334215256444 0 0 0 0 -19.022518064615724 -81.855346738776461 0 -81.855346738776461 -1.2974215710582939 0 0 0 0 -27.455229984992911 -76.899852750192622 0 -76.899852750192622 -0.77798798878757225 0 0 0 0 -1.8292802991381905 -53.812040861006153 0 -53.812040861006153 19.181083364237566 0 0 0 0 1.3448330118985616 -53.995705707089115 0 -53.995705707089115 30.668453314792174 0 0 0 0 12.90458320804828 -66.140629821167749 0 -66.140629821167749 29.383058742114372 0 0 0 0 -10.138403445394943 -58.791723895586983 0 -58.791723895586983 10.821437389266066 0 0 0 0 -36.387792727791748 -63.056936008048979 0 -63.056936008048979 28.069572523760144 0 0 0 0 -27.817296201690624 -52.299267853751189 0 -52.299267853751189 9.6193886755645508 0 0 0 0 13.745732760426748 -47.43982546419555 0 -47.43982546419555 9.4188364375600884 0 0 0 0 -12.708319774006668 -51.557633493904177 0 -51.557633493904177 5.523761326498061 0 0 0 0 -4.8356695579189193 -39.854515695813603 0 -39.854515695813603 5.7696382067895371 0 0 0 0 7.9812643454788486 -57.020033627730299 0 -57.020033627730299 9.7270934911084623 0 0 0 0 -15.28623354884985 -48.35356387704087 0 -48.35356387704087 9.5279509059546399 0 0 0 0 5.0086390705255326 -54.545134104719182 0 -54.545134104719182 10.456699572805519 0 0 0 0 6.0318916322089322 -42.749818947485991 0 -42.749818947485991 4.3685200710409617 0 0 0 0 -42.692211512941867 -76.623274883352224 0 -76.623274883352224 60.149099605478114 0 0 0 0 -5.180718489218485 -49.364288789576364 0 -49.364288789576364 7.0752569941123937 0 0 0 0 -35.366749831446214 -58.346741489513079 0 -58.346741489513079 0.13436949651168106 0 0 0 0 -16.603943046167842 -47.598571351253668 0 -47.598571351253668 1.5696847542021715 0 0 0 0 -28.094073190324707 -53.798777554795379 0 -53.798777554795379 2.0398279145902052 0 0 0 0 0.46719123922016337 -54.944026148337116 0 -54.944026148337116 -14.952866739631091 0 0 0 0 -17.109756455720344 -54.656865972072865 0 -54.656865972072865 -5.7027034645207095 0 0 0 0 -75.404107617297996 -79.90023516347901 0 -79.90023516347901 -7.9245205658344275 0 0 0 0 -28.733546698189457 -92.146108880965585 0 -92.146108880965585 -24.992360469843334 0 0 0 0 -20.062936208683823 -71.718153391942906 0 -71.718153391942906 -13.288452160411907 0 0 0 0 -17.219016913250016 -84.916065789528602 0 -84.916065789528602 -8.3543668409984093 0 0 0 0 14.423476424044775 -76.515903780602372 0 -76.515903780602372 -8.7927975166181227 0 0 0 0 -3.993221942022501 -74.298437150739119 0 -74.298437150739119 -26.0458818778161 0 0 0 0 10.38371436170728 -59.659877052795096 0 -59.659877052795096 -82.316560124726095 0 0 0 0 -125.72467153072284 -114.6971156267266 0 -114.6971156267266 -71.131407878163373 0 0 0 0 -21.009681414401712 -132.12290300461336 0 -132.12290300461336 -336.26685827312031 0 0 0 0 -99.276501139858738 -120.61077152985035 0 -120.61077152985035 -91.851849541140837 0 0 0 0 -0.71598013481707312 -120.51736983817591 0 -120.51736983817591 -96.457105076834523 0 0 0 0 -76.749559654337645 -175.06942128426522 0 -175.06942128426522 -37.276883975342571 0 0 0 0 -68.690638010265985 -58.953980084362236 0 -58.953980084362236 -2.9214213809729452 0 0 0 0 -116.19872635319189 -119.6381919059304 0 -119.6381919059304 -69.216203320869681 0 0 0 0 -162.31612058101746 -134.0759970784693 0 -134.0759970784693 -54.329972265919423 0 0 0 0 -7.9153680381727014 -18.039163078578923 0 -18.039163078578923 -3.7075444509208211 0 0 0 0 86.087363014594303 -90.796829980794655 0 -90.796829980794655 -44.621270011390152 0 0 0 0 -94.588046526914695 -96.304674409370818 0 -96.304674409370818 -60.28044816770398 0 0 0 0 -93.243884483570582 -223.88895984395458 0 -223.88895984395458 -94.871508710753915 0 0 0 0 -2.4515160845571877 -13.309385444392618 0 -13.309385444392618 -7.7791622245942804 0 0 0 0 -158.44958508160926 -88.889482413689166 0 -88.889482413689166 25.752605885936646 0 0 0 0 -68.403360799449729 -143.92117819766008 0 -143.92117819766008 -24.511659523134767 0 0 0 0 -25.309682009763492 -60.511747424455734 0 -60.511747424455734 -8.7500884613291419 0 0 0 0 -18.883300398745149 -37.786068698295082 0 -37.786068698295082 -1.1575728018245979 0 0 0 0 265.21974838287133 -164.00243767907978 0 -164.00243767907978 -25.281617829545212 0 0 0 0 -36.667474794856389 -67.03053626408564 0 -67.03053626408564 -4.3096460839224164 0 0 0 0 -237.68905126679419 68.732996181349336 0 68.732996181349336 332.16644928538881 0 0 0 0 -624.79273946549802 -13.500450484199973 0 -13.500450484199973 583.5667226222522 0 0 0 0 -755.09801646827691 -725.90945207288405 0 -725.90945207288405 260.5070452190339 0 0 0 0 -1033.2400223629593 -338.44637202251943 0 -338.44637202251943 399.53077911115179 0 0 0 0 -349.8283248986736 -398.9270937176625 0 -398.9270937176625 -69.366022162495938 0 0 0 0 -465.96378709964483 -324.40674245355331 0 -324.40674245355331 369.15922678240986 0 0 0 0 -538.0767962658083 -188.45635484087779 0 -188.45635484087779 112.8607363563533 0 0 0 0 -342.08806952249142 -205.23304022631055 0 -205.23304022631055 105.29395075248613 0 0 0 0 -292.16351637462867 -132.88618522516845 0 -132.88618522516845 -217.08360972921264 0 0 0 0 44.427049546371563 -126.33087679448636 0 -126.33087679448636 -7.3659689967935265 0 0 0 0 -322.70060441717283 -337.12388310420204 0 -337.12388310420204 -127.64522490098898 0 0 0 0 7.0617051150893531 -221.94654038231874 0 -221.94654038231874 -28.195685787846287 0 0 0 0 -79.551594866893083 -186.54662211137099 0 -186.54662211137099 129.80326059149775 0 0 0 0 -287.60983308208688 -499.19193974408745 0 -499.19193974408745 -970.2986772749282 0 0 0 0 -204.05710582585016 -210.02339715474682 0 -210.02339715474682 -489.8606182460062 0 0 0 0 -248.29590938850015 -249.8680450378497 0 -249.8680450378497 -283.5267266233576 0 0 0 0 -53.795843640736202 -17.549745022527368 0 -17.549745022527368 -7.7692451170793255 0 0 0 0 -323.73991126794135 -415.54780676469818 0 -415.54780676469818 -232.58571422370778 0 0 0 0 -659.11692440458137 -684.51010762684655 0 -684.51010762684655 -514.05906268934086 0 0 0 0 -360.12487223330754 -686.83236974483498 0 -686.83236974483498 -748.1907465772656 0 0 0 0 -162.27307102900158 -871.64998327235116 0 -871.64998327235116 -1590.0492510546328 0 0 0 0 -18.614182488436313 2.947436053538862 0 2.947436053538862 0.48108209723312045 0 0 0 0 -784.32238199331914 -958.26516959505534 0 -958.26516959505534 -468.90897628501807 0 0 0 0 900.44403787482224 572.96502744741883 0 572.96502744741883 -1413.018063835485 0 0 0 0 -519.63249744491986 -528.10046511112296 0 -528.10046511112296 245.40489861020433 0 0 0 0 -313.852892537343 -250.15934156792628 0 -250.15934156792628 -339.67154629175116 0 0 0 0 -18.068251802356244 3.1415695139605901 0 3.1415695139605901 -0.45557424504769628 0 0 0 0 49.633455310704448 51.926643906980644 0 51.926643906980644 93.740085428074963 0 0 0 0 106.39024689197322 -152.26805102465005 0 -152.26805102465005 -156.52148453677182 0 0 0 0 112.8425653934828 -273.96216825862757 0 -273.96216825862757 475.49270534028619 0 0 0 0 103.64733639198676 -40.434607243644678 0 -40.434607243644678 712.33937996444638 0 0 0 0 246.50782028584217 -290.76305117665652 0 -290.76305117665652 503.08070439126016 0 0 0 0 -6.4562664429410574 0.019706849941734106 0 0.019706849941734106 -0.070123789389466396 0 0 0 0 -56.384874744868284 -229.87855268910926 0 -229.87855268910926 474.02119343876802 0 0 0 0 -101.17561419198319 -203.27635171508155 0 -203.27635171508155 510.95700283114775 0 0 0 0 -450.17599623753631 -851.96131418434743 0 -851.96131418434743 -918.36060367390382 0 0 0 0 -363.48528041257305 -355.48386270980336 0 -355.48386270980336 -263.23890711661625 0 0 0 0 -229.00987092321884 -649.64649883251241 0 -649.64649883251241 -312.04065259858567 0 0 0 0 -116.03503212647047 100.67712309777676 0 100.67712309777676 -768.93863529704504 0 0 0 0 -416.5531200878977 -656.56619496601797 0 -656.56619496601797 176.47583530176053 0 0 0 0 -61.276859693035803 -38.265494087775714 0 -38.265494087775714 -16.563972203481363 0 0 0 0 -217.63513186539421 -508.82784424190322 0 -508.82784424190322 1002.5943148643601 0 0 0 0 -749.93624240543068 -175.88945612890438 0 -175.88945612890438 818.71166514481229 0 0 0 0 199.68148526144796 444.79467440310725 0 444.79467440310725 -893.35066439861066 0 0 0 0 -6.7954229603162446 -10.561320255568511 0 -10.561320255568511 -10.141268927667527 0 0 0 0 -159.9822998951131 146.74865548864273 0 146.74865548864273 382.30163636075179 0 0 0 0 -965.11863435253326 -315.07172841905049 0 -315.07172841905049 466.77756776985916 0 0 0 0 -3.1100140393146773 -5.5476679296917766 0 -5.5476679296917766 -5.8087560930352673 0 0 0 0 -90.926066123087367 -161.03691964236828 0 -161.03691964236828 -252.09570780546164 0 0 0 0 -892.58182664594642 -416.87555590738748 0 -416.87555590738748 -16.518831892226444 0 0 0 0 223.45129338208244 -467.62512652322073 0 -467.62512652322073 -118.01726431286806 0 0 0 0 415.34562006025953 -121.88470207625915 0 -121.88470207625915 -284.51363833576852 0 0 0 0 -108.41099255973677 -299.3917365274574 0 -299.3917365274574 -315.73760743982257 0 0 0 0 227.34256842924515 -108.6821394171734 0 -108.6821394171734 -284.27017943508247 0 0 0 0 -334.41327671582621 -375.02786125238595 0 -375.02786125238595 -144.83384803541401 0 0 0 0 -2.5219963899922959 -5.3114231732440018 0 -5.3114231732440018 -6.4783415141007294 0 0 0 0 207.36983718743977 142.25004702458884 0 142.25004702458884 -1607.7418214658651 0 0 0 0 -47.696772406299715 -406.74756436119515 0 -406.74756436119515 1175.1699880626775 0 0 0 0 -39.509322698627102 462.53547535698715 0 462.53547535698715 -809.91653822656872 0 0 0 0 -41.175606434060086 -25.813772861997251 0 -25.813772861997251 -11.118421912175535 0 0 0 0 46.325501096420339 -410.31806228565483 0 -410.31806228565483 -447.72629959110964 0 0 0 0 56.971450785276829 55.768825733876838 0 55.768825733876838 -133.65868529157024 0 0 0 0 144.25032103460399 -417.54208404239944 0 -417.54208404239944 -225.67132332228857 0 0 0 0 -567.06221230606388 -259.43137467625706 0 -259.43137467625706 -58.587376436074919 0 0 0 0 0.5221609160765901 2.7827674616134601 0 2.7827674616134601 -3.8220396679144955 0 0 0 0 -244.72856265565497 -114.42596122286795 0 -114.42596122286795 -62.238895992762991 0 0 0 0 -108.32606377195771 -264.35502034282717 0 -264.35502034282717 -180.78026878084529 0 0 0 0 -19.824944657084416 -189.42371495648422 0 -189.42371495648422 -121.30966630464036 0 0 0 0 -97.520499867816397 -275.27781657609512 0 -275.27781657609512 -285.64180703562124 0 0 0 0 62.495899254827236 -123.10040027171181 0 -123.10040027171181 -222.91241702266598 0 0 0 0 27.606939531164244 -80.429486025705046 0 -80.429486025705046 -30.680190071070683 0 0 0 0 36.427554875019268 -62.197950027746174 0 -62.197950027746174 -70.171079560663202 0 0 0 0 49.764635243060184 -48.094866964381708 0 -48.094866964381708 -78.846103455308821 0 0 0 0 -10.611273537715157 -22.788541046606397 0 -22.788541046606397 2.7221579667933433 0 0 0 0 17.093391642993595 -27.078694433439438 0 -27.078694433439438 -22.093080782187965 0 0 0 0 -35.313912172685377 -159.33496412439581 0 -159.33496412439581 -135.63692276169968 0 0 0 0 61.045030540255539 -36.717761727802554 0 -36.717761727802554 -80.619348298590921 0 0 0 0 37.292241657618433 -144.04915078220984 0 -144.04915078220984 -154.09562783063939 0 0 0 0 19.0359791701657 -54.184710212581635 0 -54.184710212581635 -76.264978925036729 0 0 0 0 -5.1185027596657164 -109.21471234361161 0 -109.21471234361161 -118.49123302958651 0 0 0 0 -485.78959821290482 -402.81369670166714 0 -402.81369670166714 -59.44774226010486 0 0 0 0 -1635.109210936731 -828.39954245708941 0 -828.39954245708941 -701.62522728005456 0 0 0 0 -75.32925899962288 -54.456841941353446 0 -54.456841941353446 -24.225911776325553 0 0 0 0 -374.2596410695478 -508.94094481815864 0 -508.94094481815864 -846.31488961095192 0 0 0 0 -942.71953771621156 -354.68462197044994 0 -354.68462197044994 89.657662813866409 0 0 0 0 -1201.6819615082532 -698.7729500374428 0 -698.7729500374428 100.38770146490515 0 0 0 0 -1405.3592081065071 -619.58547613916221 0 -619.58547613916221 -50.723326722938054 0 0 0 0 3.9007455212947661 -9.5760947088838435 0 -9.5760947088838435 5.0629808586803549 0 0 0 0 128.00694145857415 -117.09857621535775 0 -117.09857621535775 136.19475612708493 0 0 0 0 36.53476365118695 -0.72613106878270628 0 -0.72613106878270628 23.763140100477813 0 0 0 0 146.40128059441849 -208.51105653964919 0 -208.51105653964919 83.683140745973105 0 0 0 0 230.57798396809085 -114.85945163135511 0 -114.85945163135511 180.96367637921639 0 0 0 0 244.12651843420463 -289.37313211430774 0 -289.37313211430774 207.65851822607121 0 0 0 0 -293.70371789240744 88.194029286737873 0 88.194029286737873 240.42444128577165 0 0 0 0 523.38232246879488 -901.69246965358218 0 -901.69246965358218 -107.00015391940383 0 0 0 0 81.576056998925196 -179.06305729783276 0 -179.06305729783276 397.08658397622003 0 0 0 0 -3.6497558920837605 -5.6279918432822171 0 -5.6279918432822171 -5.703214190373032 0 0 0 0 259.6917460711993 -302.77703739295305 0 -302.77703739295305 186.27890348984329 0 0 0 0 352.25518807179469 -85.386060513894677 0 -85.386060513894677 79.156939140643772 0 0 0 0 -0.35011916785973085 -2.1365354772612619 0 -2.1365354772612619 -3.464040299667408 0 0 0 0 -543.1808956364257 -55.415221073445537 0 -55.415221073445537 194.01944291244914 0 0 0 0 -430.83530699770927 -1814.2890229420032 0 -1814.2890229420032 133.99848376169621 0 0 0 0 -2470.2498481614748 -1311.6795811399229 0 -1311.6795811399229 -178.24245371638926 0 0 0 0 -856.17315933021018 -1309.9715002855082 0 -1309.9715002855082 -568.1538545098125 0 0 0 0 1229.2955505645295 -326.84052894293927 0 -326.84052894293927 -235.75238909370637 0 0 0 0 -0.21205872789947477 -3.9006921724837724 0 -3.9006921724837724 2.5228528849739593 0 0 0 0 -765.90591058950668 -381.85056458490317 0 -381.85056458490317 -382.81366211913542 0 0 0 0 -1635.2345140494981 -455.22939940152128 0 -455.22939940152128 -306.46412305538888 0 0 0 0 -564.13041985736345 -657.6641895595684 0 -657.6641895595684 -670.23022861095933 0 0 0 0 -577.55715180985135 -557.93825187449363 0 -557.93825187449363 -411.41232203592608 0 0 0 0 -1031.5825535674085 -642.17083197526279 0 -642.17083197526279 -388.87313185983419 0 0 0 0 -433.11828858757326 -572.56253912215709 0 -572.56253912215709 -250.35992886845156 0 0 0 0 -394.27267519128145 -654.32206000491874 0 -654.32206000491874 -467.0013850501216 0 0 0 0 -450.76230691667297 -614.85470644169357 0 -614.85470644169357 -356.57306800288512 0 0 0 0 -237.14953753482223 -218.52485091822132 0 -218.52485091822132 -142.02822548758286 0 0 0 0 -271.56920881778024 -416.98025669677475 0 -416.98025669677475 -547.70147555207132 0 0 0 0 -138.75809420899168 -164.94028158560513 0 -164.94028158560513 -187.40844678310896 0 0 0 0 87.853925177725614 -422.56752466065245 0 -422.56752466065245 -978.82362074051548 0 0 0 0 -255.63592380395858 -987.50385380773889 0 -987.50385380773889 -911.77266541057656 0 0 0 0 -327.63509412762869 -966.37095379373079 0 -966.37095379373079 -754.38063901540454 0 0 0 0 -317.57002037168422 -1168.6188065289066 0 -1168.6188065289066 -579.56983381584439 0 0 0 0 -316.02954765394315 -1189.8781601671913 0 -1189.8781601671913 -973.05847953719012 0 0 0 0 -1385.6634891815556 -908.27970109428429 0 -908.27970109428429 -106.74722170270456 0 0 0 0 -229.69955764217593 -1032.4401475159202 0 -1032.4401475159202 -836.32844619930859 0 0 0 0 -1063.8420241632411 -1760.2797286055709 0 -1760.2797286055709 -1529.900067464004 0 0 0 0 -245.54058400714712 -1108.290508311105 0 -1108.290508311105 -1027.7820178244378 0 0 0 0 1.7050063601782313 -438.29386983079758 0 -438.29386983079758 -677.70624217198656 0 0 0 0 2.1522791939604247 2.9708170729588517 0 2.9708170729588517 -18.512788789310306 0 0 0 0 312.27082698367303 72.539218619031999 0 72.539218619031999 -1016.1933132580762 0 0 0 0 267.04974671476884 -647.41694622199577 0 -647.41694622199577 -2323.7108897361095 0 0 0 0 -1740.0557002302812 -1828.4913626803 0 -1828.4913626803 -1069.1028998664644 0 0 0 0 -1740.3338510365211 -1237.7128153979036 0 -1237.7128153979036 -385.38018473490388 0 0 0 0 -586.08926385173982 44.204502372730872 0 44.204502372730872 -632.9288507673906 0 0 0 0 237.14468578067681 -561.05341431372119 0 -561.05341431372119 -540.87561099474499 0 0 0 0 187.72066386209917 -589.11151969526111 0 -589.11151969526111 -526.24902623302182 0 0 0 0 -508.21419344116293 -814.11701713395973 0 -814.11701713395973 -570.63236132000293 0 0 0 0 332.50962379371776 -400.84319550109171 0 -400.84319550109171 -451.99381074116866 0 0 0 0 278.18678415274917 -626.89666907762557 0 -626.89666907762557 -1453.5117032300341 0 0 0 0 166.38505496457947 -439.84519830621429 0 -439.84519830621429 -744.84340884218625 0 0 0 0 247.82720805038116 -324.1083612411494 0 -324.1083612411494 -740.59529120232037 0 0 0 0 -706.53597679972518 -547.99036497897941 0 -547.99036497897941 -449.31486303566908 0 0 0 0 -131.42700703306764 -373.79382783761707 0 -373.79382783761707 -564.58029400132841 0 0 0 0 -77.156536366965156 -337.96426161155205 0 -337.96426161155205 -384.16990779062417 0 0 0 0 7.9058179441199172 -584.20711254693992 0 -584.20711254693992 -481.54530333691525 0 0 0 0 -47.927689599469886 -559.7548690188022 0 -559.7548690188022 78.943551629806052 0 0 0 0 -73.807454251073068 -463.06631448824271 0 -463.06631448824271 -518.1069693773602 0 0 0 0 -286.01327164635586 -207.34454761342795 0 -207.34454761342795 -102.41081054296774 0 0 0 0 87.669215024579898 -145.88729394834218 0 -145.88729394834218 103.67900346512351 0 0 0 0 -7.8734077578668433 -4.1112417473536453 0 -4.1112417473536453 1.8666251410496759 0 0 0 0 -23.332173862421769 -236.33175546143241 0 -236.33175546143241 29.985699736045945 0 0 0 0 -99.09161251299156 -177.67364771140481 0 -177.67364771140481 1119.1830573346306 0 0 0 0 184.12174318865436 -174.46871223063295 0 -174.46871223063295 -168.03379864734325 0 0 0 0 5.751441533378852 -3.6452985236377273 0 -3.6452985236377273 3.8830604362458194 0 0 0 0 411.55158309214312 -796.59331974517318 0 -796.59331974517318 168.96770369613796 0 0 0 0 -0.19335560959734721 -500.27116753435143 0 -500.27116753435143 37.53430212487558 0 0 0 0 -413.01154940223205 -596.13518433922036 0 -596.13518433922036 168.73260037750089 0 0 0 0 188.6656699943469 -54.872400615510372 0 -54.872400615510372 626.56477017811358 0 0 0 0 275.92712741610012 -545.53497521982615 0 -545.53497521982615 292.83405921782469 0 0 0 0 -251.94194209191483 -559.89015700638402 0 -559.89015700638402 816.85835176606292 0 0 0 0 -287.04001943195181 -299.76239552344765 0 -299.76239552344765 601.46240476850016 0 0 0 0 -339.66897042395431 -347.65633428775004 0 -347.65633428775004 568.62855287730667 0 0 0 0 -384.88646259420784 -235.36202503750263 0 -235.36202503750263 666.06019798358352 0 0 0 0 -230.1005884562328 -14.218458853120296 0 -14.218458853120296 843.09787223470266 0 0 0 0 -537.42896937547812 -86.410079288893385 0 -86.410079288893385 534.67172980067301 0 0 0 0 -465.527159385907 -430.22514097824558 0 -430.22514097824558 564.76090675140745 0 0 0 0 -348.52320457788301 -194.58434884206258 0 -194.58434884206258 138.97295920926908 0 0 0 0 -207.57345088956208 589.13556276296322 0 589.13556276296322 1825.6397770433341 0 0 0 0 -59.586352456353779 195.96139336345311 0 195.96139336345311 878.77887849844842 0 0 0 0 201.98888551229902 576.01337302998547 0 576.01337302998547 1226.2797718525433 0 0 0 0 -190.92951146380801 236.57512105560261 0 236.57512105560261 1424.0982298738609 0 0 0 0 -282.23078759756754 -276.40751160166883 0 -276.40751160166883 666.34706114775827 0 0 0 0 67.372761933307629 1.8692415979208903 0 1.8692415979208903 823.08151389332966 0 0 0 0 -383.09357086299133 102.0200939030925 0 102.0200939030925 832.48632524082234 0 0 0 0 328.23449133487884 341.21682796819721 0 341.21682796819721 972.99083983743503 0 0 0 0 -512.54454451020138 52.69531338392926 0 52.69531338392926 419.20956465710924 0 0 0 0 -361.05931183661596 -354.70519493970238 0 -354.70519493970238 157.66344985672501 0 0 0 0 -77.752419616736006 -135.12060562954275 0 -135.12060562954275 499.24261296470536 0 0 0 0 31.940085211812402 39.60985325605165 0 39.60985325605165 326.27068604407538 0 0 0 0 -255.40945490298327 89.513745340641947 0 89.513745340641947 924.88677425084461 0 0 0 0 -238.24806479567991 144.75450788849736 0 144.75450788849736 295.00735136706646 0 0 0 0 -238.31270911701316 -194.92127656406103 0 -194.92127656406103 47.829147872090346 0 0 0 0 -608.30256865739648 77.220031710348394 0 77.220031710348394 -122.74068029507413 0 0 0 0 -715.82931915966265 -545.67833009169328 0 -545.67833009169328 -455.90857824496032 0 0 0 0 -384.37745910784997 84.422745010903583 0 84.422745010903583 -183.64981642871408 0 0 0 0 -311.98150182584504 -181.86313311548338 0 -181.86313311548338 -681.78914093557637 0 0 0 0 -688.98904105652036 -638.50557762633264 0 -638.50557762633264 -112.3163737360123 0 0 0 0 -545.30194882246724 -103.72706878264083 0 -103.72706878264083 -0.79766665907574463 0 0 0 0 -620.72932892219251 -291.29777079390317 0 -291.29777079390317 -683.77814161614663 0 0 0 0 -585.41380689621292 -857.91841105142441 0 -857.91841105142441 -1448.0807300952267 0 0 0 0 -435.85400810270949 -212.51017782544483 0 -212.51017782544483 -682.36580289775316 0 0 0 0 -217.91764573378714 -305.10119103009845 0 -305.10119103009845 -1713.7232476169579 0 0 0 0 -926.80140509375633 -401.38015071668769 0 -401.38015071668769 1194.8503612562099 0 0 0 0 -16.578324071129828 -8.6499783654392388 0 -8.6499783654392388 -4.383037337836531 0 0 0 0 -181.6435297122116 -636.58365792849509 0 -636.58365792849509 -2864.2497076312779 0 0 0 0 -1212.6259478954526 -88.255630388122427 0 -88.255630388122427 -646.03911148849022 0 0 0 0 -1280.8593258248511 -1182.3414552755626 0 -1182.3414552755626 -1500.0479813719312 0 0 0 0 -438.90460989598 -184.34693629201473 0 -184.34693629201473 -544.60982527998749 0 0 0 0 -438.13912115318089 -223.5284032773111 0 -223.5284032773111 -1427.4173853776792 0 0 0 0 -735.47329424673808 -1148.1621611582641 0 -1148.1621611582641 -1249.0343012485885 0 0 0 0 -647.29040445085411 -823.9851971256594 0 -823.9851971256594 -397.34667145663661 0 0 0 0 -1262.9899613340385 -1157.5627283793233 0 -1157.5627283793233 -140.0191541164404 0 0 0 0 -881.22462148285558 -446.45423009482784 0 -446.45423009482784 319.00841921969095 0 0 0 0 -430.4060952601867 -287.66307549472458 0 -287.66307549472458 -112.95963882692831 0 0 0 0 -938.69353015995057 -810.1240954661489 0 -810.1240954661489 -343.2158795448795 0 0 0 0 -798.40977724494587 -827.72236259429155 0 -827.72236259429155 -392.12435057338553 0 0 0 0 -868.99371330048598 -502.90974272899075 0 -502.90974272899075 -112.85187980419141 0 0 0 0 -580.21460443081128 -450.91062256812768 0 -450.91062256812768 -322.56044612170626 0 0 0 0 -566.36376103102248 -222.11204235973716 0 -222.11204235973716 23.68858788146099 0 0 0 0 -5.8441082721510611 58.546925137057769 0 58.546925137057769 -71.385024522617641 0 0 0 0 42.183323401302914 -34.855980835950504 0 -34.855980835950504 -5.3619636767516567 0 0 0 0 -51.333522172200901 28.843773721150683 0 28.843773721150683 51.732688213065558 0 0 0 0 -28.925771399444784 -79.669741449048161 0 -79.669741449048161 157.47658081509417 0 0 0 0 260.3286548244032 -427.73361563603794 0 -427.73361563603794 537.39815469996938 0 0 0 0 116.89648068682857 6.3608474481743613 0 6.3608474481743613 205.24276512176039 0 0 0 0 -444.41100178385545 -140.57902720727319 0 -140.57902720727319 257.01547022136947 0 0 0 0 137.29581781755041 25.134143035486886 0 25.134143035486886 266.02752932222756 0 0 0 0 -0.43539401474117767 -71.589991425867083 0 -71.589991425867083 96.705230905776261 0 0 0 0 103.88277924635622 21.778567719627972 0 21.778567719627972 40.001644951578783 0 0 0 0 9.1151264609070495 -39.720902543299417 0 -39.720902543299417 47.495150569729958 0 0 0 0 56.645644609088777 -71.318897059163191 0 -71.318897059163191 65.971416030286491 0 0 0 0 -10.941324899024039 -80.443107283294921 0 -80.443107283294921 44.771392866190581 0 0 0 0 -31.519138964053127 -57.485727213976133 0 -57.485727213976133 91.813422950646782 0 0 0 0 16.275777482707781 -60.746261840783063 0 -60.746261840783063 58.808546249596475 0 0 0 0 -11.774553185870218 2.5411106603749403 0 2.5411106603749403 -0.071768864665035181 0 0 0 0 0.28043349991909849 -3.1175420102120057 0 -3.1175420102120057 -0.56133186344445107 0 0 0 0 -253.68672958070238 -337.51308880321449 0 -337.51308880321449 -519.34533464164269 0 0 0 0 -17.863348198268795 -31.992803757201727 0 -31.992803757201727 96.395414434091009 0 0 0 0 -11.009246509822333 -22.518228429924534 0 -22.518228429924534 -58.315641171109746 0 0 0 0 -12.497888124111341 -15.740667444099017 0 -15.740667444099017 30.876520331846223 0 0 0 0 -115.65366968121089 -191.69690765240375 0 -191.69690765240375 -348.43517613952281 0 0 0 0 -16.333893333473497 -5.3147416791655004 0 -5.3147416791655004 -4.3940544503970571 0 0 0 0 -182.91384952698718 -194.82242070687062 0 -194.82242070687062 -513.95209556384634 0 0 0 0 7.0361478520208038 -82.99147439369699 0 -82.99147439369699 -11.839049080626864 0 0 0 0 -223.74198341155716 -363.44194234691213 0 -363.44194234691213 -633.08764407270064 0 0 0 0 -82.090648498924566 -267.2976361079709 0 -267.2976361079709 -836.72533538752759 0 0 0 0 -291.03017418998206 -479.76966437638748 0 -479.76966437638748 -1022.6300341516107 0 0 0 0 -404.94399749410513 -454.85569384523478 0 -454.85569384523478 -676.27877223037467 0 0 0 0 -959.41474015075073 -579.25109119531953 0 -579.25109119531953 -495.8670729448022 0 0 0 0 -523.41599295924607 -662.88341816698266 0 -662.88341816698266 -904.57450172075187 0 0 0 0 -907.12715225017018 -548.03022789843817 0 -548.03022789843817 -572.12375235798027 0 0 0 0 -1355.0178779409325 -822.11727926436288 0 -822.11727926436288 -559.56000089125564 0 0 0 0 -1098.9529666688031 -388.53753057894028 0 -388.53753057894028 -262.66946654945423 0 0 0 0 -879.55918083018332 -586.48316725451332 0 -586.48316725451332 -490.50292385589728 0 0 0 0 -1133.7246003219552 -419.26342459075659 0 -419.26342459075659 -562.68306876633324 0 0 0 0 -807.73821768088965 -826.35425597084486 0 -826.35425597084486 -558.40773405367054 0 0 0 0 -821.00511903762163 -712.18193125303753 0 -712.18193125303753 -292.96379046785478 0 0 0 0 -757.58800750603405 -972.27997980507007 0 -972.27997980507007 -1232.9648109224458 0 0 0 0 -74.870838664588518 67.875817479579155 0 67.875817479579155 -220.39580085696434 0 0 0 0 -4.2547586357855494 0.92278485834862778 0 0.92278485834862778 -1.7532670407227133 0 0 0 0 1.6452355557137821 0.52607850923255484 0 0.52607850923255484 -0.87674198800280401 0 0 0 0 -1087.9468829287944 -531.83461102703404 0 -531.83461102703404 -47.754371219561108 0 0 0 0 -146.4211858274175 177.12115346047904 0 177.12115346047904 327.02252617487738 0 0 0 0 -462.32693773250503 -121.3115975954197 0 -121.3115975954197 291.03638876065361 0 0 0 0 -99.110055879762513 -3.4045616086646078 0 -3.4045616086646078 -167.68470388161586 0 0 0 0 -82.854992447679251 -64.787982034937841 0 -64.787982034937841 -45.09365484855698 0 0 0 0 -582.79146552721795 -596.99658223244205 0 -596.99658223244205 -367.74940433568463 0 0 0 0 -703.36460362342768 -476.07373218695056 0 -476.07373218695056 -219.510159600517 0 0 0 0 -666.71540583026945 -748.36377397294063 0 -748.36377397294063 -619.4336973641839 0 0 0 0 -359.52591630117968 -287.12069865282865 0 -287.12069865282865 -803.30989733732918 0 0 0 0 -410.66306447855459 -232.70518024141575 0 -232.70518024141575 -414.04298337493674 0 0 0 0 -251.91803131772031 -100.50630384270107 0 -100.50630384270107 -332.52990150137452 0 0 0 0 -166.27281962420238 -10.615373136977496 0 -10.615373136977496 -341.2929009249965 0 0 0 0 -147.36502182844561 -0.40651581767724565 0 -0.40651581767724565 -514.80414105674549 0 0 0 0 -62.16804202660569 73.714242657965769 0 73.714242657965769 -197.35441165200245 0 0 0 0 -265.77574129439381 -96.707726995161465 0 -96.707726995161465 -215.9001817782264 0 0 0 0 -82.842595947076916 68.40071801391332 0 68.40071801391332 -375.84313996400647 0 0 0 0 -77.404779434316879 36.987571351796191 0 36.987571351796191 -271.47974390771651 0 0 0 0 -41.851674991645268 59.484202811322575 0 59.484202811322575 -200.39792861956403 0 0 0 0 -70.829087884252658 35.38366524069761 0 35.38366524069761 -121.43948097027624 0 0 0 0 -28.480849867264624 9.1162753284697828 0 9.1162753284697828 -206.35277675054886 0 0 0 0 -29.914393510051013 -18.727678140750868 0 -18.727678140750868 -35.777445237313259 0 0 0 0 -18.617651600149657 -57.325945674592276 0 -57.325945674592276 -80.578195173071435 0 0 0 0 -9.3701699136436218 -73.455811783457534 0 -73.455811783457534 33.005538318744584 0 0 0 0 -38.792288424956496 32.855084294702465 0 32.855084294702465 57.078875696979594 0 0 0 0 -101.32477834738711 -19.431457072307126 0 -19.431457072307126 -24.17804023177905 0 0 0 0 -50.073351657163585 -79.784686972805048 0 -79.784686972805048 44.799298462166689 0 0 0 0 -35.496689882667852 -11.447353006615685 0 -11.447353006615685 -59.395776571591114 0 0 0 0 -132.204623931073 89.443194769736238 0 89.443194769736238 -70.188698850452028 0 0 0 0 -232.48780835042999 114.97178133166204 0 114.97178133166204 -39.35453257843119 0 0 0 0 -60.906537646773359 153.19657254879996 0 153.19657254879996 -155.96001491268453 0 0 0 0 -20.228955457510892 154.5271582316584 0 154.5271582316584 -216.3857089682063 0 0 0 0 -37.574475243527559 236.00010899486006 0 236.00010899486006 -122.57484460190153 0 0 0 0 -193.51694334197964 215.56393903923214 0 215.56393903923214 -28.770908770412518 0 0 0 0 -97.536427451734198 262.84946367555358 0 262.84946367555358 -5.8609715909320812 0 0 0 0 -442.96642468505888 7.8901296231529159 0 7.8901296231529159 -7.8082037013801653 0 0 0 0 -187.8220103633048 140.73207251249696 0 140.73207251249696 -26.587680805360037 0 0 0 0 -91.860263635993761 102.26316660082568 0 102.26316660082568 -560.1703505365474 0 0 0 0 -312.03679543049657 -199.66853799531873 0 -199.66853799531873 -625.70592556732709 0 0 0 0 -136.04164887174556 206.72424811839073 0 206.72424811839073 -222.6759353835979 0 0 0 0 -42.149753222634899 96.379843344672736 0 96.379843344672736 -420.06063042251344 0 0 0 0 -25.811854535495513 129.0821207665374 0 129.0821207665374 -322.95765814635365 0 0 0 0 -4.115716082696963 215.35641208462516 0 215.35641208462516 -228.062137989642 0 0 0 0 -51.4948315970978 197.59101235057778 0 197.59101235057778 -208.22046462867138 0 0 0 0 49.100407970261585 334.66140555306634 0 334.66140555306634 -82.90137483092505 0 0 0 0 57.291070633347545 127.6536108988082 0 127.6536108988082 -190.50551946202199 0 0 0 0 -106.80607419800072 258.42908703193825 0 258.42908703193825 91.493637223972428 0 0 0 0 -34.703920408202976 261.20615161907568 0 261.20615161907568 95.7802469653804 0 0 0 0 10.989827760589833 -1.9304591206957866 0 -1.9304591206957866 -164.82405820563881 0 0 0 0 -64.722913181667536 74.436107335784754 0 74.436107335784754 869.3896485691123 0 0 0 0 275.426237681364 66.58314984633023 0 66.58314984633023 175.28927140578014 0 0 0 0 165.1340117203581 278.9923403881146 0 278.9923403881146 84.483892501721925 0 0 0 0 53.72248663253049 252.59038670632071 0 252.59038670632071 485.02460596191622 0 0 0 0 44.334229270752985 488.97613112780482 0 488.97613112780482 1167.5517322125916 0 0 0 0 -196.30987384570471 -339.58580387214261 0 -339.58580387214261 201.91188282035728 0 0 0 0 -186.7880052968103 -717.77499826576241 0 -717.77499826576241 1361.2393635025423 0 0 0 0 749.17083142155025 26.411598507506824 0 26.411598507506824 509.58352298496879 0 0 0 0 78.967838161494001 -140.29407009786621 0 -140.29407009786621 1510.2296332615842 0 0 0 0 -229.07514994590019 308.2950784450104 0 308.2950784450104 1262.224443368134 0 0 0 0 63.890661901503336 4.0868965386137006 0 4.0868965386137006 889.1681907575603 0 0 0 0 -203.84129673185817 -18.35112067287173 0 -18.35112067287173 1635.1662091667288 0 0 0 0 -516.76733864704511 140.43990417694874 0 140.43990417694874 173.34657253280056 0 0 0 0 1.5420758208503056 -7.0233498051137815 0 -7.0233498051137815 5.8878235040429328 0 0 0 0 9.9462304182634398 -8.6444868748810677 0 -8.6444868748810677 -5.5030929535969335 0 0 0 0 -678.84110206545301 26.966469188899964 0 26.966469188899964 203.16377907544938 0 0 0 0 -440.34686363924266 73.206665044478086 0 73.206665044478086 160.34692280341346 0 0 0 0 -311.12812174722785 240.96340362945318 0 240.96340362945318 237.88917677006566 0 0 0 0 -323.27195468165155 308.61910982744394 0 308.61910982744394 519.19815809882084 0 0 0 0 -132.77199025035952 101.24828313142689 0 101.24828313142689 335.06143795720845 0 0 0 0 -379.97987171489513 -379.31844429659668 0 -379.31844429659668 787.1171601561 0 0 0 0 -396.42911808507051 -178.10205934528813 0 -178.10205934528813 -42.119671361580004 0 0 0 0 -727.04811012737628 -167.41152726916084 0 -167.41152726916084 37.315274871347356 0 0 0 0 -932.22152852373256 -416.3963778221123 0 -416.3963778221123 90.34000618175105 0 0 0 0 -570.74468808320671 -304.43709048375968 0 -304.43709048375968 -97.425318952349699 0 0 0 0 -704.47296918976645 -386.80176775678433 0 -386.80176775678433 11.27370910825357 0 0 0 0 6.7233853307949545 -14.234046538273873 0 -14.234046538273873 16.445159397795525 0 0 0 0 -520.93926733196167 -424.70538045139847 0 -424.70538045139847 -314.58792852547958 0 0 0 0 -205.46842278863187 -610.27120910849499 0 -610.27120910849499 -154.28385235998212 0 0 0 0 -202.04916794398014 -635.18850936118452 0 -635.18850936118452 9.451303224057483 0 0 0 0 3.9070854040181189 -6.6629544276999724 0 -6.6629544276999724 6.2325677724535922 0 0 0 0 -0.28583124645228963 -585.87416335389389 0 -585.87416335389389 -252.70787521728562 0 0 0 0 -240.04787267149004 -937.82203419043935 0 -937.82203419043935 123.68507874232455 0 0 0 0 -546.06457787357067 -412.82839525901136 0 -412.82839525901136 72.911437695873246 0 0 0 0 -14.106848116251058 -53.797369820897984 0 -53.797369820897984 69.985002808512945 0 0 0 0 -236.66191342673847 -315.41742382002394 0 -315.41742382002394 -165.20293412053707 0 0 0 0 -348.65025537245856 -320.74897838773131 0 -320.74897838773131 124.22242855108016 0 0 0 0 -365.32209354387305 7.1254349915298008 0 7.1254349915298008 632.78967558005206 0 0 0 0 18.824709624255775 -76.205329729768096 0 -76.205329729768096 2.3633068619528785 0 0 0 0 41.731477224515402 2.6457591143703212 0 2.6457591143703212 7.8939557871399302 0 0 0 0 0.31494816661053449 -23.938570694819134 0 -23.938570694819134 -15.680509441799082 0 0 0 0 179.83629738827585 36.45106607952539 0 36.45106607952539 4.6752837316289515 0 0 0 0 126.54983012197772 -43.314597800010233 0 -43.314597800010233 -1.9462941551513495 0 0 0 0 365.54309187940089 175.78070759226944 0 175.78070759226944 126.9263298112528 0 0 0 0 156.7063746516942 -432.80422644966211 0 -432.80422644966211 95.992201743698388 0 0 0 0 199.99732097155356 361.25396702511489 0 361.25396702511489 645.93232568522944 0 0 0 0 -6.4093055214978882 -11.480435334008959 0 -11.480435334008959 9.0413792761142844 0 0 0 0 -534.93757169663149 223.64926202646438 0 223.64926202646438 61.349438663537171 0 0 0 0 -29.16724372447888 -38.119273684587426 0 -38.119273684587426 -22.416977152250368 0 0 0 0 -998.90484930446837 -417.10444087381438 0 -417.10444087381438 -667.93235869763203 0 0 0 0 -1.913683781965716 -6.2039119126652151 0 -6.2039119126652151 -3.6915299330491624 0 0 0 0 127.68659574349294 -120.13109035315119 0 -120.13109035315119 -61.096797036174735 0 0 0 0 -162.29098536926904 -826.25969476694854 0 -826.25969476694854 -77.333400690411509 0 0 0 0 -292.33170671787229 -739.62878164267022 0 -739.62878164267022 289.05019917033405 0 0 0 0 -91.682792165083811 -662.99217685461372 0 -662.99217685461372 -372.13604467896312 0 0 0 0 -994.82471504122077 -375.09200511759263 0 -375.09200511759263 -244.84820304973618 0 0 0 0 1.356708216658717 -15.54931026403743 0 -15.54931026403743 -36.84354712012653 0 0 0 0 -1464.6055397852033 -498.09003111155107 0 -498.09003111155107 80.152039175047321 0 0 0 0 -59.264664372356492 -15.16561382710097 0 -15.16561382710097 -57.72407616357259 0 0 0 0 -816.61569316923851 -370.87278772934405 0 -370.87278772934405 -299.77072134712944 0 0 0 0 -1030.3129125025735 -469.18365329045628 0 -469.18365329045628 549.60125865323425 0 0 0 0 -1042.650567353121 -571.14256168841712 0 -571.14256168841712 -181.75394530155245 0 0 0 0 -1280.177988129868 -727.34880579136643 0 -727.34880579136643 267.66799045753578 0 0 0 0 -4.3574729209288421 -6.9948990714289891 0 -6.9948990714289891 -22.153198965929661 0 0 0 0 -88.965413110963709 -163.73795035671174 0 -163.73795035671174 18.586903655457718 0 0 0 0 -10.161814735976805 -60.029610346769914 0 -60.029610346769914 -65.189780083754158 0 0 0 0 9.2699078286532313 -47.002186722915212 0 -47.002186722915212 -90.213241907022166 0 0 0 0 -2.9749619617505232 -43.461145459830732 0 -43.461145459830732 -27.319803147242055 0 0 0 0 0.1253831146311768 -8.8309793170664221 0 -8.8309793170664221 -19.852328224910892 0 0 0 0 117.16333546581154 97.057578018690037 0 97.057578018690037 -216.33553158405357 0 0 0 0 -1941.8219335043832 -439.24186049164109 0 -439.24186049164109 -78.150747136873179 0 0 0 0 -886.22813027366647 -96.307665058902785 0 -96.307665058902785 -215.99780870533846 0 0 0 0 -1010.2131028076928 -378.96536152416513 0 -378.96536152416513 -504.70199844256058 0 0 0 0 -2466.7768442264787 -554.1555743626086 0 -554.1555743626086 -364.61512170927745 0 0 0 0 0.87389289861627617 1.7534580310403669 0 1.7534580310403669 -9.7210302790889216 0 0 0 0 -219.79714131726359 -218.97139008007798 0 -218.97139008007798 103.80596298655655 0 0 0 0 -443.03118179447483 -679.83002729921645 0 -679.83002729921645 231.2139483350702 0 0 0 0 -221.51735013395228 -461.01597771960496 0 -461.01597771960496 -101.1257391299896 0 0 0 0 -529.29374916122106 -505.60430501156816 0 -505.60430501156816 -83.914283312406042 0 0 0 0 -12.463447997197363 -747.6451455935221 0 -747.6451455935221 -315.57696645785836 0 0 0 0 -882.9422408988321 -43.477944251551889 0 -43.477944251551889 211.95327635756803 0 0 0 0 -381.33528546187881 -436.7528016872966 0 -436.7528016872966 -399.75542719238456 0 0 0 0 -953.04062831472402 -778.88718990568918 0 -778.88718990568918 -473.85488179313688 0 0 0 0 -43.066077750008844 -292.15704288478628 0 -292.15704288478628 -446.22480715128904 0 0 0 0 -227.26417600454079 -582.1468882379163 0 -582.1468882379163 -407.029931844565 0 0 0 0 -196.24569380292087 -289.37960458765338 0 -289.37960458765338 -97.998139211340458 0 0 0 0 57.747075998842774 -72.9547927071917 0 -72.9547927071917 -75.621450878545147 0 0 0 0 -56.575391424354166 8.255680242946255 0 8.255680242946255 28.83856107263091 0 0 0 0 -140.21780061113532 -135.08031821141776 0 -135.08031821141776 118.4369765845222 0 0 0 0 88.812361026357394 -138.49073604080149 0 -138.49073604080149 118.4260717385329 0 0 0 0 9.2966612876043655 21.999664382501123 0 21.999664382501123 336.63056069365484 0 0 0 0 -171.37169504118356 -201.00243132586365 0 -201.00243132586365 380.26081510983204 0 0 0 0 -8.9374566577915857 -0.72414375452018476 0 -0.72414375452018476 2.3652186444191443 0 0 0 0 -10.773048176153168 -3.3235148201895655 0 -3.3235148201895655 0.39970093698164533 0 0 0 0 -75.8336077924032 56.001728617979097 0 56.001728617979097 115.3164775332516 0 0 0 0 57.309132565695108 -457.65694565725926 0 -457.65694565725926 -198.9799465376127 0 0 0 0 4.1192000933224335 -186.42798787794891 0 -186.42798787794891 -330.35257632441426 0 0 0 0 -257.71294694400422 -400.50908501276535 0 -400.50908501276535 -302.23339242496513 0 0 0 0 -710.82780560957326 -733.51251679282723 0 -733.51251679282723 -566.65060336355964 0 0 0 0 -193.88990197620296 -431.34269077710996 0 -431.34269077710996 -712.13059180534401 0 0 0 0 -700.58246036515629 -786.86752347332731 0 -786.86752347332731 -840.31307567079057 0 0 0 0 -2727.8957268251688 -595.64623832098732 0 -595.64623832098732 -1149.8196496145511 0 0 0 0 -1919.3111810801888 -979.80750903240209 0 -979.80750903240209 -627.88685118955618 0 0 0 0 -1884.9870232850799 -1715.5115024888305 0 -1715.5115024888305 -993.95603759068035 0 0 0 0 133.91658730522613 -1023.4585071808033 0 -1023.4585071808033 -1101.22665420458 0 0 0 0 -458.70989598213055 -164.41627291440818 0 -164.41627291440818 -365.58038495769506 0 0 0 0 -3486.1506485619029 -1397.2342891232393 0 -1397.2342891232393 -94.977573891323118 0 0 0 0 293.7046375087566 25.570813656618611 0 25.570813656618611 -247.43268757029364 0 0 0 0 -765.27415073815791 -824.87294016070246 0 -824.87294016070246 -863.49975313913092 0 0 0 0 -1.4568808764801453 -3.5871984724882537 0 -3.5871984724882537 -6.3930317846356672 0 0 0 0 -1738.5889299889532 39.797633796824812 0 39.797633796824812 -1417.2785504648273 0 0 0 0 -1804.951458368465 -1166.620688708932 0 -1166.620688708932 -942.36446033036555 0 0 0 0 -983.19165213650558 -390.67225907807733 0 -390.67225907807733 -285.15699165148544 0 0 0 0 -1109.521977936125 -624.76344685240747 0 -624.76344685240747 -60.10377144125232 0 0 0 0 -1004.7727817533014 357.90218255457876 0 357.90218255457876 -30.966706578967205 0 0 0 0 -12.419169164377934 -4.6666430087717359 0 -4.6666430087717359 -0.50864164143852442 0 0 0 0 -134.10664620398893 -307.55796865687444 0 -307.55796865687444 -1118.1927430570868 0 0 0 0 -0.84520234243530012 4.4143821666411043 0 4.4143821666411043 4.3610749524003865 0 0 0 0 -1808.5387011068087 -1512.1290265970019 0 -1512.1290265970019 -431.57706936185059 0 0 0 0 -1035.5568250848737 153.4865903283644 0 153.4865903283644 196.08998108857577 0 0 0 0 -1935.4005056155829 -109.88422887328306 0 -109.88422887328306 155.79764346125739 0 0 0 0 -130.87404751153372 305.54041621194483 0 305.54041621194483 -88.021448357792906 0 0 0 0 -996.77954775304534 98.965226658678148 0 98.965226658678148 268.16653094777575 0 0 0 0 -913.94053371652262 -195.43418651187858 0 -195.43418651187858 447.54035240499798 0 0 0 0 -422.33735440153396 -38.078285780232363 0 -38.078285780232363 305.24928834850652 0 0 0 0 -618.54533574539528 193.97093061396299 0 193.97093061396299 257.60435649268743 0 0 0 0 -402.20967750847922 -497.92948861895093 0 -497.92948861895093 -43.618533140375803 0 0 0 0 -844.48722923795867 -178.27362460298173 0 -178.27362460298173 292.68327542632778 0 0 0 0 -1663.6891326662444 -430.47829671536783 0 -430.47829671536783 224.74346866519772 0 0 0 0 -968.45994348120075 -474.45465119351593 0 -474.45465119351593 449.44306209007846 0 0 0 0 -398.5556920641684 -488.38446158522129 0 -488.38446158522129 400.1688894317158 0 0 0 0 -673.46085605803091 -324.39734287591455 0 -324.39734287591455 428.13539017173389 0 0 0 0 -456.82804686143936 -363.48960026634813 0 -363.48960026634813 434.79638136865105 0 0 0 0 -340.1987268604862 7.3598100277395133 0 7.3598100277395133 293.84432486847436 0 0 0 0 -564.15259125719604 -180.48011597868026 0 -180.48011597868026 437.15723891063681 0 0 0 0 -504.40626766651985 -173.92967836071693 0 -173.92967836071693 387.39049978506591 0 0 0 0 -487.25079228682443 -209.78421806304141 0 -209.78421806304141 328.06503960414193 0 0 0 0 -519.41220023097048 -108.24681710726054 0 -108.24681710726054 309.06660820016259 0 0 0 0 -301.3348746453521 -92.871561684634798 0 -92.871561684634798 260.2240041701516 0 0 0 0 -38.845544116134988 -129.98674440521791 0 -129.98674440521791 239.09145809972688 0 0 0 0 -139.98810316417075 2.3129938401762047 0 2.3129938401762047 246.50607295595546 0 0 0 0 -175.45105370595411 -104.45121515135907 0 -104.45121515135907 186.4736169820244 0 0 0 0 -167.49038971890695 -85.831119556378326 0 -85.831119556378326 199.74586396216182 0 0 0 0 -76.050751310627675 -59.498298293427069 0 -59.498298293427069 204.13737337519342 0 0 0 0 -5.8621998222588445 -134.48862256466055 0 -134.48862256466055 123.84784212410887 0 0 0 0 97.700768339484057 -169.73216916708225 0 -169.73216916708225 45.238874477581703 0 0 0 0 -15.489345746755134 -118.46236396739187 0 -118.46236396739187 244.15950050624087 0 0 0 0 126.48532051066286 -165.11220473222966 0 -165.11220473222966 215.29216966533568 0 0 0 0 17.935974735162745 -228.88806777764603 0 -228.88806777764603 435.74567763250161 0 0 0 0 -43.781948465431924 -122.1838883856235 0 -122.1838883856235 275.06466663292304 0 0 0 0 -5.1250132728832227 -3.338828453236971 0 -3.338828453236971 -1.0942178922762906 0 0 0 0 249.66496940339493 -144.29409792638216 0 -144.29409792638216 235.13276357868017 0 0 0 0 135.26860588117415 -350.50616342707553 0 -350.50616342707553 389.85060878338118 0 0 0 0 -1.3087863348991959 -54.236754450781518 0 -54.236754450781518 -17.440356269333279 0 0 0 0 65.08493802882731 -261.13356145517537 0 -261.13356145517537 301.00197979754739 0 0 0 0 223.74404567292368 -88.042504825586548 0 -88.042504825586548 15.202050585252437 0 0 0 0 -272.19773032419471 126.31982139630327 0 126.31982139630327 186.6242272701129 0 0 0 0 -90.841180578659987 -97.160829605580147 0 -97.160829605580147 287.20321995031554 0 0 0 0 -18.839654205687111 -40.201019490210456 0 -40.201019490210456 305.74470539410351 0 0 0 0 -513.31272742671717 -201.68256638157436 0 -201.68256638157436 18.962388342391932 0 0 0 0 -518.01208490457293 -258.94907780166488 0 -258.94907780166488 -70.464513812839868 0 0 0 0 -524.05081353896094 -120.83236466170274 0 -120.83236466170274 5.0344430630084389 0 0 0 0 -289.39721198122425 -130.3443945474628 0 -130.3443945474628 -47.769611567677202 0 0 0 0 -350.25176163851575 -145.23725598634883 0 -145.23725598634883 -30.773839907540605 0 0 0 0 -336.95242690274608 -73.431922304627278 0 -73.431922304627278 -14.136549137074326 0 0 0 0 -301.96815383268404 -293.73589712366265 0 -293.73589712366265 -70.106270365690136 0 0 0 0 -378.21607324993238 -64.65049628079214 0 -64.65049628079214 -61.133967140338427 0 0 0 0 -1707.1639250217631 -562.47011043713064 0 -562.47011043713064 252.11787755697878 0 0 0 0 1185.6222747014399 -580.16239631067492 0 -580.16239631067492 -111.36734559478282 0 0 0 0 0.17611197780825094 -4.1049468026564142 0 -4.1049468026564142 7.9823786488247777 0 0 0 0 -1179.982550864981 7.1061824723410609 0 7.1061824723410609 12.597005057708884 0 0 0 0 605.51463874909678 -310.28816914609251 0 -310.28816914609251 159.33647745721282 0 0 0 0 -411.81985913860262 -556.70682457773546 0 -556.70682457773546 421.17855350935133 0 0 0 0 576.12503205492976 -1018.9474775883027 0 -1018.9474775883027 303.11778706440964 0 0 0 0 -495.21542718874116 -857.71739048319364 0 -857.71739048319364 489.57893751927986 0 0 0 0 -257.548019708629 -360.04257844766653 0 -360.04257844766653 57.4681919290324 0 0 0 0 -502.17227942898171 -790.91128946214485 0 -790.91128946214485 208.19184032959856 0 0 0 0 -103.85787867726322 -343.60648724257953 0 -343.60648724257953 -302.41901727472396 0 0 0 0 286.97194825491169 -606.68284644800406 0 -606.68284644800406 -133.96384982949166 0 0 0 0 297.25721585949213 -623.80239040898914 0 -623.80239040898914 -700.584361878653 0 0 0 0 -379.95135830701474 -805.65369248833304 0 -805.65369248833304 -871.12937028998203 0 0 0 0 371.22606107576576 -241.31722706062465 0 -241.31722706062465 -498.04735925274872 0 0 0 0 -0.36489447703074518 0.4048843542463203 0 0.4048843542463203 -3.7758127079604691 0 0 0 0 182.26381097573903 33.981763710387895 0 33.981763710387895 71.672665502592281 0 0 0 0 616.51270940272298 88.668345805046556 0 88.668345805046556 -226.33240643552199 0 0 0 0 -634.39951614775782 -628.4264147764261 0 -628.4264147764261 -925.87099041255578 0 0 0 0 180.86633415097822 -81.257249579977724 0 -81.257249579977724 -92.172807455659495 0 0 0 0 132.96818037910271 -162.19246430095518 0 -162.19246430095518 -107.10001334968183 0 0 0 0 -178.30615337449126 -137.24708134902903 0 -137.24708134902903 -9.0000211796314034 0 0 0 0 -265.66264707779919 -141.12026587987748 0 -141.12026587987748 -8.6531663640926126 0 0 0 0 -100.96521603505744 -210.23247916507654 0 -210.23247916507654 -16.047557042413246 0 0 0 0 -345.03675581903735 -111.53080788240004 0 -111.53080788240004 4.1879079815807927 0 0 0 0 -383.226024449541 -248.21637299335453 0 -248.21637299335453 9.9920979743292264 0 0 0 0 -314.19731050475093 -138.0795157124212 0 -138.0795157124212 26.906424225919181 0 0 0 0 -294.9017658372959 -88.92323302310615 0 -88.92323302310615 -4.1084763526268944 0 0 0 0 -165.40883359320287 -134.04197068923168 0 -134.04197068923168 -4.0668506232177606 0 0 0 0 -282.87600436060893 -129.4817486801694 0 -129.4817486801694 -0.58744837192352861 0 0 0 0 -273.21703622677887 -144.01774601139732 0 -144.01774601139732 21.251265442282602 0 0 0 0 -41.856571521158912 -193.7450628611532 0 -193.7450628611532 -56.414098220328015 0 0 0 0 2.8200679511238604 -2.434735219123894 0 -2.434735219123894 -5.0825016070022215 0 0 0 0 -363.57090471183983 -192.12175150919848 0 -192.12175150919848 -1.6525850349134998 0 0 0 0 -59.281900024237984 -95.701254434299699 0 -95.701254434299699 -112.98078820407682 0 0 0 0 -128.22380077665002 -157.32394113032933 0 -157.32394113032933 -177.69488833289324 0 0 0 0 -119.4816024789543 -194.53574036117516 0 -194.53574036117516 -31.583626323168573 0 0 0 0 -320.82473721789393 -39.045608229456775 0 -39.045608229456775 -54.604797118736315 0 0 0 0 -336.02673719527957 -177.30217342024116 0 -177.30217342024116 34.02375224303978 0 0 0 0 -94.634857925018878 -94.471440799055927 0 -94.471440799055927 59.521050447205198 0 0 0 0 -300.52642773908428 103.7463490461414 0 103.7463490461414 -13.037249626118864 0 0 0 0 -25.932735053480428 -7.187424771127553 0 -7.187424771127553 27.528966314534046 0 0 0 0 122.62826533144107 -123.45700565334664 0 -123.45700565334664 2.5374408816642244 0 0 0 0 206.46461201310376 -21.337204863352781 0 -21.337204863352781 -44.75170431562583 0 0 0 0 81.977119456212677 -85.627674212225429 0 -85.627674212225429 -20.084742982435273 0 0 0 0 -56.609224339932553 -119.67991301502116 0 -119.67991301502116 -5.5823524454717699 0 0 0 0 36.369671560139977 -188.73424493600942 0 -188.73424493600942 -62.344596675560751 0 0 0 0 -63.295012207912805 -132.7962673208167 0 -132.7962673208167 -12.30834280236013 0 0 0 0 -24.38441715441877 -156.79337497998495 0 -156.79337497998495 -21.944142888689385 0 0 0 0 -76.526998999892385 -159.09101877232024 0 -159.09101877232024 -5.7991597591535538 0 0 0 0 -7.6606763655508985 -116.32966958384714 0 -116.32966958384714 -19.061974274118256 0 0 0 0 27.382950063096359 -133.28363053307476 0 -133.28363053307476 -30.278701471879685 0 0 0 0 77.538876184698893 -72.25486806162553 0 -72.25486806162553 -43.023061384476023 0 0 0 0 37.600031492198468 -18.467819899087772 0 -18.467819899087772 -12.039183738495922 0 0 0 0 19.663594932913838 -61.80454208786432 0 -61.80454208786432 -62.447252792866493 0 0 0 0 -11.564866227825405 -72.021607945163851 0 -72.021607945163851 -42.633731219884794 0 0 0 0 5.2775411634793272 -95.406589719221301 0 -95.406589719221301 -23.933666175071266 0 0 0 0 -59.620124480541563 -62.023972099123057 0 -62.023972099123057 -30.849479182366849 0 0 0 0 -15.755038515038905 -35.130676089393091 0 -35.130676089393091 -74.98924161495961 0 0 0 0 -86.808189546427457 -108.16179802278202 0 -108.16179802278202 55.640053675913805 0 0 0 0 -55.169811009318209 -40.497376846645622 0 -40.497376846645622 21.040392052909723 0 0 0 0 -47.81773328637064 -91.572735901238048 0 -91.572735901238048 7.6025385358450421 0 0 0 0 -35.782152686340851 -123.90858948409004 0 -123.90858948409004 5.5674635814139037 0 0 0 0 -29.987996912444942 -118.22216252962971 0 -118.22216252962971 -18.518701171479734 0 0 0 0 -4.8613295566730699 -12.394645156908116 0 -12.394645156908116 0.49484214968053508 0 0 0 0 -101.2999776475117 -66.307655568570169 0 -66.307655568570169 824.73182465650302 0 0 0 0 -99.986478459393766 -145.78868355128924 0 -145.78868355128924 -10.195693766520435 0 0 0 0 -34.135719345620601 -272.88279934422189 0 -272.88279934422189 -348.06589891492968 0 0 0 0 -41.746453653213479 -44.651409909830988 0 -44.651409909830988 6.155712487747838 0 0 0 0 -170.00574263595627 -34.791112265194897 0 -34.791112265194897 96.631898431578861 0 0 0 0 -0.51911868147141149 -1.2998813294089295 0 -1.2998813294089295 4.2702279917674009 0 0 0 0 124.57614900703629 98.815405211569669 0 98.815405211569669 -356.78046876927783 0 0 0 0 -77.680999086049269 13.97640395480903 0 13.97640395480903 30.583937281688122 0 0 0 0 -57.733212103741721 -46.022937664154398 0 -46.022937664154398 31.518850487754257 0 0 0 0 -3.7125074500645496 3.4975416688766376 0 3.4975416688766376 13.361654956777345 0 0 0 0 30.449649375907029 40.241329387964015 0 40.241329387964015 173.16052972223588 0 0 0 0 -179.64656973199453 -24.654605333889776 0 -24.654605333889776 179.26834444878477 0 0 0 0 -119.29141100599008 -133.29871760030983 0 -133.29871760030983 38.829488434304949 0 0 0 0 -85.988328496077884 47.601339769836258 0 47.601339769836258 740.09241409570586 0 0 0 0 -180.60031729355978 83.482516230272154 0 83.482516230272154 933.28656459939816 0 0 0 0 -147.17228186293869 -141.43131820058653 0 -141.43131820058653 461.47839274918624 0 0 0 0 -50.349061085624271 -283.18830480021109 0 -283.18830480021109 164.44931007193622 0 0 0 0 -180.69506445745355 -193.13767140467894 0 -193.13767140467894 203.65924568590162 0 0 0 0 -286.96427641769696 30.123937376798949 0 30.123937376798949 231.86678599128231 0 0 0 0 -63.32741936117111 -40.932812490005119 0 -40.932812490005119 34.657508339031857 0 0 0 0 -2.857221663070959 -127.2141913799444 0 -127.2141913799444 62.23172198475595 0 0 0 0 5.1393187199864769 -150.09793190777327 0 -150.09793190777327 -167.37007809853276 0 0 0 0 -31.818620470614405 -54.255652440846461 0 -54.255652440846461 59.294435517258535 0 0 0 0 -57.13016898076765 -40.172360620385462 0 -40.172360620385462 -9.099111832197968 0 0 0 0 -21.935896847699041 -67.69126486972209 0 -67.69126486972209 11.779545026725827 0 0 0 0 -20.756528033831273 4.9469382738890317 0 4.9469382738890317 20.397747788934339 0 0 0 0 -46.383689012960531 -24.091375719361054 0 -24.091375719361054 -5.8297676646084255 0 0 0 0 0.32004955425509252 9.1046044424122101 0 9.1046044424122101 -47.034711751314035 0 0 0 0 -32.804953418002697 -111.91838192670139 0 -111.91838192670139 -30.458539705125872 0 0 0 0 8.4496452709717005 -20.918252750883966 0 -20.918252750883966 0.46322905689539473 0 0 0 0 -35.099855785727385 -36.366511682106918 0 -36.366511682106918 -21.103844183469494 0 0 0 0 -4.2601213357385461 -1.5956551153316241 0 -1.5956551153316241 12.243366053991789 0 0 0 0 -106.86877899394585 -117.12602716932116 0 -117.12602716932116 -34.688115865516011 0 0 0 0 -22.796501433885869 -49.793094105214678 0 -49.793094105214678 -26.929818848523844 0 0 0 0 -45.009113176586652 -77.394868082075845 0 -77.394868082075845 20.178791367989106 0 0 0 0 -11.656988838745747 -44.16031482875951 0 -44.16031482875951 -14.015366078352599 0 0 0 0 -49.068451985745924 -22.606936008307457 0 -22.606936008307457 -4.5060167371052557 0 0 0 0 -70.028757890017005 -37.712689213135491 0 -37.712689213135491 -14.578004568558754 0 0 0 0 -34.685573214108956 -11.78184719608619 0 -11.78184719608619 11.454456851351505 0 0 0 0 14.140041245970679 -79.099942743058875 0 -79.099942743058875 -85.026020903424069 0 0 0 0 -4.2495596141976328 -36.525314952909767 0 -36.525314952909767 -19.636430761034624 0 0 0 0 -2.4375294605738596 -6.3099887848134699 0 -6.3099887848134699 5.0303931488231086 0 0 0 0 -2.1856773603794863 -17.512750968933688 0 -17.512750968933688 -2.7010972361631502 0 0 0 0 12.888152199525052 -11.523094322111522 0 -11.523094322111522 -1.6260858936568177 0 0 0 0 -38.13537359322072 -16.610448174992598 0 -16.610448174992598 17.313945562389563 0 0 0 0 -28.710699093833682 -12.750123417528812 0 -12.750123417528812 16.040479990575477 0 0 0 0 -27.761032864998015 -19.440837984197969 0 -19.440837984197969 21.443424995468376 0 0 0 0 -3.7547557655792847 -3.5707604659728815 0 -3.5707604659728815 14.441429280569707 0 0 0 0 -14.801412792119663 -2.9652728572127671 0 -2.9652728572127671 -20.368811228072445 0 0 0 0 -50.106438542374235 46.987803979549426 0 46.987803979549426 98.888612144754006 0 0 0 0 -30.211992264084984 -54.295115914195776 0 -54.295115914195776 31.073851078122971 0 0 0 0 -12.487719192233584 -3.0173870505997513 0 -3.0173870505997513 15.993546287596487 0 0 0 0 -14.300534379668534 -16.566650992947871 0 -16.566650992947871 6.1900426417632843 0 0 0 0 -79.230498792690923 -17.83274419069312 0 -17.83274419069312 68.128251229103626 0 0 0 0 -25.212588713709579 -46.768390681360401 0 -46.768390681360401 -0.75859040406366773 0 0 0 0 -30.462190159159945 -52.717819160046929 0 -52.717819160046929 25.799277262227406 0 0 0 0 -20.273668629678525 -8.913701778309445 0 -8.913701778309445 18.547079384677438 0 0 0 0 -2233.3981487765741 -1315.6011402901979 0 -1315.6011402901979 -524.1964756465286 0 0 0 0 999.96585717283597 13.631586942030935 0 13.631586942030935 -316.78488797471346 0 0 0 0 -850.01608136304276 -2289.3538025935277 0 -2289.3538025935277 -1769.0607291555666 0 0 0 0 -1349.6531820570635 1109.6860700734649 0 1109.6860700734649 168.77035097294674 0 0 0 0 -120.82581666914484 252.03257359733652 0 252.03257359733652 -157.31431281142886 0 0 0 0 -181.89808637116221 -136.2350096893224 0 -136.2350096893224 149.47578915364011 0 0 0 0 61.269330534065375 -113.92859114458861 0 -113.92859114458861 -68.57094610569402 0 0 0 0 -8.0256006427719839 -13.022257648074984 0 -13.022257648074984 -27.563860030444445 0 0 0 0 -33.721146933544333 -32.634862090521821 0 -32.634862090521821 23.353033218847074 0 0 0 0 -54.273007160258146 -32.213609090707607 0 -32.213609090707607 50.844004553786107 0 0 0 0 -216.65920475624443 -65.268812532323864 0 -65.268812532323864 109.36357356340159 0 0 0 0 -11.667024475048187 -10.158874523744089 0 -10.158874523744089 -0.65639894529368803 0 0 0 0 10.562423291499726 -94.164399645006938 0 -94.164399645006938 -38.865702880912067 0 0 0 0 -79.366705056543424 -34.472492597473362 0 -34.472492597473362 35.330596523528286 0 0 0 0 -216.10862210241612 0.99435405624035411 0 0.99435405624035411 72.874457109137438 0 0 0 0 -109.35301029599214 -214.90773289730623 0 -214.90773289730623 -159.65330851318367 0 0 0 0 -74.875024030770874 -98.26951501286203 0 -98.26951501286203 -23.703669372318473 0 0 0 0 -95.278833138123446 -147.89783831402292 0 -147.89783831402292 -32.066181635360408 0 0 0 0 26.334564153061365 -59.625778541172622 0 -59.625778541172622 -229.97629877630061 0 0 0 0 -102.52328811629559 -175.78606165309247 0 -175.78606165309247 -39.830961227537045 0 0 0 0 -2.1424082739977166 -30.738839986833227 0 -30.738839986833227 -23.90281432255324 0 0 0 0 7.8952221056786129 -4.8608137736247521 0 -4.8608137736247521 -0.92048821793963143 0 0 0 0 8.5891530940207304 -107.04461660872585 0 -107.04461660872585 -356.39251549378241 0 0 0 0 -483.06114164352766 -107.90982584947778 0 -107.90982584947778 -25.088176050031507 0 0 0 0 -220.73847529123304 -88.401857517874305 0 -88.401857517874305 -23.921754335854985 0 0 0 0 -1.3459489580247066 -3.7244876153175994 0 -3.7244876153175994 -0.17017933031368671 0 0 0 0 136.0291363086144 -658.79459558713279 0 -658.79459558713279 -52.57338230656751 0 0 0 0 -341.13510855011918 -529.2829575964679 0 -529.2829575964679 -188.25662094049039 0 0 0 0 -759.13558869024564 154.49635721173763 0 154.49635721173763 22.823982733643788 0 0 0 0 -5.3049533417797647 -43.993208463234623 0 -43.993208463234623 -57.980571094542029 0 0 0 0 -156.66448006324936 -290.37312059225951 0 -290.37312059225951 -275.22853335912714 0 0 0 0 -13.812450462984643 -40.689915876687635 0 -40.689915876687635 -43.438282893073328 0 0 0 0 -50.53260148728441 -45.36871697618335 0 -45.36871697618335 -5.2841478530890527 0 0 0 0 -12.937373496910823 -21.624308902851595 0 -21.624308902851595 23.216961382316448 0 0 0 0 -63.01914808456786 -44.904127488667655 0 -44.904127488667655 24.83375804071693 0 0 0 0 -2.3575301295386808 0.48732393975075183 0 0.48732393975075183 -1.3055509123723681 0 0 0 0 -4.0180789003916431 -10.382731763735251 0 -10.382731763735251 -8.5350480747487154 0 0 0 0 -40.062194217243814 9.8198062221345026 0 9.8198062221345026 -33.133522046964572 0 0 0 0 -163.7588372976752 40.386516990898599 0 40.386516990898599 -8.7421982502528408 0 0 0 0 -276.8785253321621 -447.13395059075265 0 -447.13395059075265 -101.4732364975971 0 0 0 0 158.66071198880672 4.2491912223540567 0 4.2491912223540567 -191.29768682131544 0 0 0 0 -39.368306636252214 -58.265908491457232 0 -58.265908491457232 54.533713475128891 0 0 0 0 -550.55039429070894 268.04705323245889 0 268.04705323245889 454.77915790085444 0 0 0 0 -29.730998760358489 -139.12441723893789 0 -139.12441723893789 -217.37371189742771 0 0 0 0 642.21030704138684 -471.84621959429569 0 -471.84621959429569 693.22862752314904 0 0 0 0 923.16891687101452 -432.91262273927714 0 -432.91262273927714 -59.415707046358875 0 0 0 0 1042.6082628151053 -546.51327515615048 0 -546.51327515615048 256.33856246016148 0 0 0 0 351.89843121349986 -258.99654501543318 0 -258.99654501543318 114.41295402865217 0 0 0 0 474.67966768919723 -449.48243260649178 0 -449.48243260649178 456.82395740694847 0 0 0 0 714.36461439736013 -607.39793621227727 0 -607.39793621227727 363.79751673463034 0 0 0 0 91.286892949559842 -14.017787372929888 0 -14.017787372929888 222.27189130943589 0 0 0 0 608.15654617713881 -314.48686986535995 0 -314.48686986535995 94.624036483059172 0 0 0 0 -976.79832185748819 -252.63443599529091 0 -252.63443599529091 -60.517515662511869 0 0 0 0 -241.85996828743373 -105.81481204412557 0 -105.81481204412557 213.68617802633344 0 0 0 0 -3.6480469889479537 -1.9353812012907099 0 -1.9353812012907099 5.1266270419647668 0 0 0 0 122.2214494314394 -30.69424140431056 0 -30.69424140431056 -60.554381764854043 0 0 0 0 89.884181800269289 476.02950536213757 0 476.02950536213757 -246.48865504813875 0 0 0 0 -2580.1333794797029 -195.2423246355429 0 -195.2423246355429 553.80130667574122 0 0 0 0 -0.3851268518924158 0.027063467695739973 0 0.027063467695739973 -1.2091051955597436 0 0 0 0 -1103.0897334902038 -38.810235841799113 0 -38.810235841799113 147.02391531011381 0 0 0 0 974.37179522639781 -710.77683516865363 0 -710.77683516865363 357.72910705853428 0 0 0 0 -405.00412500542006 -231.00010879870752 0 -231.00010879870752 -89.968366278926624 0 0 0 0 -0.24784619682550613 0.035411005868581924 0 0.035411005868581924 4.0990768951732548 0 0 0 0 -763.12348157937231 -19.913385393940189 0 -19.913385393940189 467.18511716173089 0 0 0 0 178.72528443214833 111.5595480574766 0 111.5595480574766 17.072984017187991 0 0 0 0 -183.75092214687902 32.344534930656664 0 32.344534930656664 156.91098707750461 0 0 0 0 54.319309187951148 -115.67750179482391 0 -115.67750179482391 -28.970640784224088 0 0 0 0 -158.92819278201205 12.011397631604268 0 12.011397631604268 -159.08358640908591 0 0 0 0 -49.675908875797177 -81.1453874239578 0 -81.1453874239578 378.29328962124418 0 0 0 0 -141.69549337230274 -0.61534946328356455 0 -0.61534946328356455 -25.679974577269604 0 0 0 0 35.678229605724482 -324.35455419759955 0 -324.35455419759955 34.045390852399578 0 0 0 0 62.354717173027893 -69.126983456923881 0 -69.126983456923881 67.627398290682322 0 0 0 0 45.846830869471887 -97.598430776843998 0 -97.598430776843998 98.753079736197833 0 0 0 0 46.49164832905808 -98.538468690891023 0 -98.538468690891023 98.263413233637948 0 0 0 0 61.330000481088064 -119.74380182320692 0 -119.74380182320692 128.55117296065146 0 0 0 0 57.46471005147032 -65.197991684113731 0 -65.197991684113731 137.23491564885626 0 0 0 0 43.415720826615143 -181.80810682536867 0 -181.80810682536867 366.88686818954739 0 0 0 0 -36.471457712141273 -64.695380877727075 0 -64.695380877727075 274.42887858088579 0 0 0 0 180.16167488439532 -396.18822802857721 0 -396.18822802857721 502.44212967823159 0 0 0 0 91.532835127021826 -198.09278004573252 0 -198.09278004573252 306.56607736322621 0 0 0 0 -213.22623632576142 -115.46433168956628 0 -115.46433168956628 395.38569344552161 0 0 0 0 -28.312022589230764 -76.053441270131771 0 -76.053441270131771 226.83236328024941 0 0 0 0 -61.397460479696747 -568.62220919321226 0 -568.62220919321226 847.04839001509572 0 0 0 0 712.10516173957149 -566.64610350666226 0 -566.64610350666226 438.17076655852361 0 0 0 0 809.34807202481352 -882.17930049074153 0 -882.17930049074153 1100.3047389616995 0 0 0 0 170.99428067176632 -426.72283889514074 0 -426.72283889514074 402.02499333049673 0 0 0 0 -1.9591263617643904 0.7400142411548245 0 0.7400142411548245 10.715738014019394 0 0 0 0 847.00249103890383 -694.72134023952276 0 -694.72134023952276 544.88802542529174 0 0 0 0 787.31063862166957 -891.95675440605953 0 -891.95675440605953 1168.7162346533551 0 0 0 0 857.94118184092804 -1056.0763041492037 0 -1056.0763041492037 914.13475022686271 0 0 0 0 750.21478729562114 -1137.1407690640024 0 -1137.1407690640024 1357.3573127309228 0 0 0 0 525.92582663405483 -1036.1810285074539 0 -1036.1810285074539 1123.106040217237 0 0 0 0 215.71324267129239 -436.4799410722826 0 -436.4799410722826 737.66413524556447 0 0 0 0 -1.7033307278334462 1.4380737152712868 0 1.4380737152712868 11.17875280426302 0 0 0 0 715.97951671623741 -718.77344296323827 0 -718.77344296323827 940.89798830613836 0 0 0 0 748.27580342213332 -843.59555172168621 0 -843.59555172168621 792.56719185172778 0 0 0 0 -209.06532986350066 -105.10383469364024 0 -105.10383469364024 234.01206853002623 0 0 0 0 -99.518411232595099 300.19025011031044 0 300.19025011031044 -259.29911890899893 0 0 0 0 -327.34790412477741 -26.406337012029326 0 -26.406337012029326 -5.0644987870109617 0 0 0 0 -273.94243038292916 -101.21646080266873 0 -101.21646080266873 -12.626846605687206 0 0 0 0 -223.85661891884229 -110.92770635842135 0 -110.92770635842135 -1.7085219652944943 0 0 0 0 -242.81934949406423 -55.813082027490964 0 -55.813082027490964 1.5091582384739013 0 0 0 0 -198.23386170306185 -27.143645081629074 0 -27.143645081629074 -5.7184019692999755 0 0 0 0 -188.82327290346439 -61.890107327997612 0 -61.890107327997612 -4.7925805740096621 0 0 0 0 -185.93163083897525 -62.423001132914578 0 -62.423001132914578 -6.4918627217921312 0 0 0 0 77.125852245328133 -53.536813918706798 0 -53.536813918706798 1.9801007249261602 0 0 0 0 -163.03856178887054 -46.287160564314718 0 -46.287160564314718 -22.682339306833455 0 0 0 0 0.35234972367310391 0.61805399831271757 0 0.61805399831271757 6.2933037471590012 0 0 0 0 -18.839241846988443 0.48870612828795856 0 0.48870612828795856 25.047740919014814 0 0 0 0 -24.617105125918897 -13.777733802430703 0 -13.777733802430703 -10.077187208014948 0 0 0 0 3.2665400842426493 -7.5634384706522582 0 -7.5634384706522582 -5.9834992759490575 0 0 0 0 58.664656590990489 -76.208383171415335 0 -76.208383171415335 207.39645725412629 0 0 0 0 160.08517492685132 -156.50121771276042 0 -156.50121771276042 144.29401635137037 0 0 0 0 107.88999528845306 -94.127520988711694 0 -94.127520988711694 70.60745666272237 0 0 0 0 -0.92467524727933181 1.0007355135430771 0 1.0007355135430771 0.49346605121800735 0 0 0 0 -0.73205917038461621 -2.8620337817298491 0 -2.8620337817298491 -2.6733328217402033 0 0 0 0 -42.756350335199386 -63.567261786800259 0 -63.567261786800259 198.17020764716654 0 0 0 0 43.396317446080502 -43.246467210761693 0 -43.246467210761693 -16.184342399741581 0 0 0 0 -85.577651838706515 72.397628015333794 0 72.397628015333794 -2.5888989016675623 0 0 0 0 72.245575882960111 -235.54980248586071 0 -235.54980248586071 135.88415741430617 0 0 0 0 101.76903838122962 -132.42515609992552 0 -132.42515609992552 114.55790593756683 0 0 0 0 18.935055547088268 -179.18571538023207 0 -179.18571538023207 219.28320710019216 0 0 0 0 19.039894430092318 -176.72262679789429 0 -176.72262679789429 194.3517665385807 0 0 0 0 27.795679309610932 -121.69721751882594 0 -121.69721751882594 239.60360585609669 0 0 0 0 90.138874405107345 -111.84145420537789 0 -111.84145420537789 234.79337302676868 0 0 0 0 54.166566783010239 -144.43284628089555 0 -144.43284628089555 241.51813520970973 0 0 0 0 57.727338520155172 -176.37262055388783 0 -176.37262055388783 303.94803424757083 0 0 0 0 -12.359196747929673 -150.20759768011612 0 -150.20759768011612 292.05546170401249 0 0 0 0 -36.588575416637468 -208.25069632720533 0 -208.25069632720533 269.37597665900785 0 0 0 0 -99.030717000354343 -188.07091714560693 0 -188.07091714560693 283.59207559330571 0 0 0 0 -0.016943667446703614 0.94887117530754495 0 0.94887117530754495 1.2319228109396647 0 0 0 0 329.02897626228514 -106.41498786127977 0 -106.41498786127977 -7.8168907576837228 0 0 0 0 -397.25569070304846 -45.955660179472602 0 -45.955660179472602 44.775050097618077 0 0 0 0 50.012048297707224 -223.87128618034876 0 -223.87128618034876 262.5129760638124 0 0 0 0 -368.82837966963416 -76.137892074628326 0 -76.137892074628326 30.955199550175166 0 0 0 0 -267.08667433838127 -83.32528580694725 0 -83.32528580694725 8.0561044958813 0 0 0 0 -320.85177311884763 -162.18172691154177 0 -162.18172691154177 136.07406064668703 0 0 0 0 -144.10819078938221 -282.97963471151434 0 -282.97963471151434 96.931368674884652 0 0 0 0 -197.80419530928339 -338.00064982145386 0 -338.00064982145386 178.36955204964943 0 0 0 0 -322.11253682090319 -248.34731282187477 0 -248.34731282187477 194.57204229107629 0 0 0 0 -204.27086842665449 -306.46734695955638 0 -306.46734695955638 351.89964080497521 0 0 0 0 -353.33208527066745 -342.94396822738554 0 -342.94396822738554 348.60011244671847 0 0 0 0 -146.48673802960548 -283.41236625899455 0 -283.41236625899455 255.37779430481351 0 0 0 0 93.988248329304042 -167.21612277984332 0 -167.21612277984332 276.92086454754599 0 0 0 0 -78.33664046044214 -144.88423483703218 0 -144.88423483703218 375.51349074998689 0 0 0 0 85.60111361966392 -236.77384781704296 0 -236.77384781704296 373.95955580661939 0 0 0 0 41.973721901544195 -440.61848627741222 0 -440.61848627741222 903.77122192505703 0 0 0 0 106.11894515968743 -311.11487887968178 0 -311.11487887968178 325.30268907686968 0 0 0 0 -241.806184637564 -91.758635679908821 0 -91.758635679908821 210.45569730028637 0 0 0 0 994.49706937404699 -855.2172630202258 0 -855.2172630202258 461.77562649951551 0 0 0 0 427.35466228786208 -1198.0302403773076 0 -1198.0302403773076 1305.4898898914962 0 0 0 0 1356.5845854929648 -943.08634091333988 0 -943.08634091333988 1221.0303338106605 0 0 0 0 -366.41224400726787 -326.88608964930245 0 -326.88608964930245 2968.0401640120981 0 0 0 0 0.3562550781992968 -6.9903665368885193 0 -6.9903665368885193 5.5833593761729361 0 0 0 0 402.09241232930162 -965.99212997891368 0 -965.99212997891368 -753.68509558933147 0 0 0 0 -326.48238077446513 108.8270252024306 0 108.8270252024306 1671.3342272342816 0 0 0 0 -494.39895729791897 -424.19654178040309 0 -424.19654178040309 1077.4184346745515 0 0 0 0 -406.35464145444712 -903.78332017982939 0 -903.78332017982939 90.980831586947716 0 0 0 0 1.6119148322694912 -13.377607006067846 0 -13.377607006067846 8.334414830721963 0 0 0 0 -197.1099453072311 -410.43618812591831 0 -410.43618812591831 177.16155667425846 0 0 0 0 1321.8647688874917 -1285.7842357142399 0 -1285.7842357142399 1382.5841251837601 0 0 0 0 1029.1329286667824 -1295.1937757896096 0 -1295.1937757896096 1491.5137152363113 0 0 0 0 1039.3634631523455 -1256.0704277496898 0 -1256.0704277496898 1483.9406442773247 0 0 0 0 1005.6527782611956 -1281.1568194462425 0 -1281.1568194462425 1472.4363668540609 0 0 0 0 1174.168602030375 -1418.8323783488104 0 -1418.8323783488104 1559.6323912409262 0 0 0 0 952.16258454715717 -1244.9425115011163 0 -1244.9425115011163 1551.1653822602093 0 0 0 0 1018.4430362985877 -1245.5150282991444 0 -1245.5150282991444 1443.7795701752912 0 0 0 0 818.40062386318459 -1090.5169390751635 0 -1090.5169390751635 1428.1772631398344 0 0 0 0 1004.6725901761965 -1183.6393688878034 0 -1183.6393688878034 1331.095638764742 0 0 0 0 951.27100552708725 -1080.8842944887856 0 -1080.8842944887856 1220.3472974079905 0 0 0 0 902.72738410814782 -1162.7759589857378 0 -1162.7759589857378 1450.8304265290171 0 0 0 0 982.43150528314436 -1089.5410844588819 0 -1089.5410844588819 1264.6341509316171 0 0 0 0 976.01397498563892 -916.89361507560488 0 -916.89361507560488 1054.2234869207423 0 0 0 0 824.50384808611125 -1034.4667475603455 0 -1034.4667475603455 1303.0358749038305 0 0 0 0 1033.1024944859655 -1077.4443355095038 0 -1077.4443355095038 1114.2948664790038 0 0 0 0 966.65788802775569 -1194.462329026109 0 -1194.462329026109 1454.7370784282248 0 0 0 0 1013.809827823221 -1222.2620003665506 0 -1222.2620003665506 1362.6499437998973 0 0 0 0 970.63584472503862 -1215.9046439126496 0 -1215.9046439126496 1452.5369313721967 0 0 0 0 1052.7334308204336 -1228.7705040170217 0 -1228.7705040170217 1441.936884296254 0 0 0 0 961.43391882977448 -1201.8957208456313 0 -1201.8957208456313 1475.6902273095884 0 0 0 0 1142.5749671332596 -1229.7361707303094 0 -1229.7361707303094 1307.9470336652512 0 0 0 0 1189.4220971201721 -1397.78481248869 0 -1397.78481248869 1506.6707585065833 0 0 0 0 0.79157171729161746 -0.31714746847953279 0 -0.31714746847953279 3.7762248235763067 0 0 0 0 72.803918970268569 -185.57292359598796 0 -185.57292359598796 295.12752984547387 0 0 0 0 72.14242966598249 -199.19374066108594 0 -199.19374066108594 321.66091749346197 0 0 0 0 28.484143253750517 -127.32718507524351 0 -127.32718507524351 492.4496257136534 0 0 0 0 27.666676467008074 -114.68193900511505 0 -114.68193900511505 335.78763536127838 0 0 0 0 793.76260788348372 -1083.8470378358356 0 -1083.8470378358356 1446.8746620394159 0 0 0 0 883.32127190862957 -1458.6242464627612 0 -1458.6242464627612 2316.3355253174977 0 0 0 0 1162.4773380313563 -1191.3044715411042 0 -1191.3044715411042 1381.5589386309089 0 0 0 0 42.215687023680118 2.4326691878896582 0 2.4326691878896582 -10.245430835715613 0 0 0 0 310.12967906318954 130.63052489453548 0 130.63052489453548 -10.284322367457207 0 0 0 0 1084.6757856506447 -1349.4333507908686 0 -1349.4333507908686 1536.241026487387 0 0 0 0 -4.705177566236614 -46.225360561833782 0 -46.225360561833782 -40.475723342799562 0 0 0 0 1023.2061458877433 -1217.5929929414444 0 -1217.5929929414444 1488.8965952820608 0 0 0 0 1000.2316486952695 -1238.8281724778453 0 -1238.8281724778453 1474.709235775802 0 0 0 0 966.77749837671581 -1156.9729167151718 0 -1156.9729167151718 1455.6720663739566 0 0 0 0 989.85077965809614 -1131.7272388299709 0 -1131.7272388299709 1387.6152841023504 0 0 0 0 -150.49948508980196 484.08341205104534 0 484.08341205104534 -877.70598363144381 0 0 0 0 -188.35003464717011 255.76631248539343 0 255.76631248539343 -628.00859325686906 0 0 0 0 194.7923470196547 7.4869685537305486 0 7.4869685537305486 -496.66201158371587 0 0 0 0 219.61346306117048 35.158752348870621 0 35.158752348870621 -562.20595265891461 0 0 0 0 484.99042198990355 -28.238117247437913 0 -28.238117247437913 -720.95835592982257 0 0 0 0 346.48674709489569 -66.387910993405967 0 -66.387910993405967 -482.71670566263492 0 0 0 0 188.86200343341625 53.388148982030543 0 53.388148982030543 -492.7815441784719 0 0 0 0 -12.21423252823655 -14.346879939459484 0 -14.346879939459484 23.663838239201553 0 0 0 0 47.933684267165091 -45.544065520643144 0 -45.544065520643144 -78.065281748122544 0 0 0 0 140.6050432632328 43.777289402321912 0 43.777289402321912 -371.28257179457796 0 0 0 0 203.92566126876045 -283.34051029834177 0 -283.34051029834177 301.34682806748583 0 0 0 0 1076.9310568040091 -1195.0814468946164 0 -1195.0814468946164 1353.394862801455 0 0 0 0 265.90018339533708 -270.4527703828079 0 -270.4527703828079 144.45358780087918 0 0 0 0 590.51993615950778 -680.98466562652811 0 -680.98466562652811 -34.467180236308195 0 0 0 0 688.70579803653527 -537.24656633336417 0 -537.24656633336417 -246.75302733615899 0 0 0 0 657.11166712375416 -595.81055841533271 0 -595.81055841533271 -384.3410129101685 0 0 0 0 558.23144901509295 -212.59552801323571 0 -212.59552801323571 -615.57151890617388 0 0 0 0 543.40959198607015 -292.875146939361 0 -292.875146939361 -142.14708827736467 0 0 0 0 614.68721960921175 -370.54128835056235 0 -370.54128835056235 -468.36517486868252 0 0 0 0 586.9870126297028 -67.496164996362495 0 -67.496164996362495 -602.44283181738865 0 0 0 0 484.34196247385989 -136.37127858409076 0 -136.37127858409076 -634.0607558636766 0 0 0 0 401.62590317767172 75.965920758972061 0 75.965920758972061 -824.53980213511386 0 0 0 0 529.53748041992367 -257.79952846402011 0 -257.79952846402011 -681.83510142532759 0 0 0 0 311.58246996013622 27.19122715515914 0 27.19122715515914 -773.27988119211659 0 0 0 0 17.066999630013015 350.18713289636435 0 350.18713289636435 -973.4191818469335 0 0 0 0 341.56657501711743 -7.0668911214706895 0 -7.0668911214706895 -968.7649679426363 0 0 0 0 424.98963755411387 41.396646068769769 0 41.396646068769769 -985.30822395943687 0 0 0 0 562.08843437692121 -509.65236894819191 0 -509.65236894819191 -356.71668053454778 0 0 0 0 750.95607661858958 -506.07232247588399 0 -506.07232247588399 -825.24248494068161 0 0 0 0 556.96473022308783 -75.717895415225939 0 -75.717895415225939 -1198.3296403724162 0 0 0 0 271.67984134821745 -10.501131053875724 0 -10.501131053875724 -1160.6368601781796 0 0 0 0 -295.93074098118814 496.05523852060833 0 496.05523852060833 -1611.1035944116738 0 0 0 0 307.94196702561749 663.12475418371105 0 663.12475418371105 -1964.18923559225 0 0 0 0 477.29142689926084 -106.90199828968071 0 -106.90199828968071 -1170.4658997844745 0 0 0 0 -536.28629816832836 489.45784050647126 0 489.45784050647126 -914.29789657936635 0 0 0 0 178.36909875714991 460.23048612904222 0 460.23048612904222 -1494.8781185344196 0 0 0 0 -104.61958117132599 283.87508890713616 0 283.87508890713616 -899.89705490600318 0 0 0 0 -419.80565284882323 -623.97715885906291 0 -623.97715885906291 -113.62642074511677 0 0 0 0 -6.1715216865572131 -18.827065850486576 0 -18.827065850486576 -36.651549090241474 0 0 0 0 -510.36019615025612 1141.987093400295 0 1141.987093400295 -1660.3989776818817 0 0 0 0 12.19756171157286 1.5041296370432633 0 1.5041296370432633 1.2063140286094409 0 0 0 0 1578.6546960379637 -2245.2576094894093 0 -2245.2576094894093 2285.9466902779945 0 0 0 0 507.35560324825565 506.31414209425475 0 506.31414209425475 -300.30158630129517 0 0 0 0 -2.0855846088108763 -5.4549922749417306 0 -5.4549922749417306 -12.721004736068366 0 0 0 0 -1409.3294143842795 1114.6523203281267 0 1114.6523203281267 -1500.3565600809634 0 0 0 0 406.84330953854078 801.58849057810585 0 801.58849057810585 -2514.0348165004762 0 0 0 0 -993.14402654721744 2445.4640116351002 0 2445.4640116351002 -3176.9404724688357 0 0 0 0 -26.775462724253885 347.50870609247249 0 347.50870609247249 -3258.9265893878764 0 0 0 0 -543.82048338917957 448.0994041028589 0 448.0994041028589 -1065.0814101487358 0 0 0 0 886.14438710232207 482.47736998987421 0 482.47736998987421 -1206.7347795332153 0 0 0 0 451.41434752174246 -90.930522603573309 0 -90.930522603573309 -258.70392701091987 0 0 0 0 -690.07967686330085 120.47423790623179 0 120.47423790623179 44.534990639796888 0 0 0 0 2426.3147109207639 311.78887169151858 0 311.78887169151858 18.401251557897922 0 0 0 0 708.06993706546564 -1077.7342210638049 0 -1077.7342210638049 2439.555883386678 0 0 0 0 491.99236360003488 -437.99142419688906 0 -437.99142419688906 -254.95916994266372 0 0 0 0 1142.7570447142352 248.73325784493136 0 248.73325784493136 -1286.3065823120451 0 0 0 0 1381.8641625317887 -905.08220321999192 0 -905.08220321999192 -843.88242354970862 0 0 0 0 648.91172341895799 -861.1257093179388 0 -861.1257093179388 -168.31932095378943 0 0 0 0 625.74630817898287 -855.82185982343435 0 -855.82185982343435 116.3267642003284 0 0 0 0 -185.13503527373541 -399.41450834006355 0 -399.41450834006355 2582.3529758574123 0 0 0 0 1913.2849503275611 -2169.0074607300676 0 -2169.0074607300676 1160.9190696318947 0 0 0 0 14.14533851195398 -10.333960157658169 0 -10.333960157658169 7.385309444205209 0 0 0 0 -2.206520347159028 -29.883577064823726 0 -29.883577064823726 -54.040298722589746 0 0 0 0 141.0752540942558 -271.41323054190025 0 -271.41323054190025 503.92785745393019 0 0 0 0 641.45549514750019 -648.13680590301465 0 -648.13680590301465 -16.355697742728807 0 0 0 0 496.74645996899926 -802.84010435621985 0 -802.84010435621985 450.70869546436006 0 0 0 0 -115.35106152603112 -1521.2253030733009 0 -1521.2253030733009 -419.00896073222384 0 0 0 0 -288.78735410499212 -1474.9131779426425 0 -1474.9131779426425 -230.42411341728985 0 0 0 0 49.368728144385386 -1198.0781757778313 0 -1198.0781757778313 -479.4208610422038 0 0 0 0 -34.602083041832884 -1318.4898660930839 0 -1318.4898660930839 -123.88645749705393 0 0 0 0 -30.976188894070219 -1274.4569756791498 0 -1274.4569756791498 -340.95822552824393 0 0 0 0 -56.646961813370581 -1454.0844168630883 0 -1454.0844168630883 258.32149454350292 0 0 0 0 18.170101772231646 -21.71583147301989 0 -21.71583147301989 16.555863360991346 0 0 0 0 -1126.3201692376788 -1338.03454726768 0 -1338.03454726768 -673.69421579287882 0 0 0 0 456.06814164516982 -2421.3953045056114 0 -2421.3953045056114 -645.93377982789389 0 0 0 0 -1424.7342924054137 -712.63529310793183 0 -712.63529310793183 -395.57689011668117 0 0 0 0 -581.32844544765248 -566.85510556664258 0 -566.85510556664258 -498.27858531130914 0 0 0 0 395.86363729066215 -889.99557395030024 0 -889.99557395030024 -2507.331478337459 0 0 0 0 -1099.0115309764369 -535.62117916577699 0 -535.62117916577699 1144.4239953822253 0 0 0 0 -1712.0268568000611 345.13679266649524 0 345.13679266649524 -117.97897047299557 0 0 0 0 -1617.2670326710031 -704.81074866902622 0 -704.81074866902622 1209.6998538744301 0 0 0 0 -422.76138914701005 -368.0954345209484 0 -368.0954345209484 -351.22493491211844 0 0 0 0 -352.08778191929741 -677.23481949165489 0 -677.23481949165489 960.33151201845249 0 0 0 0 47.131781147822039 -1090.9006405388118 0 -1090.9006405388118 58.083164750529249 0 0 0 0 -228.5402709677146 -979.38681457413986 0 -979.38681457413986 1261.0315279964907 0 0 0 0 1006.5873016478436 -1258.8555757714075 0 -1258.8555757714075 2015.7571708753094 0 0 0 0 136.5652494347305 -748.15699984539242 0 -748.15699984539242 1744.8647318866097 0 0 0 0 666.57438100656145 -1341.9218033379802 0 -1341.9218033379802 1168.2833661004679 0 0 0 0 -93.885450906003825 -1110.8354875410732 0 -1110.8354875410732 983.22124279811169 0 0 0 0 358.98633564027841 -881.43673633693834 0 -881.43673633693834 565.51168925025195 0 0 0 0 212.35733406558575 -721.84682709464505 0 -721.84682709464505 944.18047961084085 0 0 0 0 1135.2677208640162 -1169.31923248558 0 -1169.31923248558 1663.5470640721251 0 0 0 0 2391.8130192022072 -1409.4030960714517 0 -1409.4030960714517 1229.9147042878485 0 0 0 0 1304.7750899791863 -582.21394919958402 0 -582.21394919958402 855.77070798616478 0 0 0 0 1201.8488637919654 -864.67225133418287 0 -864.67225133418287 -498.21465742198666 0 0 0 0 575.21869837009581 82.186324291431447 0 82.186324291431447 -1892.3662927187142 0 0 0 0 1606.2051423073463 -1379.8693223339942 0 -1379.8693223339942 -1389.4581687781829 0 0 0 0 402.04190849233419 -1553.5878218498347 0 -1553.5878218498347 277.21802067187127 0 0 0 0 328.19206858318648 -907.53283847924649 0 -907.53283847924649 848.87036124621591 0 0 0 0 512.02565831204993 -1010.5188555949135 0 -1010.5188555949135 -632.87914380369693 0 0 0 0 -98.718015072867274 -865.56201011734447 0 -865.56201011734447 -459.74491046026378 0 0 0 0 190.32968661769701 -1384.2904847575437 0 -1384.2904847575437 -255.07070870123789 0 0 0 0 -391.71762920227775 -292.60102907224427 0 -292.60102907224427 -1194.9027021808579 0 0 0 0 -331.2232759474573 -61.877418516252874 0 -61.877418516252874 -1220.3793851485252 0 0 0 0 -613.23258502587851 -1006.1904495128565 0 -1006.1904495128565 -425.73106582137552 0 0 0 0 -320.61400835965469 -811.89439526652222 0 -811.89439526652222 -1235.341130040415 0 0 0 0 256.98123179495451 -162.51990293856579 0 -162.51990293856579 -1203.4636398270486 0 0 0 0 -534.7418426375516 309.04298288858809 0 309.04298288858809 -1044.7739438807876 0 0 0 0 -384.75337820893037 308.21572353070405 0 308.21572353070405 -1473.885183132983 0 0 0 0 -495.52120701826061 69.228128506138091 0 69.228128506138091 -1091.7512279340031 0 0 0 0 87.644029235569178 190.10820956440512 0 190.10820956440512 -972.99699091111961 0 0 0 0 -395.42010169521382 -784.31677947304343 0 -784.31677947304343 -586.37741627907599 0 0 0 0 4.2505623096109844 -5.0619630233023969 0 -5.0619630233023969 4.2667979866564352 0 0 0 0 11.468701981956855 -9.9018453074319126 0 -9.9018453074319126 4.6542454958145569 0 0 0 0 -707.86850495173712 -275.90992059676864 0 -275.90992059676864 169.59357872629698 0 0 0 0 -679.00004982548126 -580.0625820703317 0 -580.0625820703317 -533.35360377337747 0 0 0 0 -871.705916012128 -489.36286950892099 0 -489.36286950892099 118.76424456021414 0 0 0 0 -668.18164598634758 -625.12201613803518 0 -625.12201613803518 -308.77465270835091 0 0 0 0 4.4758398944141788 -5.264673944401224 0 -5.264673944401224 0.65734940310909451 0 0 0 0 12.701638406462848 -15.267198449732021 0 -15.267198449732021 11.40592307126655 0 0 0 0 -1014.4974807719555 -954.48216608127768 0 -954.48216608127768 -427.45626841297417 0 0 0 0 -1564.0553756057634 -970.18202276708325 0 -970.18202276708325 -1046.0979455386259 0 0 0 0 -1076.9461759778569 -552.23821285208624 0 -552.23821285208624 -271.9613132016384 0 0 0 0 -719.45423973150901 -646.3758960697578 0 -646.3758960697578 -131.35850856501929 0 0 0 0 -78.386244395631365 -465.00370248872787 0 -465.00370248872787 -322.19581739287241 0 0 0 0 68.536096406009165 -848.75514896821551 0 -848.75514896821551 -515.55595653984892 0 0 0 0 -846.1977694130037 -1237.0351790457862 0 -1237.0351790457862 -840.53425266391423 0 0 0 0 -548.23583321151091 -595.59534451213767 0 -595.59534451213767 -920.72132594998811 0 0 0 0 -81.387063844733348 -482.04886097909548 0 -482.04886097909548 -24.179030564051573 0 0 0 0 -730.02235798252877 -480.91613997267405 0 -480.91613997267405 58.713132185577706 0 0 0 0 14.431681919566472 -218.03300945004958 0 -218.03300945004958 120.30949751369735 0 0 0 0 19.458476821295335 -670.6497158592465 0 -670.6497158592465 92.651012604566631 0 0 0 0 1206.7879795240442 -1262.0756642278011 0 -1262.0756642278011 482.44645383193574 0 0 0 0 313.6658359230205 -453.71834593045605 0 -453.71834593045605 289.25691186187169 0 0 0 0 2.3614420970064387 -8.7676191519479119 0 -8.7676191519479119 3.7445418546883786 0 0 0 0 2844.2638526190131 -754.29791090581057 0 -754.29791090581057 -668.34039223301079 0 0 0 0 589.2912967950142 -338.92711919818066 0 -338.92711919818066 -201.0055026274531 0 0 0 0 898.09918475645827 -1035.6272366999347 0 -1035.6272366999347 -128.96314521921568 0 0 0 0 189.26426209976125 -365.08023567646478 0 -365.08023567646478 -626.32676990619075 0 0 0 0 859.70238180010347 -1063.750666996244 0 -1063.750666996244 -534.0457383148314 0 0 0 0 -14.854693879169645 -258.33129598062987 0 -258.33129598062987 -989.08131639279236 0 0 0 0 1126.8173585898185 -864.17712891110932 0 -864.17712891110932 -612.947437604078 0 0 0 0 854.15953392485972 -734.86339378994671 0 -734.86339378994671 -235.04636912075148 0 0 0 0 1605.1866199068245 -208.06236506990535 0 -208.06236506990535 -387.22564317702563 0 0 0 0 202.86799909470574 -1250.0171675502488 0 -1250.0171675502488 1086.047334452659 0 0 0 0 -171.81454979797854 -770.76241865443353 0 -770.76241865443353 480.51309345204027 0 0 0 0 9.1256017612036828 -11.431544596028651 0 -11.431544596028651 10.089537260374328 0 0 0 0 966.17604297219077 -1040.7231289190877 0 -1040.7231289190877 -840.98749435686568 0 0 0 0 1052.8464285422961 -1445.8548115368758 0 -1445.8548115368758 -204.8717558795579 0 0 0 0 -598.6820065149434 -542.76106717383971 0 -542.76106717383971 -554.63527487627289 0 0 0 0 -548.97061288163968 -405.6877354975968 0 -405.6877354975968 -313.63862170511857 0 0 0 0 -741.81058890094573 -417.7703719813826 0 -417.7703719813826 -224.72325651037318 0 0 0 0 3.3371716984258555 -17.813924297812491 0 -17.813924297812491 11.865135764294351 0 0 0 0 -793.06421932649391 -525.94852468778481 0 -525.94852468778481 -355.35239416184413 0 0 0 0 -598.60069801022473 -373.42040823510433 0 -373.42040823510433 -424.88919458287273 0 0 0 0 -614.35787911656371 -653.02231459154427 0 -653.02231459154427 -843.49325389780279 0 0 0 0 -572.52514805464307 -528.42834358427353 0 -528.42834358427353 -568.45061299106601 0 0 0 0 0.070246437486957802 -4.1096400430878912 0 -4.1096400430878912 2.949321560534834 0 0 0 0 -738.09567325579701 -81.809678866600734 0 -81.809678866600734 1057.4950705389565 0 0 0 0 -551.15948897411727 -950.2570429959851 0 -950.2570429959851 -1123.048260433643 0 0 0 0 -834.68372439438826 -917.78871598996193 0 -917.78871598996193 -734.59700179544961 0 0 0 0 -387.2460081182071 -321.94328230396968 0 -321.94328230396968 1187.5354425851692 0 0 0 0 -361.94238515920006 -265.05552845558668 0 -265.05552845558668 742.6884540564788 0 0 0 0 -868.56587434624089 -737.42544814326902 0 -737.42544814326902 -478.49627640660219 0 0 0 0 -2027.1969030752789 -887.16575927958706 0 -887.16575927958706 436.36259359989344 0 0 0 0 43.298069094045786 -774.14422573669435 0 -774.14422573669435 216.76207132541322 0 0 0 0 -352.75786712388799 -1079.0267989881468 0 -1079.0267989881468 159.20581025545107 0 0 0 0 -135.80844532673655 -517.23072079164558 0 -517.23072079164558 464.2169937060462 0 0 0 0 -18.681250685593113 -305.46207448247878 0 -305.46207448247878 489.941513818967 0 0 0 0 -156.42460464845863 -385.35614368923052 0 -385.35614368923052 749.42400785780774 0 0 0 0 -534.60110021993751 -638.78441495418156 0 -638.78441495418156 829.03877228657075 0 0 0 0 -233.9093921151798 -575.64849357162893 0 -575.64849357162893 456.85733791912935 0 0 0 0 -58.751160703162896 -487.9789753992045 0 -487.9789753992045 440.77312063774934 0 0 0 0 -73.549055881929235 -474.25373121741359 0 -474.25373121741359 453.21479387309228 0 0 0 0 33.459150854789186 -468.53642826671421 0 -468.53642826671421 425.86341588730647 0 0 0 0 102.99729211744852 -383.56285353681596 0 -383.56285353681596 412.95105171235627 0 0 0 0 5.4700749350595288 -392.41900370165786 0 -392.41900370165786 440.1181130508412 0 0 0 0 204.85849167326523 -302.04589197178757 0 -302.04589197178757 150.11017541262845 0 0 0 0 140.02837674413604 -382.09799812761048 0 -382.09799812761048 269.68175727802009 0 0 0 0 -4.3364072630938608 -212.22530458760593 0 -212.22530458760593 486.76526283175917 0 0 0 0 152.18438340031207 -195.34024140052043 0 -195.34024140052043 205.96235100674676 0 0 0 0 151.80895367931225 -192.24510353386358 0 -192.24510353386358 337.07336608222613 0 0 0 0 167.93837342945335 -190.02082705890825 0 -190.02082705890825 111.98993020767784 0 0 0 0 -130.20530302173574 -42.515638508552001 0 -42.515638508552001 392.36218981671846 0 0 0 0 103.72352642337501 10.171444717583654 0 10.171444717583654 92.895916169283282 0 0 0 0 98.178517562540947 -65.001258596883417 0 -65.001258596883417 467.94613945071615 0 0 0 0 186.93884184469061 102.69736716541229 0 102.69736716541229 385.9883051900797 0 0 0 0 156.01972804086108 -104.128489774017 0 -104.128489774017 400.51152326961892 0 0 0 0 -1.8565411293807301 -1.2632453902943936 0 -1.2632453902943936 1.1962930689861189 0 0 0 0 528.01385414841934 265.30267947486936 0 265.30267947486936 201.50216463582092 0 0 0 0 -183.97902213783527 -60.455160172368778 0 -60.455160172368778 977.73472982130079 0 0 0 0 34.634110372673604 83.64266061438866 0 83.64266061438866 737.82797654141177 0 0 0 0 -321.63701016462437 -105.83310475323742 0 -105.83310475323742 216.72671609863391 0 0 0 0 -131.97187854003278 -477.33362521278468 0 -477.33362521278468 -463.82679366487719 0 0 0 0 -412.32713997381506 -191.58392421061399 0 -191.58392421061399 224.13254731071538 0 0 0 0 2.8997141296276823 -185.41460572865617 0 -185.41460572865617 103.21574373987096 0 0 0 0 -172.55325054779678 29.020925110766257 0 29.020925110766257 784.62058931795764 0 0 0 0 -5.9543088317071806 -4.4770623940903818 0 -4.4770623940903818 1.8526316092242929 0 0 0 0 -80.701543468319869 225.33897007272026 0 225.33897007272026 425.67673993445896 0 0 0 0 -231.95691333021387 -13.230717788794209 0 -13.230717788794209 552.52126713577309 0 0 0 0 136.91677974544291 -194.6814502043394 0 -194.6814502043394 213.15803852060708 0 0 0 0 77.319749991962453 -68.894023835380722 0 -68.894023835380722 -133.13469452173013 0 0 0 0 -8.5182917465870105 -5.5175311746213609 0 -5.5175311746213609 0.83508868133290726 0 0 0 0 -84.582794772470152 -42.619162480643354 0 -42.619162480643354 133.88916168146534 0 0 0 0 140.52295214950573 -6.1456584073966951 0 -6.1456584073966951 -253.49478653191272 0 0 0 0 -101.9568078311795 102.8884040363746 0 102.8884040363746 -43.839519845299947 0 0 0 0 189.9415616049082 -103.17584254045505 0 -103.17584254045505 88.295048451680486 0 0 0 0 187.64448229072002 123.19453337352761 0 123.19453337352761 -81.21226333201048 0 0 0 0 42.555645159096457 -10.43182194930705 0 -10.43182194930705 41.221935515910445 0 0 0 0 -0.1028653704359499 -0.96753510249170116 0 -0.96753510249170116 0.21153614128865783 0 0 0 0 -226.91534879259416 -561.84897463120069 0 -561.84897463120069 -901.20280817787716 0 0 0 0 -294.92062042071484 25.792368186623207 0 25.792368186623207 187.92112037256447 0 0 0 0 -357.13504038528481 -547.36300683767331 0 -547.36300683767331 -708.51100139052141 0 0 0 0 -238.25533004508361 -365.41291242700026 0 -365.41291242700026 -634.38880299207085 0 0 0 0 -223.63361560361136 -456.12119485882977 0 -456.12119485882977 -877.72253968872246 0 0 0 0 -194.77461854959256 -286.74937854647396 0 -286.74937854647396 -482.73050625333053 0 0 0 0 -183.13271190859086 -286.08226513391855 0 -286.08226513391855 -665.63704520220926 0 0 0 0 9.8424060381038032 -16.877877961219692 0 -16.877877961219692 11.416998347098755 0 0 0 0 46.855159438695409 -9.0407940842342214 0 -9.0407940842342214 75.53308499637933 0 0 0 0 -54.548639342465322 10.215818908000074 0 10.215818908000074 178.35778989350183 0 0 0 0 -2.1208257490343954 -4.2698610142509885 0 -4.2698610142509885 7.9418280441856552 0 0 0 0 -115.31531519573764 -302.52023182830453 0 -302.52023182830453 -586.51587043005566 0 0 0 0 -87.247638472490507 -195.90606633683501 0 -195.90606633683501 -490.71155512009864 0 0 0 0 -100.18724335671868 -245.56421519257492 0 -245.56421519257492 -445.48605247297382 0 0 0 0 3.8709026097548929 2.0020105214788657 0 2.0020105214788657 -7.1177015644025872 0 0 0 0 -365.75643470518116 -442.60061300881716 0 -442.60061300881716 -616.57174748325633 0 0 0 0 -366.95082712042495 -421.46001819523372 0 -421.46001819523372 -685.34168410760685 0 0 0 0 -411.83041091886844 -606.88449583455531 0 -606.88449583455531 -1089.5916790741721 0 0 0 0 2.6570649489775917 -11.160376616358427 0 -11.160376616358427 10.166622361192715 0 0 0 0 -172.63869630690897 175.79517256715189 0 175.79517256715189 188.71883547277685 0 0 0 0 -371.0352657828189 37.569874742566753 0 37.569874742566753 239.80948553877533 0 0 0 0 -335.56315375034319 -473.3797732285102 0 -473.3797732285102 -611.89590064978984 0 0 0 0 -177.37976571751642 -510.04866141756065 0 -510.04866141756065 -650.12522455423459 0 0 0 0 -166.46439085667953 -69.278489897646068 0 -69.278489897646068 -45.055870494172268 0 0 0 0 -311.02629248626181 -449.38279886414239 0 -449.38279886414239 -604.41797266377216 0 0 0 0 -313.76402621276793 -374.27383987233043 0 -374.27383987233043 -480.9270164851041 0 0 0 0 -313.50794595835032 -421.17489280800874 0 -421.17489280800874 -536.79612553506013 0 0 0 0 -311.86215245618951 -460.26412583676938 0 -460.26412583676938 -591.88279675777449 0 0 0 0 -363.84195725017344 -436.76971557823708 0 -436.76971557823708 -458.47152361037297 0 0 0 0 -337.59490786160313 -434.49619931499092 0 -434.49619931499092 -462.56486577301257 0 0 0 0 -368.76060637818591 -379.45701110740265 0 -379.45701110740265 -377.60072109117755 0 0 0 0 -414.59634136722161 -459.11538469440165 0 -459.11538469440165 -416.19999516545067 0 0 0 0 -366.81317178239988 -505.58832761959457 0 -505.58832761959457 -588.97095669415285 0 0 0 0 -458.8067334669322 -546.97236066681944 0 -546.97236066681944 -588.08308481431413 0 0 0 0 -431.90532390976773 -291.45739116757585 0 -291.45739116757585 -151.76913850658457 0 0 0 0 -430.1935498998854 -412.48208860249628 0 -412.48208860249628 -304.81476656662562 0 0 0 0 -396.85805393813644 -322.36755259109486 0 -322.36755259109486 -169.99919345967191 0 0 0 0 -343.38528483416303 -357.62064601901511 0 -357.62064601901511 -351.52203537867172 0 0 0 0 -330.26194889728504 -404.7673653735983 0 -404.7673653735983 -450.80705681997279 0 0 0 0 -348.60285862036108 -360.3687294606043 0 -360.3687294606043 -325.19192436800222 0 0 0 0 -304.5040290247307 -361.7784701672299 0 -361.7784701672299 -325.1584282979893 0 0 0 0 -347.98496402497403 -305.28932037719278 0 -305.28932037719278 -186.48757881770143 0 0 0 0 -366.45687266840832 -391.31613010258388 0 -391.31613010258388 -326.66402136330726 0 0 0 0 -359.26957950450014 -357.30873541290021 0 -357.30873541290021 -142.20508741601952 0 0 0 0 -342.15897708651755 -349.76687934971415 0 -349.76687934971415 -89.47173798867334 0 0 0 0 -313.58780187361117 -263.90666743040128 0 -263.90666743040128 -53.199379892505021 0 0 0 0 -291.28888111264678 -275.26517501572744 0 -275.26517501572744 -43.877228592657048 0 0 0 0 -384.26261886768043 -290.24276229321185 0 -290.24276229321185 -35.527072592994955 0 0 0 0 -325.14811393055425 -293.77983496609522 0 -293.77983496609522 -178.41512825383415 0 0 0 0 -168.46476715301833 -305.35018776264224 0 -305.35018776264224 -232.10680061246967 0 0 0 0 -125.40276524722503 -308.63258694211436 0 -308.63258694211436 -317.83109833833441 0 0 0 0 -106.05064867108013 -245.70306798599995 0 -245.70306798599995 -331.69361433853192 0 0 0 0 -117.28775970102288 -288.90493586676166 0 -288.90493586676166 -453.55016038350004 0 0 0 0 -173.12065107563103 -287.20913545343683 0 -287.20913545343683 -346.20155374021851 0 0 0 0 -165.23470136579999 -309.63019077130411 0 -309.63019077130411 -500.55098624742095 0 0 0 0 -172.66707960287749 -343.38875175784051 0 -343.38875175784051 -360.84363635287718 0 0 0 0 -269.57441316040058 -369.61314372777997 0 -369.61314372777997 -337.08827828405265 0 0 0 0 -221.37388201628346 -294.72797264624023 0 -294.72797264624023 -260.47820336259247 0 0 0 0 -332.64892573367979 -401.98621495097541 0 -401.98621495097541 -428.95052472361567 0 0 0 0 -300.26354898151476 -348.76724116472542 0 -348.76724116472542 -475.40088784181353 0 0 0 0 -247.83415700013575 -324.57416961840408 0 -324.57416961840408 -374.95447369051544 0 0 0 0 -348.64235057985934 -373.3797120874442 0 -373.3797120874442 -238.23930468390245 0 0 0 0 -250.7939597247896 -291.60363964815406 0 -291.60363964815406 -189.91380974536514 0 0 0 0 -201.41042207884311 -292.8767576821574 0 -292.8767576821574 -140.39404532799381 0 0 0 0 -287.9470703245679 -376.78950454972528 0 -376.78950454972528 -211.97928431781111 0 0 0 0 -220.87417312114849 -358.3745019440139 0 -358.3745019440139 -135.25979151366482 0 0 0 0 -174.60452253071162 -323.93884197582656 0 -323.93884197582656 -109.97441891994094 0 0 0 0 -154.97034764682758 -333.23288121252335 0 -333.23288121252335 -245.36899466209616 0 0 0 0 -34.241470973720425 -328.01837060995604 0 -328.01837060995604 -84.444140278501436 0 0 0 0 -156.32672373017704 -353.62053553812984 0 -353.62053553812984 -77.064247192509356 0 0 0 0 -138.20010308924248 -350.50046716088946 0 -350.50046716088946 -97.118273131956812 0 0 0 0 -214.37653755742213 -294.03765578657658 0 -294.03765578657658 -27.167008513388282 0 0 0 0 -114.94807875962579 -267.65664961985749 0 -267.65664961985749 -29.799582753637196 0 0 0 0 -250.22269160844735 -278.48423511915462 0 -278.48423511915462 5.775204204950569 0 0 0 0 -189.15606428727915 -257.4827614625583 0 -257.4827614625583 -13.329330212131026 0 0 0 0 -297.36697051906958 -340.2916151549598 0 -340.2916151549598 -70.592686966503607 0 0 0 0 -264.2372102901536 -248.88455838821437 0 -248.88455838821437 7.8367093639608356 0 0 0 0 -294.920112359825 -216.70692292775129 0 -216.70692292775129 159.06217642599586 0 0 0 0 -298.87331318706856 -172.23244770273777 0 -172.23244770273777 169.51032820748514 0 0 0 0 -275.22908289583575 -135.71020695238622 0 -135.71020695238622 176.77828895758284 0 0 0 0 -138.88170779276697 -183.22469234779055 0 -183.22469234779055 66.197236065338075 0 0 0 0 -195.02878097504436 -218.91102988555758 0 -218.91102988555758 70.068366622374015 0 0 0 0 -79.220090868024272 -160.03365010890957 0 -160.03365010890957 116.16783031596424 0 0 0 0 -108.97551542866131 -145.97118299065551 0 -145.97118299065551 110.37395887829189 0 0 0 0 -4.2440397234022385 -208.38375905307839 0 -208.38375905307839 42.132295092909771 0 0 0 0 -8.4087388322441257 -226.44919637848943 0 -226.44919637848943 -13.948481878418534 0 0 0 0 -122.95547820410866 -265.14309765048893 0 -265.14309765048893 -3.6963307981968683 0 0 0 0 -344.25873556939951 -246.435131939033 0 -246.435131939033 73.552563188779459 0 0 0 0 -260.20522927573836 -205.94755338946729 0 -205.94755338946729 94.828896528757468 0 0 0 0 -260.75858966291707 -313.57352654572969 0 -313.57352654572969 126.37061306522082 0 0 0 0 -340.14002111972513 -246.275937880735 0 -246.275937880735 154.75346467403142 0 0 0 0 -327.7843710763409 -280.0520113145194 0 -280.0520113145194 44.3372396254872 0 0 0 0 -326.49167469098757 -304.80309062800552 0 -304.80309062800552 12.222478371062607 0 0 0 0 -354.35936851364386 -286.8758318770906 0 -286.8758318770906 219.46370988522176 0 0 0 0 -389.63612451392692 -137.29411689305562 0 -137.29411689305562 312.81117669739569 0 0 0 0 -430.28483466484613 -209.21007497559003 0 -209.21007497559003 298.74197336148063 0 0 0 0 -164.79106016152946 -403.4652163091032 0 -403.4652163091032 273.54709551412998 0 0 0 0 -352.01376315148173 -272.52982914838481 0 -272.52982914838481 182.32834268292572 0 0 0 0 -101.28106859455147 -242.53629626328939 0 -242.53629626328939 144.94514626314049 0 0 0 0 -136.32160777307945 -213.31785735241374 0 -213.31785735241374 166.17702360979456 0 0 0 0 -98.534276816320926 -228.87754677326393 0 -228.87754677326393 132.31811540048511 0 0 0 0 -199.18062056304188 -260.38529868428304 0 -260.38529868428304 141.85195870740063 0 0 0 0 -157.18255616432361 -159.32132413318413 0 -159.32132413318413 75.721795194760489 0 0 0 0 -256.26625978732773 -168.86883200776356 0 -168.86883200776356 80.129117609014429 0 0 0 0 -244.33541529387003 -245.91597552872918 0 -245.91597552872918 50.552493737999612 0 0 0 0 -1538.1436407337624 -436.66319210157076 0 -436.66319210157076 435.2430358519814 0 0 0 0 1.3916148254168377 -12.755650695774051 0 -12.755650695774051 18.631031396479187 0 0 0 0 0.39659630395908607 -119.24907596391222 0 -119.24907596391222 20.470742817235077 0 0 0 0 -446.75522333849221 372.05536646251494 0 372.05536646251494 -47.114311444583791 0 0 0 0 -638.85148877982283 -249.02347064641253 0 -249.02347064641253 -422.9545878953586 0 0 0 0 -207.0504370781855 -173.16338161103886 0 -173.16338161103886 103.97635388273011 0 0 0 0 -647.76698417067746 -166.16227856964861 0 -166.16227856964861 161.04319813144684 0 0 0 0 -349.20808519488492 -364.85058346909045 0 -364.85058346909045 383.22951165436643 0 0 0 0 49.6795729847654 -129.36446856761086 0 -129.36446856761086 402.077936686025 0 0 0 0 -942.22349080413915 -539.87620165883527 0 -539.87620165883527 819.92149289270128 0 0 0 0 -520.03543579340476 161.26826363979035 0 161.26826363979035 1337.2257139979188 0 0 0 0 -290.71595174649701 -935.99796022866076 0 -935.99796022866076 -1571.4155653945563 0 0 0 0 1.2619213322248015 -6.2735117008356909 0 -6.2735117008356909 3.3704594893264712 0 0 0 0 583.72904847130849 -67.318388456678804 0 -67.318388456678804 -1159.3218156489002 0 0 0 0 47.044568659322977 -1662.0140802970336 0 -1662.0140802970336 1173.6665127540512 0 0 0 0 -617.16554545294639 143.77411858448068 0 143.77411858448068 430.52225152157007 0 0 0 0 -324.24098211441014 -104.70694135076519 0 -104.70694135076519 -90.269939184019677 0 0 0 0 -568.26108329008275 -168.78839722573503 0 -168.78839722573503 -31.436074532337443 0 0 0 0 -471.09449507930549 -397.50010502956502 0 -397.50010502956502 -321.10247765172517 0 0 0 0 -245.52571311753854 -199.28343327711082 0 -199.28343327711082 3.918199676743825 0 0 0 0 -440.37742037718999 -206.95540391436862 0 -206.95540391436862 -27.282040529884398 0 0 0 0 -345.76353799426579 -268.40987265438889 0 -268.40987265438889 -176.14481817174055 0 0 0 0 -341.11610408047272 -206.84236104366209 0 -206.84236104366209 36.156726151511975 0 0 0 0 -246.29587096121395 -178.93426733678643 0 -178.93426733678643 -41.105340446338232 0 0 0 0 -254.53213894849614 -45.236224272019172 0 -45.236224272019172 43.877572111457994 0 0 0 0 -1082.5720238134527 -537.8371510880761 0 -537.8371510880761 -546.68813360131935 0 0 0 0 2.633596639626461 -17.475545901447191 0 -17.475545901447191 18.819280554909056 0 0 0 0 -316.33806235619886 -125.82425437882875 0 -125.82425437882875 -48.329481834774924 0 0 0 0 -999.47734645560558 -747.48047882223545 0 -747.48047882223545 -217.33500849071447 0 0 0 0 170.52882078132825 -305.60021981163663 0 -305.60021981163663 671.15321894935914 0 0 0 0 169.08554944826756 -409.73436784121805 0 -409.73436784121805 705.06813791615423 0 0 0 0 219.82081012064009 -407.67733433988542 0 -407.67733433988542 678.17256434506999 0 0 0 0 187.32262748482754 -446.04611493635275 0 -446.04611493635275 746.86384741928487 0 0 0 0 256.86097148241242 -478.8926156010275 0 -478.8926156010275 713.65755487967544 0 0 0 0 240.85849738842808 -429.49759239076957 0 -429.49759239076957 667.33857099324814 0 0 0 0 282.66927332317573 -394.94462968715743 0 -394.94462968715743 675.59669367384049 0 0 0 0 8.213541055098176 -28.843871470715385 0 -28.843871470715385 23.564274249332811 0 0 0 0 230.27642126946012 -437.96531776660413 0 -437.96531776660413 826.25934842912829 0 0 0 0 -1.804996080667479 -117.6482579321746 0 -117.6482579321746 656.17652020989044 0 0 0 0 -3.4796482826950239 -2.3444090192456883 0 -2.3444090192456883 4.2388532639175907 0 0 0 0 0.35999214763012333 0.50330577666292697 0 0.50330577666292697 -1.9376939886371645 0 0 0 0 393.52983419818338 -606.06089904312103 0 -606.06089904312103 868.59902638818312 0 0 0 0 272.5146134228853 -513.00068378166907 0 -513.00068378166907 821.78028715278197 0 0 0 0 282.98387445317348 -516.78333566330184 0 -516.78333566330184 786.48270736988343 0 0 0 0 284.74805869284319 -430.91635411835159 0 -430.91635411835159 569.97672590539878 0 0 0 0 70.167418761766839 -360.91504597472982 0 -360.91504597472982 708.86508998141653 0 0 0 0 71.712428484170232 -287.31315523096418 0 -287.31315523096418 569.9287673372786 0 0 0 0 -0.083684459241339937 -303.1165370532799 0 -303.1165370532799 680.24875185150086 0 0 0 0 154.62176665241714 -336.22166307287625 0 -336.22166307287625 633.75966105227053 0 0 0 0 107.76722663332475 -351.75375798104506 0 -351.75375798104506 726.67760427337998 0 0 0 0 132.8330280340524 -434.82679556927724 0 -434.82679556927724 781.4209911388898 0 0 0 0 199.78208293617354 -395.87127994630646 0 -395.87127994630646 710.5605376503263 0 0 0 0 161.09105836699018 -397.76868172495597 0 -397.76868172495597 856.13290934377619 0 0 0 0 293.26993456523633 -527.96633502098848 0 -527.96633502098848 854.24309519882809 0 0 0 0 271.47801669986802 -512.24373760152594 0 -512.24373760152594 806.80452574066294 0 0 0 0 204.82374764798442 -479.3717709736884 0 -479.3717709736884 816.21545793392579 0 0 0 0 228.11353951448109 -454.62637855456705 0 -454.62637855456705 725.76811162965168 0 0 0 0 419.63495208087261 -1046.9011082225225 0 -1046.9011082225225 1250.5429420693981 0 0 0 0 358.412495066259 -397.98917413140043 0 -397.98917413140043 -76.721188430696202 0 0 0 0 728.77011379096075 -669.14640848240924 0 -669.14640848240924 764.38513274778961 0 0 0 0 520.66939213578007 -406.74139332299455 0 -406.74139332299455 821.9862187226754 0 0 0 0 308.05747870789492 -455.09273745079554 0 -455.09273745079554 891.96756139586796 0 0 0 0 178.72295906796353 -362.59943539291771 0 -362.59943539291771 29.339907954727096 0 0 0 0 -93.821905958917341 164.78290355247645 0 164.78290355247645 399.0304700653578 0 0 0 0 33.224626992247067 -452.8788619626921 0 -452.8788619626921 232.83072997675936 0 0 0 0 298.93568867788417 -554.60324439565011 0 -554.60324439565011 836.43222859439811 0 0 0 0 -8.1777081262105185 3.2641100325179764 0 3.2641100325179764 23.62917073952724 0 0 0 0 -35.655086802345181 -51.060892021131167 0 -51.060892021131167 -41.110999308762189 0 0 0 0 299.45858837780543 -458.85027135856581 0 -458.85027135856581 632.68452170811361 0 0 0 0 332.53966853374732 -547.57184159064855 0 -547.57184159064855 716.91197097058102 0 0 0 0 -5.5213299767774515 -9.8427204623083924 0 -9.8427204623083924 -12.304523645135067 0 0 0 0 288.14412081066985 -415.53072768168204 0 -415.53072768168204 570.91414279027958 0 0 0 0 544.81823175697355 -216.99142710569231 0 -216.99142710569231 -479.3871515100418 0 0 0 0 44.182216058703489 -414.74828209492262 0 -414.74828209492262 -89.144092180787084 0 0 0 0 175.56284661451355 -264.86282583219349 0 -264.86282583219349 6.2977267424739694 0 0 0 0 2.7243025631260593 -2.8276314647035576 0 -2.8276314647035576 0.8315342723759418 0 0 0 0 -209.11947962813429 -211.87230673824706 0 -211.87230673824706 -1.8194121552376146 0 0 0 0 -152.62714091752423 -90.744862135642279 0 -90.744862135642279 -410.79318588123897 0 0 0 0 -2.5100895179199938 -2.0466045863957376 0 -2.0466045863957376 -0.14900625064148976 0 0 0 0 897.2030385027756 -406.80880091547442 0 -406.80880091547442 -1147.4428717292813 0 0 0 0 36.832913792139152 -348.9286054145141 0 -348.9286054145141 -472.07961775715921 0 0 0 0 142.72538901300868 29.245194360111327 0 29.245194360111327 -730.11532949114917 0 0 0 0 672.68191639322322 -585.65842823820458 0 -585.65842823820458 -572.56698355755543 0 0 0 0 206.61572274079663 -102.24864458089633 0 -102.24864458089633 -649.93970062560584 0 0 0 0 -326.03293140975438 336.53657935687443 0 336.53657935687443 -545.47007520507759 0 0 0 0 199.57976880244678 6.9806198748101451 0 6.9806198748101451 -879.5978867177306 0 0 0 0 114.07080835514716 180.57493811377412 0 180.57493811377412 -890.96092566239349 0 0 0 0 120.17278394012828 74.059151679126444 0 74.059151679126444 -666.03959140892403 0 0 0 0 -6.3271667274342747 -16.390330204183755 0 -16.390330204183755 -30.254652060506373 0 0 0 0 -128.75688074552454 -166.72425941660549 0 -166.72425941660549 7.2477418841190229 0 0 0 0 473.31783987551898 -3.9440760655020313 0 -3.9440760655020313 -655.24840654802574 0 0 0 0 0.34893290070203875 0.17237457794345801 0 0.17237457794345801 -8.2931556300941409 0 0 0 0 256.38202201489185 -217.73617136182656 0 -217.73617136182656 112.07873429463143 0 0 0 0 -13.437662852661902 -24.429931827112767 0 -24.429931827112767 -23.036369965175172 0 0 0 0 400.22238306907093 135.19040817507221 0 135.19040817507221 -120.40721571694303 0 0 0 0 59.771684707782697 -17.383480404525471 0 -17.383480404525471 -47.03834334849671 0 0 0 0 -15.097525782163586 -16.155034377348613 0 -16.155034377348613 1.6243835728039642 0 0 0 0 52.76063055198756 -65.288795254873548 0 -65.288795254873548 -90.80304278721087 0 0 0 0 95.678516863117693 -326.85180260799461 0 -326.85180260799461 567.74716272986143 0 0 0 0 0.3663239980378421 -170.11363659652216 0 -170.11363659652216 310.09344780896936 0 0 0 0 98.328464303704095 -252.28857711716046 0 -252.28857711716046 415.2630325430473 0 0 0 0 -5.0522718642383779 0.31462648303460128 0 0.31462648303460128 4.1365356610543458 0 0 0 0 52.760630552112993 225.7712082486286 0 225.7712082486286 -59.106888985123078 0 0 0 0 0.1673653948091669 -174.12235225355835 0 -174.12235225355835 -74.855419940508483 0 0 0 0 -3.687953629514368 -4.5120442787422519 0 -4.5120442787422519 -11.970156421191753 0 0 0 0 -195.39964705464081 1137.7228890147157 0 1137.7228890147157 -3129.1355189819296 0 0 0 0 220.02891579907737 35.165799514773425 0 35.165799514773425 -933.92670708217884 0 0 0 0 426.36219998718298 40.037858522098759 0 40.037858522098759 -1427.9224824634257 0 0 0 0 310.15563620896137 -1329.5090358860691 0 -1329.5090358860691 -1108.0083901381477 0 0 0 0 790.55709518745425 -583.59906247667277 0 -583.59906247667277 -1849.7242287559638 0 0 0 0 -1.6655792343372013 -1624.610826744937 0 -1624.610826744937 -1625.5023700220183 0 0 0 0 331.76800344177173 -737.92649338540832 0 -737.92649338540832 105.99474756715131 0 0 0 0 182.44914596194576 -805.84082145860157 0 -805.84082145860157 91.998504963029518 0 0 0 0 351.14684793265769 -748.78568101240671 0 -748.78568101240671 10.002638387805746 0 0 0 0 495.64355182572035 -464.31265946242752 0 -464.31265946242752 -15.101271630589508 0 0 0 0 90.370328787306789 -357.91626842045866 0 -357.91626842045866 1385.6190502926411 0 0 0 0 1.2369106019938272 -2.1047876460270061 0 -2.1047876460270061 0.64019173714465261 0 0 0 0 855.36993116731173 7.4067319601751933 0 7.4067319601751933 -541.3711147390037 0 0 0 0 -346.98399671516381 -1073.8819799361704 0 -1073.8819799361704 2013.7238436625985 0 0 0 0 1.9107326157245552 -1406.6889281363942 0 -1406.6889281363942 1075.7412685985919 0 0 0 0 1.878361043092923 -7.24792205768739 0 -7.24792205768739 -1.5450326466957569 0 0 0 0 -189.06888582759711 -575.92442973077414 0 -575.92442973077414 626.70956008254643 0 0 0 0 221.14314776906394 -633.45135383536262 0 -633.45135383536262 168.92843142006359 0 0 0 0 254.08628088809201 -406.43070835536673 0 -406.43070835536673 -94.983472203828114 0 0 0 0 189.36702926574071 -174.1145889207811 0 -174.1145889207811 -925.77805696865926 0 0 0 0 -108.61344650645333 -629.68492518382891 0 -629.68492518382891 -623.01489189908989 0 0 0 0 443.05842773370387 -258.74163544761791 0 -258.74163544761791 -530.16888631415441 0 0 0 0 437.20786015444901 -768.65339859430469 0 -768.65339859430469 -927.98561864187377 0 0 0 0 727.14156937703956 -607.50443801648635 0 -607.50443801648635 -989.86971642761455 0 0 0 0 789.64625881268694 -587.26416894538988 0 -587.26416894538988 -1025.2326442017002 0 0 0 0 1191.8089584486916 -343.51674234052348 0 -343.51674234052348 -1009.3031291978477 0 0 0 0 754.66514741198625 -132.34686326713381 0 -132.34686326713381 -943.77232099633557 0 0 0 0 634.81277552846586 -300.08091759732906 0 -300.08091759732906 -894.00885421707062 0 0 0 0 436.27998232917162 -93.46889615409691 0 -93.46889615409691 -886.44370873329717 0 0 0 0 1115.255231890058 272.87767632564061 0 272.87767632564061 -534.75913821230461 0 0 0 0 5.3394520056135093 -3.465582945588551 0 -3.465582945588551 0.21288963559942786 0 0 0 0 -404.02042969848844 -606.31511557324029 0 -606.31511557324029 -1136.2998263986178 0 0 0 0 -314.27450553141534 -314.89597264846634 0 -314.89597264846634 -454.33092867208234 0 0 0 0 -323.97079798195045 -297.09531834260633 0 -297.09531834260633 -481.06069818834476 0 0 0 0 -299.91139847174054 -318.99180885436726 0 -318.99180885436726 -506.6714010681435 0 0 0 0 -288.84732512220216 -341.05492222070939 0 -341.05492222070939 -465.53650642244065 0 0 0 0 -40.368990424380172 -181.89289959887719 0 -181.89289959887719 -390.92222032326936 0 0 0 0 -26.295378327944491 -10.382761308285723 0 -10.382761308285723 -152.90760499948738 0 0 0 0 -138.60003057686117 -162.75077152234758 0 -162.75077152234758 -274.65564051731235 0 0 0 0 -249.29129032007768 -399.73615943448112 0 -399.73615943448112 -337.82074819383888 0 0 0 0 -461.39020821664599 -284.81860651390252 0 -284.81860651390252 -355.45023069993294 0 0 0 0 -247.6377919880033 -404.65637879670203 0 -404.65637879670203 -276.53163992315422 0 0 0 0 -185.91655103990342 -362.33523843183411 0 -362.33523843183411 -531.58487532899107 0 0 0 0 13.268528914462138 -9.9703522876888826 0 -9.9703522876888826 3.0434692620245585 0 0 0 0 -146.6518182658765 -517.55501282727164 0 -517.55501282727164 -846.80157291172964 0 0 0 0 -470.98071701888693 -506.18630341522294 0 -506.18630341522294 -458.1684028794848 0 0 0 0 -12.783737253281288 -484.11765820526728 0 -484.11765820526728 -1400.9547033011636 0 0 0 0 -765.54473715880886 -653.78963398426185 0 -653.78963398426185 -874.72180133042332 0 0 0 0 0.014324664163609668 -3.558378894978631 0 -3.558378894978631 -1.1635209715931827 0 0 0 0 15.824112490188952 -14.187030740670707 0 -14.187030740670707 7.5713799022218851 0 0 0 0 -368.37854423458339 -630.07015842847886 0 -630.07015842847886 -424.83000277065207 0 0 0 0 -510.30711976293969 -1181.7998434063379 0 -1181.7998434063379 -1017.5189222485242 0 0 0 0 -243.2468631593365 -778.3604206377554 0 -778.3604206377554 -13.183272806839341 0 0 0 0 55.456655894551659 -697.82801977150427 0 -697.82801977150427 -1335.6450875083242 0 0 0 0 -626.72950823261635 65.16501368551144 0 65.16501368551144 -187.74259693166323 0 0 0 0 -547.9021377059471 -434.03629242277395 0 -434.03629242277395 848.2977026661265 0 0 0 0 -295.720781627213 43.473361489467834 0 43.473361489467834 537.41475901868034 0 0 0 0 46.604060573794413 -37.402716139273025 0 -37.402716139273025 800.98355284222589 0 0 0 0 -148.81827083852841 -414.7199864840336 0 -414.7199864840336 1146.6461692568428 0 0 0 0 922.20069361917558 -844.43947771286958 0 -844.43947771286958 3.686650397035919 0 0 0 0 1571.6510972012875 -1623.6680676674448 0 -1623.6680676674448 791.61076653224427 0 0 0 0 -864.08806322692544 -999.25495161853019 0 -999.25495161853019 1094.7285872407101 0 0 0 0 1559.6593851434263 -471.98198773882211 0 -471.98198773882211 -352.04193389909142 0 0 0 0 7.3158642123574964 -7.4402341994045855 0 -7.4402341994045855 5.8774713696317082 0 0 0 0 397.09060562041122 14.527336183049556 0 14.527336183049556 -446.566501072351 0 0 0 0 109.75163817591965 -165.16431741659108 0 -165.16431741659108 -291.91743630418296 0 0 0 0 -490.26086625430617 -292.66435958963041 0 -292.66435958963041 -169.46170613627692 0 0 0 0 1310.0578651143151 -805.40427192053312 0 -805.40427192053312 -316.55520140336739 0 0 0 0 426.23418698698515 -455.18847009021192 0 -455.18847009021192 -371.34992838171013 0 0 0 0 261.33627604015055 -726.53100973668461 0 -726.53100973668461 -191.85026475581526 0 0 0 0 854.57277067861287 -842.54878937143894 0 -842.54878937143894 -182.94359305765556 0 0 0 0 215.30948035483016 -359.8361144487094 0 -359.8361144487094 -119.74597221372096 0 0 0 0 125.09043595363619 -677.65062943039175 0 -677.65062943039175 -25.631598940045478 0 0 0 0 378.19991441188904 -425.52750265455688 0 -425.52750265455688 -224.2302769839589 0 0 0 0 175.52534498431487 -274.27620014218883 0 -274.27620014218883 -233.80988693234337 0 0 0 0 38.718399998149835 -220.17211647258773 0 -220.17211647258773 -90.193061792901062 0 0 0 0 34.170959516777657 -254.42169809910865 0 -254.42169809910865 -239.21696809584682 0 0 0 0 96.847966745554004 -327.20073686623709 0 -327.20073686623709 7.0216510714590186 0 0 0 0 -33.775258972105803 -123.95559928048851 0 -123.95559928048851 100.41914524819731 0 0 0 0 7.9666173205187079 -108.54744283582204 0 -108.54744283582204 -685.15699107989121 0 0 0 0 -2.5848706916854667 -1.7220870828099066 0 -1.7220870828099066 0.45969761719193514 0 0 0 0 0.21679252128166127 -2.0311601729483328 0 -2.0311601729483328 0.55132922144649932 0 0 0 0 -230.53356419308693 -542.31676665338273 0 -542.31676665338273 134.6082131493331 0 0 0 0 -372.24298441730207 -326.1099315700535 0 -326.1099315700535 -459.36026828988633 0 0 0 0 150.17768791562412 -764.64327418038374 0 -764.64327418038374 135.08517593609758 0 0 0 0 -173.14479577424936 -192.70364240531535 0 -192.70364240531535 -370.04970440827765 0 0 0 0 -475.71600680498523 -153.66329453351591 0 -153.66329453351591 -322.42281515547666 0 0 0 0 -234.81575312445057 14.665243163913601 0 14.665243163913601 -400.75884283493542 0 0 0 0 -84.655748362674785 -93.579967454350481 0 -93.579967454350481 -278.03389479239377 0 0 0 0 -76.475688359030755 -111.54108953160539 0 -111.54108953160539 -438.47355145008351 0 0 0 0 -108.01446912537358 -63.414244269242545 0 -63.414244269242545 -413.5474944345915 0 0 0 0 3.4197404725130696 -3.4654602651135491 0 -3.4654602651135491 0.57825099521527079 0 0 0 0 -40.05462548610376 -104.49976638702742 0 -104.49976638702742 -495.30808412926581 0 0 0 0 12.832603994116653 -41.976670529552393 0 -41.976670529552393 -450.33178330738519 0 0 0 0 -2.9398783989890944 -225.70561662667205 0 -225.70561662667205 -704.12026501022558 0 0 0 0 25.763165389405913 -240.02220560224987 0 -240.02220560224987 -601.70337861223743 0 0 0 0 -131.21038477757247 -195.3775274400823 0 -195.3775274400823 -586.29937070631877 0 0 0 0 5.9566949438449797 -4.2406498874445759 0 -4.2406498874445759 0.74068724840260636 0 0 0 0 -4.5693573218371171 -2.7639036943662774 0 -2.7639036943662774 0.39785247741582097 0 0 0 0 105.74028103242745 -244.49031344768264 0 -244.49031344768264 -627.8404543243455 0 0 0 0 -20.943988084065495 -5.086726405374975 0 -5.086726405374975 -396.29048260006857 0 0 0 0 108.56140158302151 -92.822201386922643 0 -92.822201386922643 -301.45883292677217 0 0 0 0 50.777104620327009 -290.04853772138449 0 -290.04853772138449 -61.19400468855838 0 0 0 0 -81.33073311681801 -189.55512317303601 0 -189.55512317303601 -325.11887874009153 0 0 0 0 10.59007599362667 -250.37343357594978 0 -250.37343357594978 42.895064921322046 0 0 0 0 151.90794478321914 -194.77259368511204 0 -194.77259368511204 64.761878933913522 0 0 0 0 26.632964472926687 -107.50643408370979 0 -107.50643408370979 129.1725065366154 0 0 0 0 42.996185004987638 -444.98529291697082 0 -444.98529291697082 555.08379759504169 0 0 0 0 -1.1040955309394462 1.6238144961350258 0 1.6238144961350258 4.9365948599723595 0 0 0 0 -52.687620850161807 -57.492231622694405 0 -57.492231622694405 -38.413060786478141 0 0 0 0 -343.26219278402277 -89.409587000769534 0 -89.409587000769534 52.833490339369746 0 0 0 0 -1902.9551841714419 -930.70417380060826 0 -930.70417380060826 152.02274798229337 0 0 0 0 -321.48373930703383 -304.59714230173995 0 -304.59714230173995 1027.1815556061774 0 0 0 0 -1023.8629174018279 -46.28974114859011 0 -46.28974114859011 -409.68365450546844 0 0 0 0 -5.8414015816316009 -2.5317622895385341 0 -2.5317622895385341 0.60726507207375136 0 0 0 0 -28.86572001921013 -448.68660498467489 0 -448.68660498467489 751.3967280185384 0 0 0 0 -250.81607025268022 -273.06428146228427 0 -273.06428146228427 1032.0207037567889 0 0 0 0 1425.3609823599108 577.48161002169945 0 577.48161002169945 -420.04719876928448 0 0 0 0 -56.003818882599603 -59.131621155447462 0 -59.131621155447462 -40.997270576016035 0 0 0 0 132.94283625122625 -326.45395648626572 0 -326.45395648626572 54.0803549669738 0 0 0 0 -365.86598268111265 -68.77465995991929 0 -68.77465995991929 548.05597607589152 0 0 0 0 -653.19902737266966 -429.63792320602761 0 -429.63792320602761 99.724793313107511 0 0 0 0 -544.53063439758262 -130.73977285783644 0 -130.73977285783644 37.857345449634522 0 0 0 0 -234.12536744124372 -319.90617938565629 0 -319.90617938565629 -378.43161649615632 0 0 0 0 -206.51584488821391 -179.18864844496647 0 -179.18864844496647 107.27969078160459 0 0 0 0 101.72143525848514 -108.83113999413717 0 -108.83113999413717 -309.30032223792659 0 0 0 0 -398.77597049524775 280.2920700387308 0 280.2920700387308 -158.81473606380496 0 0 0 0 -1083.2263050191395 487.67933948433893 0 487.67933948433893 -189.27094343554097 0 0 0 0 -11.806922998482037 -9.6403778252981311 0 -9.6403778252981311 -1.3207516618705846 0 0 0 0 -18.758813205597107 -18.992795767084772 0 -18.992795767084772 -43.245636014256888 0 0 0 0 -975.47562392137479 -639.19648290690498 0 -639.19648290690498 -530.98425203148781 0 0 0 0 -1631.1508528378763 -55.638615278200177 0 -55.638615278200177 155.93064447717302 0 0 0 0 -830.99954340665136 -102.55068014595872 0 -102.55068014595872 154.35820409066639 0 0 0 0 -838.03231678277371 -163.91881064969766 0 -163.91881064969766 417.42953991473041 0 0 0 0 -857.62251098245906 -41.186681079632081 0 -41.186681079632081 292.4882996856868 0 0 0 0 -612.92128358219634 54.641689735419277 0 54.641689735419277 230.08685746680385 0 0 0 0 -1050.54153767768 105.4480711557494 0 105.4480711557494 237.98700113533232 0 0 0 0 -35.940285317221793 34.709044933631475 0 34.709044933631475 67.169026706233481 0 0 0 0 -79.895252822003613 -48.056089325208347 0 -48.056089325208347 75.860637029051745 0 0 0 0 -172.66996311819821 139.79070051518465 0 139.79070051518465 -10.360064498795055 0 0 0 0 -76.757390481742021 -81.434487386429993 0 -81.434487386429993 99.415510940882115 0 0 0 0 -40.767591716634342 -64.385769333168355 0 -64.385769333168355 82.658604932425533 0 0 0 0 107.72131431499656 -287.52173222925012 0 -287.52173222925012 253.50185771297402 0 0 0 0 485.22805547591997 92.138794220948057 0 92.138794220948057 -119.8355548810697 0 0 0 0 12.724424874013607 -74.269039502632026 0 -74.269039502632026 -67.305360695906458 0 0 0 0 -139.3691655700386 -159.0728854374247 0 -159.0728854374247 396.27415016155283 0 0 0 0 -110.44607790152077 -286.3466075591864 0 -286.3466075591864 459.06848457774822 0 0 0 0 808.81226711779891 -808.72596521028845 0 -808.72596521028845 614.54742015643569 0 0 0 0 759.17121158583905 -625.21170246199381 0 -625.21170246199381 412.19171676808946 0 0 0 0 483.03622657306551 -341.68435900219129 0 -341.68435900219129 343.61769607856149 0 0 0 0 858.52833465338335 -268.62457948222254 0 -268.62457948222254 -223.79280217148244 0 0 0 0 796.40117074570117 -510.10099304659286 0 -510.10099304659286 -30.885155451778701 0 0 0 0 836.67101726801229 -871.20455798900059 0 -871.20455798900059 656.56460690867243 0 0 0 0 -5.3165938598391307 -13.24985554486662 0 -13.24985554486662 2.5208273935971608 0 0 0 0 125.82799537689425 91.762835621330396 0 91.762835621330396 146.83003955512686 0 0 0 0 -35.868600765621522 102.88193630889714 0 102.88193630889714 456.17155004680899 0 0 0 0 -36.846411161923982 -13.029478582137529 0 -13.029478582137529 52.672801140631805 0 0 0 0 -27.916398574365303 -38.567241337674204 0 -38.567241337674204 34.483164229801332 0 0 0 0 -18.7978892884679 -34.770751485800844 0 -34.770751485800844 15.743570554081877 0 0 0 0 -7.4624048210060323 -3.7870832377604131 0 -3.7870832377604131 8.0194191462801818 0 0 0 0 -91.106392031950236 -521.38389669854541 0 -521.38389669854541 1252.410396669824 0 0 0 0 822.01912356073444 -1204.206038955142 0 -1204.206038955142 772.87769888716321 0 0 0 0 547.49898507172475 -710.58052444159125 0 -710.58052444159125 1517.7400057502909 0 0 0 0 563.78594006174535 -711.54262803142046 0 -711.54262803142046 1517.6493604872803 0 0 0 0 838.38021848505014 -601.29710535667755 0 -601.29710535667755 996.95490841703668 0 0 0 0 58.598260897560976 -1210.5433622759424 0 -1210.5433622759424 1242.9852007870068 0 0 0 0 49.847664030814485 -1047.9499451027539 0 -1047.9499451027539 171.0194934407682 0 0 0 0 -961.92693458466965 -975.41949030713067 0 -975.41949030713067 404.55532361937367 0 0 0 0 -98.09990192899204 -364.60165498813899 0 -364.60165498813899 -302.85625132377118 0 0 0 0 -291.36601184487517 -1398.391125291942 0 -1398.391125291942 380.1599400328214 0 0 0 0 -555.59727702349483 50.363917638595467 0 50.363917638595467 -734.34909452046668 0 0 0 0 -121.22411462904711 -801.71119416986312 0 -801.71119416986312 225.75806878729964 0 0 0 0 -1088.6867814024008 -153.1318430733786 0 -153.1318430733786 -194.85600061961759 0 0 0 0 -299.93219369107101 -1023.7894366447401 0 -1023.7894366447401 98.338322682125181 0 0 0 0 -40.346003149745229 -1354.3732610723837 0 -1354.3732610723837 609.08742285176413 0 0 0 0 26.908125201822259 -1281.8643838449975 0 -1281.8643838449975 198.87623397971129 0 0 0 0 397.5826983605229 -1235.5704323961149 0 -1235.5704323961149 -94.624115301739948 0 0 0 0 396.73331381920946 -1500.4173168052957 0 -1500.4173168052957 -15.094663564702387 0 0 0 0 339.15542114624986 -1171.6760354098324 0 -1171.6760354098324 97.89023909690539 0 0 0 0 271.70441210134595 -798.23866925241146 0 -798.23866925241146 -68.765105399748791 0 0 0 0 775.68365003704093 -1171.3609026796803 0 -1171.3609026796803 -149.84474507682899 0 0 0 0 633.99494232662983 -977.50737131538244 0 -977.50737131538244 -79.490514659371911 0 0 0 0 679.07616289817088 -1302.6995217059034 0 -1302.6995217059034 -122.58163226160104 0 0 0 0 549.73088642652147 -1182.4004229689208 0 -1182.4004229689208 93.770811575086555 0 0 0 0 713.6068032142648 -1298.2237882748598 0 -1298.2237882748598 -445.54588980256449 0 0 0 0 552.17783512369715 -998.1879780003959 0 -998.1879780003959 524.5911986261217 0 0 0 0 509.37393518690078 -703.98298993113713 0 -703.98298993113713 47.233038653655058 0 0 0 0 537.85579286617212 -995.56070291314415 0 -995.56070291314415 946.55595530975279 0 0 0 0 1050.1406711630989 -1241.2381553135524 0 -1241.2381553135524 87.646591918861759 0 0 0 0 16.170316552947043 -207.44586104772907 0 -207.44586104772907 62.976228412194359 0 0 0 0 493.63441534597951 -236.24096621256558 0 -236.24096621256558 -776.59877940579372 0 0 0 0 485.89892612322001 -736.52944926190958 0 -736.52944926190958 111.43626088131896 0 0 0 0 628.49622004528646 -1073.1773250934241 0 -1073.1773250934241 -686.70380897379891 0 0 0 0 625.03906881733565 -1072.4635385028532 0 -1072.4635385028532 -157.78203920215856 0 0 0 0 419.51115989168466 -963.31490503181737 0 -963.31490503181737 -1017.2817899285819 0 0 0 0 564.89115057032905 -1202.3967723160463 0 -1202.3967723160463 -874.52776689845768 0 0 0 0 265.2682448161504 -2178.041630191653 0 -2178.041630191653 -1447.9807601360635 0 0 0 0 335.96285943579278 -1639.6266929837263 0 -1639.6266929837263 -0.68339307744736288 0 0 0 0 574.8575562449405 -1576.04764385107 0 -1576.04764385107 -195.6032348218605 0 0 0 0 555.96021270182973 -1685.0049562199056 0 -1685.0049562199056 -736.22668267162067 0 0 0 0 411.13394898644765 -1819.5210158386976 0 -1819.5210158386976 501.49227852143667 0 0 0 0 377.62714930609218 -1701.4681283273767 0 -1701.4681283273767 95.631927412231107 0 0 0 0 543.02116720059712 -1992.5866556285814 0 -1992.5866556285814 1800.5471038262522 0 0 0 0 691.25193564935034 -1615.9367546525959 0 -1615.9367546525959 -0.92093017258957843 0 0 0 0 1923.9636668535677 -836.71430360919294 0 -836.71430360919294 -301.2146624917541 0 0 0 0 1188.1348521688487 102.1365200841874 0 102.1365200841874 -69.210840750377429 0 0 0 0 -95.691356945972075 179.51008154825695 0 179.51008154825695 143.48611476446013 0 0 0 0 -9.7394047810326754 -46.693690706549404 0 -46.693690706549404 -64.236185409994619 0 0 0 0 10.395966270733254 -17.217765507011649 0 -17.217765507011649 -0.82404252088512564 0 0 0 0 100.90992146770441 -179.53677071237917 0 -179.53677071237917 -301.15754071726042 0 0 0 0 697.6055178817769 -793.41992091386146 0 -793.41992091386146 -53.625545383351891 0 0 0 0 -268.03179539577104 -556.13543602067784 0 -556.13543602067784 -90.279535301355736 0 0 0 0 151.51908172472031 -1882.8614414977249 0 -1882.8614414977249 -3278.486683950975 0 0 0 0 -2112.920414766355 -1405.197364965489 0 -1405.197364965489 -480.45171083502828 0 0 0 0 513.88081721244453 -295.28692247016909 0 -295.28692247016909 -1160.3957074423388 0 0 0 0 587.85191070034489 -112.62604578533717 0 -112.62604578533717 -3451.3944657451266 0 0 0 0 -3.0380746678834214 -8.5021214281222797 0 -8.5021214281222797 -30.749493159185793 0 0 0 0 -1320.8117472860322 -1991.2845534708094 0 -1991.2845534708094 -1095.6715785579659 0 0 0 0 456.50625522062182 -1101.7631552147545 0 -1101.7631552147545 -657.24548581883755 0 0 0 0 -278.61401872032729 628.37836638228055 0 628.37836638228055 -1910.1646473187338 0 0 0 0 -2036.9390858829902 -292.56908007068046 0 -292.56908007068046 222.17162370132428 0 0 0 0 -20.977416556955802 -16.552885483038239 0 -16.552885483038239 -9.6442525197253754 0 0 0 0 -65.163641925668344 -1521.4405500778532 0 -1521.4405500778532 -3492.1155388407651 0 0 0 0 472.8041751245155 -484.52421479583637 0 -484.52421479583637 -1515.2228933605629 0 0 0 0 478.70498270138341 -532.37745658030781 0 -532.37745658030781 -1675.2618953766018 0 0 0 0 -397.34755714675703 -1030.5415893125046 0 -1030.5415893125046 -934.73319976371567 0 0 0 0 -207.34203838771646 42.709534360726138 0 42.709534360726138 87.40220649970388 0 0 0 0 -96.149746796523686 -446.90281646700168 0 -446.90281646700168 32.466938720281178 0 0 0 0 -60.973346157828928 -614.0733390563073 0 -614.0733390563073 -449.50883804887235 0 0 0 0 -91.622297284658998 -125.95424415372509 0 -125.95424415372509 144.2472964482622 0 0 0 0 -23.802676691306544 -69.638516303466304 0 -69.638516303466304 63.104678670526788 0 0 0 0 -54.434497828144231 -442.47164619823161 0 -442.47164619823161 7.8807164171430486 0 0 0 0 -100.11393400405359 30.767992079718169 0 30.767992079718169 77.67162883855417 0 0 0 0 195.14093341183616 -877.72452899938071 0 -877.72452899938071 1011.6835713703949 0 0 0 0 178.23054209348629 -160.31955590805956 0 -160.31955590805956 364.0205734429328 0 0 0 0 -45.411756450499524 -532.62679332147536 0 -532.62679332147536 974.26275433329283 0 0 0 0 2.1545383702822107 1.185281665643231 0 1.185281665643231 2.0780147112789535 0 0 0 0 -1258.1881770652253 543.86311084053159 0 543.86311084053159 762.26592911798389 0 0 0 0 937.46002702088663 -1139.3661292647521 0 -1139.3661292647521 648.04212151863612 0 0 0 0 1437.4186938281491 -2100.2375970381495 0 -2100.2375970381495 1910.4753903764413 0 0 0 0 3.6337673623771707 3.7956527162672558 0 3.7956527162672558 4.2994569967794263 0 0 0 0 -148.1537669460813 -28.028162426624476 0 -28.028162426624476 100.84649120743734 0 0 0 0 -1.5202511323858516 -8.3216632968380111 0 -8.3216632968380111 29.425550732637575 0 0 0 0 -1258.2143942910479 556.13091143734073 0 556.13091143734073 -99.002682295889826 0 0 0 0 -669.52695037088415 -78.879251351505445 0 -78.879251351505445 340.84315569874161 0 0 0 0 112.78120949625009 -368.12219494565761 0 -368.12219494565761 1193.0666126267479 0 0 0 0 497.44887167642446 -1118.3321809170175 0 -1118.3321809170175 2610.5114446476837 0 0 0 0 2236.6051380404097 -1538.9930527928936 0 -1538.9930527928936 1397.9802239260107 0 0 0 0 938.07226348061522 -366.80420397000944 0 -366.80420397000944 1754.9591822642979 0 0 0 0 870.62391802579805 -1093.8867773242819 0 -1093.8867773242819 1262.0417659809332 0 0 0 0 1151.9780061185957 -1529.2805797762394 0 -1529.2805797762394 1520.0614162795027 0 0 0 0 1100.2373771945277 -1598.3891575801717 0 -1598.3891575801717 1435.4821287716547 0 0 0 0 686.57333305724023 -1091.3470946442217 0 -1091.3470946442217 1049.7124761912846 0 0 0 0 822.22907040730934 -988.63663388037298 0 -988.63663388037298 1126.5772135696243 0 0 0 0 744.46322622506705 -818.06461471095804 0 -818.06461471095804 549.64131106173227 0 0 0 0 464.83444416036946 -739.14685859849578 0 -739.14685859849578 889.58373475350209 0 0 0 0 995.38874480735831 -1135.536501195947 0 -1135.536501195947 1060.2964117185875 0 0 0 0 502.13205075183942 -545.05459613222865 0 -545.05459613222865 342.22161119686757 0 0 0 0 305.91460093111527 -810.80045994272541 0 -810.80045994272541 600.41108104806153 0 0 0 0 339.59383863823314 -788.88766948016337 0 -788.88766948016337 747.31464796623231 0 0 0 0 737.05777469718305 -867.74972289635457 0 -867.74972289635457 593.57305953178911 0 0 0 0 821.27425491403847 -1464.2309823966079 0 -1464.2309823966079 1676.1308255763388 0 0 0 0 572.82056461822503 -1093.8142007540189 0 -1093.8142007540189 1124.0273519184211 0 0 0 0 1090.0400474213457 -1274.6246528255924 0 -1274.6246528255924 1033.4474558196862 0 0 0 0 973.93211416673148 -1047.0375624918515 0 -1047.0375624918515 1064.0884519798565 0 0 0 0 797.05094457033556 -1227.0101513810146 0 -1227.0101513810146 1458.320874853207 0 0 0 0 136.63466996552779 -1085.1177474655174 0 -1085.1177474655174 891.11683902683944 0 0 0 0 681.40192965616006 -1133.0185278966574 0 -1133.0185278966574 469.76148914975943 0 0 0 0 656.70772594660957 -1322.5112902512337 0 -1322.5112902512337 1125.658881504085 0 0 0 0 740.26583405169367 -968.24769717815843 0 -968.24769717815843 810.76698251646667 0 0 0 0 790.26443059300072 -948.50391756229965 0 -948.50391756229965 825.37068753900166 0 0 0 0 1015.16158290155 -1332.6391828978299 0 -1332.6391828978299 1082.3084766555876 0 0 0 0 803.29775277328736 -1228.4037888440371 0 -1228.4037888440371 1879.9401130394699 0 0 0 0 14.851004007401912 -64.93096775514762 0 -64.93096775514762 -83.043542595990857 0 0 0 0 220.6363232160511 -162.0164731371442 0 -162.0164731371442 111.27954344207683 0 0 0 0 479.86244658491341 -301.57056304594198 0 -301.57056304594198 -96.800296408524446 0 0 0 0 61.174705395125784 -264.22237887735764 0 -264.22237887735764 433.50377009389285 0 0 0 0 -12.978397319936107 -3.3887735011506948 0 -3.3887735011506948 8.0585054331496195 0 0 0 0 43.579817157005891 -112.94657069094683 0 -112.94657069094683 340.11575379359601 0 0 0 0 1036.0964458041708 -1438.3900116927471 0 -1438.3900116927471 1760.7560982745999 0 0 0 0 1233.5972121503692 -1555.8759909741045 0 -1555.8759909741045 1608.2293289677473 0 0 0 0 25.914445207705 -56.214661573393826 0 -56.214661573393826 -77.284924922263997 0 0 0 0 -44.096772781806067 -149.56638049367598 0 -149.56638049367598 500.68374382851016 0 0 0 0 1061.5434789938154 -1349.1095993164836 0 -1349.1095993164836 1559.5636334097399 0 0 0 0 1072.0807514229673 -1256.6276669854906 0 -1256.6276669854906 1799.3397447771156 0 0 0 0 1215.5003888799693 -1392.2129269688012 0 -1392.2129269688012 1380.4237760825526 0 0 0 0 977.06342055805726 -1130.6936275502148 0 -1130.6936275502148 1583.0659051815433 0 0 0 0 1482.1163406758733 -1184.7066898260466 0 -1184.7066898260466 1486.4719965407985 0 0 0 0 -95.060043196499464 -576.28172411968285 0 -576.28172411968285 627.0420199610594 0 0 0 0 -227.51051451076637 154.1830810560491 0 154.1830810560491 165.21984033178887 0 0 0 0 -1.5128145236895421 -2.4931218872032446 0 -2.4931218872032446 1.941547507212114 0 0 0 0 1430.0753383188567 -1867.8364355914591 0 -1867.8364355914591 1543.0694410452841 0 0 0 0 -513.17809831249178 -175.05327367215887 0 -175.05327367215887 696.16059013984568 0 0 0 0 33.297488909214735 -508.53962129693537 0 -508.53962129693537 497.30762144541222 0 0 0 0 10.66610573043539 -66.045373299934553 0 -66.045373299934553 -86.467190949104065 0 0 0 0 -226.99789011345638 105.2218761052427 0 105.2218761052427 173.67852184401272 0 0 0 0 -157.47789450902201 -194.3300493227689 0 -194.3300493227689 448.96308454152268 0 0 0 0 191.42580713462667 -160.66435127274235 0 -160.66435127274235 5.2180770549348381 0 0 0 0 54.178408370731631 -565.22140119140749 0 -565.22140119140749 480.48009315378658 0 0 0 0 -45.150807895966864 -407.42768193561915 0 -407.42768193561915 -382.66533585244179 0 0 0 0 -464.67722602521826 -22.749484716139705 0 -22.749484716139705 49.92848935550137 0 0 0 0 -88.01307285936673 -1428.8421878575098 0 -1428.8421878575098 596.89299675598886 0 0 0 0 -93.675887841155173 -70.607837309979118 0 -70.607837309979118 9.0028765861755744 0 0 0 0 -245.15779634975479 258.59137852540516 0 258.59137852540516 -2203.3697040858897 0 0 0 0 -4611.4833424389944 229.13380282917569 0 229.13380282917569 823.12800379419059 0 0 0 0 -1395.682997905591 -1003.1182531313461 0 -1003.1182531313461 -1028.9858401550009 0 0 0 0 2414.8603122225322 -448.18265498353503 0 -448.18265498353503 -1999.7876479874194 0 0 0 0 -165.08858653171046 -45.638471939117153 0 -45.638471939117153 -525.56345383177086 0 0 0 0 -91.295768994959701 -72.544937799501042 0 -72.544937799501042 -9.420332007210007 0 0 0 0 -174.81842793906981 -299.73119869009497 0 -299.73119869009497 -360.14781864972656 0 0 0 0 187.2263144133758 -549.97031785462605 0 -549.97031785462605 -532.71200268908069 0 0 0 0 284.14884712020284 -374.16036217766668 0 -374.16036217766668 -398.676861495911 0 0 0 0 262.00199599346524 -351.41319653242135 0 -351.41319653242135 -154.05704211506963 0 0 0 0 414.74638675912138 -390.76656350573649 0 -390.76656350573649 -153.93041306339001 0 0 0 0 -58.974446124113456 -367.80873330650502 0 -367.80873330650502 -19.167265365183994 0 0 0 0 253.84657308435999 -471.34013698236231 0 -471.34013698236231 106.53239393745025 0 0 0 0 160.0701516000554 -205.29991391013027 0 -205.29991391013027 85.027565688174036 0 0 0 0 343.86566108482657 -325.02197980959681 0 -325.02197980959681 -398.78573987273558 0 0 0 0 336.93347868930141 -337.47550443129967 0 -337.47550443129967 -197.77215065297787 0 0 0 0 355.08499955694424 -189.27926419940195 0 -189.27926419940195 -378.2069754939439 0 0 0 0 169.21804139344749 -67.748519333716104 0 -67.748519333716104 -152.24348082364304 0 0 0 0 355.03798905978329 -188.1324947062094 0 -188.1324947062094 -401.55105414961145 0 0 0 0 323.56281896289147 -126.50922843095941 0 -126.50922843095941 -455.18433497035585 0 0 0 0 455.55747570071253 -238.94986326956132 0 -238.94986326956132 -510.11875102582417 0 0 0 0 443.9441028162546 -175.17021373430543 0 -175.17021373430543 -588.43600576534664 0 0 0 0 387.56193535710918 -249.97609442300745 0 -249.97609442300745 -442.04591496168359 0 0 0 0 388.24270104826428 -290.78017695890958 0 -290.78017695890958 -483.81543745753515 0 0 0 0 391.53506150605972 -264.73143452088698 0 -264.73143452088698 -464.34128760946624 0 0 0 0 424.81368603615556 -312.20779561715972 0 -312.20779561715972 -617.07595009203942 0 0 0 0 510.58190383683905 -186.98762958865382 0 -186.98762958865382 -591.5930022020766 0 0 0 0 569.25847697874997 -174.56779188031396 0 -174.56779188031396 -623.4509063905316 0 0 0 0 665.13138906940003 -295.49396661548599 0 -295.49396661548599 -653.92111486432623 0 0 0 0 717.83080304818577 -87.919912491342984 0 -87.919912491342984 -368.15506017745429 0 0 0 0 660.5935671813495 -274.54556786851026 0 -274.54556786851026 -545.28688986050474 0 0 0 0 478.42111257176293 -523.51164701334255 0 -523.51164701334255 -627.08245245209764 0 0 0 0 750.81850307254717 -423.14969123757737 0 -423.14969123757737 -613.34371143220778 0 0 0 0 -100.6185045769962 -314.14708818455983 0 -314.14708818455983 -88.37281703075314 0 0 0 0 -17.035533934846171 -301.39963475954573 0 -301.39963475954573 41.240049318803358 0 0 0 0 198.16783013253007 -444.14247117418199 0 -444.14247117418199 -190.87934538345507 0 0 0 0 -71.001306243812309 -79.106914342928462 0 -79.106914342928462 -9.4592122712712552 0 0 0 0 1331.8160137392551 -272.12965268492553 0 -272.12965268492553 54.071888660357217 0 0 0 0 568.31857707042946 -398.42832935187516 0 -398.42832935187516 121.77647189582785 0 0 0 0 -26.592930093680593 -16.785604933858238 0 -16.785604933858238 4.2769919851960054 0 0 0 0 714.41732347826473 -647.39930286829622 0 -647.39930286829622 39.154224104731838 0 0 0 0 0.63580635468304081 -35.586988924161687 0 -35.586988924161687 -56.387292797982255 0 0 0 0 95.289074985690604 -104.07703495256999 0 -104.07703495256999 -26.857172421223368 0 0 0 0 629.13803926843684 -482.56468792765281 0 -482.56468792765281 -3.1839744946082646 0 0 0 0 94.123977963027755 -118.58729573425876 0 -118.58729573425876 -35.71516105595947 0 0 0 0 77.049225392959784 -105.86911312569733 0 -105.86911312569733 11.422446515272227 0 0 0 0 109.06086473027244 -109.6761313388979 0 -109.6761313388979 -30.434862453312235 0 0 0 0 13.243331593438711 -39.110083966836953 0 -39.110083966836953 -62.392602364325569 0 0 0 0 95.73485020310909 -80.147314727521007 0 -80.147314727521007 -41.084046041451074 0 0 0 0 107.36425409610638 -97.016712391720603 0 -97.016712391720603 -22.977963568439009 0 0 0 0 149.01648821393246 -102.89943095082526 0 -102.89943095082526 -53.233542577909247 0 0 0 0 -729.186888903816 -564.97038946914108 0 -564.97038946914108 -108.87448679675435 0 0 0 0 32.538253709906712 258.88049239091924 0 258.88049239091924 782.15038706234191 0 0 0 0 11.410715178951165 -3.3040177025484354 0 -3.3040177025484354 1.415223244826592 0 0 0 0 71.846595289884135 -657.19356914336095 0 -657.19356914336095 -412.22711959086882 0 0 0 0 52.718338541686535 -128.82192705321359 0 -128.82192705321359 -138.12323567544809 0 0 0 0 -185.15476598642999 -554.83765454920649 0 -554.83765454920649 -299.58114185973591 0 0 0 0 110.97547645759499 -64.523690280958306 0 -64.523690280958306 -20.79792630618536 0 0 0 0 -49.104254992271308 70.308857396659732 0 70.308857396659732 -366.48560991988052 0 0 0 0 -71.831460848276038 21.154252998145239 0 21.154252998145239 -1130.0059384550696 0 0 0 0 -711.67014555443893 -978.35144810595375 0 -978.35144810595375 -972.53330610969169 0 0 0 0 239.40590480348328 -107.44884208752046 0 -107.44884208752046 -1105.3318975956063 0 0 0 0 -735.28950480025378 70.5320529262317 0 70.5320529262317 -910.91055252673686 0 0 0 0 -1208.8018462458276 -932.2391672527483 0 -932.2391672527483 437.86636145333614 0 0 0 0 -325.28095599560766 -380.9576431510759 0 -380.9576431510759 -160.20630486687878 0 0 0 0 -1029.5179314270499 -273.39525428669003 0 -273.39525428669003 452.57732803942054 0 0 0 0 -57.996008004702162 -481.52725829324845 0 -481.52725829324845 -260.12109789127862 0 0 0 0 13.097090461483958 -53.811690509168614 0 -53.811690509168614 -74.399419030166257 0 0 0 0 -101.96421793109039 -286.37394489350481 0 -286.37394489350481 -120.31408442552856 0 0 0 0 545.63960180938011 -182.8421525380727 0 -182.8421525380727 -511.64685106824618 0 0 0 0 -13.535756882149741 -13.96342062192906 0 -13.96342062192906 -26.938619704607646 0 0 0 0 -1907.6098058666339 -667.86050438509619 0 -667.86050438509619 -351.35392701497767 0 0 0 0 -1939.7310474964324 -58.63633098374703 0 -58.63633098374703 51.262611270227353 0 0 0 0 -1136.0043343444704 -446.11319781689599 0 -446.11319781689599 177.46761253674049 0 0 0 0 -1180.7906487786095 64.806060929611704 0 64.806060929611704 -8.2923271170802764 0 0 0 0 -773.12213966724812 -552.81665202442309 0 -552.81665202442309 -704.44534049372305 0 0 0 0 -1433.6433783978573 -185.00155956129311 0 -185.00155956129311 86.42425022055977 0 0 0 0 -688.77820088434964 -265.77344387938138 0 -265.77344387938138 -148.18351440795959 0 0 0 0 -75.405675500340294 -226.44929597450027 0 -226.44929597450027 -384.70527287861478 0 0 0 0 -426.93769739128766 -76.732825795257668 0 -76.732825795257668 -11.703533662868722 0 0 0 0 278.53647630465457 -56.316732576661934 0 -56.316732576661934 -396.53670790358592 0 0 0 0 -71.189195357204881 -174.01326463117221 0 -174.01326463117221 97.752032800954112 0 0 0 0 460.83655984760844 -217.8647595740731 0 -217.8647595740731 42.373525577024338 0 0 0 0 -1052.6063121173647 -553.11743591048798 0 -553.11743591048798 1348.7573668498735 0 0 0 0 -235.71549411868909 109.8724170888745 0 109.8724170888745 795.02753888123698 0 0 0 0 -803.23474705722765 -476.34445345970016 0 -476.34445345970016 197.00449077948724 0 0 0 0 -478.75948143002461 -1098.7997209608511 0 -1098.7997209608511 -1601.89849849846 0 0 0 0 -14.37098661877485 -5.1897684768194097 0 -5.1897684768194097 -1.0553463080592422 0 0 0 0 -14.90958417010188 -460.08944943499955 0 -460.08944943499955 -731.64418719643436 0 0 0 0 -667.19998290517833 -408.05626789290545 0 -408.05626789290545 -95.66545689442728 0 0 0 0 -582.62681995137245 -748.4729541935194 0 -748.4729541935194 -545.35559250749793 0 0 0 0 -1399.1931208535389 -537.89289676670887 0 -537.89289676670887 23.336221149540506 0 0 0 0 129.01751428039279 -347.27760666465838 0 -347.27760666465838 -545.70035688169355 0 0 0 0 -83.84031837400471 -354.11965238715857 0 -354.11965238715857 -129.293533695105 0 0 0 0 124.10857355043845 -455.58664778767525 0 -455.58664778767525 -85.964201698283432 0 0 0 0 171.00589202329866 -224.03005552745344 0 -224.03005552745344 -17.82149416491302 0 0 0 0 97.168374794142437 -442.90549172825195 0 -442.90549172825195 525.23937544574073 0 0 0 0 83.236268694243336 -672.56368157195811 0 -672.56368157195811 1190.0794660336542 0 0 0 0 90.406908129196381 -442.01944597445981 0 -442.01944597445981 -85.995541204862093 0 0 0 0 -29.35838515100437 -16.520286504597209 0 -16.520286504597209 -6.6005265594485252 0 0 0 0 -66.182284555165097 182.54031647018928 0 182.54031647018928 292.58569065630218 0 0 0 0 256.60833076524432 -337.43246005002584 0 -337.43246005002584 -296.11411558850523 0 0 0 0 362.65698967977369 -715.25651844265849 0 -715.25651844265849 -117.64248557377869 0 0 0 0 16.752756106870947 -678.40362803318385 0 -678.40362803318385 803.6176080178484 0 0 0 0 -29.559869022719568 -19.737533226208626 0 -19.737533226208626 -8.9266004559937357 0 0 0 0 101.61445666581858 15.319928347849782 0 15.319928347849782 -135.07003687538895 0 0 0 0 -75.865723161303322 -346.19767208467147 0 -346.19767208467147 -121.21980299500137 0 0 0 0 -209.06711186217581 -78.304471638391078 0 -78.304471638391078 -31.34794202309422 0 0 0 0 -196.11791153564991 -76.533435511222706 0 -76.533435511222706 -35.566328617365798 0 0 0 0 -7.596978708760048 -3.6717759154835505 0 -3.6717759154835505 -20.337972382784287 0 0 0 0 -136.44427406945033 -70.952194445444547 0 -70.952194445444547 -45.836958087231324 0 0 0 0 0.84348341196766796 0.2246709901053805 0 0.2246709901053805 -6.6665182786278763 0 0 0 0 -72.307031708442082 -265.61833057341209 0 -265.61833057341209 -276.83426777773275 0 0 0 0 -25.091317983926274 3.6939715462576714 0 3.6939715462576714 -361.66619467942837 0 0 0 0 -35.847805560668348 10.573131587843818 0 10.573131587843818 -276.85039570569643 0 0 0 0 54.53621102575562 -124.16090569721382 0 -124.16090569721382 -158.09015120190452 0 0 0 0 -96.924136825546157 176.37968892028584 0 176.37968892028584 -708.30913397494533 0 0 0 0 -335.793100301089 -423.68139436281854 0 -423.68139436281854 -533.79804318091919 0 0 0 0 -379.33006787046907 -49.975764860233539 0 -49.975764860233539 -509.3228858091752 0 0 0 0 -221.80521448431864 422.49339191525894 0 422.49339191525894 -343.38622190723254 0 0 0 0 -311.17967079630762 250.768597770013 0 250.768597770013 262.27878308575964 0 0 0 0 -135.79279606827185 216.11544927670911 0 216.11544927670911 -326.45725121014129 0 0 0 0 -115.91710926298401 131.06923906025622 0 131.06923906025622 -72.206785243181002 0 0 0 0 -6.1728809809137601 26.788207725203392 0 26.788207725203392 26.296892927435692 0 0 0 0 -255.3720694744552 32.918998838049447 0 32.918998838049447 82.98539613707544 0 0 0 0 -8.6820413777780345 9.3723385205040302 0 9.3723385205040302 8.3644003661268655 0 0 0 0 -220.63139214288094 103.05955599211666 0 103.05955599211666 -5.6714541953333537 0 0 0 0 -127.00473158314708 -144.99596488659881 0 -144.99596488659881 274.42959045916336 0 0 0 0 -85.86879400704882 -53.755726120152104 0 -53.755726120152104 34.74994439543984 0 0 0 0 316.28903678417555 -263.58024141633905 0 -263.58024141633905 -6.2174404203542508 0 0 0 0 -27.462345501518712 12.913656388780822 0 12.913656388780822 65.778705533647468 0 0 0 0 -152.19083550824143 51.113062584488944 0 51.113062584488944 33.690406340821937 0 0 0 0 -193.88563116433215 -46.968220936532816 0 -46.968220936532816 95.921698780748557 0 0 0 0 -218.13707614995656 1.8163466827209049 0 1.8163466827209049 108.02017497684938 0 0 0 0 -258.98205504044017 -56.229403922136953 0 -56.229403922136953 131.58646905846615 0 0 0 0 -488.50521029947413 -282.80522373844724 0 -282.80522373844724 75.906088117766558 0 0 0 0 -447.25201206014026 -70.616222116305835 0 -70.616222116305835 130.57545519783707 0 0 0 0 -62.771501522475376 -61.82986966884306 0 -61.82986966884306 -41.589617691645955 0 0 0 0 -626.86630007432541 -226.19191220303401 0 -226.19191220303401 353.13446590603689 0 0 0 0 -668.22875020705396 -232.7125373036979 0 -232.7125373036979 425.67390825330585 0 0 0 0 -341.32297570197261 -288.24323679416193 0 -288.24323679416193 -213.22428984677754 0 0 0 0 -403.14031393557525 -432.51933547541148 0 -432.51933547541148 -64.188297043394414 0 0 0 0 -70.519515638158168 -54.280535947258741 0 -54.280535947258741 -22.201118116968487 0 0 0 0 -526.24552466256137 1.9413119787413962 0 1.9413119787413962 -29.814913477996015 0 0 0 0 92.251002716482617 -677.06788055808283 0 -677.06788055808283 134.76313630812001 0 0 0 0 -19.883576469641412 -609.76667810089202 0 -609.76667810089202 97.799980887586571 0 0 0 0 63.527441985788755 -734.98912629840561 0 -734.98912629840561 -182.63582975070312 0 0 0 0 -7.131245413029319 -671.49983812165465 0 -671.49983812165465 -79.207253981643589 0 0 0 0 -314.82447780104121 -523.95015612018688 0 -523.95015612018688 238.94374082163631 0 0 0 0 -514.13085609709742 -515.08557764009083 0 -515.08557764009083 706.05606985586292 0 0 0 0 -6.8524938100017607 -675.35253530537375 0 -675.35253530537375 312.87640377185198 0 0 0 0 -9.2278205979483801 -13.282619790945972 0 -13.282619790945972 -19.358771760295241 0 0 0 0 573.72166353510693 283.1339969537803 0 283.1339969537803 -537.92910677965847 0 0 0 0 -55.180203993823511 -50.888140568828248 0 -50.888140568828248 -25.503085802105879 0 0 0 0 303.04562050721142 -407.3863626868042 0 -407.3863626868042 333.76319433383833 0 0 0 0 -119.57805313917925 -189.26854266531154 0 -189.26854266531154 1036.4329977660018 0 0 0 0 191.02762447476562 -129.73200203628585 0 -129.73200203628585 797.34868707833812 0 0 0 0 -220.28682021138957 -308.82112879882334 0 -308.82112879882334 898.78036424366292 0 0 0 0 -231.76717862288933 -318.69833935708084 0 -318.69833935708084 1029.0074377249839 0 0 0 0 -97.155059386335779 -315.07615989257465 0 -315.07615989257465 899.08683813174912 0 0 0 0 -97.707999070058577 -431.69771981620943 0 -431.69771981620943 622.12085677496361 0 0 0 0 -17.253426223120186 -410.46495276089263 0 -410.46495276089263 458.10562634434609 0 0 0 0 -358.74462049731301 -330.87203604619845 0 -330.87203604619845 1060.8043277919351 0 0 0 0 -301.8686617280473 -362.59283374430379 0 -362.59283374430379 1071.4521367491689 0 0 0 0 92.356507704040268 -323.1909446862046 0 -323.1909446862046 767.28677528101252 0 0 0 0 -78.543176041916013 -553.04533240885212 0 -553.04533240885212 985.96090416208426 0 0 0 0 -46.628815797826974 -597.99179929865568 0 -597.99179929865568 1421.4578469546759 0 0 0 0 98.977492805322981 -494.00734499777354 0 -494.00734499777354 128.6501841433419 0 0 0 0 -85.912114685866982 -582.6199603328605 0 -582.6199603328605 716.27830580636873 0 0 0 0 33.405921707948437 -529.17185726125899 0 -529.17185726125899 227.39156410992291 0 0 0 0 -376.24378991496633 -583.43792998596837 0 -583.43792998596837 255.01590155106351 0 0 0 0 17.79034940598649 -605.47773570540448 0 -605.47773570540448 152.17456877486256 0 0 0 0 69.741391310091785 -427.51161899041426 0 -427.51161899041426 460.24503284563252 0 0 0 0 -165.58218897285406 -523.97572445501282 0 -523.97572445501282 635.78261456769087 0 0 0 0 -33.242246202018578 -606.57689038254466 0 -606.57689038254466 154.37273792326232 0 0 0 0 -60.921853786152496 -1131.3086753120642 0 -1131.3086753120642 -985.11046901866212 0 0 0 0 74.609607648482779 -562.09169534409011 0 -562.09169534409011 -537.63884892396891 0 0 0 0 -71.621577777419589 -854.05957650436176 0 -854.05957650436176 -304.97700756760605 0 0 0 0 5.1698375893902266 -355.69990963469354 0 -355.69990963469354 -10.566152456289274 0 0 0 0 -782.20714572311408 -671.90526365851838 0 -671.90526365851838 -80.491592420683446 0 0 0 0 -9.1288706003255129 -4.9787787644248738 0 -4.9787787644248738 -2.3529029222329427 0 0 0 0 149.0477893378993 -92.08974742805367 0 -92.08974742805367 -1649.05177408083 0 0 0 0 177.03657518347609 -302.15701442885256 0 -302.15701442885256 -189.04273401170576 0 0 0 0 219.40116039922577 -440.4935181302717 0 -440.4935181302717 -388.99559041932662 0 0 0 0 58.444791812638869 -648.92719576834315 0 -648.92719576834315 -313.24397121549555 0 0 0 0 3.3738520030747168 -639.49821347606121 0 -639.49821347606121 -211.89247257146599 0 0 0 0 -99.669896860083099 -380.45245287930084 0 -380.45245287930084 -86.452136555726611 0 0 0 0 -91.855412412958685 -578.36510368971358 0 -578.36510368971358 -131.13387776211312 0 0 0 0 36.211799866665388 -305.11798164836728 0 -305.11798164836728 -126.42843562844064 0 0 0 0 181.82383211033448 -354.73757485074793 0 -354.73757485074793 -110.2717032336368 0 0 0 0 292.10276798240375 -112.62241873310995 0 -112.62241873310995 104.9755473787045 0 0 0 0 102.79327754174301 -584.10206800136984 0 -584.10206800136984 921.63468923392793 0 0 0 0 -21.685740032864658 -15.52476873498324 0 -15.52476873498324 -7.5082693892107244 0 0 0 0 155.91119329998037 -366.64145021736022 0 -366.64145021736022 -141.90347537282651 0 0 0 0 208.4003635932313 -241.32858499247232 0 -241.32858499247232 315.19244744506796 0 0 0 0 139.40023795577872 -488.16005905122074 0 -488.16005905122074 45.122905458531022 0 0 0 0 176.55189108579725 -223.47851029592857 0 -223.47851029592857 136.16612705877196 0 0 0 0 114.63166847929824 -445.12661797974579 0 -445.12661797974579 -288.25861489939416 0 0 0 0 214.09959210403031 -493.26478883661366 0 -493.26478883661366 -408.06247453958349 0 0 0 0 106.52135504357284 -360.4417608317126 0 -360.4417608317126 -37.626596851214344 0 0 0 0 -129.74700569511333 -317.19322336202458 0 -317.19322336202458 -57.091344560660218 0 0 0 0 84.628734947735211 -331.7656175708762 0 -331.7656175708762 -265.99523546425189 0 0 0 0 3.579798037186265 -263.07084810941888 0 -263.07084810941888 -106.76030082434954 0 0 0 0 23.908158600228489 -391.42100259044673 0 -391.42100259044673 -13.902253931981249 0 0 0 0 38.539190766608044 -207.69840670452788 0 -207.69840670452788 4.1110185396246379 0 0 0 0 21.283166887175412 -201.68123815209742 0 -201.68123815209742 357.06529575376044 0 0 0 0 -175.38356217491673 -407.68752197731737 0 -407.68752197731737 151.89554485688859 0 0 0 0 34.340376349311555 -415.79967733600279 0 -415.79967733600279 365.53189119628223 0 0 0 0 274.75772019131546 -378.33371464868287 0 -378.33371464868287 348.78819894066692 0 0 0 0 -200.19728851027321 -403.15050282022639 0 -403.15050282022639 1259.3963857479175 0 0 0 0 -349.55824811391358 -756.993910569332 0 -756.993910569332 452.39669030298683 0 0 0 0 -123.80698527427739 -617.25799523835667 0 -617.25799523835667 129.90246990539072 0 0 0 0 -245.44936372882512 -845.93509574187192 0 -845.93509574187192 -254.49929579019954 0 0 0 0 -87.80402923902875 -563.3637585041979 0 -563.3637585041979 -169.39273678048994 0 0 0 0 -168.93900114182907 -405.3876678703673 0 -405.3876678703673 63.516074163775556 0 0 0 0 -87.34924521841458 -416.64195295149329 0 -416.64195295149329 -47.785149364885001 0 0 0 0 -102.66231302544475 -286.09498150493528 0 -286.09498150493528 -103.1067059599809 0 0 0 0 -85.62151970002742 -360.8865861672457 0 -360.8865861672457 -230.85520299846394 0 0 0 0 -74.786209550104104 -315.83946619924245 0 -315.83946619924245 -245.02188613171893 0 0 0 0 -72.22350252920296 -301.34007203976944 0 -301.34007203976944 -239.5281887588535 0 0 0 0 -98.684341118827433 -387.65201815025421 0 -387.65201815025421 -102.46924239760483 0 0 0 0 -0.039005513986921869 -407.06629808533762 0 -407.06629808533762 -179.33801268565185 0 0 0 0 24.16080002480885 -447.80774192586978 0 -447.80774192586978 -86.523158731958574 0 0 0 0 -0.0090078232606174424 -437.40595150413174 0 -437.40595150413174 -77.329671446364955 0 0 0 0 76.646093618750456 -357.0896138984026 0 -357.0896138984026 -57.040668122038369 0 0 0 0 0.1103107296366943 -388.4355511174017 0 -388.4355511174017 114.23069346794 0 0 0 0 130.95750146450882 -261.50236997413231 0 -261.50236997413231 81.006845878053355 0 0 0 0 51.179510772130016 -419.95664184456564 0 -419.95664184456564 -22.261627886036877 0 0 0 0 112.08299677592004 -416.64974094686113 0 -416.64974094686113 -185.41409789574709 0 0 0 0 2.7930905316534336 -414.58882572655875 0 -414.58882572655875 -39.901958000002196 0 0 0 0 21.005730646094889 -348.20957164887295 0 -348.20957164887295 -683.64660092904887 0 0 0 0 136.43709355796454 -415.1333519083455 0 -415.1333519083455 -67.079973737385444 0 0 0 0 71.094751562282909 -361.80201313598809 0 -361.80201313598809 542.9704185299488 0 0 0 0 112.93982419130043 -138.12043290630754 0 -138.12043290630754 166.94896758355208 0 0 0 0 -71.392256726961932 -392.12598116853587 0 -392.12598116853587 601.1083383599107 0 0 0 0 297.73965441875043 -456.34565446804845 0 -456.34565446804845 596.92144881025843 0 0 0 0 224.62848685460631 -582.84211757078265 0 -582.84211757078265 947.81893137263251 0 0 0 0 169.69801072300834 -311.49575391436929 0 -311.49575391436929 789.65672839905892 0 0 0 0 220.40890161812422 -344.36004604610571 0 -344.36004604610571 543.69533350583151 0 0 0 0 74.491176549490774 -321.8043190497865 0 -321.8043190497865 759.8229038008285 0 0 0 0 13.460389550862601 -311.04387739308004 0 -311.04387739308004 686.82534811402547 0 0 0 0 120.41745452928444 -340.03568860973792 0 -340.03568860973792 526.69953565506876 0 0 0 0 0.02736234747862909 -336.74936323739894 0 -336.74936323739894 478.64950082912765 0 0 0 0 41.274934329194366 -261.03679091961476 0 -261.03679091961476 563.66490235477977 0 0 0 0 67.964160289599931 -251.33322071277291 0 -251.33322071277291 236.01850144250056 0 0 0 0 47.42387250660795 -194.18420486198806 0 -194.18420486198806 483.8068457719055 0 0 0 0 64.313575453605154 -335.3847181961246 0 -335.3847181961246 256.65070394883514 0 0 0 0 -74.736250071658105 -379.96393053595602 0 -379.96393053595602 -558.17703568754951 0 0 0 0 -0.75399089862185065 -430.76845936632526 0 -430.76845936632526 -608.26499560055527 0 0 0 0 -73.318787488577073 -420.36153948081846 0 -420.36153948081846 -583.96246674684517 0 0 0 0 0.13484672148479149 -378.09218589079683 0 -378.09218589079683 -560.91415112493269 0 0 0 0 -112.89495622157119 -375.96859304486134 0 -375.96859304486134 -535.31506866624841 0 0 0 0 -117.93646391923539 -372.70057554892992 0 -372.70057554892992 -502.91349953716053 0 0 0 0 -187.14891120465472 -341.4553756875066 0 -341.4553756875066 -506.23965163742832 0 0 0 0 -137.354791349062 -426.4831755959749 0 -426.4831755959749 -521.31463716775761 0 0 0 0 -145.59411489249032 -445.33474693006792 0 -445.33474693006792 -562.33200091104663 0 0 0 0 -86.148613306984771 -405.82689487716561 0 -405.82689487716561 -572.04803216986329 0 0 0 0 -87.034483316965634 -402.17903700835086 0 -402.17903700835086 -587.02790387771529 0 0 0 0 -95.971854628827714 -437.36725007669156 0 -437.36725007669156 -657.07515616204182 0 0 0 0 -127.41750356947887 -458.17045365505328 0 -458.17045365505328 -561.36660700303037 0 0 0 0 -62.893583157361718 -422.80779127765709 0 -422.80779127765709 -656.05507976352237 0 0 0 0 -39.602372196517535 -420.22086821569974 0 -420.22086821569974 -686.17846779061074 0 0 0 0 -34.111654638451455 -300.57285672842295 0 -300.57285672842295 -583.17739938407612 0 0 0 0 -151.11535256848947 -509.30334946808807 0 -509.30334946808807 -646.02468129701447 0 0 0 0 -180.84545050986344 -374.62465386419717 0 -374.62465386419717 -589.60895988199263 0 0 0 0 -0.41663020648411475 -247.24537084626354 0 -247.24537084626354 -537.47392303083325 0 0 0 0 4.7161178932640269 0.14077266178110293 0 0.14077266178110293 -5.3923242543283436 0 0 0 0 -133.36354517482687 -279.74987694461015 0 -279.74987694461015 -538.52650383041328 0 0 0 0 -184.40850083696023 -478.88442302293424 0 -478.88442302293424 -629.50910933934938 0 0 0 0 0.11233741961768828 -319.78724045791751 0 -319.78724045791751 -540.27012927868418 0 0 0 0 -96.466035025703604 -274.96519063444066 0 -274.96519063444066 -406.8103400113032 0 0 0 0 -0.1000922535853296 -373.35738766508337 0 -373.35738766508337 -354.98212797956512 0 0 0 0 -29.761511727003381 -313.31478459588106 0 -313.31478459588106 -434.88440601529146 0 0 0 0 -81.182030985546589 -278.39615709307691 0 -278.39615709307691 -227.72655590062641 0 0 0 0 -48.113986859374563 -267.65204010702291 0 -267.65204010702291 -393.97534996804461 0 0 0 0 -14.420037614065222 -284.67803525841555 0 -284.67803525841555 -627.27134431218292 0 0 0 0 -16.917614245387085 -334.33859954119362 0 -334.33859954119362 -573.61547499647713 0 0 0 0 54.267944768085727 -214.23253919119452 0 -214.23253919119452 -574.12069006922229 0 0 0 0 4.5115552515260902 0.21135003369429484 0 0.21135003369429484 -4.855810043182089 0 0 0 0 -15.501753108779667 -400.64064298993253 0 -400.64064298993253 -632.74717543335282 0 0 0 0 107.13292189201456 -319.92623170120351 0 -319.92623170120351 -676.74674874547372 0 0 0 0 -10.522386903641745 -365.9374964982926 0 -365.9374964982926 -874.60587092339119 0 0 0 0 -202.41781698511477 -355.14233906093068 0 -355.14233906093068 -703.18296204810031 0 0 0 0 -240.82615305874788 -185.04421485816783 0 -185.04421485816783 -562.93385645867238 0 0 0 0 -132.22884920325305 -236.77584839362316 0 -236.77584839362316 -692.77140666700143 0 0 0 0 -75.419255209213588 -337.45229884096625 0 -337.45229884096625 -545.26595082833228 0 0 0 0 -43.622017444155063 -243.68560128254103 0 -243.68560128254103 -472.32839694437644 0 0 0 0 -151.66862049487099 -355.76515457685855 0 -355.76515457685855 -355.97085493338818 0 0 0 0 -98.345859382563503 -272.82239945738183 0 -272.82239945738183 -277.32505275488711 0 0 0 0 -82.271071126451716 -529.17511249094605 0 -529.17511249094605 -299.86077355170346 0 0 0 0 50.456462850648677 -542.59447532836202 0 -542.59447532836202 -382.48462559164182 0 0 0 0 -452.80253736686427 -594.30737663365289 0 -594.30737663365289 -341.93895505926412 0 0 0 0 37.543022809818467 -703.87216976763671 0 -703.87216976763671 -548.92075132287573 0 0 0 0 -150.5396387927176 -540.35746485331038 0 -540.35746485331038 -595.8310365705911 0 0 0 0 -518.23368617413507 70.355565987410955 0 70.355565987410955 -1255.9884751042773 0 0 0 0 -1095.6193938268843 -768.41893224893829 0 -768.41893224893829 -614.12026523583336 0 0 0 0 -118.69024315025308 -900.57012018568639 0 -900.57012018568639 -1461.9938115037476 0 0 0 0 222.6230372923892 -311.05713401101821 0 -311.05713401101821 -1822.0351238429648 0 0 0 0 -317.1171239171963 587.82591455688453 0 587.82591455688453 -743.40677271527602 0 0 0 0 -35.861666217497259 135.38913781877091 0 135.38913781877091 -100.05487762320263 0 0 0 0 153.8344293848786 2.1272380326554412 0 2.1272380326554412 -183.69509347278654 0 0 0 0 21.352134111125778 0.66572355010259798 0 0.66572355010259798 -27.978692313462261 0 0 0 0 163.48650538665242 -24.854498684711871 0 -24.854498684711871 -166.96000431675202 0 0 0 0 14.723106577206636 66.405541095438821 0 66.405541095438821 -135.82539279278717 0 0 0 0 68.56395427219104 -2.3296461674617603 0 -2.3296461674617603 -58.604737984915118 0 0 0 0 2263.4102046328771 446.74359247979737 0 446.74359247979737 -1512.8155639733741 0 0 0 0 -425.99797169925296 -543.99862022054731 0 -543.99862022054731 -749.18765249360877 0 0 0 0 -1213.6395152740588 -723.77846704409603 0 -723.77846704409603 1536.9700918390517 0 0 0 0 -683.6839829669625 -291.95009499870866 0 -291.95009499870866 -753.054786663095 0 0 0 0 -2.6356110973220979 -4.3874462425176262 0 -4.3874462425176262 -13.963868824867603 0 0 0 0 -11.535400132670475 -1287.3844150384575 0 -1287.3844150384575 -394.243176144053 0 0 0 0 -465.57362289263983 -525.40009173780709 0 -525.40009173780709 -621.81065357702028 0 0 0 0 -194.90054878882074 -595.32579665058802 0 -595.32579665058802 -604.73708416993031 0 0 0 0 -217.9308393690153 -536.8066445182485 0 -536.8066445182485 -741.079689130107 0 0 0 0 -85.290963484439999 -474.00910464961635 0 -474.00910464961635 -711.38745619611291 0 0 0 0 -216.01074535000953 -501.18921448815672 0 -501.18921448815672 -651.88355812940426 0 0 0 0 -129.73026016444783 -472.16620547138155 0 -472.16620547138155 -644.80019147707208 0 0 0 0 -227.49082000131602 -449.40030193654093 0 -449.40030193654093 -720.78648084950692 0 0 0 0 -379.23190889175748 -465.75522621939308 0 -465.75522621939308 -620.79161308583571 0 0 0 0 -344.06916717623244 -560.73826639242179 0 -560.73826639242179 -618.74405440739065 0 0 0 0 -542.459559227922 -514.74640651328809 0 -514.74640651328809 -408.34586885588942 0 0 0 0 -229.8137728011352 -455.16171981138177 0 -455.16171981138177 -521.32099978193583 0 0 0 0 -343.29919907459407 -507.6095260920556 0 -507.6095260920556 -415.61408470822789 0 0 0 0 -345.04260412643248 -358.97010513535793 0 -358.97010513535793 -287.5027384882269 0 0 0 0 -435.9455556528992 -396.18054309081344 0 -396.18054309081344 -209.80231410873967 0 0 0 0 -178.42186330759432 -438.09470158069962 0 -438.09470158069962 -444.47520969850302 0 0 0 0 -220.39616257959278 -524.09247968579439 0 -524.09247968579439 -541.19196364442178 0 0 0 0 -188.50862536141358 -336.45555473415152 0 -336.45555473415152 -333.04790870816942 0 0 0 0 -178.27739427806227 -452.86999471696618 0 -452.86999471696618 -432.06105522663711 0 0 0 0 -285.83141311266809 -306.39688274788205 0 -306.39688274788205 -145.22971604100894 0 0 0 0 -209.62521070454386 -211.40571978467051 0 -211.40571978467051 -132.75399752403609 0 0 0 0 -160.57732675957959 -317.01667635424383 0 -317.01667635424383 -281.90986688231351 0 0 0 0 -52.725903630722314 -157.02142706124869 0 -157.02142706124869 -232.92433428616641 0 0 0 0 -27.443075435352512 124.62603400459921 0 124.62603400459921 -3.3772672053455608 0 0 0 0 -588.47374241519719 -228.71041663469805 0 -228.71041663469805 38.514632635808084 0 0 0 0 -437.12091022409732 -64.401583033235511 0 -64.401583033235511 168.14792948587274 0 0 0 0 693.9822353029449 -615.0054812961971 0 -615.0054812961971 -541.65183952507505 0 0 0 0 1650.1686764804763 413.59032810319331 0 413.59032810319331 -73.943215367849916 0 0 0 0 822.75649314947077 -386.16909663997649 0 -386.16909663997649 -486.15497676763334 0 0 0 0 867.95239040427259 -192.47935045991471 0 -192.47935045991471 -187.97203332287245 0 0 0 0 609.32467021519551 -57.931433191792166 0 -57.931433191792166 -671.56399964628508 0 0 0 0 225.75575253062925 -95.25477710937048 0 -95.25477710937048 -281.99695574914222 0 0 0 0 -19.920282421458978 -71.918007985666918 0 -71.918007985666918 -159.50024674674205 0 0 0 0 -2.2850833683324083 -81.733681321926838 0 -81.733681321926838 -73.879951304400748 0 0 0 0 100.61485630646348 -342.82818557152495 0 -342.82818557152495 -62.159712267159193 0 0 0 0 108.90717641470837 50.727082591918588 0 50.727082591918588 -224.43156312340579 0 0 0 0 1653.7106185571465 279.04692373459693 0 279.04692373459693 257.38664884108584 0 0 0 0 1661.0718674867867 440.85572952260873 0 440.85572952260873 324.49384344246937 0 0 0 0 -699.1396172397217 -431.9327474308011 0 -431.9327474308011 -232.83601756667485 0 0 0 0 -563.72684569086414 -584.71856143019249 0 -584.71856143019249 -565.80993595754262 0 0 0 0 1.7018088330161731 -3.0599626974619696 0 -3.0599626974619696 -21.330881887344276 0 0 0 0 -12.528150095994079 -14.288453358687512 0 -14.288453358687512 -7.2759701520233193 0 0 0 0 92.62219358299626 -182.4788361911942 0 -182.4788361911942 -367.50540458249816 0 0 0 0 183.45159071958187 -106.81700386467128 0 -106.81700386467128 -330.43500553498689 0 0 0 0 139.7938841288202 -34.650663441327374 0 -34.650663441327374 -37.548957813298898 0 0 0 0 184.15780607906345 -113.05515761145216 0 -113.05515761145216 -288.27047779174609 0 0 0 0 61.357063317162101 -225.76350585470936 0 -225.76350585470936 -296.02204212125434 0 0 0 0 -114.87116644909111 -134.78716622311367 0 -134.78716622311367 -309.01960333444003 0 0 0 0 897.38428843632573 -695.75915634234661 0 -695.75915634234661 -1327.523862417107 0 0 0 0 -42.345128284898522 -57.598139275996743 0 -57.598139275996743 -64.705343261592859 0 0 0 0 -267.45850366210652 -310.91601344944866 0 -310.91601344944866 -239.29699960261678 0 0 0 0 14.79432052669614 -55.281960911796858 0 -55.281960911796858 -64.152390063175972 0 0 0 0 474.73363127009361 -192.53864933837212 0 -192.53864933837212 -238.54674123478617 0 0 0 0 132.2684307736381 38.939490639597352 0 38.939490639597352 -209.18847107249167 0 0 0 0 366.5614371632837 1.3370500681712656 0 1.3370500681712656 -489.54619231753531 0 0 0 0 139.53058372454126 6.9058593018178129 0 6.9058593018178129 -34.886316049637017 0 0 0 0 187.76647207292626 -56.738537256980635 0 -56.738537256980635 -49.202277833006519 0 0 0 0 87.177275553985965 -91.146225028969639 0 -91.146225028969639 -247.45343770381442 0 0 0 0 110.67969794233107 -30.945537732407459 0 -30.945537732407459 -20.276935290924719 0 0 0 0 146.11909303730499 1.3493435185409908 0 1.3493435185409908 -100.61969247375964 0 0 0 0 181.3744364749291 -31.061700019490672 0 -31.061700019490672 -13.401649128238205 0 0 0 0 28.163425151287811 -241.45940021110437 0 -241.45940021110437 -326.2536859410975 0 0 0 0 41.22651384085276 20.61973704594385 0 20.61973704594385 -21.906096631582528 0 0 0 0 203.30314692505635 172.08422007010086 0 172.08422007010086 -294.25123410404194 0 0 0 0 175.13821244659744 -75.807720302347363 0 -75.807720302347363 -76.655589673668374 0 0 0 0 -496.81856051197974 -580.24690945446491 0 -580.24690945446491 -918.61733379215002 0 0 0 0 293.34566824918147 -91.620031691825716 0 -91.620031691825716 -625.20469004305778 0 0 0 0 -48.664308015780989 -424.89707346854266 0 -424.89707346854266 -666.72663418765296 0 0 0 0 -12.362612034512949 -35.598384157399366 0 -35.598384157399366 -24.4498957245318 0 0 0 0 529.5002413514303 -193.16169208614156 0 -193.16169208614156 -541.81505351427768 0 0 0 0 465.82357684534509 -87.054951904545305 0 -87.054951904545305 -619.60307446858496 0 0 0 0 308.35355395853549 -23.573508673760443 0 -23.573508673760443 -648.46354097742005 0 0 0 0 591.46294636238599 -123.77312127633195 0 -123.77312127633195 -671.95601037598681 0 0 0 0 617.55850070351153 -146.02363367738872 0 -146.02363367738872 -681.92585991841042 0 0 0 0 119.47406834358117 -133.8016281924065 0 -133.8016281924065 -618.82830722039216 0 0 0 0 367.95326764124911 -514.32769778218062 0 -514.32769778218062 -335.01613168034964 0 0 0 0 147.69504999276324 -28.199763460969617 0 -28.199763460969617 -36.593828854182533 0 0 0 0 29.015930182766169 148.25878818424826 0 148.25878818424826 -222.72021330377947 0 0 0 0 -6.4949265454779379 39.342572241352173 0 39.342572241352173 -19.546029373384954 0 0 0 0 -142.50977916312695 160.52255123886789 0 160.52255123886789 -89.389380098582478 0 0 0 0 -6.9940915914485231 123.74782352436159 0 123.74782352436159 -160.14848652516957 0 0 0 0 30.578495983987523 118.19134880730417 0 118.19134880730417 -175.35423735930817 0 0 0 0 222.08616549873841 182.38637598494097 0 182.38637598494097 -761.78261698149436 0 0 0 0 -53.258450673922198 233.49929335808065 0 233.49929335808065 -235.49787649183418 0 0 0 0 515.533766605251 -207.21295408875449 0 -207.21295408875449 -253.8685318691787 0 0 0 0 576.02261235841434 -105.88161659557227 0 -105.88161659557227 -827.69947466761005 0 0 0 0 688.03809784085024 -14.394380684399948 0 -14.394380684399948 -728.33716988663946 0 0 0 0 281.49806958990666 -44.928373984965219 0 -44.928373984965219 -626.84262697696977 0 0 0 0 944.16042255648063 -287.61866627629934 0 -287.61866627629934 -724.72145940199698 0 0 0 0 556.93249902718526 -104.73038051129333 0 -104.73038051129333 -661.05011833160825 0 0 0 0 767.50306664714299 -620.35246293967066 0 -620.35246293967066 -235.92695717095921 0 0 0 0 400.70118910534075 -259.89148064239271 0 -259.89148064239271 -575.36883577406115 0 0 0 0 6.4091075562080277 -5.7432453957104883 0 -5.7432453957104883 3.6007001493501321 0 0 0 0 68.817585419441457 -410.76653374350644 0 -410.76653374350644 554.9891931110833 0 0 0 0 -210.7676055080301 -712.78469454824062 0 -712.78469454824062 -42.793278671691951 0 0 0 0 401.2353362988797 -922.53074015601669 0 -922.53074015601669 -417.62993584667493 0 0 0 0 466.7944829311964 -521.40691956604905 0 -521.40691956604905 -800.27055624859349 0 0 0 0 163.92758438136661 -606.34585029563095 0 -606.34585029563095 -612.33340826707717 0 0 0 0 -242.43589457434427 -438.78732258468881 0 -438.78732258468881 -585.0108639892278 0 0 0 0 178.51300904713571 -517.99360035756763 0 -517.99360035756763 -384.92498630505725 0 0 0 0 -282.96346376692236 -793.92058051615459 0 -793.92058051615459 -677.99823333022505 0 0 0 0 15.69422340337951 -14.3149627658876 0 -14.3149627658876 12.930347156751822 0 0 0 0 -39.906812403263757 -103.86875244681869 0 -103.86875244681869 -58.289196315447043 0 0 0 0 -38.087970207605395 -141.27320440014955 0 -141.27320440014955 -91.035646812841151 0 0 0 0 -46.138489856253727 -143.90540265447089 0 -143.90540265447089 17.12561382354761 0 0 0 0 52.750757147176046 -334.03444484501233 0 -334.03444484501233 -356.70471679725597 0 0 0 0 220.98907837719162 -490.03445640287646 0 -490.03445640287646 -6.8274055966030573 0 0 0 0 -22.487796937479288 -125.80513779453759 0 -125.80513779453759 -133.83904308212368 0 0 0 0 125.55895778725198 -36.786289429758554 0 -36.786289429758554 -43.933594925923614 0 0 0 0 106.5498564086156 -57.354570527662872 0 -57.354570527662872 -121.69233297726578 0 0 0 0 84.032702716889617 -93.284504743263824 0 -93.284504743263824 -122.31140844232868 0 0 0 0 -29.992935642516386 -183.4272738137995 0 -183.4272738137995 -185.49086057657405 0 0 0 0 438.85653747276228 -57.713432639215171 0 -57.713432639215171 -177.23677230906469 0 0 0 0 389.98757328366628 134.01317433782606 0 134.01317433782606 50.52305358958256 0 0 0 0 -7.6501548492981328 -17.317707532160032 0 -17.317707532160032 -7.6482942365359463 0 0 0 0 19.93772766670736 -135.48970180705146 0 -135.48970180705146 14.756815813185312 0 0 0 0 70.483702615719437 -50.891773608001387 0 -50.891773608001387 -78.879416171015919 0 0 0 0 17.035646597778438 -61.466007442037039 0 -61.466007442037039 -84.872168749544869 0 0 0 0 129.90394561315952 -91.443389927453154 0 -91.443389927453154 -136.3719966868739 0 0 0 0 127.66514013057292 -46.673278792954179 0 -46.673278792954179 -43.708924332588289 0 0 0 0 72.758160025899997 -107.26126839504286 0 -107.26126839504286 -135.40657727597863 0 0 0 0 -37.736986781164887 -98.044741853891537 0 -98.044741853891537 -77.68757427422679 0 0 0 0 113.83797929456341 -82.817985274323291 0 -82.817985274323291 -44.444896466768114 0 0 0 0 117.96032447404286 -66.361213340602262 0 -66.361213340602262 -96.292059819776114 0 0 0 0 136.64490005578409 -90.841565418262689 0 -90.841565418262689 -82.378415378690988 0 0 0 0 -2.7153381388863096 -62.824227536439651 0 -62.824227536439651 -67.012398808100102 0 0 0 0 10.957670683622212 -28.38729327068242 0 -28.38729327068242 17.587959484788882 0 0 0 0 3.3722162699123146 -83.616945118210424 0 -83.616945118210424 -73.135959853127133 0 0 0 0 110.29833892991883 -79.71700311481618 0 -79.71700311481618 -43.218692837424896 0 0 0 0 7.0279383679415162 -38.876302759744704 0 -38.876302759744704 -80.959767739652193 0 0 0 0 106.42332583812095 -69.11800968319767 0 -69.11800968319767 -42.606671783603815 0 0 0 0 157.5790173845453 -90.141882435200387 0 -90.141882435200387 -98.815470611854835 0 0 0 0 132.61328192531931 -24.851880027286292 0 -24.851880027286292 -37.274017461334395 0 0 0 0 93.659731445557554 -124.12827283427032 0 -124.12827283427032 -115.90999970873236 0 0 0 0 30.138331064450881 -11.917879908748915 0 -11.917879908748915 -22.124216052443344 0 0 0 0 129.49168571981863 8.8157757133740233 0 8.8157757133740233 -74.179018066977733 0 0 0 0 154.2666708578472 -36.734249478864513 0 -36.734249478864513 -164.73553568856369 0 0 0 0 146.78840627750287 -41.758663872332363 0 -41.758663872332363 -95.786893718501233 0 0 0 0 136.86345799807168 -181.01575949621838 0 -181.01575949621838 -503.54949995810603 0 0 0 0 423.67518018883129 -300.88706513189391 0 -300.88706513189391 -274.78059157842654 0 0 0 0 127.73312417729176 -129.64959907024604 0 -129.64959907024604 82.145114117371122 0 0 0 0 -3.0759123227398959 55.77601185786807 0 55.77601185786807 -151.35822444123369 0 0 0 0 -35.331380734478444 -486.93400726170239 0 -486.93400726170239 -549.52847843889322 0 0 0 0 -90.786933811665222 -464.42154742645289 0 -464.42154742645289 -302.52113351589651 0 0 0 0 -81.775746193845407 -713.22978196940312 0 -713.22978196940312 -749.67777950139134 0 0 0 0 -79.032092563269543 -644.42965275875576 0 -644.42965275875576 -533.2251179548075 0 0 0 0 -267.60904993285658 -634.14054885590122 0 -634.14054885590122 -333.00012844184675 0 0 0 0 -135.5305008971518 -328.56404541451411 0 -328.56404541451411 -161.56372865529556 0 0 0 0 88.418775445767096 -387.25416332314853 0 -387.25416332314853 -360.76409880185247 0 0 0 0 25.864697593038727 -307.34042993038565 0 -307.34042993038565 -218.26053292894358 0 0 0 0 83.304396129162342 -119.8122175661556 0 -119.8122175661556 -154.83961552888286 0 0 0 0 16.300750498836194 -6.9569617391627219 0 -6.9569617391627219 -32.65918166973529 0 0 0 0 133.49788675179298 -65.063270013930378 0 -65.063270013930378 -61.401499563617108 0 0 0 0 235.01549966478342 -218.64947200272582 0 -218.64947200272582 -299.05249804177583 0 0 0 0 107.45736654483102 -14.858139007988882 0 -14.858139007988882 -19.510544317145893 0 0 0 0 26.073308544553583 -11.954144717550662 0 -11.954144717550662 -7.0008825314725982 0 0 0 0 -48.642211215876159 -67.139290211900516 0 -67.139290211900516 -55.971999747513109 0 0 0 0 -46.544259016111027 117.30831595902418 0 117.30831595902418 -159.23338466795394 0 0 0 0 -960.72287539608806 -1006.7210936158699 0 -1006.7210936158699 -699.2886388902225 0 0 0 0 -1.3115940660556475 -1.8707453392461559 0 -1.8707453392461559 -12.270309110736974 0 0 0 0 162.03339914353091 241.60222874822693 0 241.60222874822693 -884.78168211608136 0 0 0 0 -131.95622115320293 -1092.7024736052226 0 -1092.7024736052226 -1546.8424561884185 0 0 0 0 -998.44989077484206 -355.45635631130426 0 -355.45635631130426 -677.74577987518569 0 0 0 0 -100.87659765499302 -806.10719209252011 0 -806.10719209252011 -793.22272929063183 0 0 0 0 -617.87230166430527 116.58795941006611 0 116.58795941006611 32.978015987675462 0 0 0 0 -100.45126986468676 -597.53697711123823 0 -597.53697711123823 -927.23570613170705 0 0 0 0 -5.2639564738913407 -10.921882673233654 0 -10.921882673233654 8.1544584171504084 0 0 0 0 -864.05551784453201 -313.63449555315856 0 -313.63449555315856 271.02350943251076 0 0 0 0 485.2188790623768 -297.12376397395201 0 -297.12376397395201 89.304994757001623 0 0 0 0 -45.185170701137395 -140.99688608856741 0 -140.99688608856741 531.82127846509684 0 0 0 0 554.57230621353665 -286.87000242309477 0 -286.87000242309477 -750.55132718748791 0 0 0 0 2.5345699411157341 -12.516366115298723 0 -12.516366115298723 -12.323056508939857 0 0 0 0 -233.04520679829875 42.789091446880775 0 42.789091446880775 348.40179880375217 0 0 0 0 -42.898103856867237 116.74194516732859 0 116.74194516732859 -673.77582118503051 0 0 0 0 -7.922483885075053 -93.47996420922027 0 -93.47996420922027 -365.66899134585037 0 0 0 0 -92.302443404514634 -100.07573772829164 0 -100.07573772829164 -15.078158050400816 0 0 0 0 52.745461516038631 -341.35555151530207 0 -341.35555151530207 -784.35868048696102 0 0 0 0 -50.881947202728043 -326.69530431871681 0 -326.69530431871681 -334.47311613841885 0 0 0 0 42.556910776176665 -312.79807183999583 0 -312.79807183999583 -657.64819058700959 0 0 0 0 106.0048104536836 -173.98245388948999 0 -173.98245388948999 -1952.475567323916 0 0 0 0 4.421726714252145 -123.89027184250881 0 -123.89027184250881 72.921154456986187 0 0 0 0 -15.725823612220495 -79.406496344395109 0 -79.406496344395109 -33.700239998645117 0 0 0 0 21.641276845082757 -197.32016694553022 0 -197.32016694553022 73.044644087730831 0 0 0 0 -61.252072377923469 -89.966829601034988 0 -89.966829601034988 55.290566554478573 0 0 0 0 77.637942705005116 -134.07692297450012 0 -134.07692297450012 -35.37611769909563 0 0 0 0 -9.7926901527410735 -51.694154552012805 0 -51.694154552012805 -69.124156783129848 0 0 0 0 30.006438810458349 -253.58156896581568 0 -253.58156896581568 108.17481773608597 0 0 0 0 14.629074326694536 -150.6071142683395 0 -150.6071142683395 18.37545526798931 0 0 0 0 9.9464144213111041 -47.780573265411576 0 -47.780573265411576 77.912534951229745 0 0 0 0 -397.10724062566442 -411.32391564958198 0 -411.32391564958198 265.6538252715618 0 0 0 0 -85.1783494981064 5.3533290450031927 0 5.3533290450031927 32.460202109532034 0 0 0 0 163.60122781165774 -359.48073790618218 0 -359.48073790618218 38.023985648902453 0 0 0 0 -3.001838431071107 -45.740919629925038 0 -45.740919629925038 93.731040632200788 0 0 0 0 -122.91490375130525 -159.87522589293076 0 -159.87522589293076 62.797365582198836 0 0 0 0 -1.8841776505723828 -183.83399006973923 0 -183.83399006973923 68.354197965774802 0 0 0 0 -98.032009777205531 -123.15156711565942 0 -123.15156711565942 43.299301298866339 0 0 0 0 -19.059010176861193 -159.70962491048704 0 -159.70962491048704 22.861208841932239 0 0 0 0 3.036893782671541 -120.35474030643672 0 -120.35474030643672 62.234574133988644 0 0 0 0 -6.0261895718267624 -118.50165839462903 0 -118.50165839462903 24.151656984134338 0 0 0 0 -6.3153335474780761 -101.04762350451347 0 -101.04762350451347 31.604251896794267 0 0 0 0 -38.322964524593459 -126.69454208865689 0 -126.69454208865689 50.227593262601609 0 0 0 0 -148.79235491284635 -160.08472014575818 0 -160.08472014575818 16.004071352974279 0 0 0 0 49.160267792231025 -135.94642747603029 0 -135.94642747603029 -84.919828908576164 0 0 0 0 11.929843728590413 -28.302682217496084 0 -28.302682217496084 19.11341273348404 0 0 0 0 -27.243309782676079 -205.41964708348405 0 -205.41964708348405 -55.943797153668129 0 0 0 0 -272.23348171953694 -163.82262384198839 0 -163.82262384198839 63.615537424797367 0 0 0 0 6.2351993654665421 -118.61098077803763 0 -118.61098077803763 222.52209682040848 0 0 0 0 -279.73652198757918 -319.63503346363723 0 -319.63503346363723 143.83783624251373 0 0 0 0 -53.792633474971808 -73.882216749065265 0 -73.882216749065265 379.20190517364244 0 0 0 0 212.6028068572632 -13.766871439074748 0 -13.766871439074748 323.50783776240132 0 0 0 0 -74.246495849016355 -575.74908898079593 0 -575.74908898079593 116.8960046008724 0 0 0 0 425.46941778576002 -939.18669376516482 0 -939.18669376516482 -719.19342743116431 0 0 0 0 38.173201092984527 -115.62795157401706 0 -115.62795157401706 43.398233129264554 0 0 0 0 397.083618472956 -56.014847190177534 0 -56.014847190177534 -508.07732275887247 0 0 0 0 -1178.1228020899143 -503.97475234208105 0 -503.97475234208105 -13.746021397091681 0 0 0 0 28.760816268885776 -132.20241072337751 0 -132.20241072337751 2.4474500503225158 0 0 0 0 46.30410075724285 -172.21390411631774 0 -172.21390411631774 126.61568551716482 0 0 0 0 -340.97776502680063 -484.57510819922391 0 -484.57510819922391 406.1213987841038 0 0 0 0 -470.65918119497655 -769.89241733070958 0 -769.89241733070958 22.102365343496785 0 0 0 0 334.15745915553998 -405.92688655492384 0 -405.92688655492384 -672.57631035285885 0 0 0 0 -1.3304611250634082 -6.6846442290802202 0 -6.6846442290802202 -7.9567375690190261 0 0 0 0 -160.31158073230745 -200.92149830719882 0 -200.92149830719882 360.78634348718333 0 0 0 0 -147.24611899750016 -272.90775195104652 0 -272.90775195104652 -99.364193446941499 0 0 0 0 -97.802593580927351 -191.03129960368096 0 -191.03129960368096 8.0994817120954394 0 0 0 0 -290.67689853264892 -199.09057302561632 0 -199.09057302561632 39.795134303538362 0 0 0 0 40.790038183418801 -83.987323484259832 0 -83.987323484259832 49.78183350522886 0 0 0 0 -94.456946341226285 -202.54586860135169 0 -202.54586860135169 47.20606267102994 0 0 0 0 84.208369871437753 -146.41979830290802 0 -146.41979830290802 17.213549365173094 0 0 0 0 -292.76180427423969 -233.731383393344 0 -233.731383393344 65.353473050636239 0 0 0 0 -124.53100934390386 -171.22342979988025 0 -171.22342979988025 6.607376976244268 0 0 0 0 -126.42598728930898 -184.65572128073109 0 -184.65572128073109 81.526634407913662 0 0 0 0 104.25486159200955 -202.49009059106174 0 -202.49009059106174 -0.14464750220940914 0 0 0 0 -260.61313915136998 -202.25865193975915 0 -202.25865193975915 -16.388593421201222 0 0 0 0 -306.44303095731448 -239.20829341908757 0 -239.20829341908757 -0.12854479174711742 0 0 0 0 -211.9086999737483 -249.14583794765349 0 -249.14583794765349 0.13964341844456907 0 0 0 0 -215.4848285630942 -284.68021978267643 0 -284.68021978267643 -80.962719567876775 0 0 0 0 -188.98844817151257 -241.43228189717047 0 -241.43228189717047 -10.679212606306464 0 0 0 0 -240.36305316625658 -192.69506461915444 0 -192.69506461915444 -44.576018648862373 0 0 0 0 -91.488171158514888 -108.47352651646361 0 -108.47352651646361 -8.362371017166879 0 0 0 0 -121.74141833846807 -206.0904099989566 0 -206.0904099989566 -117.28277816654008 0 0 0 0 -215.32823685625954 -415.26627313391327 0 -415.26627313391327 -424.49458118787152 0 0 0 0 -2.8223896763472283 -3.9704307155752758 0 -3.9704307155752758 -2.7346907972764498 0 0 0 0 -84.87359216970799 -108.44851340444438 0 -108.44851340444438 -18.316010642081892 0 0 0 0 -7.803720622794458 -11.070163274386516 0 -11.070163274386516 13.170326381430044 0 0 0 0 3.5491206660590251 -36.443604553620389 0 -36.443604553620389 30.35860316803155 0 0 0 0 5.7336583211023822 -21.319569192232862 0 -21.319569192232862 21.294085876087422 0 0 0 0 5.9267113424046158 -23.234247348838835 0 -23.234247348838835 -15.80694924137083 0 0 0 0 -5.4580914459875203 -14.032654072707373 0 -14.032654072707373 1.9757345927646384 0 0 0 0 1.8677413621132786 0.63034436544702999 0 0.63034436544702999 -0.54641566457684121 0 0 0 0 -103.44746965508966 -72.631041341926903 0 -72.631041341926903 -23.219594874633913 0 0 0 0 417.38184339514919 -258.72187436253625 0 -258.72187436253625 -39.054646392003633 0 0 0 0 379.6847073833269 -104.07058154949482 0 -104.07058154949482 -9.1899845967418514 0 0 0 0 -148.1505245235021 -55.958153688428865 0 -55.958153688428865 18.555960919649806 0 0 0 0 172.38561712937371 -273.9792060301188 0 -273.9792060301188 167.93324623604713 0 0 0 0 426.58944122188404 -259.86012798593947 0 -259.86012798593947 0.037491511844564229 0 0 0 0 157.47050669370947 28.760282752475177 0 28.760282752475177 10.60182704514591 0 0 0 0 -525.53548111117561 -92.460930321154592 0 -92.460930321154592 23.042960783121089 0 0 0 0 1.6458009168868983 1.8846255704658574 0 1.8846255704658574 -2.3012061415896596 0 0 0 0 0.75745360432107134 2.0286408881461 0 2.0286408881461 -1.7975175853342193 0 0 0 0 362.74987055017846 -160.09765809989858 0 -160.09765809989858 -0.29266865648969542 0 0 0 0 -48.119796855564346 -263.65449291428376 0 -263.65449291428376 -0.26097474241041618 0 0 0 0 -529.32683708862896 85.275409704707272 0 85.275409704707272 79.847328202697099 0 0 0 0 -9.2302043105155462 -102.24822395415686 0 -102.24822395415686 -49.731585734814871 0 0 0 0 -5.9472419241501484 -82.814481497305678 0 -82.814481497305678 53.403020540921716 0 0 0 0 0.23748711843859382 2.9004099604610758 0 2.9004099604610758 -4.5611117017085689 0 0 0 0 401.00392899564758 -170.07689458384812 0 -170.07689458384812 -60.258513939741533 0 0 0 0 -344.76049417673858 -49.498659326814959 0 -49.498659326814959 109.61998881268664 0 0 0 0 -56.853393965488067 0.025611982186092064 0 0.025611982186092064 27.27979574931669 0 0 0 0 204.36326559218287 -196.32851227000356 0 -196.32851227000356 34.676669796666829 0 0 0 0 -10.378266938583693 -153.18203432820155 0 -153.18203432820155 111.67073255317518 0 0 0 0 221.4847839914728 -56.751171361291199 0 -56.751171361291199 86.20382210589014 0 0 0 0 60.687845513428329 -95.418992926177452 0 -95.418992926177452 4.0170290607275092 0 0 0 0 63.851373314333614 -98.785464359680191 0 -98.785464359680191 22.770531571703032 0 0 0 0 122.12796932237688 -176.35970372226438 0 -176.35970372226438 43.241042535111774 0 0 0 0 63.175162111903774 -122.08985593897523 0 -122.08985593897523 129.35780785400129 0 0 0 0 -63.062891244131606 -123.72343347300193 0 -123.72343347300193 47.00122848686442 0 0 0 0 228.22437342554622 -185.136472351056 0 -185.136472351056 -61.70579681469826 0 0 0 0 6.3837410159655263 -18.411014692934828 0 -18.411014692934828 0.62661652072409879 0 0 0 0 14.571105577548224 -81.93538278563301 0 -81.93538278563301 2.203232366591692 0 0 0 0 -32.319597540234099 -152.90739454556387 0 -152.90739454556387 -10.736442435758363 0 0 0 0 5.5765514684973709 -85.701791260370669 0 -85.701791260370669 3.2498587571689725 0 0 0 0 20.583660137388222 -118.63795485862207 0 -118.63795485862207 23.985938509187577 0 0 0 0 23.372465488064648 -69.599249848721797 0 -69.599249848721797 -69.199459297689373 0 0 0 0 97.590576486443751 -152.56189728317258 0 -152.56189728317258 -112.13226148659305 0 0 0 0 75.153921063465532 -125.78602610518465 0 -125.78602610518465 -101.10754516560701 0 0 0 0 63.35995440224724 -177.5613870872985 0 -177.5613870872985 -242.73436357233732 0 0 0 0 302.70627312734723 -45.834144742613717 0 -45.834144742613717 -231.84911927470966 0 0 0 0 -26.36768327277494 -17.415579984793098 0 -17.415579984793098 -10.705787392511183 0 0 0 0 2.340448270610068 -290.64485598702595 0 -290.64485598702595 -187.79584311130748 0 0 0 0 30.729546518006828 -162.62452721546288 0 -162.62452721546288 -234.61283060795176 0 0 0 0 -163.34013249556301 -249.12724792297377 0 -249.12724792297377 -74.30513464869 0 0 0 0 111.34807865529001 -123.71825895249094 0 -123.71825895249094 -183.42016010532097 0 0 0 0 1.8447487616211049 -32.527336925544461 0 -32.527336925544461 20.721578164196558 0 0 0 0 24.018418301898976 -68.199730460746366 0 -68.199730460746366 -20.82993705142291 0 0 0 0 9.6084384111163672 -95.436493545523263 0 -95.436493545523263 11.623775036117877 0 0 0 0 6.4055544228193213 -68.870605752871001 0 -68.870605752871001 32.805966558143268 0 0 0 0 19.641105216258438 -93.961735826153017 0 -93.961735826153017 41.651635254149369 0 0 0 0 8.7388028874489692 -53.151257589356106 0 -53.151257589356106 13.458295016598264 0 0 0 0 17.083799338332028 -102.80660442802764 0 -102.80660442802764 63.893216607029899 0 0 0 0 34.37039565629766 -75.7518652866503 0 -75.7518652866503 15.622855200602721 0 0 0 0 3.7820059386140201 -115.83073097394663 0 -115.83073097394663 233.44207646419454 0 0 0 0 8.1422431069004233 -116.97662636323366 0 -116.97662636323366 3.8036329166061478 0 0 0 0 16.468753904969361 -87.048399606772975 0 -87.048399606772975 79.966770747753344 0 0 0 0 28.616661803255568 -93.790464554359261 0 -93.790464554359261 44.609711506067981 0 0 0 0 103.71163023015833 -150.37593012111029 0 -150.37593012111029 -26.445036939127021 0 0 0 0 8.3001498942321632 -135.22706727781042 0 -135.22706727781042 131.09122680630571 0 0 0 0 58.306240445267065 -100.50379798880975 0 -100.50379798880975 9.9464899136571603 0 0 0 0 16.499234514078125 -129.277914207305 0 -129.277914207305 28.017402160561687 0 0 0 0 61.738969054829795 -114.90699019965905 0 -114.90699019965905 -48.249289186132955 0 0 0 0 -37.790299003827386 -238.68167493552755 0 -238.68167493552755 -51.805055242633216 0 0 0 0 9.8527432328846771 -260.66580987870475 0 -260.66580987870475 -198.06663024853333 0 0 0 0 47.5856880111387 -252.64373320731102 0 -252.64373320731102 -201.15446934424108 0 0 0 0 -23.034804823148662 -68.77521715522758 0 -68.77521715522758 -59.01579909602583 0 0 0 0 40.849855581953307 -129.4180826013253 0 -129.4180826013253 -33.407428201229777 0 0 0 0 -131.83975084489794 -262.43490924068101 0 -262.43490924068101 -99.246564948782179 0 0 0 0 45.916133847553283 -160.11261984617158 0 -160.11261984617158 -390.6743994466342 0 0 0 0 30.266233208778431 -321.25565672311495 0 -321.25565672311495 -330.66369106616912 0 0 0 0 40.503674087725813 -258.80997020728682 0 -258.80997020728682 -225.78540154726397 0 0 0 0 140.33397231191339 -179.694708269697 0 -179.694708269697 -194.63359534759729 0 0 0 0 136.0611148205935 -158.99018340018301 0 -158.99018340018301 -236.7517136583192 0 0 0 0 101.10744760140369 -197.20200366926474 0 -197.20200366926474 -186.72801787269418 0 0 0 0 86.481021040031919 -320.13269689895969 0 -320.13269689895969 -410.82520458749786 0 0 0 0 76.384498395127594 -132.93994083669713 0 -132.93994083669713 -80.033065992145566 0 0 0 0 21.26877091989445 -241.35134777198618 0 -241.35134777198618 -94.523511361927376 0 0 0 0 56.767392444729921 -302.16871085825369 0 -302.16871085825369 -244.85042341145163 0 0 0 0 93.100267639412777 -211.71056079347909 0 -211.71056079347909 -356.92093697407836 0 0 0 0 10.526804960129084 -254.84217735272978 0 -254.84217735272978 -191.18080005263619 0 0 0 0 -52.869712514038838 -248.11205439787591 0 -248.11205439787591 -185.50618558442511 0 0 0 0 2.0669907051002099 -2.3517083631580249 0 -2.3517083631580249 3.0774181949084323 0 0 0 0 1094.151639830241 396.54113488570511 0 396.54113488570511 -156.57594135175168 0 0 0 0 -154.70808508640039 -363.44093185015663 0 -363.44093185015663 319.38232779114333 0 0 0 0 -13.044977832927174 -87.671284063310736 0 -87.671284063310736 -71.410672229036123 0 0 0 0 -19.450295148562873 -23.961435293040267 0 -23.961435293040267 114.96673773977091 0 0 0 0 825.67131458412041 -404.1365973675056 0 -404.1365973675056 -750.95222877590277 0 0 0 0 -31.050914975114708 -87.305281851217615 0 -87.305281851217615 -67.703935634972822 0 0 0 0 -38.183285247134336 26.778021427853673 0 26.778021427853673 573.56656091948389 0 0 0 0 295.82659259803768 -140.30327956364999 0 -140.30327956364999 -214.89960917340068 0 0 0 0 698.94942590760184 -311.22381270801998 0 -311.22381270801998 -597.81182769441511 0 0 0 0 1.6003416054667525 -5.0285982657804595 0 -5.0285982657804595 -57.370670384854748 0 0 0 0 999.68099726163928 -193.99443390105898 0 -193.99443390105898 -525.56833155045751 0 0 0 0 148.95886386225902 38.600807176553644 0 38.600807176553644 -184.6942619344627 0 0 0 0 800.61606383626349 -92.964855287173123 0 -92.964855287173123 -260.95738832306233 0 0 0 0 -57.564703031181125 -130.20700894145557 0 -130.20700894145557 -199.90244146012992 0 0 0 0 141.07188909553224 -89.120545275483892 0 -89.120545275483892 -261.05999290017644 0 0 0 0 76.14221201663895 -41.337583003216423 0 -41.337583003216423 -108.02421559242066 0 0 0 0 -14.829991588718258 -359.42616743784674 0 -359.42616743784674 -393.99224378178769 0 0 0 0 157.20102870754658 -155.5152931291708 0 -155.5152931291708 -367.99576183753379 0 0 0 0 220.43959709981573 12.896698803473555 0 12.896698803473555 -71.915957256178444 0 0 0 0 159.25948529684683 43.453097475765389 0 43.453097475765389 -138.43753864686732 0 0 0 0 90.823088988894597 43.110196411565994 0 43.110196411565994 -30.360920897117467 0 0 0 0 88.659459353424609 5.5357173477532342 0 5.5357173477532342 36.92949258221779 0 0 0 0 107.08285353399697 -38.822622517240234 0 -38.822622517240234 57.343861753601232 0 0 0 0 111.80510257376591 -4.0165428286563838 0 -4.0165428286563838 4.2169307155854767 0 0 0 0 136.88328024809016 -4.8355666335701244 0 -4.8355666335701244 -36.969020242322586 0 0 0 0 194.13297650992172 -49.988559826859273 0 -49.988559826859273 -3.007309359323699 0 0 0 0 210.34406314558873 -3.4362095619617321 0 -3.4362095619617321 -101.04161578195635 0 0 0 0 133.82027421193925 16.453084310140184 0 16.453084310140184 -69.681751230731606 0 0 0 0 239.42678488172533 -0.45481162741634762 0 -0.45481162741634762 -75.15951211405627 0 0 0 0 205.25002631435564 17.702483745604695 0 17.702483745604695 -83.606646895612357 0 0 0 0 18.942399858875547 -6.2486759211831782 0 -6.2486759211831782 -10.662682198764458 0 0 0 0 51.228792865105788 -98.496044592993712 0 -98.496044592993712 -25.503400166271604 0 0 0 0 21.574554803744832 -188.98762832224747 0 -188.98762832224747 -49.887820139090763 0 0 0 0 154.57677046718891 -58.930355930846417 0 -58.930355930846417 -62.383595816099842 0 0 0 0 107.66805197545051 -43.684321823034679 0 -43.684321823034679 -7.6237805985065563 0 0 0 0 181.92751312919427 4.0491769842628855 0 4.0491769842628855 -74.82999177237798 0 0 0 0 113.06228341223323 -72.518726057343883 0 -72.518726057343883 -184.18610291619552 0 0 0 0 145.85543529814458 -13.499410715739941 0 -13.499410715739941 -82.158619213136262 0 0 0 0 136.32104290515042 -94.227599932581398 0 -94.227599932581398 -20.646663801127183 0 0 0 0 143.2257623825426 -143.0109406382544 0 -143.0109406382544 -125.02980275635491 0 0 0 0 429.65867727831937 -206.24164752743673 0 -206.24164752743673 -92.53844314313028 0 0 0 0 362.77272161949077 -229.888416758331 0 -229.888416758331 -94.277528311824426 0 0 0 0 103.1332757889499 -48.984000831803286 0 -48.984000831803286 -139.00629314994183 0 0 0 0 118.1342124708317 15.278581107060745 0 15.278581107060745 -228.89153665321646 0 0 0 0 107.82103122229455 1.7921386865564273 0 1.7921386865564273 -4.2157510169490706 0 0 0 0 9.4586891987282229 -18.382946450378739 0 -18.382946450378739 -1.8257789100641162 0 0 0 0 7.7326357331444342 -2.775875478642547 0 -2.775875478642547 -82.751214971208185 0 0 0 0 523.56591339907027 -101.44129288178374 0 -101.44129288178374 -168.47924162144773 0 0 0 0 336.48799432476517 -158.02189316728618 0 -158.02189316728618 10.5607913648455 0 0 0 0 324.89195437655872 -91.38045887660337 0 -91.38045887660337 -316.1586780531361 0 0 0 0 18.737399657227797 -278.5985618298655 0 -278.5985618298655 -206.89462442538206 0 0 0 0 19.776902915161401 -87.877152427663546 0 -87.877152427663546 -21.600798458623274 0 0 0 0 19.799207818927243 -139.98418835532721 0 -139.98418835532721 -16.786632515082601 0 0 0 0 -14.675353143247776 -88.709520369997335 0 -88.709520369997335 -15.253791703056777 0 0 0 0 122.50857226285689 -167.01496574048872 0 -167.01496574048872 -18.584450548759264 0 0 0 0 5.0966067126635721 -96.529071496385853 0 -96.529071496385853 -5.4778581452668149 0 0 0 0 -227.8468208956765 2.4986864374950528 0 2.4986864374950528 89.399161788009224 0 0 0 0 -7.4446034175918498 -38.317172523475378 0 -38.317172523475378 22.518427126868843 0 0 0 0 352.29349495700444 -115.01713053652202 0 -115.01713053652202 -214.84760832312168 0 0 0 0 68.594753882542136 -44.179935249034315 0 -44.179935249034315 7.268737233865977 0 0 0 0 51.673686846329076 -91.705125625695473 0 -91.705125625695473 0.63432356672585399 0 0 0 0 32.052724020963069 -124.63898986487766 0 -124.63898986487766 -3.6793530329596251 0 0 0 0 27.275781281703786 -20.211327961343727 0 -20.211327961343727 -0.59578070936163385 0 0 0 0 103.57202693013824 -223.25784834795195 0 -223.25784834795195 -24.610523483657744 0 0 0 0 -12.278348493131489 -217.87623614160475 0 -217.87623614160475 24.901725193078164 0 0 0 0 88.296472358626488 -212.71166141897629 0 -212.71166141897629 -179.53855689347256 0 0 0 0 264.20348875792115 -48.363880263677856 0 -48.363880263677856 -115.96028432431194 0 0 0 0 -232.69290113747411 -204.93908756220117 0 -204.93908756220117 49.9061658714636 0 0 0 0 479.56720856342145 143.95685480281099 0 143.95685480281099 -61.822431420951034 0 0 0 0 -1.6272298024082943 -1.3624704113121169 0 -1.3624704113121169 10.996688583571824 0 0 0 0 20.994539938328671 24.492623446130892 0 24.492623446130892 -7.9414078450099623 0 0 0 0 16.311990309419343 -8.6081391102852649 0 -8.6081391102852649 -95.691234397061635 0 0 0 0 16.022977671600529 -16.093547327109263 0 -16.093547327109263 85.087821943048766 0 0 0 0 -0.0098908151128682675 0.12798293199820421 0 0.12798293199820421 3.5853645638783291 0 0 0 0 -233.7419094143479 -158.81160002225079 0 -158.81160002225079 0.24237382574938238 0 0 0 0 924.2850734491949 -634.25100269760878 0 -634.25100269760878 3.6194930221245158 0 0 0 0 -285.42289950934355 -692.52806362856791 0 -692.52806362856791 86.003745781184989 0 0 0 0 770.75518788877525 308.84535131369921 0 308.84535131369921 33.963044728516252 0 0 0 0 2.6264508311203656 -2.8595456260041772 0 -2.8595456260041772 3.8406559562228608 0 0 0 0 1598.4620353096761 437.26082814724214 0 437.26082814724214 53.198638225207105 0 0 0 0 725.21159653694485 129.42036516083681 0 129.42036516083681 -171.94999998992716 0 0 0 0 277.51774681519601 -209.40207740136975 0 -209.40207740136975 -10.860930394293973 0 0 0 0 2.6675033588538497 -6.7362386432254482 0 -6.7362386432254482 12.546184224302579 0 0 0 0 -70.29360478601302 -403.86892424189864 0 -403.86892424189864 -267.48059438951532 0 0 0 0 34.266011400316245 -23.84613196813774 0 -23.84613196813774 2.0588150349153693 0 0 0 0 294.12972539309703 -85.117949626837799 0 -85.117949626837799 -79.188195213733707 0 0 0 0 156.51602998777525 -91.846413396997377 0 -91.846413396997377 -87.887436080171028 0 0 0 0 124.96823285004939 -81.57829469133867 0 -81.57829469133867 34.757790405383275 0 0 0 0 -345.31905311063747 -345.59580755299976 0 -345.59580755299976 -61.267000474152155 0 0 0 0 16.186445223387672 -6.110234369324985 0 -6.110234369324985 -25.038224434448239 0 0 0 0 248.26977119012736 -397.35480529963388 0 -397.35480529963388 247.48149240785278 0 0 0 0 592.72584689970245 -392.83194745586661 0 -392.83194745586661 363.39608301286353 0 0 0 0 463.92246369624627 40.578294200502569 0 40.578294200502569 -93.792616364386049 0 0 0 0 1774.3492421707342 -478.59725719991548 0 -478.59725719991548 -51.301836121565429 0 0 0 0 524.45619816874387 290.93626597294497 0 290.93626597294497 102.64180655387463 0 0 0 0 3142.7711728236172 736.06652392719116 0 736.06652392719116 -217.65013202842965 0 0 0 0 28.198590331652667 -323.50969489055569 0 -323.50969489055569 33.429544202575926 0 0 0 0 584.00107764522545 236.72228944154631 0 236.72228944154631 -473.01527048875141 0 0 0 0 26.139166877369121 -46.229360392927902 0 -46.229360392927902 66.204091945340167 0 0 0 0 224.77954655521899 -77.805849368713098 0 -77.805849368713098 -313.48416959842143 0 0 0 0 1068.4954401012947 -934.59186850262631 0 -934.59186850262631 135.1661685671279 0 0 0 0 -1170.27077527234 -486.62166071055435 0 -486.62166071055435 417.49146784853656 0 0 0 0 -1.5303432337971259 4.7128787467777897 0 4.7128787467777897 -6.0969886865270269 0 0 0 0 5416.4607382381801 -169.64880041310971 0 -169.64880041310971 29.713851489301305 0 0 0 0 -217.38528008226422 -403.66335763974712 0 -403.66335763974712 422.15511538625287 0 0 0 0 15.456366777652732 -17.424836904682749 0 -17.424836904682749 23.272212255273814 0 0 0 0 2950.432138169519 -3872.8542880528985 0 -3872.8542880528985 2602.5129057987797 0 0 0 0 609.24649112578481 -1082.9101638375832 0 -1082.9101638375832 270.56147547108412 0 0 0 0 0.33202073491702322 -2329.695899654369 0 -2329.695899654369 1927.8647194060904 0 0 0 0 4309.3292341019878 -2168.8744646185569 0 -2168.8744646185569 -3.5621139798749937 0 0 0 0 1668.1558506295114 -3988.1088155720208 0 -3988.1088155720208 2500.5363645758989 0 0 0 0 5377.9685388051912 -1674.897053947293 0 -1674.897053947293 78.051362314639846 0 0 0 0 1490.4664662621508 -1113.0917272131483 0 -1113.0917272131483 -76.270165189467662 0 0 0 0 3600.9005213405417 -1983.5187758956272 0 -1983.5187758956272 272.75435134489089 0 0 0 0 1580.9249324180855 -1269.0848343180442 0 -1269.0848343180442 169.20526244054781 0 0 0 0 1057.1475158324029 -2238.6308804693181 0 -2238.6308804693181 1620.0824336980004 0 0 0 0 343.59599367479677 -994.24103436637961 0 -994.24103436637961 1315.1871598742437 0 0 0 0 2.2080632917641196 -1337.6915624986104 0 -1337.6915624986104 1016.4581108889397 0 0 0 0 3.6212042823966613 0.38153066799122826 0 0.38153066799122826 0.73198524984633195 0 0 0 0 16.061802782467566 -231.55435363175638 0 -231.55435363175638 -775.25356018555794 0 0 0 0 40.466215086198645 -100.90176823632282 0 -100.90176823632282 -400.01155364398437 0 0 0 0 421.99802486805129 -810.18628350283689 0 -810.18628350283689 884.09079892173759 0 0 0 0 489.45609778352082 -94.069333143028416 0 -94.069333143028416 28.292841193935601 0 0 0 0 317.83609344398428 -157.5876342264819 0 -157.5876342264819 84.861279732271214 0 0 0 0 9.8263571153561315 -3.133325151590185 0 -3.133325151590185 -0.079603665656847511 0 0 0 0 40.726019447233199 -43.574602199237845 0 -43.574602199237845 26.482860307431281 0 0 0 0 -223.96532961871708 -15.246377246512566 0 -15.246377246512566 182.56434849833022 0 0 0 0 39.421258245070931 -27.529260977113154 0 -27.529260977113154 2.5624372751335613 0 0 0 0 29.478907994880558 -33.890376300991278 0 -33.890376300991278 20.996694555296926 0 0 0 0 33.539089673870137 -25.723643628557568 0 -25.723643628557568 23.6774534978003 0 0 0 0 91.362526995755616 -7.8666918856979464 0 -7.8666918856979464 -27.776247862517266 0 0 0 0 7.2339108989835808 -7.606915776577921 0 -7.606915776577921 -7.3932916530649777 0 0 0 0 18.773200597323012 -52.395240244899469 0 -52.395240244899469 -153.3105608895421 0 0 0 0 -112.36074816304608 -116.01095946270652 0 -116.01095946270652 -125.40216370857161 0 0 0 0 -50.754024218098493 -311.93015325349552 0 -311.93015325349552 -456.28802950905811 0 0 0 0 0.56161796520019891 -3.4227316325838899 0 -3.4227316325838899 -3.2400231355896949 0 0 0 0 -230.74852289416594 -241.61141719482475 0 -241.61141719482475 -115.7934345909016 0 0 0 0 -395.30821591769927 -439.11745398857602 0 -439.11745398857602 -350.07426449135528 0 0 0 0 -124.8865418000496 -360.23568290064577 0 -360.23568290064577 -534.87612806821562 0 0 0 0 -66.553368126260466 -361.82791580451158 0 -361.82791580451158 -533.72579939113348 0 0 0 0 -125.43733799428446 -355.0037386501499 0 -355.0037386501499 -466.05128943833915 0 0 0 0 -57.304871591710253 -337.72347840572183 0 -337.72347840572183 -490.79639125608082 0 0 0 0 -54.156075472361408 -352.58418661905307 0 -352.58418661905307 -568.99568322421692 0 0 0 0 -0.14226630803967819 -336.84468299127133 0 -336.84468299127133 -576.28055257846427 0 0 0 0 -75.768579232622869 -343.10867049781154 0 -343.10867049781154 -471.95583222774439 0 0 0 0 -202.27770851201785 -418.52963685931172 0 -418.52963685931172 -572.48082220926153 0 0 0 0 1454.687745788804 -1281.7420641659119 0 -1281.7420641659119 -645.38299533416284 0 0 0 0 -861.38164069436607 -431.88264526651983 0 -431.88264526651983 23.420773345995258 0 0 0 0 1576.4788376801698 -193.38714028329355 0 -193.38714028329355 -598.90109767190006 0 0 0 0 13.800488850628284 -16.36867621613893 0 -16.36867621613893 17.195806667608338 0 0 0 0 -129.50104789994657 -63.21438547525031 0 -63.21438547525031 450.6795106298141 0 0 0 0 662.07851888174991 -446.78244728276286 0 -446.78244728276286 -444.39642993958842 0 0 0 0 4.4831879133915891 -4.404360266412386 0 -4.404360266412386 2.9277194402995903 0 0 0 0 -23.687673113250639 -307.41825240231628 0 -307.41825240231628 703.99657488981211 0 0 0 0 769.93453231683634 -637.69925342055512 0 -637.69925342055512 -659.55099430341943 0 0 0 0 -57.442007717669185 -37.519813436245386 0 -37.519813436245386 83.97861944262695 0 0 0 0 -110.26780964903446 -181.7020875205244 0 -181.7020875205244 548.37114016093255 0 0 0 0 69.638517922641768 -79.123121839191299 0 -79.123121839191299 -117.02394240454669 0 0 0 0 5.9448497677512933 -93.800303318985243 0 -93.800303318985243 72.470074011127281 0 0 0 0 -206.36203656785074 -638.35111675601365 0 -638.35111675601365 -825.90121994431865 0 0 0 0 11.308428557376061 -11.175079627153604 0 -11.175079627153604 7.6293745233334818 0 0 0 0 -66.769645936426969 -33.268091717555762 0 -33.268091717555762 -64.786319903294498 0 0 0 0 -16.083654710819246 -180.01846349764241 0 -180.01846349764241 -140.17160309948667 0 0 0 0 -504.49700444303744 -257.98888128605904 0 -257.98888128605904 -898.28494882549421 0 0 0 0 -411.35312557299039 -554.02601647017582 0 -554.02601647017582 -632.88345809675229 0 0 0 0 -97.357087294942176 -283.64351635135063 0 -283.64351635135063 553.29167963706277 0 0 0 0 -1195.7989630991797 640.70820618362632 0 640.70820618362632 -734.50432957178646 0 0 0 0 -377.56460065946158 187.68498417368028 0 187.68498417368028 -1824.6722665438192 0 0 0 0 -0.56244838141282116 -0.80891669320712367 0 -0.80891669320712367 -2.8188844801442237 0 0 0 0 -45.576904804751393 -472.87467034169458 0 -472.87467034169458 26.877397713644314 0 0 0 0 85.987246441916795 -12.734787993224018 0 -12.734787993224018 203.4694311995263 0 0 0 0 -91.44579476241779 -370.50042055479207 0 -370.50042055479207 -628.47958991640189 0 0 0 0 -46.705650766341591 -557.29079821891878 0 -557.29079821891878 -235.70508798197989 0 0 0 0 20.925064628921973 -182.92672325493913 0 -182.92672325493913 -94.061297756270505 0 0 0 0 27.094230248272652 -222.40535117393301 0 -222.40535117393301 -223.56737090819934 0 0 0 0 0.023638696919078939 -162.67456664376004 0 -162.67456664376004 108.23043430606958 0 0 0 0 77.43229813958169 -76.014742570620001 0 -76.014742570620001 -17.192702735153944 0 0 0 0 82.098271254115389 -133.65968350765615 0 -133.65968350765615 -117.76565628011849 0 0 0 0 29.334619681962067 -110.01528502969086 0 -110.01528502969086 7.5932623968838016 0 0 0 0 101.10966542664573 -150.96621912699584 0 -150.96621912699584 30.010964008091833 0 0 0 0 91.746820116983145 -103.13346457904117 0 -103.13346457904117 -36.094346526151639 0 0 0 0 77.438688953232486 -192.07315337739419 0 -192.07315337739419 -88.682706046734893 0 0 0 0 -11.172605049023332 -46.320591738744497 0 -46.320591738744497 17.843104492203565 0 0 0 0 -3.083956690505147 -181.75787098994988 0 -181.75787098994988 140.20314968956154 0 0 0 0 146.64320043459884 -125.26321072081555 0 -125.26321072081555 57.223061533630244 0 0 0 0 4861.4718578879547 -1400.3775425872009 0 -1400.3775425872009 -845.72830080980202 0 0 0 0 -1931.2954065146914 -1429.6605957315151 0 -1429.6605957315151 1589.0989034932063 0 0 0 0 -454.87425681389868 -217.20878538955003 0 -217.20878538955003 -163.44400806510384 0 0 0 0 -15.781159089224275 -21.539327791125601 0 -21.539327791125601 6.8367813861221034 0 0 0 0 1222.5559543117561 -214.55217102864117 0 -214.55217102864117 -1133.73283346676 0 0 0 0 -808.29761089145177 -124.71767281027496 0 -124.71767281027496 -90.47438078923733 0 0 0 0 -36.94541571271111 -168.16678949323023 0 -168.16678949323023 135.37109250708818 0 0 0 0 21.042881303845206 -136.93331036300151 0 -136.93331036300151 -70.075478508319065 0 0 0 0 62.790233537556503 -62.366140377885515 0 -62.366140377885515 40.967491656353047 0 0 0 0 86.888330032488739 -136.80843277020904 0 -136.80843277020904 -70.12279771266094 0 0 0 0 34.839884773912672 -88.695826551564096 0 -88.695826551564096 -73.052601274415792 0 0 0 0 19.746570320508425 -41.207103568937889 0 -41.207103568937889 -73.600672050079766 0 0 0 0 42.782509949334781 -95.865496985203208 0 -95.865496985203208 -66.847070281131892 0 0 0 0 123.29428627266498 -46.150888126705468 0 -46.150888126705468 -195.2603676141407 0 0 0 0 62.885195243526255 -2.419945816068477 0 -2.419945816068477 -13.837343771097814 0 0 0 0 63.407940417284408 -63.906574877872117 0 -63.906574877872117 -166.18281926272903 0 0 0 0 281.21476770307709 -174.96397166761199 0 -174.96397166761199 70.266388214335166 0 0 0 0 8.6574333062462898 -6.5959418896923268 0 -6.5959418896923268 -5.2415797123696848 0 0 0 0 158.50817843795085 -159.93386787713825 0 -159.93386787713825 128.57368075093109 0 0 0 0 516.31121843062283 -412.78635677544662 0 -412.78635677544662 239.18273485941972 0 0 0 0 -33.786269707838073 -66.638911866917624 0 -66.638911866917624 2.8781103594155866 0 0 0 0 -1.2341626832276233 -16.515372617504909 0 -16.515372617504909 8.654603048125864 0 0 0 0 -7.6454735591533449 -48.772575559936342 0 -48.772575559936342 -1.3766037769642736 0 0 0 0 10.220457207666499 -26.424391831479145 0 -26.424391831479145 12.186888159504093 0 0 0 0 -806.23001589736896 -93.390515939743182 0 -93.390515939743182 185.38749820538214 0 0 0 0 14.323552680120088 -124.23529031673405 0 -124.23529031673405 -399.09353199480393 0 0 0 0 35.031684562178356 -0.048357724334096019 0 -0.048357724334096019 0.50935384997567468 0 0 0 0 9.096811846799028 -50.148703748860498 0 -50.148703748860498 -166.32251810333946 0 0 0 0 127.26054405856485 -278.71159815537112 0 -278.71159815537112 412.12115870617708 0 0 0 0 177.84181480138068 -187.47676198656336 0 -187.47676198656336 142.49698939765221 0 0 0 0 35.072997045062948 -363.46632862692604 0 -363.46632862692604 679.79397760402935 0 0 0 0 150.93197361407874 -411.63870773252256 0 -411.63870773252256 270.7990434262756 0 0 0 0 112.63741466744978 -370.97744561507716 0 -370.97744561507716 391.59100622020833 0 0 0 0 136.95654701875173 -457.55382178225591 0 -457.55382178225591 430.15982983727008 0 0 0 0 200.27367195883016 -272.22489372644668 0 -272.22489372644668 -74.369375935923017 0 0 0 0 109.49001854279777 -20.111524062936951 0 -20.111524062936951 88.585736415425345 0 0 0 0 153.31788986357424 -273.80868189760804 0 -273.80868189760804 -240.42649642649121 0 0 0 0 118.53764973101352 -440.64481086652449 0 -440.64481086652449 -739.77669363382302 0 0 0 0 -1046.7907198703615 -3.6866119020160113 0 -3.6866119020160113 167.43009829917719 0 0 0 0 -136.67400833235297 -239.33636112949534 0 -239.33636112949534 107.77562271909483 0 0 0 0 -93.242771249844282 462.07943866293283 0 462.07943866293283 798.48415146188199 0 0 0 0 231.31928950193105 12.443906725107809 0 12.443906725107809 -124.59128431754652 0 0 0 0 1.6097975637034807 -6.4519923078101229 0 -6.4519923078101229 10.554477584622916 0 0 0 0 362.91723275656113 -84.109724952169927 0 -84.109724952169927 -59.86593656205514 0 0 0 0 1185.9465335902496 -537.40005037399533 0 -537.40005037399533 -199.67187934568028 0 0 0 0 401.26436243939679 -808.46092405233139 0 -808.46092405233139 792.88453159623168 0 0 0 0 308.04080018064269 206.51950572812348 0 206.51950572812348 895.48174635699525 0 0 0 0 7.2393165624380345 -1084.932658685997 0 -1084.932658685997 916.86560732018961 0 0 0 0 -643.04301511043741 -414.73644837305983 0 -414.73644837305983 -30.847400250995634 0 0 0 0 114.83366704428772 184.30370458105244 0 184.30370458105244 -329.27097135089025 0 0 0 0 1009.0171090125514 -598.91211247140382 0 -598.91211247140382 -67.24570442779077 0 0 0 0 42.683323916316965 -41.06812978307952 0 -41.06812978307952 37.651205258775263 0 0 0 0 -397.10271652690426 -1455.8720410285969 0 -1455.8720410285969 -363.11849133749365 0 0 0 0 -282.055308563773 -450.78742877292188 0 -450.78742877292188 0.13039706836207188 0 0 0 0 -119.26186454428534 -19.525106815348408 0 -19.525106815348408 89.111306568491273 0 0 0 0 -223.87778902483115 -24.043403128409409 0 -24.043403128409409 158.88789095815446 0 0 0 0 68.10420274650096 -95.949453652416196 0 -95.949453652416196 99.284220590843688 0 0 0 0 52.820534598116524 -58.385941875816272 0 -58.385941875816272 43.758895555800265 0 0 0 0 -202.86186721974809 2.5235114570750738 0 2.5235114570750738 143.61091251595644 0 0 0 0 -123.54489344198737 -194.20502826577012 0 -194.20502826577012 37.416217588546715 0 0 0 0 -14.353589724424182 -6.3140980510122233 0 -6.3140980510122233 -0.89442444761594686 0 0 0 0 -266.06921914122358 -4.0571183039864991 0 -4.0571183039864991 174.20999732369091 0 0 0 0 -352.08424340376223 -115.84437917880132 0 -115.84437917880132 105.18386197277869 0 0 0 0 -131.68708662136487 -73.797676954542112 0 -73.797676954542112 -532.4685768730269 0 0 0 0 8.7335660729149822 -140.29214712006797 0 -140.29214712006797 62.851727308043337 0 0 0 0 -129.06214940669452 7.0533166962659379 0 7.0533166962659379 201.64378609623964 0 0 0 0 -217.74939847136557 -103.99673601939139 0 -103.99673601939139 152.35354085070139 0 0 0 0 -182.25549141126976 -32.280970472857007 0 -32.280970472857007 143.39299692263739 0 0 0 0 115.35534826974981 -139.08281073169201 0 -139.08281073169201 -516.92316848990595 0 0 0 0 40.419752916359357 -31.286475155879089 0 -31.286475155879089 -327.69457437081292 0 0 0 0 292.97258502849218 -165.73156035457578 0 -165.73156035457578 -703.92400405141962 0 0 0 0 -89.515206468866381 -333.41216469318897 0 -333.41216469318897 -638.05961076718904 0 0 0 0 -38.703565229182573 -29.154104963639028 0 -29.154104963639028 12.32817704927313 0 0 0 0 -629.06063277857902 -239.64118164941829 0 -239.64118164941829 1538.2285471102459 0 0 0 0 10.199980220326125 -27.766861059924366 0 -27.766861059924366 -1.2110476271394788 0 0 0 0 164.53578333127734 -96.869051677113021 0 -96.869051677113021 -573.09526317598647 0 0 0 0 905.03372542070065 -501.1259761266665 0 -501.1259761266665 247.25449765069425 0 0 0 0 -0.33861702454399278 -14.842010303836215 0 -14.842010303836215 13.346124067215541 0 0 0 0 264.92033772184368 906.70134386043537 0 906.70134386043537 2291.3109579510783 0 0 0 0 -1041.7407876088182 395.12356296809958 0 395.12356296809958 2393.4508482778342 0 0 0 0 49.858784250715445 -43.907378831849172 0 -43.907378831849172 34.042598463333597 0 0 0 0 -747.75590780051789 -1218.4684409629899 0 -1218.4684409629899 -283.89066307750181 0 0 0 0 1771.7596500732798 -889.11556151011973 0 -889.11556151011973 -311.33355353967636 0 0 0 0 904.84828170997571 -1354.0029591586826 0 -1354.0029591586826 550.83590839717726 0 0 0 0 -298.68514303166739 -1969.9280412310454 0 -1969.9280412310454 3686.7387334473751 0 0 0 0 -310.55971119882543 -508.60119613493862 0 -508.60119613493862 828.04808915516332 0 0 0 0 -332.31047021961422 -798.22568424935889 0 -798.22568424935889 1305.5085468829384 0 0 0 0 -794.32810877176234 -665.70770371140679 0 -665.70770371140679 1385.76800096238 0 0 0 0 -560.00140673888382 48.334135977369442 0 48.334135977369442 2085.0265704111516 0 0 0 0 -567.1091531159509 213.33892054121975 0 213.33892054121975 607.94719359073497 0 0 0 0 -1044.4871832731296 1516.4796367792806 0 1516.4796367792806 -211.67700536949269 0 0 0 0 -2060.807562089627 967.18523131193433 0 967.18523131193433 3472.87861736583 0 0 0 0 16.717334791916926 -19.572143173800793 0 -19.572143173800793 18.483224086586539 0 0 0 0 -1177.1205262129997 -798.56817976079208 0 -798.56817976079208 2077.0418111470754 0 0 0 0 -297.37123198757763 -683.22491220747361 0 -683.22491220747361 2076.2676484866897 0 0 0 0 2031.1001362658862 -1374.5390945048421 0 -1374.5390945048421 -38.375648082521366 0 0 0 0 570.76376181381056 -729.23436710040914 0 -729.23436710040914 -614.83607150874013 0 0 0 0 -45.191942416666279 189.83260105074169 0 189.83260105074169 -465.26159550280136 0 0 0 0 175.92165124912572 -169.5177584813573 0 -169.5177584813573 128.00874440163898 0 0 0 0 436.04519575019367 -500.03900023398637 0 -500.03900023398637 208.37911076027376 0 0 0 0 370.43007790792035 -301.19642068773101 0 -301.19642068773101 -305.97397047770937 0 0 0 0 600.24613051637425 -846.39542142182108 0 -846.39542142182108 -89.928085176485183 0 0 0 0 244.72831647504063 -622.93065889115496 0 -622.93065889115496 376.51091568879201 0 0 0 0 72.686386640765704 -776.30234057497 0 -776.30234057497 353.88510633519763 0 0 0 0 463.72063937678467 -1262.9436772276676 0 -1262.9436772276676 938.47373364392115 0 0 0 0 99.599563716445118 -524.15833261526859 0 -524.15833261526859 360.13526809537143 0 0 0 0 242.91957317493507 -389.55658993505494 0 -389.55658993505494 151.53281831515847 0 0 0 0 248.5917714587149 -509.74120386267953 0 -509.74120386267953 344.07307567837415 0 0 0 0 79.66680818524037 -571.2269540945781 0 -571.2269540945781 517.4143603923585 0 0 0 0 -16.919658177517704 -476.75154301683506 0 -476.75154301683506 425.73914847476226 0 0 0 0 -34.56821998943451 -535.4967413371387 0 -535.4967413371387 440.53869897533878 0 0 0 0 -16.570988091800245 -453.00929240735422 0 -453.00929240735422 463.8241037969774 0 0 0 0 -65.355344682939176 -450.67267712053763 0 -450.67267712053763 557.64395631948719 0 0 0 0 -9.3771643614163622 -678.99526545968911 0 -678.99526545968911 902.27630936617788 0 0 0 0 -103.73682270976133 -496.6611004544211 0 -496.6611004544211 549.96518078289409 0 0 0 0 130.39738140002555 -499.21271480467658 0 -499.21271480467658 252.76809952600888 0 0 0 0 75.619302726860042 -398.83655629324039 0 -398.83655629324039 420.39462771401304 0 0 0 0 80.517952349619009 -254.62431740275133 0 -254.62431740275133 315.82267922211759 0 0 0 0 0.85637305334967095 -297.40996826749688 0 -297.40996826749688 309.92353805238236 0 0 0 0 -263.46255540280254 -282.18865622112207 0 -282.18865622112207 1056.1076572776074 0 0 0 0 -28.204686169250635 -325.24862487901555 0 -325.24862487901555 579.26357322392687 0 0 0 0 -85.030586547771236 -85.814613231428666 0 -85.814613231428666 435.06077320549775 0 0 0 0 -184.5089255750936 -185.2967604659425 0 -185.2967604659425 461.84751658450841 0 0 0 0 -90.249300220486475 -43.102954145007971 0 -43.102954145007971 251.54516836591938 0 0 0 0 133.27725718857255 -233.97999363446434 0 -233.97999363446434 116.35439863629108 0 0 0 0 10.016945131737884 -124.38803124229344 0 -124.38803124229344 191.37344020453747 0 0 0 0 85.503419767526793 -181.36630024349506 0 -181.36630024349506 232.84628643963879 0 0 0 0 260.12552632013353 -411.06876195153757 0 -411.06876195153757 241.6403277538775 0 0 0 0 265.68899200468877 -258.53050461424027 0 -258.53050461424027 167.15852666267165 0 0 0 0 822.9009407591293 -307.18108943639891 0 -307.18108943639891 83.109530529211042 0 0 0 0 277.00960558083898 -607.3207879348829 0 -607.3207879348829 587.72101258525072 0 0 0 0 144.91800906715798 -210.0872405961909 0 -210.0872405961909 165.31147351805157 0 0 0 0 198.34722312130816 -200.50227180038326 0 -200.50227180038326 110.98545417482092 0 0 0 0 66.260334180151403 -85.099848642830693 0 -85.099848642830693 106.26979224438401 0 0 0 0 102.17033611705119 -110.32284895605335 0 -110.32284895605335 70.660351375827759 0 0 0 0 1.8264004888515046 -201.9697184507022 0 -201.9697184507022 325.23696253361413 0 0 0 0 186.9899092812193 -421.89999063213781 0 -421.89999063213781 263.6065522251447 0 0 0 0 137.16947108710883 -324.73488707151591 0 -324.73488707151591 242.12832952637109 0 0 0 0 145.73952584821382 -418.47185523326698 0 -418.47185523326698 271.47697209528451 0 0 0 0 216.21781362926413 -358.62769441879209 0 -358.62769441879209 247.64468147435628 0 0 0 0 187.36847380769905 -350.32017234415071 0 -350.32017234415071 249.66489479545271 0 0 0 0 306.73334301035356 -305.01053580407734 0 -305.01053580407734 197.64772095484659 0 0 0 0 145.0108124690596 -316.72981357229037 0 -316.72981357229037 221.95845171400833 0 0 0 0 241.16119651783083 -385.32314623600359 0 -385.32314623600359 248.71691594998993 0 0 0 0 206.65309468254418 -375.71026264317697 0 -375.71026264317697 225.25815277827496 0 0 0 0 279.43827189458534 -398.85061211662287 0 -398.85061211662287 211.78446170457664 0 0 0 0 364.87206906593201 -548.78636570430899 0 -548.78636570430899 250.00501453014294 0 0 0 0 379.84528716190835 -479.23484138961248 0 -479.23484138961248 120.37432882878784 0 0 0 0 239.41020509830923 -333.05441283856726 0 -333.05441283856726 104.08366075224694 0 0 0 0 -39.256684713691357 -463.77991184164603 0 -463.77991184164603 157.18502921574327 0 0 0 0 -616.96784006254165 -554.78814245891954 0 -554.78814245891954 178.2654201644873 0 0 0 0 125.16196446969843 -581.08019758970954 0 -581.08019758970954 223.24993284433003 0 0 0 0 595.44823956589971 -535.62754603063331 0 -535.62754603063331 171.189016578066 0 0 0 0 -1214.2551753040025 -406.11826743278834 0 -406.11826743278834 -116.23644898186467 0 0 0 0 -1288.0367794285994 -912.84716321239284 0 -912.84716321239284 175.04225762933856 0 0 0 0 -802.99336629109166 -886.96805492907515 0 -886.96805492907515 160.64355594062636 0 0 0 0 -1091.0150671449373 -622.6625844643122 0 -622.6625844643122 412.73993862957286 0 0 0 0 -924.9323547341919 -585.75885569626553 0 -585.75885569626553 370.83228365259856 0 0 0 0 -619.63514158191538 -541.80178640529994 0 -541.80178640529994 123.19142990239197 0 0 0 0 -708.05045486562813 -305.58660638129732 0 -305.58660638129732 618.29846020694458 0 0 0 0 -929.09197962879261 -596.23792691844574 0 -596.23792691844574 438.88925148599265 0 0 0 0 -797.61248950917798 -464.36512775092342 0 -464.36512775092342 461.00757358423289 0 0 0 0 -589.21848428061639 -724.95967769488925 0 -724.95967769488925 746.87867231995915 0 0 0 0 -306.81110250618076 -871.30473277122292 0 -871.30473277122292 477.70369618738187 0 0 0 0 25.186467948857171 -441.09985561783833 0 -441.09985561783833 291.48623261198736 0 0 0 0 -187.6361379262853 -571.15184458916565 0 -571.15184458916565 -265.68234933076019 0 0 0 0 177.31881079487357 -1002.1764074569128 0 -1002.1764074569128 237.52948765775727 0 0 0 0 -818.4568890225346 -721.80971347653576 0 -721.80971347653576 126.86235586933253 0 0 0 0 -416.39271686093707 -704.35901012095201 0 -704.35901012095201 329.07246511690937 0 0 0 0 -851.10528633875947 -561.21638269177856 0 -561.21638269177856 303.33386311764116 0 0 0 0 -289.98268306774844 -859.11034638015553 0 -859.11034638015553 -195.53493868689839 0 0 0 0 -744.25449189685423 -891.18674513905557 0 -891.18674513905557 -765.74690602691408 0 0 0 0 -790.288236075241 -681.11243383047258 0 -681.11243383047258 -210.37890013680226 0 0 0 0 -290.07753971408238 -675.22358117645308 0 -675.22358117645308 -602.34076762156838 0 0 0 0 258.72179188120208 -735.29973376147973 0 -735.29973376147973 -583.21725061628604 0 0 0 0 -241.8676168936363 -817.37964307884977 0 -817.37964307884977 -231.94779140985338 0 0 0 0 -180.36752264048846 -696.15348461482427 0 -696.15348461482427 -516.06004887605013 0 0 0 0 187.36390866427973 -620.61566341642174 0 -620.61566341642174 -538.98851685994669 0 0 0 0 -913.59140577257494 -406.03655923514179 0 -406.03655923514179 -334.29284744097822 0 0 0 0 -731.11816570856899 -858.68395044706631 0 -858.68395044706631 -433.01468718969954 0 0 0 0 -180.5414852319102 -678.97320413330885 0 -678.97320413330885 -481.72120583356445 0 0 0 0 -554.48673702236556 -619.84878267736713 0 -619.84878267736713 -388.12904110183445 0 0 0 0 -525.29867920733523 -468.62790324049274 0 -468.62790324049274 -358.58655167615871 0 0 0 0 4.2561587602558717 -5.6544884945313072 0 -5.6544884945313072 1.4418303275860751 0 0 0 0 -26.420193748082966 -101.82155318353398 0 -101.82155318353398 181.04995217352916 0 0 0 0 107.77699628735354 15.53483484233584 0 15.53483484233584 52.193562496817322 0 0 0 0 207.49914284977422 -22.400876819807308 0 -22.400876819807308 51.585708765404888 0 0 0 0 89.492560592567315 3.7514439825099544 0 3.7514439825099544 47.175555060557599 0 0 0 0 189.31672467594035 -160.54195771746527 0 -160.54195771746527 145.82419217350071 0 0 0 0 114.18074146364233 29.519994834110548 0 29.519994834110548 60.121228527812491 0 0 0 0 863.36951728279382 -158.08364273897223 0 -158.08364273897223 5.2630416294741735 0 0 0 0 371.62929982188689 -11.540587825926082 0 -11.540587825926082 14.161907679015712 0 0 0 0 404.28126495235483 -320.5320139504729 0 -320.5320139504729 178.0653872247276 0 0 0 0 -1890.436148681154 -1027.0281802295722 0 -1027.0281802295722 -219.68457283591488 0 0 0 0 -0.27819502036964394 -2.1144216057447665 0 -2.1144216057447665 -4.7994274275171733 0 0 0 0 -965.11634612396301 -916.47328347418625 0 -916.47328347418625 -240.34596360009164 0 0 0 0 93.817532334287534 136.68799555273017 0 136.68799555273017 -523.11602665701503 0 0 0 0 1.2826391528593888 -3.0086589035582136 0 -3.0086589035582136 1.1323926652784309 0 0 0 0 -83.722855692405574 -168.76664932941389 0 -168.76664932941389 116.70708986753016 0 0 0 0 -81.389063620503293 -146.63709858834409 0 -146.63709858834409 -74.498095955517783 0 0 0 0 -2.1467255205498077 -67.475998363916005 0 -67.475998363916005 -38.576890375010407 0 0 0 0 80.447635500366118 -34.310967263655044 0 -34.310967263655044 -17.63028088957347 0 0 0 0 94.656464424347178 -68.743565948175046 0 -68.743565948175046 -40.59819739089653 0 0 0 0 -22.939861217833823 -265.89336346454365 0 -265.89336346454365 -375.1882883326216 0 0 0 0 106.58882149065357 215.99245527347784 0 215.99245527347784 256.04378248824651 0 0 0 0 141.33089422907506 -234.6443231047997 0 -234.6443231047997 312.2336715518868 0 0 0 0 -27.687361462325498 -360.77830036552041 0 -360.77830036552041 69.96180017633742 0 0 0 0 31.467801020472479 -34.26146623267482 0 -34.26146623267482 10.836805145030148 0 0 0 0 306.30489928810857 -103.96543398149333 0 -103.96543398149333 -109.34058292093323 0 0 0 0 -144.73108117043739 -94.750830025710457 0 -94.750830025710457 54.632684854077525 0 0 0 0 1315.2193453954969 -295.06991245425706 0 -295.06991245425706 -177.20500337552221 0 0 0 0 965.94161021395848 -538.26370215872157 0 -538.26370215872157 -342.40751140575594 0 0 0 0 353.05061926149938 -16.556978683049238 0 -16.556978683049238 -26.069551259972286 0 0 0 0 1122.3907841769251 -212.15200556957097 0 -212.15200556957097 -90.597846072807442 0 0 0 0 2182.7128707412485 -156.57640182236537 0 -156.57640182236537 -612.9485438469892 0 0 0 0 1071.4976581857918 -1247.8040017017011 0 -1247.8040017017011 417.97927458135746 0 0 0 0 2577.6901329297252 -2296.7447791241339 0 -2296.7447791241339 1122.5614202618817 0 0 0 0 1032.4056153799884 -507.27507881580914 0 -507.27507881580914 705.35391973757942 0 0 0 0 1134.0252759408177 -1579.3326970379785 0 -1579.3326970379785 422.03014649299075 0 0 0 0 -375.2512557451555 -808.74472950836184 0 -808.74472950836184 1241.3196125105278 0 0 0 0 115.03294205137354 -813.38177003717828 0 -813.38177003717828 1232.3087594820508 0 0 0 0 6.3485007158363942 -5.3880050053356641 0 -5.3880050053356641 3.1374739913468161 0 0 0 0 423.41604937579177 -593.11512686131937 0 -593.11512686131937 -239.78687683857424 0 0 0 0 1013.5649568708905 -1171.1863938697497 0 -1171.1863938697497 305.72427920824703 0 0 0 0 222.73820225863892 -639.87149759694785 0 -639.87149759694785 -479.06093011992198 0 0 0 0 551.58329344564117 -812.82543998513938 0 -812.82543998513938 -393.55586912301806 0 0 0 0 791.95891863901488 -513.08480579823845 0 -513.08480579823845 -624.55802178840531 0 0 0 0 200.02220419236983 -511.94739426321394 0 -511.94739426321394 -697.73802786023043 0 0 0 0 519.67270427477342 -579.40241910886652 0 -579.40241910886652 -689.08899669312086 0 0 0 0 447.53472896825406 -528.07242145163764 0 -528.07242145163764 -625.18129579402012 0 0 0 0 320.67725231000804 -414.25131388732734 0 -414.25131388732734 -727.06857512965689 0 0 0 0 528.77835451628562 -405.43311658600214 0 -405.43311658600214 -758.58040644717403 0 0 0 0 408.99581565118569 -514.38141038095819 0 -514.38141038095819 -552.07309754933158 0 0 0 0 513.13299446076417 -369.79856404724705 0 -369.79856404724705 -386.58859210287483 0 0 0 0 -216.91157852197284 -299.23627136304594 0 -299.23627136304594 -179.87632225358175 0 0 0 0 383.46438687921909 -233.41042050640135 0 -233.41042050640135 -441.0605304892415 0 0 0 0 223.84149038446776 -208.1150221443495 0 -208.1150221443495 -1082.9120833502675 0 0 0 0 -141.55248775718792 -678.33467028157793 0 -678.33467028157793 -798.71036960374113 0 0 0 0 135.81623280134227 84.406721701901915 0 84.406721701901915 -950.34885659926567 0 0 0 0 -5.8554649222357966 -5.6293957699322732 0 -5.6293957699322732 -3.3603088639105039 0 0 0 0 -718.79776664105884 -334.8165263677065 0 -334.8165263677065 -86.629101879909285 0 0 0 0 -75.743117966674617 -39.393852684581361 0 -39.393852684581361 -22.202375803382893 0 0 0 0 -251.68300070806072 -480.60903297736968 0 -480.60903297736968 -431.49468995970528 0 0 0 0 -282.35582469760266 -745.94607713697769 0 -745.94607713697769 -817.07306080145872 0 0 0 0 -608.28632204932728 -179.63914556305645 0 -179.63914556305645 -625.30779683413493 0 0 0 0 76.091196588975436 -354.43528810073622 0 -354.43528810073622 -582.88710382771478 0 0 0 0 263.98423638900567 -247.88046396959908 0 -247.88046396959908 -431.48709006723902 0 0 0 0 32.942109446925315 -325.07502060887782 0 -325.07502060887782 -413.10667569141879 0 0 0 0 343.71482398519584 -365.68874448493261 0 -365.68874448493261 -777.98290594521131 0 0 0 0 126.54754079996201 -362.71076055628328 0 -362.71076055628328 -613.33091249471181 0 0 0 0 363.81950676628549 -439.75800169549257 0 -439.75800169549257 -666.13828994815049 0 0 0 0 48.760178435069975 31.016207187771215 0 31.016207187771215 -765.12392828972952 0 0 0 0 0.83847339635110529 -0.01749460417084947 0 -0.01749460417084947 -0.75287449463705514 0 0 0 0 458.86225161464972 -695.08962838340267 0 -695.08962838340267 551.32851173123709 0 0 0 0 360.56458669227868 -207.86870514801558 0 -207.86870514801558 126.4839565484599 0 0 0 0 566.78583333910137 -511.25044159085246 0 -511.25044159085246 179.72105993714649 0 0 0 0 51.015411506072269 -181.86015862995919 0 -181.86015862995919 207.98845766121121 0 0 0 0 325.34932484598539 -254.17472767061008 0 -254.17472767061008 80.214008472179557 0 0 0 0 493.32061140237784 -493.42780674895039 0 -493.42780674895039 -187.19688110702555 0 0 0 0 -8.7109073421161156 -376.75055792898456 0 -376.75055792898456 -116.24646394808224 0 0 0 0 49.38408805293875 -144.18874582847275 0 -144.18874582847275 -158.90237363964161 0 0 0 0 -43.68362129356683 -128.82437591343751 0 -128.82437591343751 -19.807118692202494 0 0 0 0 22.439373470959254 -295.88417165881765 0 -295.88417165881765 -462.43707242129267 0 0 0 0 87.721098081616219 20.226641591627413 0 20.226641591627413 -58.528022519189108 0 0 0 0 53.781611189333489 -9.233694071375794 0 -9.233694071375794 -48.005282324789732 0 0 0 0 85.953694454423385 41.323898715792893 0 41.323898715792893 -42.829995916094276 0 0 0 0 56.42318654054543 17.951521719587618 0 17.951521719587618 -44.261157267150793 0 0 0 0 67.538601039806963 24.531868473141913 0 24.531868473141913 -53.646355127639254 0 0 0 0 30.215937615663279 -7.1136555599550775 0 -7.1136555599550775 -51.977699248644058 0 0 0 0 64.033032003317203 -4.7257879863300332 0 -4.7257879863300332 -72.292272331920685 0 0 0 0 -2.2010025732743088 -61.33420530674266 0 -61.33420530674266 -93.049765634685173 0 0 0 0 43.609671109108604 -56.812784828005533 0 -56.812784828005533 -187.03466734199901 0 0 0 0 9.1932868160656653 -3.6482664081449911 0 -3.6482664081449911 -141.32892404549784 0 0 0 0 59.196518446231494 1.9746469608071493 0 1.9746469608071493 -77.679528814924197 0 0 0 0 18.463616217355593 -44.080558474932332 0 -44.080558474932332 -82.91090282038931 0 0 0 0 43.355921823240351 3.9858336226607207 0 3.9858336226607207 -60.091389772273033 0 0 0 0 45.43635876585904 -20.801803395705065 0 -20.801803395705065 -18.371801954504917 0 0 0 0 101.66349655743397 7.6161148640094325 0 7.6161148640094325 -12.539602201803064 0 0 0 0 70.404000829679717 -31.976173393508361 0 -31.976173393508361 -26.405295041338832 0 0 0 0 8.3674458309396869 -74.863084850476298 0 -74.863084850476298 -42.945848233324796 0 0 0 0 37.741535575842136 -36.423831836233148 0 -36.423831836233148 30.881291098594374 0 0 0 0 168.74023725038569 -54.695641495149175 0 -54.695641495149175 32.193073421207373 0 0 0 0 109.33681022308883 6.9758513990782376 0 6.9758513990782376 23.454671193292597 0 0 0 0 65.730345889984164 13.631324933645374 0 13.631324933645374 22.54667204361067 0 0 0 0 1.2763717611737633 -4.151376611252104 0 -4.151376611252104 -13.981800815561158 0 0 0 0 88.579377268484677 36.348299616454824 0 36.348299616454824 31.412829760862223 0 0 0 0 -22.094213615524041 63.034062277308976 0 63.034062277308976 -203.60666118103836 0 0 0 0 78.472515674970055 25.537067080962515 0 25.537067080962515 -31.840430334719713 0 0 0 0 88.838489960384322 30.856211648591852 0 30.856211648591852 4.9740376431000186 0 0 0 0 86.549452107865363 0.65118953515047906 0 0.65118953515047906 -2.8075764502118545 0 0 0 0 112.57374964711198 17.533356367182932 0 17.533356367182932 -31.95122041497234 0 0 0 0 84.854197010336065 6.4000779422831329 0 6.4000779422831329 22.12094677289133 0 0 0 0 77.437871863192413 18.825383145871456 0 18.825383145871456 36.452547820525069 0 0 0 0 -540.13266160734929 -329.56136470992533 0 -329.56136470992533 -151.81876211652707 0 0 0 0 -681.26514989142015 -490.56747692031968 0 -490.56747692031968 -229.01920779745342 0 0 0 0 -192.99352186488977 -556.25904871083549 0 -556.25904871083549 -384.23692055561332 0 0 0 0 -205.29589880761341 -221.6843841666323 0 -221.6843841666323 -147.22365404684388 0 0 0 0 -155.96006135971402 -154.10047715779365 0 -154.10047715779365 -81.735427232710208 0 0 0 0 -190.16689808256342 -571.07817135876121 0 -571.07817135876121 -471.11342824472376 0 0 0 0 73.970251436767285 -453.33933563493702 0 -453.33933563493702 -425.52515019122802 0 0 0 0 54.805285691167228 -52.091802944339179 0 -52.091802944339179 -128.25886115283356 0 0 0 0 -121.92571146662522 -382.25897492558943 0 -382.25897492558943 -430.72783608476311 0 0 0 0 21.716755886081955 -149.26917502296783 0 -149.26917502296783 -360.6430850719189 0 0 0 0 112.8354211623606 53.333099673918696 0 53.333099673918696 -39.767906296605361 0 0 0 0 1.5719765416714466 -8.617711051661729 0 -8.617711051661729 -2.5772993636409893 0 0 0 0 -31.818369184155017 -53.133735196479392 0 -53.133735196479392 75.282762474707852 0 0 0 0 -37.210176583830616 -88.634947646718501 0 -88.634947646718501 -178.94948954840947 0 0 0 0 3.7929967344558193 -2.0722951041362165 0 -2.0722951041362165 -20.835355052212066 0 0 0 0 -47.047907279600622 -84.958082346827723 0 -84.958082346827723 -169.48546052492384 0 0 0 0 -32.779488632426364 -172.24669743336563 0 -172.24669743336563 -325.98811737447249 0 0 0 0 -16.483025940331572 -111.51028963446061 0 -111.51028963446061 -66.174050947302021 0 0 0 0 -33.280909556211554 -61.217788753703644 0 -61.217788753703644 -151.70035096944048 0 0 0 0 -41.117366438280442 -28.610603460041602 0 -28.610603460041602 60.279523105855333 0 0 0 0 58.809268929257087 56.771874665350424 0 56.771874665350424 18.608633585805364 0 0 0 0 33.855696248574532 -16.470975899150289 0 -16.470975899150289 35.830390342016472 0 0 0 0 10.907026351073711 -8.42232365504222 0 -8.42232365504222 -30.508474777855909 0 0 0 0 59.858116529987456 -48.356823741479275 0 -48.356823741479275 -76.320412367676909 0 0 0 0 77.144049405818805 -3.246626794734766 0 -3.246626794734766 -41.282797105552163 0 0 0 0 57.526766013193992 -50.41729495004256 0 -50.41729495004256 -38.584859951188264 0 0 0 0 74.465627227837103 7.4902953075288679 0 7.4902953075288679 -75.054282457058434 0 0 0 0 -0.19915598975872228 -8.4276250940550028 0 -8.4276250940550028 -5.7379927245997635 0 0 0 0 165.51394530502148 56.040412570429908 0 56.040412570429908 -15.184701312391553 0 0 0 0 22.437407470293692 2.455832805542741 0 2.455832805542741 -20.405808243405772 0 0 0 0 46.904877147782827 -16.3821371385784 0 -16.3821371385784 -16.685907488208613 0 0 0 0 18.718940298625967 -11.034252847581229 0 -11.034252847581229 -15.69388356118543 0 0 0 0 54.622604354008217 -34.000586949219723 0 -34.000586949219723 -87.367205017770175 0 0 0 0 8.1838931694364874 -2.447679503406107 0 -2.447679503406107 -10.912038184455014 0 0 0 0 10.704574727249565 -57.178354253850557 0 -57.178354253850557 -95.16801349047455 0 0 0 0 10.84320723668057 -0.66832584691570673 0 -0.66832584691570673 -2.3750088748913782 0 0 0 0 23.807599487859989 17.833143455100071 0 17.833143455100071 -23.712433459128079 0 0 0 0 46.791448671050603 -13.969872048419347 0 -13.969872048419347 -77.247916376411013 0 0 0 0 618.32492277755227 -397.03860714000257 0 -397.03860714000257 221.28356007221009 0 0 0 0 18.149596580542294 -20.57327119635384 0 -20.57327119635384 11.051771557827053 0 0 0 0 63.651189276599325 -48.76769008652991 0 -48.76769008652991 -86.798068197531393 0 0 0 0 261.53487627136565 101.56102681342691 0 101.56102681342691 -165.83586996233498 0 0 0 0 5.8294209877219032 -36.591258467610615 0 -36.591258467610615 -7.7715965151038375 0 0 0 0 -441.78592137410305 -138.36000510808663 0 -138.36000510808663 -2.8959702921529242 0 0 0 0 -392.02569458683138 -147.93737652341224 0 -147.93737652341224 -10.996401977979986 0 0 0 0 54.672264283522964 -42.630763934965216 0 -42.630763934965216 -89.955270815153199 0 0 0 0 -569.04297000207589 -266.30486723850481 0 -266.30486723850481 14.719609006908286 0 0 0 0 -253.59077526113833 -103.29915997450371 0 -103.29915997450371 -33.636913343965716 0 0 0 0 -532.60925489390502 -391.23158645629155 0 -391.23158645629155 101.99298582668416 0 0 0 0 -383.34336761909071 -374.21387897272507 0 -374.21387897272507 -207.05916593741858 0 0 0 0 -297.33031812388799 -236.00214135162241 0 -236.00214135162241 6.1950825005405932 0 0 0 0 -421.17277484174247 -591.79622444805136 0 -591.79622444805136 136.51722767823958 0 0 0 0 -412.59748522841255 -451.41704035713337 0 -451.41704035713337 -17.976133406380541 0 0 0 0 -34.173456184871611 -187.93992206919211 0 -187.93992206919211 -189.74448584211768 0 0 0 0 17.969298610092665 -452.38508280178166 0 -452.38508280178166 -663.78784274064674 0 0 0 0 13.57231614147895 -15.493324913539254 0 -15.493324913539254 -89.313811110802249 0 0 0 0 -76.335827555361902 -62.688783007979509 0 -62.688783007979509 -50.41915918745508 0 0 0 0 24.056502774503315 -35.033195265925315 0 -35.033195265925315 -81.578842960512702 0 0 0 0 19.57160113035934 3.286808326443861 0 3.286808326443861 -1.3862824564785114 0 0 0 0 39.243481817837164 -9.9948038514849031 0 -9.9948038514849031 -66.682246696960647 0 0 0 0 40.776660958006687 -50.43690144293214 0 -50.43690144293214 -54.876133358979132 0 0 0 0 -9.9086118196719326 -131.045296251119 0 -131.045296251119 -161.41070571323871 0 0 0 0 15.690873072025141 -14.451985776013856 0 -14.451985776013856 11.182327185680435 0 0 0 0 -162.94172602586877 -605.77894580693419 0 -605.77894580693419 -397.14911044407927 0 0 0 0 -423.83326721326739 -378.68467345888348 0 -378.68467345888348 -419.46066137519665 0 0 0 0 11.201158512315772 -5.9095248051280436 0 -5.9095248051280436 -3.3021552203868652 0 0 0 0 363.72733690154564 -109.0486600717195 0 -109.0486600717195 -281.97000079415739 0 0 0 0 152.48228428215589 -401.53310158204567 0 -401.53310158204567 -584.4584591448147 0 0 0 0 -843.36761865388689 -307.4630470149641 0 -307.4630470149641 -92.856641799618956 0 0 0 0 -507.50114673256758 -835.87586360335263 0 -835.87586360335263 -266.42628693155348 0 0 0 0 -147.13210670700937 -923.91698409461605 0 -923.91698409461605 451.97014335405402 0 0 0 0 13.288183076467817 -5.836883104035806 0 -5.836883104035806 -2.3827150084227071 0 0 0 0 78.917317686269598 -118.26295547320478 0 -118.26295547320478 33.889562434633262 0 0 0 0 104.62801655010844 -242.65958150147344 0 -242.65958150147344 -387.42947869164345 0 0 0 0 496.95760800733115 -525.18774947400698 0 -525.18774947400698 -286.48260957103048 0 0 0 0 -1.6607554341012047 -63.560514057952432 0 -63.560514057952432 109.74930257766292 0 0 0 0 67.482573399383327 -132.48788386621928 0 -132.48788386621928 -58.509316568323015 0 0 0 0 84.973292156488355 -195.57472527708128 0 -195.57472527708128 31.277718604669676 0 0 0 0 -1193.5833016351971 200.94688738633704 0 200.94688738633704 548.30000806011049 0 0 0 0 -772.1608154639689 -547.54835194544285 0 -547.54835194544285 422.61563170215959 0 0 0 0 -1003.4448090179212 -264.34206344393897 0 -264.34206344393897 350.96657707923441 0 0 0 0 -932.69821486834189 -2.9951379652857213 0 -2.9951379652857213 121.35223228274845 0 0 0 0 -553.42275144947052 -406.30876688607714 0 -406.30876688607714 125.48659588770533 0 0 0 0 -619.13706701263436 -518.83819370106357 0 -518.83819370106357 141.63932120861182 0 0 0 0 -447.7545697579917 -155.8105815613817 0 -155.8105815613817 107.84402478505217 0 0 0 0 -701.53529244018137 149.77614622136753 0 149.77614622136753 -79.266226054314757 0 0 0 0 -2.7120828610573824 -10.763405125744484 0 -10.763405125744484 -6.5720694712845358 0 0 0 0 -102.24842192053984 -139.4117258209244 0 -139.4117258209244 -219.21897489328694 0 0 0 0 0.91530117434284364 -4.2175821285434836 0 -4.2175821285434836 6.7728186494490217 0 0 0 0 46.069634440587834 18.066402805045072 0 18.066402805045072 -525.05540249045589 0 0 0 0 1413.5678409743632 -360.66471540529892 0 -360.66471540529892 -24.212447421758043 0 0 0 0 1110.43527876382 -772.92524436382155 0 -772.92524436382155 -336.23214042940526 0 0 0 0 820.68107508594403 -858.43832607437798 0 -858.43832607437798 142.1154002937983 0 0 0 0 -234.07424167254067 -634.67202670278857 0 -634.67202670278857 315.32871644979605 0 0 0 0 69.63521215430228 -606.45099858704998 0 -606.45099858704998 122.14304748695577 0 0 0 0 260.84460151170788 -490.3238547269284 0 -490.3238547269284 -605.73359003136511 0 0 0 0 71.707128248977824 -344.78771975798008 0 -344.78771975798008 -355.55799034597658 0 0 0 0 77.96647443467063 -197.90669719842964 0 -197.90669719842964 39.062751889339026 0 0 0 0 43.427871109490297 -125.36408627450146 0 -125.36408627450146 -73.267808496020734 0 0 0 0 -9.663086871338237 -164.93101785033286 0 -164.93101785033286 75.153770865086699 0 0 0 0 -5.6460438457725104 -193.53629929079761 0 -193.53629929079761 132.52273771350156 0 0 0 0 89.946502964121464 -35.560672911102301 0 -35.560672911102301 173.51778883260886 0 0 0 0 360.7869757108474 -177.91745835238544 0 -177.91745835238544 71.619179282075493 0 0 0 0 204.70676723171346 -269.0651750988618 0 -269.0651750988618 176.5064701862284 0 0 0 0 282.14490489127638 -345.23953604644339 0 -345.23953604644339 23.182050735966186 0 0 0 0 228.16913638630649 -203.98121897110832 0 -203.98121897110832 -6.7661636892298702 0 0 0 0 23.928573242625134 -56.634477794432314 0 -56.634477794432314 173.89832584495889 0 0 0 0 3.8240935912596967 -5.3226621657672695 0 -5.3226621657672695 -7.031624656129452 0 0 0 0 8.8040047986130574 -10.05240378141643 0 -10.05240378141643 -5.3940462602859043 0 0 0 0 404.08687866973924 -119.48634817674247 0 -119.48634817674247 -362.98129409940157 0 0 0 0 -39.724392896370773 -263.94980156179736 0 -263.94980156179736 143.87662949456717 0 0 0 0 -17.795420575166645 -80.942574533275547 0 -80.942574533275547 -11.752842148787749 0 0 0 0 36.17385444672982 -70.34333809439886 0 -70.34333809439886 -58.513051510921287 0 0 0 0 0.70030877448152751 -180.56080846177429 0 -180.56080846177429 -148.823209601298 0 0 0 0 6.055190884420881 -43.957848427191493 0 -43.957848427191493 78.740505669298159 0 0 0 0 207.82729957051197 -313.76762073171449 0 -313.76762073171449 57.104012407020491 0 0 0 0 203.92294773341564 -259.26415903573798 0 -259.26415903573798 228.88611680784561 0 0 0 0 184.37746636554948 -43.121024053849396 0 -43.121024053849396 -619.72335800328437 0 0 0 0 -181.82924105645134 153.86959926143925 0 153.86959926143925 -129.75121778135508 0 0 0 0 64.451779740419653 -194.91110823349632 0 -194.91110823349632 38.513629951821343 0 0 0 0 98.603697611091775 -261.2219726808471 0 -261.2219726808471 -214.31135152329807 0 0 0 0 122.13429292896035 -104.99512407424481 0 -104.99512407424481 -157.12895494610711 0 0 0 0 53.030423458687437 -239.4499316711881 0 -239.4499316711881 26.344692104932619 0 0 0 0 180.13245286159508 -180.23528212767997 0 -180.23528212767997 -388.75596834908356 0 0 0 0 164.13224534064102 -245.6112403914376 0 -245.6112403914376 -448.16754959407263 0 0 0 0 -154.80476447743422 -455.32170899071207 0 -455.32170899071207 -139.96154877390654 0 0 0 0 38.838528043709374 -192.76437428146554 0 -192.76437428146554 30.167398012741007 0 0 0 0 -6.3829809261369519 183.93555755777925 0 183.93555755777925 37.46213582645214 0 0 0 0 19.131699984427541 -777.91488749646669 0 -777.91488749646669 -1057.5974744433188 0 0 0 0 80.046690552553628 -123.09197046747431 0 -123.09197046747431 379.3620319052352 0 0 0 0 -365.57438871027261 -205.94841240161622 0 -205.94841240161622 -163.77803050703369 0 0 0 0 64.571020214294549 268.19948846430634 0 268.19948846430634 187.57453037184314 0 0 0 0 410.56749660204514 -302.62809432890936 0 -302.62809432890936 -614.55406329926336 0 0 0 0 16.951286960604193 -155.192750629285 0 -155.192750629285 -167.46589721196142 0 0 0 0 380.74104405901744 -182.28109907769249 0 -182.28109907769249 -1374.4265251435281 0 0 0 0 -10.843343831794044 -34.607371286190528 0 -34.607371286190528 93.382541544285004 0 0 0 0 441.22090266065607 -270.40555878268788 0 -270.40555878268788 324.59060698829126 0 0 0 0 1.4370807985114098 2.5371984508276739 0 2.5371984508276739 -0.82897787821264046 0 0 0 0 -28.50232085918833 -99.94791239220649 0 -99.94791239220649 46.157643716884195 0 0 0 0 -7.5149587641801929 -12.011310259380934 0 -12.011310259380934 -11.316344503761059 0 0 0 0 -72.516383228277846 -324.12069540380617 0 -324.12069540380617 772.8648870753168 0 0 0 0 432.76455282420034 -371.90650341283072 0 -371.90650341283072 268.07396948517999 0 0 0 0 187.67739568304387 -349.73791383689968 0 -349.73791383689968 98.276337761656578 0 0 0 0 194.38570383651677 -111.88075688343088 0 -111.88075688343088 117.94105647267861 0 0 0 0 -7.2020181883695216 -10.850503955098958 0 -10.850503955098958 -10.359485196631965 0 0 0 0 167.06763060391677 -240.72045351329143 0 -240.72045351329143 183.82035615853965 0 0 0 0 209.13437521321885 -93.672993218197007 0 -93.672993218197007 106.97885113023221 0 0 0 0 107.62102126911486 -270.70502442699944 0 -270.70502442699944 383.74150705786451 0 0 0 0 122.52034779409314 -135.88857321363957 0 -135.88857321363957 163.74608254316263 0 0 0 0 125.64612681459653 -144.52432007710081 0 -144.52432007710081 82.39073289296357 0 0 0 0 151.78599253998618 -112.61067326956254 0 -112.61067326956254 0.034337857039645314 0 0 0 0 111.87447622627951 -134.64817283079174 0 -134.64817283079174 -0.033903282819665037 0 0 0 0 136.82052741409279 -107.71095613024954 0 -107.71095613024954 28.984307902264845 0 0 0 0 123.28731473120979 -113.92742015746489 0 -113.92742015746489 128.70246221238631 0 0 0 0 144.98704376030946 -171.99086435209028 0 -171.99086435209028 41.296757966982113 0 0 0 0 141.50365981290815 -151.18744305309519 0 -151.18744305309519 90.38168116909219 0 0 0 0 133.57504070115829 -65.145607053385447 0 -65.145607053385447 28.623671144567197 0 0 0 0 -67.161479455884546 -86.088183723950351 0 -86.088183723950351 47.115765512789949 0 0 0 0 1.7643631905850654 3.3085128780155628 0 3.3085128780155628 -1.3834803247542027 0 0 0 0 104.20597391377032 -202.3231522752003 0 -202.3231522752003 0.28157073752663564 0 0 0 0 389.98072268553369 -92.223922834629775 0 -92.223922834629775 -10.541940717695979 0 0 0 0 86.514446181456151 -156.4797741042712 0 -156.4797741042712 30.668008222419303 0 0 0 0 1.626437499827496 2.7588667534596709 0 2.7588667534596709 -0.93451506724852607 0 0 0 0 237.84644653970463 -144.02720746264094 0 -144.02720746264094 -18.458096919421223 0 0 0 0 17.987876752868033 -410.15106054214993 0 -410.15106054214993 155.96087295941834 0 0 0 0 77.671260347442512 -465.31914321535442 0 -465.31914321535442 187.77278011912131 0 0 0 0 173.523450440749 -356.39781330933329 0 -356.39781330933329 122.0971573313218 0 0 0 0 86.802229270357202 -489.83557251771708 0 -489.83557251771708 -60.563447746593738 0 0 0 0 313.40474813776746 -294.67170709675702 0 -294.67170709675702 -135.66751580571872 0 0 0 0 32.030067601284827 -230.97094056542119 0 -230.97094056542119 67.33905656481511 0 0 0 0 33.243583453921019 -130.75905117026559 0 -130.75905117026559 163.59332567999445 0 0 0 0 21.937964930108137 -178.22728780705074 0 -178.22728780705074 198.62460818904219 0 0 0 0 99.091381649828691 -189.31421141319152 0 -189.31421141319152 77.74935431567792 0 0 0 0 55.147645249187917 -115.60360889112781 0 -115.60360889112781 274.41626609202649 0 0 0 0 -39.439602793689119 -199.32129735848866 0 -199.32129735848866 230.65773131991955 0 0 0 0 54.141147999487657 -171.1892780033013 0 -171.1892780033013 228.96569702799025 0 0 0 0 84.785896569868783 -139.37592377718829 0 -139.37592377718829 203.45736891725392 0 0 0 0 -197.76264755415468 -164.59708074346418 0 -164.59708074346418 289.70066952344496 0 0 0 0 -22.686982642437215 -103.54640809114062 0 -103.54640809114062 277.30578560385038 0 0 0 0 -4.3863347545169944 -7.9717758809220527 0 -7.9717758809220527 -8.1331910037955595 0 0 0 0 92.57327009258006 -246.1519685118983 0 -246.1519685118983 354.38622648279852 0 0 0 0 88.319103936155443 -89.176079999349895 0 -89.176079999349895 74.824420074917725 0 0 0 0 0.29207519740924681 -3.6180648451459092 0 -3.6180648451459092 -4.9919121220128204 0 0 0 0 -443.70689242029766 -78.321033709718904 0 -78.321033709718904 288.3589278072177 0 0 0 0 74.644631537301393 -54.133015023626285 0 -54.133015023626285 0.12119287683162838 0 0 0 0 -528.1982293111414 -514.47425949983699 0 -514.47425949983699 268.84652059279324 0 0 0 0 -19.221965467346308 -455.76255077759561 0 -455.76255077759561 271.36579635602538 0 0 0 0 -120.88780922021033 -390.14303886884591 0 -390.14303886884591 229.0763622245795 0 0 0 0 -12.890725585802556 -437.6284359629808 0 -437.6284359629808 200.23860523969051 0 0 0 0 -1.6492849721726088 -641.50048327659169 0 -641.50048327659169 0.27413637290010229 0 0 0 0 135.99750457836672 -423.49830782799108 0 -423.49830782799108 149.33282548570423 0 0 0 0 483.58400472725407 -549.60926218867826 0 -549.60926218867826 0.064768222538987175 0 0 0 0 907.09851134767086 -303.22090558292984 0 -303.22090558292984 52.174286644120002 0 0 0 0 1391.694623347903 -307.18124493820505 0 -307.18124493820505 -163.49035348402685 0 0 0 0 923.3389963325244 -521.80754387589695 0 -521.80754387589695 0.95214653565985352 0 0 0 0 869.46076698808793 -121.31344875006471 0 -121.31344875006471 97.238213455173536 0 0 0 0 346.84390234163584 -443.87824475330126 0 -443.87824475330126 101.38439606002794 0 0 0 0 350.25678450106352 -482.93637001006573 0 -482.93637001006573 104.22318575633108 0 0 0 0 -18.782632042578598 -6.2933877484210825 0 -6.2933877484210825 -0.2909804231749149 0 0 0 0 414.01253158216787 443.96069565533253 0 443.96069565533253 496.47341300266999 0 0 0 0 -11.751106523709723 0.92850458704370098 0 0.92850458704370098 0.61328615883314797 0 0 0 0 2.7462037139634106 -6.5659196430679572 0 -6.5659196430679572 1.1956235229773284 0 0 0 0 -7.4237579700211427 -7.3564388428330858 0 -7.3564388428330858 -0.0056601328833494335 0 0 0 0 -1256.1890094997982 -276.90846435438061 0 -276.90846435438061 455.84627986873966 0 0 0 0 0.19732928769822511 -1.603668827838888 0 -1.603668827838888 -6.5050572592413118 0 0 0 0 1129.5409483139338 -1564.7080805869919 0 -1564.7080805869919 -4.5703852361639612 0 0 0 0 225.23248144662102 -90.158532180481416 0 -90.158532180481416 -511.95797572807351 0 0 0 0 187.29083888112655 19.842540086181543 0 19.842540086181543 248.44005700209527 0 0 0 0 5.4275160023998916 -20.059884675159779 0 -20.059884675159779 8.9711540216547974 0 0 0 0 -59.924771968420828 -26.222571503629297 0 -26.222571503629297 52.757748574571451 0 0 0 0 609.16694943708353 196.45345870497113 0 196.45345870497113 -301.0849445383501 0 0 0 0 8.9891548492173179 -26.539687616877785 0 -26.539687616877785 18.702266964344858 0 0 0 0 690.94302774438074 66.083593723298691 0 66.083593723298691 -241.06781066616531 0 0 0 0 -493.78519356408469 -187.36869638416101 0 -187.36869638416101 241.09922423481476 0 0 0 0 1.0743191856528638 -7.0497730067182047 0 -7.0497730067182047 -23.199327970860168 0 0 0 0 15.304785750460724 -140.08689215706545 0 -140.08689215706545 -150.88632585866435 0 0 0 0 -19.425483364938373 -64.546087131626336 0 -64.546087131626336 306.80303904801258 0 0 0 0 360.38311175249692 -273.36427230736444 0 -273.36427230736444 109.29681554762647 0 0 0 0 730.14160118199811 -117.86579345227028 0 -117.86579345227028 -73.585222071647877 0 0 0 0 334.48509422963616 -248.37544751301175 0 -248.37544751301175 100.482368998109 0 0 0 0 249.57684028444783 -29.155329578330566 0 -29.155329578330566 60.316390477251844 0 0 0 0 -139.90976830727595 -301.75995402276749 0 -301.75995402276749 108.21264233585271 0 0 0 0 259.11516028976257 -208.10023448489665 0 -208.10023448489665 -229.72834121761844 0 0 0 0 31.030849086106173 -148.73193606342829 0 -148.73193606342829 -59.867503289773595 0 0 0 0 1.3567419345014109 2.5536628311247682 0 2.5536628311247682 -3.6273435352159709 0 0 0 0 -571.01633001238952 -298.62525514360095 0 -298.62525514360095 -21.080224326142343 0 0 0 0 59.521687275318982 -181.36117537057726 0 -181.36117537057726 -20.651975271597621 0 0 0 0 -50.013247256669274 -210.88954540924169 0 -210.88954540924169 -5.6773633841949049 0 0 0 0 -172.32536141850323 -113.72481224138392 0 -113.72481224138392 26.516633260645904 0 0 0 0 27.7951613855912 -115.76896033673256 0 -115.76896033673256 12.77884241672291 0 0 0 0 208.16513324351399 -77.665514610191167 0 -77.665514610191167 1.6250159372430062 0 0 0 0 60.461224653048703 -169.66930001314904 0 -169.66930001314904 47.315227909286477 0 0 0 0 -39.553479726495539 -41.435214480577088 0 -41.435214480577088 98.383460833807476 0 0 0 0 -17.733030181306376 -54.233542159716052 0 -54.233542159716052 -8.7008541018187771 0 0 0 0 370.49404957000297 -140.0908025500612 0 -140.0908025500612 -167.82914777673432 0 0 0 0 289.25139798221062 -226.51744269801566 0 -226.51744269801566 -175.80087647889741 0 0 0 0 34.479180090176669 -203.62255194717727 0 -203.62255194717727 -52.112120700388914 0 0 0 0 -0.31454134858088389 -10.700652018223987 0 -10.700652018223987 -42.584220438489467 0 0 0 0 0.70737046911404633 -0.061589929107270791 0 -0.061589929107270791 -10.018182736340464 0 0 0 0 -28.373310256058176 -80.18719966882054 0 -80.18719966882054 -214.15231209694321 0 0 0 0 588.57089549853845 53.734780264225265 0 53.734780264225265 -387.5436790417516 0 0 0 0 -44.470131363476639 -191.37128450154478 0 -191.37128450154478 116.06721897918032 0 0 0 0 -37.482065372731995 -134.76304806008056 0 -134.76304806008056 100.11632998284767 0 0 0 0 150.92616815214569 -175.82394492608728 0 -175.82394492608728 106.89347778849333 0 0 0 0 337.45002997903066 -279.47239202469063 0 -279.47239202469063 110.67570763715776 0 0 0 0 -6.517074169096416 -15.893746837953394 0 -15.893746837953394 -0.49989552774172807 0 0 0 0 191.1141817217831 -187.41188959522697 0 -187.41188959522697 27.338936047410243 0 0 0 0 -41.491165062234359 -150.33769991749432 0 -150.33769991749432 202.171122001193 0 0 0 0 46.439974291821272 -271.36084796594514 0 -271.36084796594514 198.3943179257767 0 0 0 0 28.240385067252646 -137.50485730893342 0 -137.50485730893342 60.333828178190743 0 0 0 0 30.845165482105585 -113.18423744563916 0 -113.18423744563916 -68.539312831941061 0 0 0 0 60.50748677215185 -109.3818052862557 0 -109.3818052862557 22.926346234720462 0 0 0 0 79.312238382241048 -121.48785456360929 0 -121.48785456360929 -43.893867907652748 0 0 0 0 -9.6175939204222232 -178.19218927997645 0 -178.19218927997645 -44.743384348177642 0 0 0 0 73.88448432372104 -65.631572641992449 0 -65.631572641992449 62.056242321058562 0 0 0 0 105.84732818578777 -130.10577935237961 0 -130.10577935237961 -19.465053784259908 0 0 0 0 84.201839044281755 -88.091095194328801 0 -88.091095194328801 35.619703037125987 0 0 0 0 66.73889463175874 -82.31272142490343 0 -82.31272142490343 0.10300535809074063 0 0 0 0 38.637691398969906 -43.962243849372612 0 -43.962243849372612 -25.527746482839916 0 0 0 0 87.914068198195309 -34.128270914457971 0 -34.128270914457971 84.275200373631378 0 0 0 0 88.786060000493308 -186.60378723471877 0 -186.60378723471877 104.1959628496088 0 0 0 0 62.75068794474646 -120.25852671348548 0 -120.25852671348548 65.162179011051194 0 0 0 0 48.593079118325235 -85.265063815534262 0 -85.265063815534262 -9.5071437132135657 0 0 0 0 5.6294759462743684 -76.625398054924617 0 -76.625398054924617 75.489575075950029 0 0 0 0 -8.710657613035437 -153.31618355950923 0 -153.31618355950923 -88.964279739011545 0 0 0 0 11.970744496731641 -174.92250737111135 0 -174.92250737111135 42.208988741011126 0 0 0 0 34.095785125231487 -83.378933366722777 0 -83.378933366722777 -30.457285340176895 0 0 0 0 30.592760756437173 -97.444968671466199 0 -97.444968671466199 24.045542741299698 0 0 0 0 38.056681444215528 -159.06488981128723 0 -159.06488981128723 83.094785870678436 0 0 0 0 57.189839575633172 -93.36868103536699 0 -93.36868103536699 -53.732759855994345 0 0 0 0 17.283547529747011 -165.2751213581214 0 -165.2751213581214 -104.48262322458322 0 0 0 0 -20.074667598364613 -160.62682601597044 0 -160.62682601597044 -31.697568214702187 0 0 0 0 48.160077894254869 -103.55816734878435 0 -103.55816734878435 4.3277732157536803 0 0 0 0 102.50252633179116 -201.14748388624139 0 -201.14748388624139 182.0545980076713 0 0 0 0 37.2061615073967 -197.6846938618437 0 -197.6846938618437 314.90707150186063 0 0 0 0 83.340909784294212 -194.67034926062678 0 -194.67034926062678 38.549273545723793 0 0 0 0 63.14179065449207 -2.0224357523147773 0 -2.0224357523147773 -692.09592473675639 0 0 0 0 50.962383626356313 -22.419507954709843 0 -22.419507954709843 -200.01275698394602 0 0 0 0 97.938381823423697 -182.19283622220246 0 -182.19283622220246 -403.57510003506832 0 0 0 0 50.866430990077788 -91.086485849931705 0 -91.086485849931705 -64.031887475008261 0 0 0 0 37.302692315592012 -89.394367261451777 0 -89.394367261451777 -100.50883876936244 0 0 0 0 156.75022181611712 -147.82223178720596 0 -147.82223178720596 -36.788118347736599 0 0 0 0 -50.78023236069248 -113.49543834880023 0 -113.49543834880023 335.12309111454124 0 0 0 0 49.526610482761235 -196.64719164112881 0 -196.64719164112881 33.863957820386915 0 0 0 0 -260.58439301494946 11.777485098951729 0 11.777485098951729 174.03847315019812 0 0 0 0 18.063956441268008 -65.902117183448709 0 -65.902117183448709 52.852808107187002 0 0 0 0 136.53939302966319 -230.6019425454142 0 -230.6019425454142 54.654471455854946 0 0 0 0 135.76599335846367 -84.054216762888245 0 -84.054216762888245 192.793189034026 0 0 0 0 236.79821677076689 -47.238213320750219 0 -47.238213320750219 -220.45472867084754 0 0 0 0 7.2803936403236174 -22.653484095323471 0 -22.653484095323471 39.400659830336338 0 0 0 0 -36.041804258736079 -271.25813280804141 0 -271.25813280804141 -77.586852790875128 0 0 0 0 58.420028964935568 -73.539128250820795 0 -73.539128250820795 -72.880074881101564 0 0 0 0 54.282110914344571 -63.655644934187876 0 -63.655644934187876 60.418246708155493 0 0 0 0 -4.6853049784256768 -172.96702136515887 0 -172.96702136515887 180.60293402725074 0 0 0 0 63.004705633672614 -201.09592094216879 0 -201.09592094216879 201.24974379963533 0 0 0 0 62.514336574385766 -150.54596520414634 0 -150.54596520414634 30.877215320797404 0 0 0 0 24.259746538000854 -106.12344051121909 0 -106.12344051121909 112.15426313958596 0 0 0 0 35.802461473183939 -102.74061128239555 0 -102.74061128239555 102.90567210128211 0 0 0 0 39.981559857131288 -67.722555789921898 0 -67.722555789921898 110.91118787546293 0 0 0 0 49.555136599596267 -74.88617684590281 0 -74.88617684590281 93.749756916251499 0 0 0 0 51.837075222431054 -72.22425771439157 0 -72.22425771439157 71.199664219398983 0 0 0 0 -340.67757883669219 -75.860380318335956 0 -75.860380318335956 -24.957834486151114 0 0 0 0 45.166519275527889 -57.930456312024035 0 -57.930456312024035 75.175940704066306 0 0 0 0 346.1554314797927 138.61271799737005 0 138.61271799737005 -42.066004732069814 0 0 0 0 1.1634016523288295 -1.677139592551498 0 -1.677139592551498 -2.2230026366486584 0 0 0 0 -0.77715031708283178 -3.1223606245980022 0 -3.1223606245980022 -3.7541309321400149 0 0 0 0 44.351464179570939 -59.690506710932823 0 -59.690506710932823 95.762925441027619 0 0 0 0 -126.2776537530608 -50.173971147160046 0 -50.173971147160046 67.091163002245594 0 0 0 0 -121.49042392706701 -41.151387856778456 0 -41.151387856778456 81.421139129117364 0 0 0 0 -81.365273284746763 -8.3996184717980213 0 -8.3996184717980213 85.419369187497068 0 0 0 0 -146.14996303586304 -48.680108307933551 0 -48.680108307933551 69.148185513855424 0 0 0 0 -118.78880285629202 -49.403823685192037 0 -49.403823685192037 41.898653849057155 0 0 0 0 -129.66945201171711 -57.254924626955471 0 -57.254924626955471 40.071204271691386 0 0 0 0 -126.55554910231785 -57.640080078708706 0 -57.640080078708706 17.129088655405212 0 0 0 0 -31.992871371656292 -26.319987183291232 0 -26.319987183291232 -38.439414461987326 0 0 0 0 -35.80858385049487 -37.601209911692422 0 -37.601209911692422 -34.897130812838441 0 0 0 0 -5.4280366892631342 -6.5789802695776416 0 -6.5789802695776416 -6.5890306056728605 0 0 0 0 -102.04541802859524 -75.787313598862966 0 -75.787313598862966 9.7337412301567383 0 0 0 0 75.698131631809247 26.866107329769875 0 26.866107329769875 0.25292059405182954 0 0 0 0 1.2306254669986174 -97.780115840541839 0 -97.780115840541839 55.087945352046518 0 0 0 0 62.312072229362002 -69.263022368977545 0 -69.263022368977545 -5.7719770565140607 0 0 0 0 -167.15184399773352 -114.34723487521114 0 -114.34723487521114 93.893988142939634 0 0 0 0 -205.40247288131536 -24.10635708776681 0 -24.10635708776681 69.572584899346111 0 0 0 0 -166.96476841104777 17.916644919198006 0 17.916644919198006 -21.393598606373416 0 0 0 0 -134.67528249447787 -44.431510053516831 0 -44.431510053516831 61.278351559740258 0 0 0 0 -164.02713325202785 -58.248796710191527 0 -58.248796710191527 72.256773299741326 0 0 0 0 -87.423360081990722 -62.920702342802542 0 -62.920702342802542 47.160747382760746 0 0 0 0 -97.322650123315725 -74.899291896770592 0 -74.899291896770592 47.402204805679503 0 0 0 0 42.135762029313128 -75.973905398182978 0 -75.973905398182978 10.139239859709051 0 0 0 0 -19.841598591978254 -138.44374212682305 0 -138.44374212682305 42.752781596427667 0 0 0 0 -40.527590872459768 -44.460633096648962 0 -44.460633096648962 -1.4500412336346926 0 0 0 0 -41.964298418043199 -52.935104004245659 0 -52.935104004245659 77.188361007225467 0 0 0 0 -20.78161953808376 -2.9598199993633898 0 -2.9598199993633898 54.977003791602328 0 0 0 0 -35.116277519534378 0.47854640660079895 0 0.47854640660079895 134.82972873537801 0 0 0 0 -98.803936807145419 -21.784281256121176 0 -21.784281256121176 116.65478919146699 0 0 0 0 -61.367210193120627 -77.94991446408676 0 -77.94991446408676 45.234765738015994 0 0 0 0 -164.5491453584109 -87.317261625634274 0 -87.317261625634274 54.957787712279242 0 0 0 0 71.78654473307688 6.7727630106528522 0 6.7727630106528522 110.5525740815101 0 0 0 0 -28.069213854063491 -20.318051127294893 0 -20.318051127294893 -46.605384814232821 0 0 0 0 -15.604549915700662 -0.62128387178157141 0 -0.62128387178157141 1.7302960068058724 0 0 0 0 -38.401732328053185 -7.323666375639732 0 -7.323666375639732 -17.783296733134193 0 0 0 0 -34.67301094969298 -26.866947973816423 0 -26.866947973816423 -24.653665625111898 0 0 0 0 -19.693652487465442 -6.3560163434158312 0 -6.3560163434158312 -0.02386564373384182 0 0 0 0 -26.502946152669892 -1.1899018633142475 0 -1.1899018633142475 3.2669028085974645 0 0 0 0 -45.482634075094211 -28.677773902287299 0 -28.677773902287299 34.687139284971636 0 0 0 0 -691.05477430652627 -75.114091050520074 0 -75.114091050520074 716.33462354683434 0 0 0 0 91.314869274334569 688.21211993758334 0 688.21211993758334 233.90928822934075 0 0 0 0 -44.734925258332169 4.3421305660303915 0 4.3421305660303915 -7.2083805642760126 0 0 0 0 28.214256435995139 39.841324895860453 0 39.841324895860453 -90.805244840361411 0 0 0 0 0.5268235174417164 -3.2749799787220297 0 -3.2749799787220297 0.31110418744525248 0 0 0 0 6.2166772938107897 -34.347059870284284 0 -34.347059870284284 -150.66695732664812 0 0 0 0 -267.83493779295168 -272.58492419594404 0 -272.58492419594404 -249.05087518334039 0 0 0 0 -6.5177118394574087 -2.5217755354041458 0 -2.5217755354041458 2.1526821343224043 0 0 0 0 -41.558454659811105 -22.219849949062336 0 -22.219849949062336 718.66722384594323 0 0 0 0 -93.663352275568286 -112.63347622775473 0 -112.63347622775473 -88.07437268664944 0 0 0 0 -168.73313994389173 -111.4312937327195 0 -111.4312937327195 17.136560518883726 0 0 0 0 -115.37502972823222 -61.907097083283588 0 -61.907097083283588 -0.045205346148577519 0 0 0 0 -67.858967379463138 -90.909373408096144 0 -90.909373408096144 -138.32002413153532 0 0 0 0 -31.742217958068068 0.66483991473796777 0 0.66483991473796777 -41.666366406221641 0 0 0 0 -268.39432707413471 -149.68843044049572 0 -149.68843044049572 -47.677221895792172 0 0 0 0 -45.841716483825849 -57.56896603613859 0 -57.56896603613859 0.012701968167675659 0 0 0 0 -285.47555294918726 6.2839094470955388 0 6.2839094470955388 71.370976968872128 0 0 0 0 -659.14543007209681 -153.13765760530077 0 -153.13765760530077 86.612098819721723 0 0 0 0 154.24910911246707 -120.42739453763352 0 -120.42739453763352 59.368534746317891 0 0 0 0 109.92673472348724 -9.8979676580638625 0 -9.8979676580638625 -40.539678649045527 0 0 0 0 403.38843204517104 -147.89774519018283 0 -147.89774519018283 -24.030948475614423 0 0 0 0 -30.063480776345386 -65.251137361396104 0 -65.251137361396104 55.975052417023107 0 0 0 0 100.27505466185721 -142.18934609159624 0 -142.18934609159624 172.19832235816284 0 0 0 0 7.636785559563009 -6.8528371431248729 0 -6.8528371431248729 -1.6455881372242374 0 0 0 0 42.737078518341605 -20.169999989680946 0 -20.169999989680946 -27.982241327126758 0 0 0 0 -44.839841283468807 -44.906144433867354 0 -44.906144433867354 59.024162572110072 0 0 0 0 3.8962619943749814 -21.64457125980698 0 -21.64457125980698 25.607389838900417 0 0 0 0 -9.1736337536720427 -9.3275371031204486 0 -9.3275371031204486 -4.8790352046636372 0 0 0 0 1.9582508022835601 -5.5407961138957091 0 -5.5407961138957091 -3.1049293467505379 0 0 0 0 14.005373500533096 -29.023329082818236 0 -29.023329082818236 83.209205017221393 0 0 0 0 71.095032156519665 -48.833349251464824 0 -48.833349251464824 0.012950599499163218 0 0 0 0 2.6767984318839808 -10.58395748170733 0 -10.58395748170733 55.874143495893804 0 0 0 0 24.81021737885203 -49.100098110691761 0 -49.100098110691761 53.039274166454561 0 0 0 0 16.482903105021251 -0.51419554266612977 0 -0.51419554266612977 17.127376597403781 0 0 0 0 14.153802995877413 -18.37426983610203 0 -18.37426983610203 0.047762659218278714 0 0 0 0 20.52380668069236 -54.354951944435015 0 -54.354951944435015 44.984368425095454 0 0 0 0 29.136927243109312 -34.080628677402274 0 -34.080628677402274 16.504262724920409 0 0 0 0 -12.404112666043147 8.4254382845465443 0 8.4254382845465443 13.390557975537376 0 0 0 0 2.1883923814966693 -39.820558739796979 0 -39.820558739796979 0.56772843579528853 0 0 0 0 4.1705106055591941 -1.735307961431829 0 -1.735307961431829 -4.2346656986045446 0 0 0 0 23.852863035877817 -3.9287326163612306 0 -3.9287326163612306 44.984368424979039 0 0 0 0 3.6174337264734433 -2.2701703044845658 0 -2.2701703044845658 -3.9158572124266584 0 0 0 0 -2.4562139020175664 -14.694372758205645 0 -14.694372758205645 32.15221192019817 0 0 0 0 0.568798148908634 -12.059707764739898 0 -12.059707764739898 -0.90830872591141443 0 0 0 0 11.342398103239248 -13.125062243721914 0 -13.125062243721914 19.088662727546762 0 0 0 0 -4.8598659003819193 -12.406065746705281 0 -12.406065746705281 27.978754058174673 0 0 0 0 -3.3304242238446236 -14.372012894914576 0 -14.372012894914576 -2.165653698442938 0 0 0 0 -3.4440858777343237 -6.4835446488577873 0 -6.4835446488577873 21.124821123084985 0 0 0 0 4.0804935350997411 -3.7108033100398359 0 -3.7108033100398359 -1.4588634463681274 0 0 0 0 4.8360489829627262 -3.267926332141883 0 -3.267926332141883 -1.775469807882132 0 0 0 0 -5.1282752613187768 -15.292382520026877 0 -15.292382520026877 22.172324393857252 0 0 0 0 -7.5341656743528347 -13.85473129748425 0 -13.85473129748425 28.096759056323208 0 0 0 0 -10.100020557762491 -21.267314882717983 0 -21.267314882717983 27.619569384260103 0 0 0 0 112.54047823095971 -212.08073808391055 0 -212.08073808391055 392.0063886459684 0 0 0 0 -0.88451499541275069 -2.0942072972325718 0 -2.0942072972325718 -1.3884099768212366 0 0 0 0 129.90209674365542 -194.55474861420953 0 -194.55474861420953 321.35001179057872 0 0 0 0 109.38330686297923 -172.52519153734465 0 -172.52519153734465 332.31275819562143 0 0 0 0 108.49029435071498 -188.31111662562762 0 -188.31111662562762 386.32827183943664 0 0 0 0 1.4114402404035928 -2.1366818691168135 0 -2.1366818691168135 -1.9770212520123494 0 0 0 0 68.51682849352801 -220.10696409580123 0 -220.10696409580123 342.10429821022262 0 0 0 0 -53.961406565820653 59.34624502947554 0 59.34624502947554 3.5967823470418807 0 0 0 0 -60.278802130433178 -77.257902904617367 0 -77.257902904617367 104.42844866678934 0 0 0 0 -113.79573237080012 7.8945028939924669 0 7.8945028939924669 96.215739038598258 0 0 0 0 128.90144756276186 16.021948700479697 0 16.021948700479697 46.112965098524 0 0 0 0 12.356357413988917 -13.090861775330268 0 -13.090861775330268 65.111464295041515 0 0 0 0 -0.016300463955116307 -2.4971120458539531 0 -2.4971120458539531 -2.9309594650572706 0 0 0 0 -50.970043499219173 0.31607636855915189 0 0.31607636855915189 75.758564429343096 0 0 0 0 46.159851701444495 -101.95375626021996 0 -101.95375626021996 74.568158720605425 0 0 0 0 -5.0923068554366182 -3.0731298263999633 0 -3.0731298263999633 5.1392025318368724 0 0 0 0 -22.572340409389653 -41.538980522847851 0 -41.538980522847851 73.095186188846128 0 0 0 0 146.99255436216117 -235.2336741093859 0 -235.2336741093859 458.19771781910094 0 0 0 0 298.29688423000698 -329.39535545522085 0 -329.39535545522085 404.97044200918754 0 0 0 0 178.25210412371598 -316.44594043708639 0 -316.44594043708639 685.47418006858788 0 0 0 0 182.01826158595941 -536.41297387167288 0 -536.41297387167288 853.33440697634796 0 0 0 0 2.6055616830274175 -4.4655958421916182 0 -4.4655958421916182 -3.8334266320533459 0 0 0 0 10.402101664966267 -12.378075236894801 0 -12.378075236894801 0.01898201133008115 0 0 0 0 11.689444702915353 -19.32715126023686 0 -19.32715126023686 -0.0011438868823461235 0 0 0 0 2.1835204624411801 -8.4044198720536087 0 -8.4044198720536087 -4.0993505547907603 0 0 0 0 6.2121838672028389 -22.527543511081603 0 -22.527543511081603 13.982855851834756 0 0 0 0 10.490039162825269 -13.222765610044007 0 -13.222765610044007 8.1073268414475024 0 0 0 0 234.90062532335287 -380.29239037928346 0 -380.29239037928346 580.92863199674321 0 0 0 0 233.68529262668108 -427.55620928555436 0 -427.55620928555436 612.93152041603753 0 0 0 0 169.49552105472321 -295.45568031137373 0 -295.45568031137373 541.27512783880229 0 0 0 0 7.5190676329257258 -23.843191317224409 0 -23.843191317224409 6.9340907384757884 0 0 0 0 6.7010973808480685 -20.831484995260325 0 -20.831484995260325 20.621260198939126 0 0 0 0 -2.2560133947317809 -35.138291670402396 0 -35.138291670402396 0.011009308997770521 0 0 0 0 -3.4016343888818312 -2.1791373840706001 0 -2.1791373840706001 1.1004631954884587 0 0 0 0 206.21825770471332 -276.93473496727529 0 -276.93473496727529 472.61820526816882 0 0 0 0 1.4417257335007889 -19.702423468843335 0 -19.702423468843335 32.535292404194479 0 0 0 0 4.5856710022263627 -12.73390850471344 0 -12.73390850471344 -1.9894966231682254 0 0 0 0 109.7812233918703 -215.75155702793563 0 -215.75155702793563 389.7607140566106 0 0 0 0 166.19533325692828 -285.62293581930135 0 -285.62293581930135 474.80331901711179 0 0 0 0 235.20453766462924 -209.18048133008415 0 -209.18048133008415 283.89472868521989 0 0 0 0 155.32959797102376 -235.02522102658986 0 -235.02522102658986 382.19775597463013 0 0 0 0 298.4790303138725 -315.6165875360748 0 -315.6165875360748 -32.737796993344091 0 0 0 0 279.68040023897265 -257.92808551393682 0 -257.92808551393682 307.8647126693686 0 0 0 0 272.17861827512388 -299.55848444449657 0 -299.55848444449657 307.98985004155634 0 0 0 0 392.44223226895338 -466.68843507351266 0 -466.68843507351266 535.13822790965787 0 0 0 0 58.065062126850535 -308.66139625009964 0 -308.66139625009964 664.58882888025255 0 0 0 0 174.22244898094505 -507.03124746731191 0 -507.03124746731191 944.76034337715828 0 0 0 0 1.505397373414354 -4.4829003895258381 0 -4.4829003895258381 -0.29238252721103564 0 0 0 0 231.60860028015304 -45.644820066881948 0 -45.644820066881948 -514.02615003548817 0 0 0 0 116.33742422419164 -159.79330629931064 0 -159.79330629931064 -31.558957429268048 0 0 0 0 -10.799979780285867 -217.6734751834083 0 -217.6734751834083 -48.528103799326345 0 0 0 0 -81.033556572641828 -324.7972488490559 0 -324.7972488490559 258.5914850688132 0 0 0 0 41.142206736280059 -365.81711446576082 0 -365.81711446576082 68.509306702617323 0 0 0 0 3.700712874772293 -1.2763446417985591 0 -1.2763446417985591 -1.2440573440850358 0 0 0 0 105.80907790377387 -156.05883132050803 0 -156.05883132050803 63.65061180916382 0 0 0 0 -120.45358192930144 -131.00049485891941 0 -131.00049485891941 -112.53587925864849 0 0 0 0 2.3961228028851167 -7.7688719376038762 0 -7.7688719376038762 0.59351277656826795 0 0 0 0 207.17536822827242 -219.99825130079626 0 -219.99825130079626 261.36015038195183 0 0 0 0 22.889855914283544 -312.44384139751492 0 -312.44384139751492 492.98078850924503 0 0 0 0 16.553996902925064 -335.58326389689319 0 -335.58326389689319 408.61972080243868 0 0 0 0 136.98111214675373 -428.19996894612268 0 -428.19996894612268 402.95474492639187 0 0 0 0 19.406274415806365 -383.74396453820918 0 -383.74396453820918 316.56225814748905 0 0 0 0 44.65110132657901 -307.18526078786817 0 -307.18526078786817 257.40923610370373 0 0 0 0 98.874898526828474 -245.80325606107363 0 -245.80325606107363 183.57829899710487 0 0 0 0 368.47641590159765 -177.04192091310688 0 -177.04192091310688 200.83657930340269 0 0 0 0 322.75778588873072 -578.46371865473338 0 -578.46371865473338 723.70543045729573 0 0 0 0 228.41905367113031 -133.69677082775888 0 -133.69677082775888 342.9843842878181 0 0 0 0 906.69730331527171 -70.577276153329876 0 -70.577276153329876 348.37693973704154 0 0 0 0 236.95257039567878 -46.503036173191504 0 -46.503036173191504 111.1532000723746 0 0 0 0 322.49596196232233 -136.09026228186849 0 -136.09026228186849 189.81327624915866 0 0 0 0 286.86987158598913 -29.570759967189588 0 -29.570759967189588 348.63198669020494 0 0 0 0 156.24069850915657 -142.38140117519652 0 -142.38140117519652 252.28976600317401 0 0 0 0 32.894032621432416 -152.10805854729551 0 -152.10805854729551 486.14875611772004 0 0 0 0 -9.7691284234606428 -178.36452110925893 0 -178.36452110925893 253.71923356826301 0 0 0 0 87.320685738312022 -253.46769008855335 0 -253.46769008855335 310.69273274122679 0 0 0 0 306.74306120551773 -503.06800096348161 0 -503.06800096348161 -769.76197841115436 0 0 0 0 431.96342488010851 -511.40369276009733 0 -511.40369276009733 -557.17640686660161 0 0 0 0 136.5698804987673 -212.4229724272387 0 -212.4229724272387 36.014423396217197 0 0 0 0 363.80908481116239 -799.03675773307623 0 -799.03675773307623 243.59907654923154 0 0 0 0 141.6076118396345 -5.4268041551131319 0 -5.4268041551131319 1060.4412186674599 0 0 0 0 552.92525309611437 364.94556983787879 0 364.94556983787879 -110.44276595194242 0 0 0 0 -92.602049771387101 -52.236018707495532 0 -52.236018707495532 932.50556437321211 0 0 0 0 -6.3072294655255376 -4.5907092805081504 0 -4.5907092805081504 17.198597284812877 0 0 0 0 124.05341530399666 -213.9292431716292 0 -213.9292431716292 67.921149995559276 0 0 0 0 337.63260548544349 -108.1549552455981 0 -108.1549552455981 -631.9011669846077 0 0 0 0 37.599290830407682 -30.010461001783597 0 -30.010461001783597 -47.524627579128605 0 0 0 0 73.702277131513256 -161.11259749598685 0 -161.11259749598685 97.030551964271581 0 0 0 0 7.0779846811110474 0.90984639309317572 0 0.90984639309317572 226.46982234786265 0 0 0 0 -22.018345316071645 -228.29075722029665 0 -228.29075722029665 512.43260402990563 0 0 0 0 72.796344861428224 -238.75153270510782 0 -238.75153270510782 245.68196506761888 0 0 0 0 55.028064856772289 -199.33491103388951 0 -199.33491103388951 206.4478225675557 0 0 0 0 5.0377040041666987 -101.98843201184354 0 -101.98843201184354 119.04043123868905 0 0 0 0 22.902085695656979 -187.14486903707984 0 -187.14486903707984 327.5436677930993 0 0 0 0 77.544431049223022 -226.47557679846796 0 -226.47557679846796 236.77491727961751 0 0 0 0 67.545787541488608 -216.17951060424093 0 -216.17951060424093 324.82445263151021 0 0 0 0 111.56034401471516 -178.5269495934408 0 -178.5269495934408 326.91180237963272 0 0 0 0 147.18776943240846 -191.81447204631695 0 -191.81447204631695 321.53717452871933 0 0 0 0 90.008108692003589 -211.42537073985295 0 -211.42537073985295 270.60033835828654 0 0 0 0 25.825507223573368 -261.28579618109507 0 -261.28579618109507 290.18347939991509 0 0 0 0 94.585184466059218 -236.84782851385535 0 -236.84782851385535 211.0359988148557 0 0 0 0 73.987864269790407 -329.40608089461603 0 -329.40608089461603 11.458223274472402 0 0 0 0 -54.416113167053027 -322.30422703595832 0 -322.30422703595832 269.06240704699303 0 0 0 0 144.54832226857616 -662.8800636865235 0 -662.8800636865235 -1003.9598300473863 0 0 0 0 131.91234983059181 -210.77639016175922 0 -210.77639016175922 40.360535323624717 0 0 0 0 -299.14329171993268 -498.95245259113835 0 -498.95245259113835 411.16501453060482 0 0 0 0 112.93021428005997 -203.73176436464698 0 -203.73176436464698 38.441558139129782 0 0 0 0 95.842618148341501 -247.19066965409002 0 -247.19066965409002 216.98242590590962 0 0 0 0 816.92523804741359 -102.44023880501845 0 -102.44023880501845 -1432.9641666278694 0 0 0 0 86.791341867281972 -236.32050199942023 0 -236.32050199942023 204.24874247590196 0 0 0 0 105.52294446030146 -219.81716750092164 0 -219.81716750092164 214.18152475408715 0 0 0 0 9.6807495092730278 -152.8980952075608 0 -152.8980952075608 -704.2774535346216 0 0 0 0 170.83519788084232 -599.80295064334496 0 -599.80295064334496 1294.2874340188127 0 0 0 0 11.512833844096065 -1.6760795156872916 0 -1.6760795156872916 -0.44455192268487309 0 0 0 0 732.56668909310429 -295.30230852164459 0 -295.30230852164459 339.39217414776067 0 0 0 0 6.3740254765034479 -183.65111305134815 0 -183.65111305134815 450.38369129951025 0 0 0 0 116.74028078102128 -452.05271586593153 0 -452.05271586593153 457.54717461533255 0 0 0 0 237.37648748998072 -237.23645439316806 0 -237.23645439316806 518.08045472955564 0 0 0 0 25.006397234313226 -175.14793438500237 0 -175.14793438500237 158.41152584929659 0 0 0 0 174.22573598196323 -401.41939622995051 0 -401.41939622995051 -59.895737027673022 0 0 0 0 -57.658148000393339 -127.7001940906448 0 -127.7001940906448 86.495000815095409 0 0 0 0 260.04174987662009 -115.83983043342732 0 -115.83983043342732 86.612164808364469 0 0 0 0 -211.64122390325065 9.3161202994597261 0 9.3161202994597261 -466.43354795604591 0 0 0 0 28.49111106154669 -305.78154464638646 0 -305.78154464638646 -370.49874027553051 0 0 0 0 -3.5376017596354359 -6.8259674836408522 0 -6.8259674836408522 -282.84662402160029 0 0 0 0 401.74752851020094 -495.13392727545943 0 -495.13392727545943 -47.792376072309708 0 0 0 0 421.23433281485995 -667.70577142956608 0 -667.70577142956608 -747.56007150037112 0 0 0 0 -164.81013866929788 -15.421471727910102 0 -15.421471727910102 192.67431526716609 0 0 0 0 15.997856789263096 -55.263744012625466 0 -55.263744012625466 193.28336539401425 0 0 0 0 10.265957306808218 26.090468518140597 0 26.090468518140597 764.34485058492282 0 0 0 0 36.910418698571448 61.418955674738754 0 61.418955674738754 390.0336892259802 0 0 0 0 -159.75108043243745 -100.51496139895607 0 -100.51496139895607 432.78731367306682 0 0 0 0 215.71769216746907 163.75006388536895 0 163.75006388536895 334.71551384596387 0 0 0 0 90.788045154828069 -64.505857087110599 0 -64.505857087110599 -270.42730597918126 0 0 0 0 -51.444003020205855 -173.65583419613176 0 -173.65583419613176 17.489739103257307 0 0 0 0 212.4944928508321 -180.15175429941701 0 -180.15175429941701 -201.99083139341383 0 0 0 0 636.74095111690076 -712.48124190215094 0 -712.48124190215094 285.24467954821921 0 0 0 0 603.67765164513003 72.785311661360538 0 72.785311661360538 108.18391874357076 0 0 0 0 -2.5581898230511797 -450.70667589964978 0 -450.70667589964978 -73.225346603838261 0 0 0 0 136.31716950446571 -435.90320198785776 0 -435.90320198785776 -357.0574477535456 0 0 0 0 -36.109514650511301 -393.50318788642653 0 -393.50318788642653 -80.848129121033708 0 0 0 0 142.37298219865988 -537.24261869343172 0 -537.24261869343172 -233.44958124844197 0 0 0 0 74.202353350350904 -599.99581551221627 0 -599.99581551221627 140.46793766209157 0 0 0 0 46.420781964083289 -239.57876723976369 0 -239.57876723976369 331.91185609891909 0 0 0 0 40.046990169436867 -228.85738465547729 0 -228.85738465547729 398.07261245989503 0 0 0 0 125.89829586510314 -368.03315708032096 0 -368.03315708032096 89.458698969110628 0 0 0 0 -38.265760387845148 -456.72195095422467 0 -456.72195095422467 177.49860125420673 0 0 0 0 -126.16455527179119 -395.34918704638403 0 -395.34918704638403 434.57143064634147 0 0 0 0 -76.811027380750602 -16.41452429743731 0 -16.41452429743731 268.06319162244654 0 0 0 0 3.0335819445696721 -0.37107037159591449 0 -0.37107037159591449 1.0140863689366313 0 0 0 0 9.3974225879846927 -272.25879978603189 0 -272.25879978603189 457.79418436818378 0 0 0 0 15.772502351850562 -277.25079684691809 0 -277.25079684691809 396.18468956390279 0 0 0 0 138.05631958009326 -238.26429009440108 0 -238.26429009440108 461.79085821553235 0 0 0 0 1.6538754632201744 -216.0593432223377 0 -216.0593432223377 -243.28381817602349 0 0 0 0 24.99346612767016 -15.468915842492258 0 -15.468915842492258 5.8899428583855808 0 0 0 0 -113.73333518017171 -131.34050389111144 0 -131.34050389111144 -105.52273062876702 0 0 0 0 20.170345307208144 -27.961991370097468 0 -27.961991370097468 26.451702053557725 0 0 0 0 9.2699780931604181 -5.2165227975438526 0 -5.2165227975438526 2.3575280875038658 0 0 0 0 19.992195365439329 -435.72335498769826 0 -435.72335498769826 1523.3095105883767 0 0 0 0 519.95058456030893 -65.017252416870178 0 -65.017252416870178 -455.80009527799848 0 0 0 0 -63.689955570646816 -204.96506176726689 0 -204.96506176726689 -31.622360965655389 0 0 0 0 884.07761337245392 -733.08626715124774 0 -733.08626715124774 65.227964457440976 0 0 0 0 403.49946082628776 -389.82713382659676 0 -389.82713382659676 -3.9711735717573902 0 0 0 0 230.35953726201069 -362.79359469667406 0 -362.79359469667406 380.31594146612042 0 0 0 0 195.1968125225967 -160.2399012703338 0 -160.2399012703338 35.920627291314304 0 0 0 0 16.908282112857705 -81.927394019276107 0 -81.927394019276107 5.9048769378723591 0 0 0 0 250.78136617541531 -149.1267446990023 0 -149.1267446990023 272.72265628905916 0 0 0 0 -144.48419015913987 -187.86008747254891 0 -187.86008747254891 8.5485850001932704 0 0 0 0 -44.877992369907588 -217.95172761586218 0 -217.95172761586218 -7.1067744614592812 0 0 0 0 -72.415599338068205 -68.409336218259341 0 -68.409336218259341 102.56934270905185 0 0 0 0 -56.821031550482076 -125.38793838786296 0 -125.38793838786296 245.68546178419638 0 0 0 0 -80.284800531610927 -121.89089034122685 0 -121.89089034122685 -52.67282385208091 0 0 0 0 -1.6453644580087854 -1.3709752486074365 0 -1.3709752486074365 1.84504566955097 0 0 0 0 -8.5101362213281959 101.2664411041452 0 101.2664411041452 271.9419801969525 0 0 0 0 -73.052087809592194 -2.3902559181769902 0 -2.3902559181769902 -285.29453439274585 0 0 0 0 -17.622950185906461 -49.897279966714109 0 -49.897279966714109 103.14914870153007 0 0 0 0 30.27696583428542 -128.86377056067568 0 -128.86377056067568 350.21681536353935 0 0 0 0 -10.397762015720218 24.550033767533023 0 24.550033767533023 170.20900244037148 0 0 0 0 -51.505854981307493 3.6549713265594619 0 3.6549713265594619 96.001949280080225 0 0 0 0 193.89004688332716 79.863278046206688 0 79.863278046206688 118.74600268628274 0 0 0 0 203.16592889916183 -208.98141105194446 0 -208.98141105194446 208.24992934085458 0 0 0 0 216.75881023684633 55.488597581821523 0 55.488597581821523 18.217269365728498 0 0 0 0 558.48822409224522 -376.95613261406834 0 -376.95613261406834 632.44486749148859 0 0 0 0 76.329564880463295 -69.252042865347903 0 -69.252042865347903 652.65729522337347 0 0 0 0 240.75007187661686 28.777203138626646 0 28.777203138626646 217.38149080524454 0 0 0 0 178.25157863969071 -121.95159721442542 0 -121.95159721442542 48.766280517629639 0 0 0 0 231.74784535630317 -221.65546074982166 0 -221.65546074982166 253.1361818126752 0 0 0 0 60.662915091528703 59.866053595760604 0 59.866053595760604 86.037505442871407 0 0 0 0 89.236838901182637 150.15022581831727 0 150.15022581831727 402.60164713982113 0 0 0 0 7.6093018433566613 -45.769693520207511 0 -45.769693520207511 418.82499949011799 0 0 0 0 -321.70822432490422 323.04666901810924 0 323.04666901810924 2293.2088198308702 0 0 0 0 -51.40698385631913 -34.351290916718426 0 -34.351290916718426 1090.8024958311216 0 0 0 0 250.86646414283314 -609.93479481969371 0 -609.93479481969371 1186.645722303824 0 0 0 0 65.836299294282071 -949.18611690612306 0 -949.18611690612306 1833.5204020862111 0 0 0 0 -32.773483279665015 -746.64135659063959 0 -746.64135659063959 1419.5703504329758 0 0 0 0 67.087031388732385 137.38646069681363 0 137.38646069681363 -961.44109310321437 0 0 0 0 8.6804947441640365 -14.974659928855104 0 -14.974659928855104 -9.1767866899401369 0 0 0 0 93.735909910596092 -272.69193165310389 0 -272.69193165310389 -592.62586439763618 0 0 0 0 211.85407464663513 -1039.650676200974 0 -1039.650676200974 2238.8929626005083 0 0 0 0 4.1707199492097544 -7.0377123054888813 0 -7.0377123054888813 -3.0716091383518389 0 0 0 0 311.93077955382796 214.57754111709255 0 214.57754111709255 -1925.4695809007935 0 0 0 0 756.93767353530347 -896.31672851125768 0 -896.31672851125768 716.98598282691455 0 0 0 0 111.44998693407615 -230.46469788067316 0 -230.46469788067316 870.43867040280747 0 0 0 0 166.61254707565877 -317.43361294569968 0 -317.43361294569968 1315.1312119158902 0 0 0 0 -160.3428271200919 -463.37304426377887 0 -463.37304426377887 -374.05505842329876 0 0 0 0 101.79086804023973 -306.92444796737254 0 -306.92444796737254 81.972711948023061 0 0 0 0 102.78142452426792 -85.927497162961558 0 -85.927497162961558 50.759096254483111 0 0 0 0 -224.89062021621339 -345.0282192398081 0 -345.0282192398081 -44.731220354035031 0 0 0 0 63.881649743159869 -735.72160866634658 0 -735.72160866634658 -92.88271159271244 0 0 0 0 560.66585022240542 -378.85809869465447 0 -378.85809869465447 -57.740956782483408 0 0 0 0 87.457107895678746 -47.115146115711468 0 -47.115146115711468 76.909308754009544 0 0 0 0 285.24636104925798 229.52221473391273 0 229.52221473391273 334.31487277215638 0 0 0 0 254.21258454315466 -66.110098773624486 0 -66.110098773624486 -354.99128104596457 0 0 0 0 -187.96172961686534 -462.58579379980802 0 -462.58579379980802 -349.46933601291062 0 0 0 0 79.055471124660471 -201.35759590212183 0 -201.35759590212183 -179.08672386174294 0 0 0 0 56.440886264183582 -67.767678475262457 0 -67.767678475262457 17.279255276282498 0 0 0 0 27.077078246239722 -54.956106136562425 0 -54.956106136562425 67.213485344882514 0 0 0 0 75.869382152770413 -6.9465791907787207 0 -6.9465791907787207 99.019270511445484 0 0 0 0 36.153764270649305 -28.95552556422826 0 -28.95552556422826 -20.179802452318057 0 0 0 0 -13.251599772542249 -236.27282244096568 0 -236.27282244096568 51.380123479531903 0 0 0 0 190.57096310938141 -154.03847731344467 0 -154.03847731344467 -48.57543490176613 0 0 0 0 -107.17796972192446 -40.814468894077436 0 -40.814468894077436 85.889478748036709 0 0 0 0 -28.451440156712678 -92.732379114177874 0 -92.732379114177874 -17.26954992841803 0 0 0 0 254.22431171276548 -120.68797552429533 0 -120.68797552429533 -31.632548302659416 0 0 0 0 -11.917212547036442 -10.429554108205252 0 -10.429554108205252 -2.4978022711676147 0 0 0 0 130.81434790001867 -8.8082085299924984 0 -8.8082085299924984 -59.32673048513243 0 0 0 0 -107.52086620859154 -52.641692395021892 0 -52.641692395021892 58.636312734524836 0 0 0 0 -176.97392317729282 -286.92788828211633 0 -286.92788828211633 42.671076979313511 0 0 0 0 16.681819712830475 -85.017798162247345 0 -85.017798162247345 -14.619780176082713 0 0 0 0 67.453343105090227 -64.865726881516593 0 -64.865726881516593 31.039557732179787 0 0 0 0 242.79685634258203 -104.16945696745097 0 -104.16945696745097 8.3843978461663937 0 0 0 0 29.615866112968632 -73.566819641532817 0 -73.566819641532817 19.416408980302151 0 0 0 0 30.99179412959792 -54.180633235221507 0 -54.180633235221507 -4.701925869435712 0 0 0 0 -20.017213938917848 -80.902428293169578 0 -80.902428293169578 11.287149596479139 0 0 0 0 -17.07291109963262 -80.659923595623695 0 -80.659923595623695 11.250429674566476 0 0 0 0 56.118394055735955 -50.29492142428775 0 -50.29492142428775 -0.43024568559394538 0 0 0 0 4.6538417782651109 -69.087402710435214 0 -69.087402710435214 -10.862565947414225 0 0 0 0 -29.554467835812829 -77.844288386695553 0 -77.844288386695553 -7.3454674366366817 0 0 0 0 -5.0362728018916414 -47.411293143164073 0 -47.411293143164073 26.441150891340868 0 0 0 0 -44.569593725120029 -45.088705069422417 0 -45.088705069422417 14.473384976868701 0 0 0 0 -34.735329764997005 -80.027038918531616 0 -80.027038918531616 -7.0587324441439705 0 0 0 0 29.43353351244248 -54.915186832046416 0 -54.915186832046416 -9.7542308866898111 0 0 0 0 -12.475746247552564 -30.796081756134271 0 -30.796081756134271 2.7373897194950843 0 0 0 0 15.043272282164253 -96.131791771575081 0 -96.131791771575081 -49.206277130553644 0 0 0 0 -13.253565491682821 -122.89968208558275 0 -122.89968208558275 -61.964598415219371 0 0 0 0 80.391050788994107 -57.178975353563146 0 -57.178975353563146 -48.392339109406748 0 0 0 0 -56.277241088795563 -40.981940448342357 0 -40.981940448342357 -38.52729119687865 0 0 0 0 268.49289215627687 -73.490749783533829 0 -73.490749783533829 -128.08046422229381 0 0 0 0 4.1169550615444237 -2.535241925952505 0 -2.535241925952505 2.7611983502960697 0 0 0 0 -58.017132589275207 50.36513450817074 0 50.36513450817074 -130.77740323895614 0 0 0 0 -101.46371821844787 -152.64808882473881 0 -152.64808882473881 824.4137692337099 0 0 0 0 32.59832320514306 -263.40273129610068 0 -263.40273129610068 433.90926805287017 0 0 0 0 337.67342433771773 -300.76543273186689 0 -300.76543273186689 11.099426540014974 0 0 0 0 137.8707839065446 -127.84620551740954 0 -127.84620551740954 -55.866220039759355 0 0 0 0 90.0599876303786 -143.80280218398184 0 -143.80280218398184 -28.170224041619804 0 0 0 0 100.71203422918734 -210.24692778986719 0 -210.24692778986719 -2.5487237979759811 0 0 0 0 -16.173496434184926 -198.66684365367109 0 -198.66684365367109 80.973013471673767 0 0 0 0 -63.994923820838267 -140.18482837467673 0 -140.18482837467673 -17.829346358917974 0 0 0 0 -24.633538351360585 -188.47983004558773 0 -188.47983004558773 20.314122833141482 0 0 0 0 -155.2937471005196 -105.48521998308934 0 -105.48521998308934 32.273063003958669 0 0 0 0 -104.32459660382074 -167.87401827229769 0 -167.87401827229769 67.273600864959008 0 0 0 0 -38.382277317585249 -154.13476440300292 0 -154.13476440300292 16.326299187594486 0 0 0 0 -97.718392114317794 -110.67574977472395 0 -110.67574977472395 50.414976288117032 0 0 0 0 -79.532461954487189 -164.89952603527126 0 -164.89952603527126 165.99749985666858 0 0 0 0 19.201935581954444 -178.479092649216 0 -178.479092649216 72.790652577059518 0 0 0 0 -219.21203270242586 -108.96796188894223 0 -108.96796188894223 112.57317482448343 0 0 0 0 -196.43137994344352 -157.20303127760599 0 -157.20303127760599 51.954621994926129 0 0 0 0 20.900194770224417 -35.388883948198597 0 -35.388883948198597 47.545829032838114 0 0 0 0 -149.97953155304788 -102.96995557006449 0 -102.96995557006449 12.382933634622532 0 0 0 0 -52.388916729018092 3.0758245152974268 0 3.0758245152974268 26.440138906866196 0 0 0 0 -224.03709480677753 -146.65580156365831 0 -146.65580156365831 84.049381830187485 0 0 0 0 -184.37327372899392 -47.365348613996503 0 -47.365348613996503 23.983359896948969 0 0 0 0 20.279275429816984 -32.325787752172026 0 -32.325787752172026 37.73653481154588 0 0 0 0 -208.61558025037084 -101.86762958248346 0 -101.86762958248346 67.080251103856426 0 0 0 0 -148.17908415544002 -119.34174544963753 0 -119.34174544963753 47.240167454052425 0 0 0 0 -439.16686778799203 -207.47905178531437 0 -207.47905178531437 27.573106376647956 0 0 0 0 -48.253045264884804 -43.111677026892721 0 -43.111677026892721 22.07772305436356 0 0 0 0 -92.743327986789609 -156.31179491968032 0 -156.31179491968032 -48.296878849214409 0 0 0 0 5.3255796719533919 -36.670740372246655 0 -36.670740372246655 96.02570890669449 0 0 0 0 76.465821222375325 -98.506753161962479 0 -98.506753161962479 -106.07393864927872 0 0 0 0 -117.09953841500101 -97.760788035662699 0 -97.760788035662699 37.243890352099697 0 0 0 0 -148.99122244027058 -124.83910820173696 0 -124.83910820173696 84.691576126831933 0 0 0 0 24.649243970899079 -139.8401776712999 0 -139.8401776712999 -101.64980357299987 0 0 0 0 28.264359920094648 -135.90623238823537 0 -135.90623238823537 -118.99331598593926 0 0 0 0 -5.1717967840086203 -193.60673633235274 0 -193.60673633235274 -29.964278162093251 0 0 0 0 46.849351779256139 -56.455044355751937 0 -56.455044355751937 65.372076546384818 0 0 0 0 55.725818254774367 -50.251792939594452 0 -50.251792939594452 -42.619874623333089 0 0 0 0 15.045187249715752 -207.16855765832815 0 -207.16855765832815 -289.43440507665946 0 0 0 0 -43.022811355145677 -192.37586242703037 0 -192.37586242703037 24.220031646393181 0 0 0 0 48.321916126251899 -62.309387159036199 0 -62.309387159036199 75.958726770744221 0 0 0 0 25.177867472641083 -65.487539700174239 0 -65.487539700174239 -28.933608308640771 0 0 0 0 26.741901468882133 -107.04623073130278 0 -107.04623073130278 96.506611492091906 0 0 0 0 -76.968728993437708 -136.59527990300558 0 -136.59527990300558 -133.93832312141603 0 0 0 0 -13.304747423306715 -7.8520335970911503 0 -7.8520335970911503 7.4150045103341 0 0 0 0 -53.278255642788054 -48.335217830599504 0 -48.335217830599504 51.351469771143456 0 0 0 0 -188.87109199333145 -378.71073509813505 0 -378.71073509813505 -496.95069536147093 0 0 0 0 -223.62412394943544 84.246619997176822 0 84.246619997176822 118.87461286678445 0 0 0 0 -4.2133236441434798 -2.1028548066939692 0 -2.1028548066939692 0.84156858161207992 0 0 0 0 -76.009399427043036 -27.641130257114128 0 -27.641130257114128 68.496683807751424 0 0 0 0 -333.09710376724524 -262.7294803865916 0 -262.7294803865916 75.7141467069996 0 0 0 0 -502.83129352910828 -174.74560516595375 0 -174.74560516595375 80.52611008817621 0 0 0 0 -179.34866136946403 -331.47846664754616 0 -331.47846664754616 71.84969290609115 0 0 0 0 -156.04153527254039 -147.46891990930999 0 -147.46891990930999 34.544194158792379 0 0 0 0 -136.23174437052694 -323.20650719777404 0 -323.20650719777404 52.777365873724193 0 0 0 0 -187.6927200400668 -308.47489633073383 0 -308.47489633073383 48.654956912258058 0 0 0 0 -136.193106979856 -310.12652625956298 0 -310.12652625956298 65.407184604235226 0 0 0 0 -138.17113930248161 -425.04152592451646 0 -425.04152592451646 88.828111659022397 0 0 0 0 -197.68483647799621 -340.03028954403999 0 -340.03028954403999 151.17854750810511 0 0 0 0 57.732365004436986 -73.849667059562591 0 -73.849667059562591 67.769245676303541 0 0 0 0 -4.7718556286708917 -118.39740007575892 0 -118.39740007575892 154.87581979209699 0 0 0 0 -41.057095382820989 -154.64119714688786 0 -154.64119714688786 131.61913937699137 0 0 0 0 40.177722455445775 -98.175144704776471 0 -98.175144704776471 17.064432623884443 0 0 0 0 14.993030531032787 -84.967628446160631 0 -84.967628446160631 35.907132634824876 0 0 0 0 88.883513430364474 -60.091035424520669 0 -60.091035424520669 68.174028884066502 0 0 0 0 98.484699286320392 -120.4304557318319 0 -120.4304557318319 -1.8195922572049312 0 0 0 0 -140.64197725837494 -369.46276346142986 0 -369.46276346142986 -363.39416466336115 0 0 0 0 1.558640857756707 -26.287223389638875 0 -26.287223389638875 30.411749133074075 0 0 0 0 -142.20730056160392 -399.91537088266341 0 -399.91537088266341 52.131876653787913 0 0 0 0 62.875902258597684 -148.90197600658209 0 -148.90197600658209 98.439071040995202 0 0 0 0 129.21175240721277 -50.432389982466702 0 -50.432389982466702 65.049391190215829 0 0 0 0 62.798549371542322 -62.993541259013 0 -62.993541259013 20.469806200965763 0 0 0 0 3.09274057400944 -129.18120348580123 0 -129.18120348580123 132.63803590003226 0 0 0 0 16.506634506335104 -102.15227183540264 0 -102.15227183540264 195.98040925156965 0 0 0 0 30.561469611857319 -89.911461648211116 0 -89.911461648211116 108.58079514506971 0 0 0 0 52.754067582124065 -79.0829740073832 0 -79.0829740073832 3.5839381889617039 0 0 0 0 19.13304733774109 -96.596468623586901 0 -96.596468623586901 30.697954108851761 0 0 0 0 23.703399129051107 -165.52612167055497 0 -165.52612167055497 -35.449529942960112 0 0 0 0 -34.961601801136084 -65.888095497972358 0 -65.888095497972358 43.10295243749691 0 0 0 0 76.964597392667201 10.91082826773345 0 10.91082826773345 -272.89311081305732 0 0 0 0 10.358150496713279 -63.385171102221648 0 -63.385171102221648 126.66933953455009 0 0 0 0 6.4410335017063574 -64.554280650501141 0 -64.554280650501141 7.7947223206113065 0 0 0 0 491.11280417788294 751.71572592517623 0 751.71572592517623 701.31370575045003 0 0 0 0 -457.04435025715429 -823.54756699366044 0 -823.54756699366044 883.68254447355866 0 0 0 0 432.63943444061806 -122.27541404032854 0 -122.27541404032854 -153.58933636944857 0 0 0 0 7.0746687932146983 -3.811121481107989 0 -3.811121481107989 2.2206681887509205 0 0 0 0 136.40155384805985 -544.9591928325608 0 -544.9591928325608 332.69712527728007 0 0 0 0 34.244649730612132 -88.883741132845586 0 -88.883741132845586 70.066953008803125 0 0 0 0 -462.93205872073304 -211.21611390858016 0 -211.21611390858016 378.94529770741065 0 0 0 0 -137.25773367341026 -169.11540826227429 0 -169.11540826227429 -87.987927659662091 0 0 0 0 -80.663798171757662 -311.49324208045437 0 -311.49324208045437 -55.107697847371128 0 0 0 0 126.81625167991115 -61.129453578738321 0 -61.129453578738321 -19.007319543750782 0 0 0 0 32.2609045930786 -65.535223225188005 0 -65.535223225188005 52.387724877431424 0 0 0 0 63.246742025046842 -150.94142858445412 0 -150.94142858445412 -121.15576413221424 0 0 0 0 43.518301950942259 -131.87229515897707 0 -131.87229515897707 -138.26979657982884 0 0 0 0 27.253547486572643 -85.035969758413557 0 -85.035969758413557 -23.083998532965779 0 0 0 0 73.384972252272064 -63.864381422296333 0 -63.864381422296333 -44.48524689883925 0 0 0 0 32.263962518558401 -138.94845553384221 0 -138.94845553384221 -49.051238107305835 0 0 0 0 -57.831376702328271 -52.437977829235024 0 -52.437977829235024 74.012294452273636 0 0 0 0 -41.118065225931787 -190.0443477358167 0 -190.0443477358167 -15.275610971846618 0 0 0 0 -37.284554580088873 -112.4118466052565 0 -112.4118466052565 -45.857980403942975 0 0 0 0 -20.57977852654767 -231.43331674344881 0 -231.43331674344881 -68.131500117786345 0 0 0 0 -47.18034713457746 -142.76167959166924 0 -142.76167959166924 -49.097212315981778 0 0 0 0 69.641034366482018 -143.42740182842044 0 -143.42740182842044 -126.96556393118226 0 0 0 0 -159.58114093683253 -204.32276318162621 0 -204.32276318162621 -102.89059060591535 0 0 0 0 7.2786842419991444 -159.72704454940686 0 -159.72704454940686 -91.100377504277276 0 0 0 0 -1.0359667867887765 -191.39493889260484 0 -191.39493889260484 -186.47451561800153 0 0 0 0 9.4314212178287562 -176.5366181704012 0 -176.5366181704012 -333.22572424121608 0 0 0 0 4.2396946179353563 -5.2671715856250074 0 -5.2671715856250074 2.7656831971026747 0 0 0 0 -39.546339734341018 -78.3267832462152 0 -78.3267832462152 -164.64958292838128 0 0 0 0 -110.68571261705802 -81.751449321345717 0 -81.751449321345717 -17.313447348984482 0 0 0 0 15.205175884917253 -14.997095708509164 0 -14.997095708509164 6.3690255583805993 0 0 0 0 19.035920362452998 -126.42066776942283 0 -126.42066776942283 -83.616740608980763 0 0 0 0 -27.822038872245884 -40.141153813980623 0 -40.141153813980623 5.7528089514224803 0 0 0 0 -18.24234015703405 -73.855440566589095 0 -73.855440566589095 26.150625787704485 0 0 0 0 29.587354956124358 -58.64389909681492 0 -58.64389909681492 9.5556523622862812 0 0 0 0 -40.622090364478936 -92.13657998295821 0 -92.13657998295821 145.39533429572475 0 0 0 0 -4.7474780821139575 -16.498327042439996 0 -16.498327042439996 242.7080887855991 0 0 0 0 -118.12904744117986 -74.239217530193855 0 -74.239217530193855 233.37770651557366 0 0 0 0 -51.491329831333132 -69.400938957987819 0 -69.400938957987819 218.08577184611931 0 0 0 0 18.482359534740681 353.5884223869507 0 353.5884223869507 1022.7709801388555 0 0 0 0 -3.2741391394811217 -140.1989653078781 0 -140.1989653078781 -158.69880391363222 0 0 0 0 -142.31572461972246 -244.96754229383077 0 -244.96754229383077 634.21930921594685 0 0 0 0 7.6647076130471987 -110.19333345174715 0 -110.19333345174715 8.0040759511664135 0 0 0 0 -0.71052619579117504 -1.8885284561744697 0 -1.8885284561744697 45.261288164321591 0 0 0 0 163.25038959332596 -436.46009419999609 0 -436.46009419999609 -293.22273892156954 0 0 0 0 -66.434628361987052 -158.72316505171875 0 -158.72316505171875 178.77460852352669 0 0 0 0 28.104660491924278 -117.97089850823943 0 -117.97089850823943 34.496611443993437 0 0 0 0 39.179120992528624 -119.55441544803034 0 -119.55441544803034 7.1334195794042898 0 0 0 0 146.535294006404 38.639655983104603 0 38.639655983104603 196.54663121915655 0 0 0 0 60.200203039978078 -157.66692482204235 0 -157.66692482204235 -63.120050006749807 0 0 0 0 11.896714314914789 -192.10070228072436 0 -192.10070228072436 -60.165500533650629 0 0 0 0 -34.773134778850363 -162.23854914811091 0 -162.23854914811091 -23.904045446135569 0 0 0 0 27.005814031865157 -144.8060458893051 0 -144.8060458893051 -77.431904403318185 0 0 0 0 -32.188439538833336 -182.30416286080435 0 -182.30416286080435 -98.919205001962837 0 0 0 0 -104.62442703204579 -269.79105606889061 0 -269.79105606889061 -100.17426643476938 0 0 0 0 -8.3347450744809066 -217.58420608166125 0 -217.58420608166125 -72.081663058226695 0 0 0 0 -11.353532709664705 -279.92362617846584 0 -279.92362617846584 -160.54385074818856 0 0 0 0 -76.719073757507431 -206.71670583060768 0 -206.71670583060768 -32.41724532340595 0 0 0 0 -85.805417091978597 -196.22249676690262 0 -196.22249676690262 -44.523340823536273 0 0 0 0 -45.413792018640379 -150.87163672563474 0 -150.87163672563474 -33.56856248472468 0 0 0 0 -37.204605068778619 -150.30468965321779 0 -150.30468965321779 -47.244395277026342 0 0 0 0 -34.233488984866653 -168.85417949410203 0 -168.85417949410203 -95.121476041327696 0 0 0 0 -43.980521301840781 -139.35059093174641 0 -139.35059093174641 -52.975252513773739 0 0 0 0 -43.924860603539514 -144.50049461632705 0 -144.50049461632705 -41.387368160823826 0 0 0 0 -16.559090474635013 -115.59255145231145 0 -115.59255145231145 -99.473535880737472 0 0 0 0 -14.830350473627732 -98.641411105517363 0 -98.641411105517363 -38.578537002234953 0 0 0 0 -47.35962346609449 -135.51498704575351 0 -135.51498704575351 -10.490230625713593 0 0 0 0 -46.940857285677339 -146.22983988800843 0 -146.22983988800843 -42.256529069083626 0 0 0 0 -22.892197650849994 -104.6241604868992 0 -104.6241604868992 -6.9703572649214038 0 0 0 0 -13.133245180687481 -180.64092527689809 0 -180.64092527689809 56.615606796724023 0 0 0 0 -73.353410836815783 -160.34426797118795 0 -160.34426797118795 56.970380940620089 0 0 0 0 -68.21130505943438 -184.42328199044277 0 -184.42328199044277 -48.311540065071313 0 0 0 0 -22.841007488721516 -136.65082189941313 0 -136.65082189941313 -18.007466242248483 0 0 0 0 -38.507177060149843 -250.5070118712465 0 -250.5070118712465 -6.8496721026749583 0 0 0 0 -26.856830636857921 -211.38761407090715 0 -211.38761407090715 122.99762757364078 0 0 0 0 15.689356132308603 -254.10946884041186 0 -254.10946884041186 109.654881246679 0 0 0 0 32.58652940949105 -287.77753354546439 0 -287.77753354546439 58.909921466496598 0 0 0 0 -56.934192830492975 -214.28082939079468 0 -214.28082939079468 -77.577788989729015 0 0 0 0 -120.94723273489944 -378.22966876029386 0 -378.22966876029386 18.730929048855614 0 0 0 0 -119.03262700961204 -317.19375676726486 0 -317.19375676726486 -371.00382799348154 0 0 0 0 -337.7412747490016 -281.86500069090107 0 -281.86500069090107 -85.668144567691797 0 0 0 0 15.360788854624843 -418.23017515400716 0 -418.23017515400716 -163.37987325491849 0 0 0 0 -275.83939685736186 -523.87429728205097 0 -523.87429728205097 -192.04944673582213 0 0 0 0 -188.52553748960781 -351.16004509176128 0 -351.16004509176128 -106.89522693221807 0 0 0 0 -41.753546860447386 -314.31743651429133 0 -314.31743651429133 -104.88731950093643 0 0 0 0 -21.242223360386561 -313.74118067177187 0 -313.74118067177187 -143.86950293009431 0 0 0 0 -124.88140133184061 -197.99423503217258 0 -197.99423503217258 10.366175833449233 0 0 0 0 -142.45866893075072 -266.46918190477118 0 -266.46918190477118 -81.882718777545961 0 0 0 0 -121.13009977906768 -275.33720100222854 0 -275.33720100222854 -85.917537241021819 0 0 0 0 44.634689792095742 -217.91922372982663 0 -217.91922372982663 191.13382526383793 0 0 0 0 56.871755440577175 -109.49853458755959 0 -109.49853458755959 52.327409863160838 0 0 0 0 82.410196735743739 -154.31018130098528 0 -154.31018130098528 50.912373415703769 0 0 0 0 66.892991890890698 -154.78658437265403 0 -154.78658437265403 -40.748409232577615 0 0 0 0 26.066273834821914 -148.39397342957091 0 -148.39397342957091 175.06245065476105 0 0 0 0 90.999021334377176 -177.69064568328031 0 -177.69064568328031 108.20754997682889 0 0 0 0 28.985902216656541 -157.07722343227942 0 -157.07722343227942 109.76930101834296 0 0 0 0 -68.904791397126246 -115.91005189948191 0 -115.91005189948191 15.977898822398856 0 0 0 0 3.20286397712173 -14.266856620446731 0 -14.266856620446731 -7.6961836039346849 0 0 0 0 187.39538495607849 -87.106683427206008 0 -87.106683427206008 -107.98951624211441 0 0 0 0 76.877256867337564 -160.74758410797222 0 -160.74758410797222 45.783234950184124 0 0 0 0 69.601793898516917 -186.36132173431542 0 -186.36132173431542 151.38290480524302 0 0 0 0 41.979541969179991 -329.12262887714314 0 -329.12262887714314 236.10414120498899 0 0 0 0 73.111403031856753 -193.09620830648055 0 -193.09620830648055 174.3750625137036 0 0 0 0 77.440639207030472 -282.39082410305127 0 -282.39082410305127 272.46692361435271 0 0 0 0 141.54023932302516 -275.45735953786061 0 -275.45735953786061 273.17851982611319 0 0 0 0 151.2036983423568 -249.18511193041195 0 -249.18511193041195 138.70118772052228 0 0 0 0 25.833318991859414 -213.43527549286227 0 -213.43527549286227 232.60299869241135 0 0 0 0 99.813936243685021 -286.72472710015427 0 -286.72472710015427 242.54265996970207 0 0 0 0 28.857406694896781 -313.78805236196058 0 -313.78805236196058 303.96910933191248 0 0 0 0 96.264724730324815 -351.18581698960043 0 -351.18581698960043 323.32657294379169 0 0 0 0 24.575997557469236 -330.62325809971662 0 -330.62325809971662 381.6367206210416 0 0 0 0 -25.865147705251729 -203.79974434804171 0 -203.79974434804171 358.61033607510035 0 0 0 0 34.676638309600094 -326.30816877276811 0 -326.30816877276811 327.30573145826929 0 0 0 0 0.26538809179577072 -1.7772342763670395 0 -1.7772342763670395 0.97651173835288319 0 0 0 0 6.1957754719364715 -10.801441408001466 0 -10.801441408001466 -1.0152085782059785 0 0 0 0 62.439593691402479 -174.96711169329501 0 -174.96711169329501 345.77983576968836 0 0 0 0 -46.675217269010318 -27.68985906400485 0 -27.68985906400485 6.1324907008329319 0 0 0 0 62.168299737462803 -246.07906865565383 0 -246.07906865565383 231.09254763681383 0 0 0 0 80.494640361474012 -272.11167138707242 0 -272.11167138707242 267.40870383265428 0 0 0 0 58.902119452945044 -221.5004590743556 0 -221.5004590743556 433.23818201228278 0 0 0 0 36.550138578939368 -295.69669720317324 0 -295.69669720317324 679.54590165069385 0 0 0 0 2.3236009007545988 -9.327730695866876 0 -9.327730695866876 -0.57020035459494522 0 0 0 0 -227.18442695648992 -192.83535419478721 0 -192.83535419478721 -81.968346836358251 0 0 0 0 -63.730188051620644 -333.12296143670028 0 -333.12296143670028 1350.5456247257534 0 0 0 0 99.575733238165412 -260.08599101530854 0 -260.08599101530854 512.47501754525001 0 0 0 0 136.35136584075372 -386.35927316163725 0 -386.35927316163725 446.99259099141636 0 0 0 0 142.92776739987232 -218.68363484253609 0 -218.68363484253609 342.2519903369539 0 0 0 0 0.49788322934182361 -613.2078011644262 0 -613.2078011644262 557.35956292604169 0 0 0 0 0.5733512233465774 -6.0092576989181623 0 -6.0092576989181623 -0.28704727299405519 0 0 0 0 -98.976727813198522 -576.47212285378191 0 -576.47212285378191 -797.45354355941708 0 0 0 0 -112.89275661094143 -664.96229304060762 0 -664.96229304060762 -11.35764329432277 0 0 0 0 -241.53282506440064 -554.1983759662071 0 -554.1983759662071 -0.0033595929126022384 0 0 0 0 -272.44101575545119 -465.94290484531848 0 -465.94290484531848 -147.52162275483715 0 0 0 0 -398.91028626664047 -472.42413853766629 0 -472.42413853766629 -0.12033437333593611 0 0 0 0 -125.9005680155642 -339.40014256878203 0 -339.40014256878203 -154.83126641118724 0 0 0 0 -46.618509672189248 -27.612058601982426 0 -27.612058601982426 5.20304130432487 0 0 0 0 1.6966676837855346 0.055233844775500529 0 0.055233844775500529 -2.0292584361632748 0 0 0 0 -652.23264111347999 -128.40540899406187 0 -128.40540899406187 -5.9216529070981778 0 0 0 0 267.36636481905771 -506.92328868878394 0 -506.92328868878394 574.20975217377418 0 0 0 0 550.58486424847797 -756.177265037506 0 -756.177265037506 3.5744301995348113 0 0 0 0 -102.85079992642568 -467.45400990115741 0 -467.45400990115741 -56.061115076561691 0 0 0 0 -65.522050651205063 -266.61795885889296 0 -266.61795885889296 85.146195847424679 0 0 0 0 -122.17483265677583 -550.3695974955881 0 -550.3695974955881 63.933206907415297 0 0 0 0 -0.32446588066098059 1.1681311590940879 0 1.1681311590940879 6.5549404899383603 0 0 0 0 209.1371637435368 -401.02609560565179 0 -401.02609560565179 59.447783610710758 0 0 0 0 -18.970859653281877 -27.372734427606702 0 -27.372734427606702 24.146088227498694 0 0 0 0 1.6993017335514082 -0.18532902836690823 0 -0.18532902836690823 -3.4672437131272318 0 0 0 0 -879.05472653851029 -311.26345486930222 0 -311.26345486930222 94.693109174295387 0 0 0 0 491.41837462503099 -133.64154613035862 0 -133.64154613035862 -97.897692277416354 0 0 0 0 197.84678178971808 -478.88861078282935 0 -478.88861078282935 -393.07406899338821 0 0 0 0 -303.23017592760152 -641.06186493254063 0 -641.06186493254063 -194.73191114803194 0 0 0 0 -69.268540454475442 -579.17163663169777 0 -579.17163663169777 65.302567075872503 0 0 0 0 -60.27017293888639 -407.46356589203788 0 -407.46356589203788 -86.109158274819492 0 0 0 0 -4.8712256828603131 -556.41400438867822 0 -556.41400438867822 73.942951666918816 0 0 0 0 -59.797643518773839 -440.92949219638103 0 -440.92949219638103 266.98222877879743 0 0 0 0 -52.879160202668572 -571.57085237769934 0 -571.57085237769934 104.78439414509194 0 0 0 0 -47.679448073693493 -589.01822035109944 0 -589.01822035109944 38.782018531870563 0 0 0 0 23.884743568858539 -597.01724797080533 0 -597.01724797080533 18.085000789273181 0 0 0 0 -37.06427980765875 -501.91464501469454 0 -501.91464501469454 -99.425638739387068 0 0 0 0 -37.243516212532995 -519.61017001593427 0 -519.61017001593427 65.476508164658298 0 0 0 0 129.55019262924179 -571.05416520896688 0 -571.05416520896688 0.12601831833308097 0 0 0 0 255.89369001958585 -297.74856956623444 0 -297.74856956623444 104.93629941654217 0 0 0 0 1.5372762526894803 -422.85701414914365 0 -422.85701414914365 139.37281427909329 0 0 0 0 64.354848544651759 -446.73259995314584 0 -446.73259995314584 100.71722426209089 0 0 0 0 1.7027757562785339 3.0325411424886966 0 3.0325411424886966 0.96591455878638044 0 0 0 0 732.91662666184129 -509.30677413430385 0 -509.30677413430385 -0.059281297362758778 0 0 0 0 -77.399149347598723 -11.378651267761597 0 -11.378651267761597 17.470282189067802 0 0 0 0 -4.0233547370517044 -34.234508306428324 0 -34.234508306428324 -0.026371150612249039 0 0 0 0 15.570996060392645 -18.213854086483479 0 -18.213854086483479 12.364468553161714 0 0 0 0 10.886247141740796 -50.821889636582227 0 -50.821889636582227 17.112277659398387 0 0 0 0 383.56895904584962 -515.01467505538312 0 -515.01467505538312 387.62586352448125 0 0 0 0 0.84451995339074415 -8.5236702774252393 0 -8.5236702774252393 -11.10707991513425 0 0 0 0 13.56922890318674 -6.2802935400541173 0 -6.2802935400541173 0.86370565155812073 0 0 0 0 194.80161695105198 -352.08690940179804 0 -352.08690940179804 255.54347352639888 0 0 0 0 2.8207068583976707 -9.001490344633126 0 -9.001490344633126 -12.939340350321743 0 0 0 0 222.51367262858366 -150.05505980910493 0 -150.05505980910493 161.19863103909302 0 0 0 0 265.09696532234375 -216.67412938712368 0 -216.67412938712368 -77.874255477237284 0 0 0 0 294.13249511078357 -301.96295588042267 0 -301.96295588042267 -1.7194547071994748 0 0 0 0 220.81571748404531 -182.01029056077823 0 -182.01029056077823 -79.396751928470621 0 0 0 0 1.5335712348751258 -105.2880030014494 0 -105.2880030014494 -55.351028593615183 0 0 0 0 154.50030371925095 10.893940085354188 0 10.893940085354188 -4.7996645993698621 0 0 0 0 90.870158156569232 -276.05980730821466 0 -276.05980730821466 84.133749969936616 0 0 0 0 85.212290164576189 -159.7287957886183 0 -159.7287957886183 -305.92329850367969 0 0 0 0 371.84457398370432 -90.451409185952798 0 -90.451409185952798 189.01270506881701 0 0 0 0 25.347453088521434 -25.203831390084815 0 -25.203831390084815 0.036329224079963751 0 0 0 0 1.8089606249411077 -4.7425152171527571 0 -4.7425152171527571 -5.7939315767243897 0 0 0 0 -124.55184546805685 -830.07178622304491 0 -830.07178622304491 681.92452876906464 0 0 0 0 -142.53436560385308 -922.86738936045731 0 -922.86738936045731 313.20819724531611 0 0 0 0 -83.98096259580052 -1030.6156803299891 0 -1030.6156803299891 -418.91395800429746 0 0 0 0 -25.154727199478657 -113.37196028759354 0 -113.37196028759354 613.56153050115972 0 0 0 0 401.43941816537699 -1259.1901568171634 0 -1259.1901568171634 2.9041284078703029 0 0 0 0 155.04480352034443 -758.78708809107775 0 -758.78708809107775 -1620.1832953857447 0 0 0 0 0.38936315506992969 -7.1006415227070363 0 -7.1006415227070363 1.9914367842115297 0 0 0 0 -235.08429469149269 -98.47007500116888 0 -98.47007500116888 -674.80149091934436 0 0 0 0 -352.28392674638599 -228.38643275857612 0 -228.38643275857612 -341.1690360019129 0 0 0 0 -196.71243366209092 -425.62155963553232 0 -425.62155963553232 -699.11047205331852 0 0 0 0 -128.42373112955829 -104.07478533272661 0 -104.07478533272661 -1015.206608225446 0 0 0 0 -161.16672067969921 -199.21750550108845 0 -199.21750550108845 -151.32705124528729 0 0 0 0 -149.64241141246021 -130.73562339527416 0 -130.73562339527416 0.37913371014292352 0 0 0 0 -538.33814749793964 -561.6861975698921 0 -561.6861975698921 -477.25550456569181 0 0 0 0 1.7799830108992296 -12.57531269731146 0 -12.57531269731146 3.9477371361550126 0 0 0 0 -24.13250676688358 -121.33995095878709 0 -121.33995095878709 -76.498405469785212 0 0 0 0 -88.874447643302119 41.444390197546454 0 41.444390197546454 -537.89867307095847 0 0 0 0 -153.49449256619846 -333.72364301521884 0 -333.72364301521884 -1012.72337542893 0 0 0 0 0.3297974997050801 -14.815785512055811 0 -14.815785512055811 4.4462042306075489 0 0 0 0 64.602977385891791 -323.3125476016703 0 -323.3125476016703 -1153.256488834435 0 0 0 0 5.3288643927553494 -364.51341756602051 0 -364.51341756602051 161.31319978809915 0 0 0 0 -128.31778274472163 -185.04759307494533 0 -185.04759307494533 -434.2235219819413 0 0 0 0 -167.40725595543336 -31.079494624602376 0 -31.079494624602376 -75.500485535012558 0 0 0 0 69.859132910220069 -304.82361324279918 0 -304.82361324279918 4.1476996453602624 0 0 0 0 -214.72700349950173 -81.091187280835584 0 -81.091187280835584 -22.793887144522159 0 0 0 0 -160.61291595133662 -89.826906285707082 0 -89.826906285707082 -358.75800261066252 0 0 0 0 -313.93146891358629 -124.25635373359546 0 -124.25635373359546 -83.289877575851278 0 0 0 0 -112.87517685198691 -115.1884339208118 0 -115.1884339208118 -83.735037592622575 0 0 0 0 -134.89766748217517 -15.760514685316593 0 -15.760514685316593 -57.100568102876423 0 0 0 0 -25.093977681699471 -43.902407545072492 0 -43.902407545072492 -99.58251778066915 0 0 0 0 -183.97357750358788 -83.677854633297102 0 -83.677854633297102 -17.536186704863212 0 0 0 0 -60.376936931039381 -126.21002764380682 0 -126.21002764380682 -85.481880261781043 0 0 0 0 -112.15428643356427 -92.011236360354815 0 -92.011236360354815 -73.501490098889917 0 0 0 0 -108.01559850834019 -108.31976189273701 0 -108.31976189273701 -14.396268871465509 0 0 0 0 85.979359705999741 -216.89094113662668 0 -216.89094113662668 -12.570876289537409 0 0 0 0 -151.9557173906469 -154.63183472117453 0 -154.63183472117453 -9.2598168214753969 0 0 0 0 -61.137290543912968 -126.60782537674095 0 -126.60782537674095 26.351432443596423 0 0 0 0 95.481000060943188 -232.67843559068569 0 -232.67843559068569 -11.779101903311812 0 0 0 0 103.53704605419261 -212.73868543438221 0 -212.73868543438221 31.043748854310252 0 0 0 0 -0.91610180876159575 -91.327998763495998 0 -91.327998763495998 93.045102773812687 0 0 0 0 37.357992363649828 -337.17304763836728 0 -337.17304763836728 30.741175658346037 0 0 0 0 141.40606203378411 -345.74710670393688 0 -345.74710670393688 -357.46748011838645 0 0 0 0 -2.746642987848702 -7.2695607970566698 0 -7.2695607970566698 -5.2806529283990926 0 0 0 0 -602.98203540596296 35.139301884715678 0 35.139301884715678 66.659848359035095 0 0 0 0 132.74969295689152 -302.81016340949463 0 -302.81016340949463 -527.31878018591669 0 0 0 0 -138.56492446390621 -100.22023494142923 0 -100.22023494142923 -66.526285843021469 0 0 0 0 -68.380319715090081 -139.71080188796986 0 -139.71080188796986 -195.50326638328261 0 0 0 0 -61.594787138739775 -175.46764195779542 0 -175.46764195779542 -30.796990940369142 0 0 0 0 2.8864402587096265 -237.87855829996261 0 -237.87855829996261 -247.08143718558131 0 0 0 0 31.491256312932819 -220.68371989841398 0 -220.68371989841398 -257.95007321902813 0 0 0 0 42.449512129940558 -258.57680480423733 0 -258.57680480423733 -431.77084427962836 0 0 0 0 -152.90908481535735 -55.619862242849194 0 -55.619862242849194 -268.02762852325395 0 0 0 0 -254.94693367925356 -225.98987303834656 0 -225.98987303834656 -185.51354953856207 0 0 0 0 -147.16447421700286 -173.23622507978871 0 -173.23622507978871 -133.0260782330588 0 0 0 0 -72.912353064108174 -185.12132005872991 0 -185.12132005872991 -176.52830497191462 0 0 0 0 -69.041077176610997 -172.6240442957569 0 -172.6240442957569 -149.53720376943238 0 0 0 0 -30.16464055787219 -252.55193885627523 0 -252.55193885627523 -338.52473985297547 0 0 0 0 -8.4765337807912147 -198.83785653300583 0 -198.83785653300583 -245.9359283206395 0 0 0 0 89.407197602617089 -216.41203801956726 0 -216.41203801956726 -216.89823664632422 0 0 0 0 -31.758402488660067 -289.52257814195764 0 -289.52257814195764 -162.89049073692149 0 0 0 0 -48.714781891401799 -276.65535776201432 0 -276.65535776201432 -165.44122460123617 0 0 0 0 -29.747145486013324 -220.14080109434872 0 -220.14080109434872 -256.82773399501457 0 0 0 0 -43.874771320872242 -252.02394580251712 0 -252.02394580251712 -196.34866822694312 0 0 0 0 16.618731874172227 -267.76208092091838 0 -267.76208092091838 -182.69410565137514 0 0 0 0 59.91659099185199 -218.22975094646245 0 -218.22975094646245 -185.53593761709635 0 0 0 0 52.327069550083252 -323.95780528757314 0 -323.95780528757314 -181.35470280030859 0 0 0 0 -24.271271117730066 -303.07763823865389 0 -303.07763823865389 -181.02325161579211 0 0 0 0 134.15645378631598 -332.12380570730238 0 -332.12380570730238 -221.7752919124905 0 0 0 0 27.494195037492318 -329.19780477472523 0 -329.19780477472523 -176.76107188618334 0 0 0 0 198.58293979430528 -222.11284133194567 0 -222.11284133194567 -180.03377904856461 0 0 0 0 85.710334341594717 -143.77424640236131 0 -143.77424640236131 -79.824667832327123 0 0 0 0 112.97664662353054 -143.5660467036505 0 -143.5660467036505 -129.11208943092788 0 0 0 0 -50.584843950935465 -70.809908237773925 0 -70.809908237773925 -62.111913321787142 0 0 0 0 -25.152596189102042 -45.056805271888152 0 -45.056805271888152 -53.549229828059651 0 0 0 0 -103.69691657730436 -82.454042175872019 0 -82.454042175872019 -64.16633629853095 0 0 0 0 -35.219575927098049 -111.0134016664415 0 -111.0134016664415 -98.441982877149712 0 0 0 0 -47.946158114660648 -181.08275932674769 0 -181.08275932674769 -146.14561363658868 0 0 0 0 -10.808869148706435 -154.83448636063258 0 -154.83448636063258 -129.06557541497205 0 0 0 0 -3077.9649724432456 -2919.8546853883272 0 -2919.8546853883272 0.88536760705756024 0 0 0 0 -843.68107466171205 -2409.1244329555338 0 -2409.1244329555338 -2603.5732973596846 0 0 0 0 -2615.5795219113497 -2029.5887033125691 0 -2029.5887033125691 -2179.1078676967009 0 0 0 0 -874.54591689380732 -2996.1221515819379 0 -2996.1221515819379 -2542.3358412763046 0 0 0 0 1.3736704959519557 -3121.0384277170306 0 -3121.0384277170306 -2388.7963674102211 0 0 0 0 -1090.1020995688305 -3648.9947390156049 0 -3648.9947390156049 -1101.893092013881 0 0 0 0 -2510.3282781087037 -2794.8278292005489 0 -2794.8278292005489 -1614.9298899678106 0 0 0 0 -2588.5814732195286 -2522.501832143862 0 -2522.501832143862 -2529.3153420180315 0 0 0 0 -3021.4309390220151 -1688.3829170627723 0 -1688.3829170627723 -1300.6351722648251 0 0 0 0 -2979.5347167246364 -2010.4264075104511 0 -2010.4264075104511 -1384.1169754379989 0 0 0 0 -5.5872302150839062 -3.2495654459331149 0 -3.2495654459331149 -3.9482542404137462 0 0 0 0 -4005.7416545729866 -3023.5584202310856 0 -3023.5584202310856 -1004.002779262577 0 0 0 0 -2322.11768515312 -3294.17865254356 0 -3294.17865254356 -992.26348732656334 0 0 0 0 -3434.7068344193685 -4053.7976722663298 0 -4053.7976722663298 -1489.7452956321649 0 0 0 0 -2823.0142934993055 -3478.1847380831314 0 -3478.1847380831314 -2167.0705657693034 0 0 0 0 1.5859580655923082 -7.0635534648369003 0 -7.0635534648369003 -12.308940330800738 0 0 0 0 -3078.0121619687416 -759.760560478564 0 -759.760560478564 -3827.426159627852 0 0 0 0 -2975.1415427055908 -3206.0502739532749 0 -3206.0502739532749 -2019.4211664261893 0 0 0 0 -3870.5088966137846 -1394.7490964345998 0 -1394.7490964345998 250.99692571745254 0 0 0 0 -14.786794799438155 -21.044704031362741 0 -21.044704031362741 -17.01484431133207 0 0 0 0 -608.28157314861892 -1642.0299330532143 0 -1642.0299330532143 -4310.0592269039407 0 0 0 0 -8.0436302723736333 -9.4243003360189164 0 -9.4243003360189164 3.9997098544383789 0 0 0 0 -145.47263168310747 -306.16877343855595 0 -306.16877343855595 -1063.4414646840378 0 0 0 0 -527.95635043745278 194.65095451829984 0 194.65095451829984 -29.642058871948393 0 0 0 0 159.09206015797827 -11.327269306471862 0 -11.327269306471862 -168.5853701850865 0 0 0 0 -144.04818368796259 375.19298864541634 0 375.19298864541634 -378.08067624743853 0 0 0 0 -1.8774348590190755 -2.3732195619671188 0 -2.3732195619671188 -19.929005907367184 0 0 0 0 761.15977912276867 490.40569457027595 0 490.40569457027595 -733.39840003124846 0 0 0 0 -3648.7801391197136 -167.24821505846921 0 -167.24821505846921 101.27978301071562 0 0 0 0 -1796.97312093254 -2360.9594673891679 0 -2360.9594673891679 567.11919405995286 0 0 0 0 -2136.6535462600295 -942.70488807024958 0 -942.70488807024958 -70.4762851933192 0 0 0 0 -2208.3867860220489 -3517.2027200751036 0 -3517.2027200751036 -1828.7605734226563 0 0 0 0 -2707.6904315448191 -3056.4747954448394 0 -3056.4747954448394 -2638.3756601508067 0 0 0 0 -2559.0507057273935 -3101.2638535526203 0 -3101.2638535526203 -2738.2053879605519 0 0 0 0 -1240.844209924071 -1184.7540771847562 0 -1184.7540771847562 -633.96174644866551 0 0 0 0 -7.7762796065334214 -9.1526486388490298 0 -9.1526486388490298 1.1367583896710158 0 0 0 0 -2489.0869818838546 -2539.2129494324181 0 -2539.2129494324181 -1806.1042975713935 0 0 0 0 -2549.4615889128327 -2788.9024529122435 0 -2788.9024529122435 -2487.3157225514879 0 0 0 0 -721.17907836422091 -446.16098007943219 0 -446.16098007943219 -3.7835220455204355 0 0 0 0 359.97690364607843 -733.50696657453955 0 -733.50696657453955 -879.93877673075622 0 0 0 0 -7.3099346876840627 -14.913037884863456 0 -14.913037884863456 4.1297292519981283 0 0 0 0 27.53560468726937 -725.63393650268699 0 -725.63393650268699 -308.372335077147 0 0 0 0 213.59660347433237 207.19551851291908 0 207.19551851291908 -478.53379891556688 0 0 0 0 63.159480756323319 -430.00394420792873 0 -430.00394420792873 65.851845492434222 0 0 0 0 796.23074950285309 -359.91675417750389 0 -359.91675417750389 -565.36484653691878 0 0 0 0 36.297885307023535 -285.07323125730909 0 -285.07323125730909 -545.29250864575442 0 0 0 0 -62.250168600512552 -69.555662911108811 0 -69.555662911108811 -66.527981785402517 0 0 0 0 -124.42327818031481 -189.65201782851364 0 -189.65201782851364 -4.5642593494376342 0 0 0 0 613.73837988631567 -387.06011155516899 0 -387.06011155516899 -55.591289174830308 0 0 0 0 -1.2158776827162683 -1.7584926098750771 0 -1.7584926098750771 10.304181340268087 0 0 0 0 645.85177335090702 55.456574940725659 0 55.456574940725659 -30.420985013945028 0 0 0 0 310.14435236512509 -186.19176534962025 0 -186.19176534962025 -66.529457741409715 0 0 0 0 40.986093099239952 -67.971836894585067 0 -67.971836894585067 -39.593373674288159 0 0 0 0 55.712087454157881 -21.065739789817599 0 -21.065739789817599 -25.314707918228123 0 0 0 0 -0.6820712877922972 -18.189860326751443 0 -18.189860326751443 6.3979949464674064 0 0 0 0 -37.477203365415335 -35.030595335876569 0 -35.030595335876569 -43.483308270195266 0 0 0 0 26.936555591296383 -21.737128934279099 0 -21.737128934279099 -64.642875186022138 0 0 0 0 66.302017140609678 -151.74800807201245 0 -151.74800807201245 -66.29033427448303 0 0 0 0 -10.326033893921704 -39.280588092375183 0 -39.280588092375183 -49.556406410440104 0 0 0 0 40.067076483945129 -125.18936167981155 0 -125.18936167981155 7.8972625181195326 0 0 0 0 66.632226392452139 -184.48594350204803 0 -184.48594350204803 -64.796734506373468 0 0 0 0 -16.784414925450051 -40.7161248448854 0 -40.7161248448854 -60.831067422712636 0 0 0 0 55.001547047950481 8.5378386037867813 0 8.5378386037867813 -53.567744168058596 0 0 0 0 5552.1600383791374 633.41774127492681 0 633.41774127492681 -2307.8829941837321 0 0 0 0 17.979119369476706 6.2669931928698333 0 6.2669931928698333 -16.191765120803154 0 0 0 0 0.68717891206641468 0.7525957768224032 0 0.7525957768224032 -4.4223549889176184 0 0 0 0 -414.8710447519552 -83.527572654878895 0 -83.527572654878895 -14.444066721451236 0 0 0 0 76.859761569910916 -143.06903499588952 0 -143.06903499588952 -205.00755850231508 0 0 0 0 -223.34645313743385 -340.26005986574455 0 -340.26005986574455 -261.32554717203311 0 0 0 0 159.80903868324822 107.53338741081825 0 107.53338741081825 -125.07681208957001 0 0 0 0 244.3059016498155 -51.428367110725958 0 -51.428367110725958 -518.28057996126881 0 0 0 0 -146.05960019449412 75.792144918392296 0 75.792144918392296 21.431962669215864 0 0 0 0 -39.868814444678719 -91.867481671899441 0 -91.867481671899441 84.282654275386449 0 0 0 0 -12.947341832815084 -31.190635651783907 0 -31.190635651783907 -51.731713287242542 0 0 0 0 281.643626060526 352.78507622711186 0 352.78507622711186 1254.6997210999834 0 0 0 0 -3.297565741066748 -9.7991027262399655 0 -9.7991027262399655 -4.1870564408235396 0 0 0 0 -352.65819044649834 -248.16749190301198 0 -248.16749190301198 10.514605366275646 0 0 0 0 229.97328581145848 252.15480755374301 0 252.15480755374301 -348.01298364016111 0 0 0 0 -6.5940211635315791 -892.02149841698701 0 -892.02149841698701 -1928.9112761082943 0 0 0 0 -0.48561091824916502 -0.67014338231831516 0 -0.67014338231831516 -6.6051736170990125 0 0 0 0 532.40302097176755 32.089746736317466 0 32.089746736317466 -214.30336124432506 0 0 0 0 -557.08733537964872 -140.94266087793949 0 -140.94266087793949 68.098128087207442 0 0 0 0 -280.18891649574653 -42.726863176616462 0 -42.726863176616462 -57.716589682269841 0 0 0 0 99.285674144732184 -38.519428033541772 0 -38.519428033541772 -76.22850240378466 0 0 0 0 70.008710516107385 -182.13215506385313 0 -182.13215506385313 -127.73060171003453 0 0 0 0 -129.18285558789648 -290.34685228890157 0 -290.34685228890157 -45.514375998260221 0 0 0 0 21.030153777429632 -11.245249688402112 0 -11.245249688402112 -20.075479894812986 0 0 0 0 -19.299575364668272 -35.991128982350347 0 -35.991128982350347 -33.696434334036894 0 0 0 0 1.854140056988399 -29.858449992756505 0 -29.858449992756505 -40.029706485984207 0 0 0 0 11.082911257409421 -21.506745515663169 0 -21.506745515663169 -26.911136074887565 0 0 0 0 143.25222694483818 212.24108843948125 0 212.24108843948125 635.78594694484491 0 0 0 0 9.7084860148726904 -28.917306516200568 0 -28.917306516200568 -38.54872149834523 0 0 0 0 41.688624526344938 -24.395676707586972 0 -24.395676707586972 -24.644832812715322 0 0 0 0 21.750395983420731 -7.2943150233416816 0 -7.2943150233416816 -39.126587470060656 0 0 0 0 -3.2805489238132282 -50.852303898801438 0 -50.852303898801438 -68.017609742875834 0 0 0 0 -38.359882777163875 -44.510374446428614 0 -44.510374446428614 -1.4103662534907926 0 0 0 0 86.551982634860906 15.256538706707943 0 15.256538706707943 -81.521235908381641 0 0 0 0 49.112052140466403 43.238256093623932 0 43.238256093623932 -73.437657677044626 0 0 0 0 -0.43560141015655063 -14.37104241370065 0 -14.37104241370065 -54.282283982980857 0 0 0 0 35.642248310701689 -104.10549590731534 0 -104.10549590731534 -105.91429706244526 0 0 0 0 83.134570453928973 38.320597596724838 0 38.320597596724838 -85.642881619045511 0 0 0 0 -1.1789726510053242 -14.359405565997072 0 -14.359405565997072 -19.848421723136198 0 0 0 0 -1259.4736249509442 161.72041946563695 0 161.72041946563695 -30.775853049610305 0 0 0 0 -3271.1540847143915 -3350.3075291886344 0 -3350.3075291886344 -1492.8398680188402 0 0 0 0 -3022.1961851271917 -2675.0320350357506 0 -2675.0320350357506 -1050.4022995062696 0 0 0 0 -2422.0178179866052 -2366.8114353815909 0 -2366.8114353815909 -1430.7709815954149 0 0 0 0 -2151.1014012819505 -2592.6181115437284 0 -2592.6181115437284 -2097.3054277668707 0 0 0 0 -1486.1740566377994 -2253.1887829019252 0 -2253.1887829019252 -1697.6359668669757 0 0 0 0 -1858.1883602262242 -2099.5477857597289 0 -2099.5477857597289 -1479.1885953521996 0 0 0 0 -1448.0353245133883 -2033.1397263542458 0 -2033.1397263542458 -2444.4455480639008 0 0 0 0 200.27966014674166 -744.20298240178818 0 -744.20298240178818 -1404.3043959867191 0 0 0 0 -1932.6667047138617 -2403.9017494693835 0 -2403.9017494693835 -1586.5258050080738 0 0 0 0 -2.2947563289921504 -2.8198538913642039 0 -2.8198538913642039 0.012862806176087815 0 0 0 0 566.62159360860824 64.379120540426811 0 64.379120540426811 -1012.6790036329476 0 0 0 0 -612.14261639992765 45.961524637772527 0 45.961524637772527 487.23409103883023 0 0 0 0 -17.30762266554666 -39.053658228094719 0 -39.053658228094719 -43.763667607512616 0 0 0 0 92.538936248492973 154.57958345647057 0 154.57958345647057 267.93131489631196 0 0 0 0 9.8760069780333595 -16.188539769447743 0 -16.188539769447743 -31.285667418770856 0 0 0 0 -32.746578840567963 -35.512792843757779 0 -35.512792843757779 -40.269397840398597 0 0 0 0 13.783777488842844 -11.699283585882085 0 -11.699283585882085 -21.062877735626785 0 0 0 0 -15.078772592285532 -318.30750096607881 0 -318.30750096607881 71.733144382305909 0 0 0 0 -243.22311681385327 47.766964951202681 0 47.766964951202681 -13.343460562613473 0 0 0 0 1.4916006331733342 -2.2192826869428472 0 -2.2192826869428472 -2.9299101408583965 0 0 0 0 -243.96953704374027 -73.056236987911689 0 -73.056236987911689 76.36922598034289 0 0 0 0 -1.2507180754847393 -7.6833031014995754 0 -7.6833031014995754 -15.693017516057637 0 0 0 0 -447.16498877483536 -638.67140094450588 0 -638.67140094450588 -524.404540771342 0 0 0 0 625.20848215473234 57.987797809633776 0 57.987797809633776 -357.30242594582523 0 0 0 0 -0.18399300969650056 -11.110857937333208 0 -11.110857937333208 -38.263025128166305 0 0 0 0 477.14057192506152 -161.55782290944626 0 -161.55782290944626 -169.60337626970431 0 0 0 0 -2830.5243577132642 -2301.6504078718135 0 -2301.6504078718135 -1505.1137998549675 0 0 0 0 -591.57447329693241 -1596.5961648815573 0 -1596.5961648815573 -3325.6747582127136 0 0 0 0 -2.0069069022469197 -2163.4491881865306 0 -2163.4491881865306 -2840.6727878826059 0 0 0 0 -2461.1444628459867 -2733.8364058211009 0 -2733.8364058211009 -1743.2262804834754 0 0 0 0 -2277.3561577643413 -2594.6120779851408 0 -2594.6120779851408 -3098.2508631158853 0 0 0 0 3.1290949725609494 -6.1015871412723186 0 -6.1015871412723186 -9.4808631947165054 0 0 0 0 -575.08164638362359 -1851.023417972785 0 -1851.023417972785 -2169.4538746266594 0 0 0 0 -2958.949542870163 -3739.4758552887215 0 -3739.4758552887215 -2198.8018285505823 0 0 0 0 -501.98213262345234 -2392.5379389675873 0 -2392.5379389675873 -2603.6579218917773 0 0 0 0 1722.4856949869863 -1134.308913126406 0 -1134.308913126406 474.84657192648228 0 0 0 0 1.8543252242525341 -685.29963594738729 0 -685.29963594738729 359.59823747282644 0 0 0 0 0.83917762507080518 -2.0686752018928587 0 -2.0686752018928587 10.120372770747451 0 0 0 0 -428.81650469562737 -53.308178268933261 0 -53.308178268933261 321.46656013670872 0 0 0 0 84.10636291038827 -114.03113270587346 0 -114.03113270587346 -77.079914256442862 0 0 0 0 -2.6407459371055628 -15.615272877940697 0 -15.615272877940697 27.645603010863624 0 0 0 0 -123.92423874465362 -119.53657802972361 0 -119.53657802972361 -5.8834617176034953 0 0 0 0 302.91480539385702 -437.07644808683256 0 -437.07644808683256 563.11908896945533 0 0 0 0 2.0147168408863649 -0.23259672791735397 0 -0.23259672791735397 -3.9852482904590047 0 0 0 0 -168.96587335881486 -178.28555007222894 0 -178.28555007222894 -178.56764595650111 0 0 0 0 -1.4167751882473103 -226.71847630654909 0 -226.71847630654909 -299.06819801687379 0 0 0 0 210.6865909344051 -32.077669674014032 0 -32.077669674014032 -44.774162880756194 0 0 0 0 1.8798436899711524 -19.305758071822623 0 -19.305758071822623 -51.57697343061858 0 0 0 0 70.567881094914355 -117.67957880243739 0 -117.67957880243739 -5.1802863685734337 0 0 0 0 -27.789792905008653 -99.786403357473318 0 -99.786403357473318 50.417919398343656 0 0 0 0 37.585916519034072 -78.832890935940668 0 -78.832890935940668 -46.569689585376182 0 0 0 0 -42.203630397561938 -129.19218799157534 0 -129.19218799157534 -2.2907076426781714 0 0 0 0 59.633089157898212 -110.18129660114937 0 -110.18129660114937 4.8644409963017097 0 0 0 0 -74.347942564170808 -34.204420537949773 0 -34.204420537949773 -70.390693560591899 0 0 0 0 -12.184093303502323 -13.487638929807417 0 -13.487638929807417 -13.15859721326126 0 0 0 0 37.828806445962982 -156.63686541330389 0 -156.63686541330389 -71.620108805916971 0 0 0 0 -59.896991563146003 -38.824675648138509 0 -38.824675648138509 -75.76346177625237 0 0 0 0 -180.80482495197793 -62.37810744237504 0 -62.37810744237504 27.938089433060668 0 0 0 0 102.48813800921198 -161.59207891815458 0 -161.59207891815458 -51.125334094453137 0 0 0 0 -4.8613189070504745 -5.9123575231290602 0 -5.9123575231290602 -3.8960600824323137 0 0 0 0 8.6104713015200787 -18.672271137945259 0 -18.672271137945259 -39.778214711942496 0 0 0 0 -41.417876064078882 -85.571713070225087 0 -85.571713070225087 -50.206878678582143 0 0 0 0 -31.292337474573287 -83.802382660171133 0 -83.802382660171133 4.9183542050595861 0 0 0 0 -18.769381842219445 -102.68164906822494 0 -102.68164906822494 -83.71613072801847 0 0 0 0 -27.405807859665714 -56.414409621208023 0 -56.414409621208023 -43.725228275256143 0 0 0 0 36.242994494244158 -77.00051608964327 0 -77.00051608964327 5.468675867508864 0 0 0 0 1.7168148673128147 -22.898718900762702 0 -22.898718900762702 -1.2692489950620143 0 0 0 0 19.659575545564564 -56.94157019220961 0 -56.94157019220961 -23.989118855555176 0 0 0 0 -149.45713849453023 -123.56612864982162 0 -123.56612864982162 -14.025527678022627 0 0 0 0 34.358683103593648 -151.79113770127515 0 -151.79113770127515 -83.73891983035719 0 0 0 0 3.7157018482451249 -17.611131677804821 0 -17.611131677804821 -8.431873095226706 0 0 0 0 -63.212247922579991 -52.580427844601218 0 -52.580427844601218 18.970331532798809 0 0 0 0 -131.2640777840279 -199.46347231326217 0 -199.46347231326217 -86.184182859404245 0 0 0 0 75.021010531461798 -68.046301778660563 0 -68.046301778660563 -49.76774324735743 0 0 0 0 -3.4683585936492136 -48.295731499730323 0 -48.295731499730323 12.896147418014984 0 0 0 0 18.917044797854032 -59.865411416838469 0 -59.865411416838469 -2.2935950930168474 0 0 0 0 67.434827392451552 -37.450862867255637 0 -37.450862867255637 19.973907306179171 0 0 0 0 -120.57216721726581 -160.62551716768212 0 -160.62551716768212 -24.94194673144375 0 0 0 0 -101.28877767200174 -157.86183390793303 0 -157.86183390793303 -29.985032750919345 0 0 0 0 -118.32778969721403 -88.35546837469883 0 -88.35546837469883 55.03604143055054 0 0 0 0 -195.87600412184838 -163.51171860445174 0 -163.51171860445174 1.3438630307900894 0 0 0 0 -97.981209708814276 -132.81008426702465 0 -132.81008426702465 -10.078400815122222 0 0 0 0 -115.34714809076104 20.114554695745028 0 20.114554695745028 81.918821574447065 0 0 0 0 -12.081210329396573 -62.876389122784104 0 -62.876389122784104 19.126292000940225 0 0 0 0 3.7452798332378734 -157.33572759357048 0 -157.33572759357048 -43.232085413997993 0 0 0 0 -123.16525017948788 -129.10933177548986 0 -129.10933177548986 50.410641548776766 0 0 0 0 -77.748898278834531 -191.54510765796294 0 -191.54510765796294 9.7610207756770251 0 0 0 0 -120.48784822644666 -113.15718055234174 0 -113.15718055234174 197.59183507150738 0 0 0 0 -99.421003378418391 -131.78614393653697 0 -131.78614393653697 -154.6321049008402 0 0 0 0 -16.691464653680526 -26.637048307288268 0 -26.637048307288268 22.633922598433003 0 0 0 0 -193.56203242222546 -245.48461317138572 0 -245.48461317138572 5.8311778497009072 0 0 0 0 -259.44406382372836 -8.1127774691485683 0 -8.1127774691485683 116.47953126823995 0 0 0 0 -112.77860220826551 -151.33494273491669 0 -151.33494273491669 25.737390186550329 0 0 0 0 -42.844596135430038 -151.61918699112721 0 -151.61918699112721 77.076803384028608 0 0 0 0 -48.408980281354161 -77.944365180330351 0 -77.944365180330351 -75.255489589631907 0 0 0 0 -53.857431008089804 -73.802395334821284 0 -73.802395334821284 8.0602679242371238 0 0 0 0 -58.234754631699616 -109.62515255125982 0 -109.62515255125982 -80.211100940519827 0 0 0 0 2.7233508745073323 -7.0271475172611986 0 -7.0271475172611986 -23.578128817828286 0 0 0 0 -45.165865805432986 -99.5450392289913 0 -99.5450392289913 -81.353177976066945 0 0 0 0 -43.53292155804229 -104.32439534006699 0 -104.32439534006699 -73.981310863237013 0 0 0 0 -151.92851346860698 -108.9616546324396 0 -108.9616546324396 -49.524191103482735 0 0 0 0 208.32995228773507 -175.43791634937224 0 -175.43791634937224 -292.27646575397739 0 0 0 0 -159.92250346422952 -116.62207378827588 0 -116.62207378827588 -49.173696404904149 0 0 0 0 10.285624425173292 0.85242571247303545 0 0.85242571247303545 -20.058108002856898 0 0 0 0 -4.9494795929687712 -35.788130775300942 0 -35.788130775300942 -13.020877108774187 0 0 0 0 -85.624523535892877 -181.3066224049935 0 -181.3066224049935 -264.54469730632263 0 0 0 0 -27.700006633094745 -103.2330920479435 0 -103.2330920479435 -84.700295899921912 0 0 0 0 -62.60543231315404 -63.60324485820874 0 -63.60324485820874 16.732832771179176 0 0 0 0 10.219570314653661 -92.567532536835444 0 -92.567532536835444 -108.19862189411003 0 0 0 0 -66.229282959841612 -116.60054479413179 0 -116.60054479413179 4.4168362957638791 0 0 0 0 -159.29532637486409 -145.12399302752601 0 -145.12399302752601 75.695732451878939 0 0 0 0 -19.569512888476311 -208.16450763469038 0 -208.16450763469038 -298.04514352066326 0 0 0 0 -65.021975398383802 -210.98291898878233 0 -210.98291898878233 -227.33624318551665 0 0 0 0 -126.84611876923009 79.994057519303169 0 79.994057519303169 134.83414937308407 0 0 0 0 64.00120589057093 -15.448576296890053 0 -15.448576296890053 -51.427348780954873 0 0 0 0 -39.325263236038154 -198.63845323737769 0 -198.63845323737769 -265.20327550062302 0 0 0 0 -52.996483414437535 -167.80317494550764 0 -167.80317494550764 -314.75493595586158 0 0 0 0 -74.224254161817953 -154.65089229830483 0 -154.65089229830483 -292.40022136503831 0 0 0 0 -617.07172524573252 -432.8725259287603 0 -432.8725259287603 -132.05535198294092 0 0 0 0 -49.863491944910493 -257.8570150323867 0 -257.8570150323867 -539.98046538497147 0 0 0 0 2355.0183889899927 -2043.0790464651363 0 -2043.0790464651363 -1596.7546704761407 0 0 0 0 -51.499679001458105 -107.70853990845649 0 -107.70853990845649 1.1088201058862879 0 0 0 0 32.92833942983998 -213.01473998442088 0 -213.01473998442088 -148.58871487269062 0 0 0 0 -211.41057282336988 -165.31258686593355 0 -165.31258686593355 -31.424204325390747 0 0 0 0 46.2927352803963 -246.86932498272654 0 -246.86932498272654 -99.803158275753958 0 0 0 0 -92.293479739251779 -170.66781521295343 0 -170.66781521295343 -31.505596223170869 0 0 0 0 14.965321582771139 -167.21413108167326 0 -167.21413108167326 27.209436717181234 0 0 0 0 -6.9130511876137462 -158.49921321311558 0 -158.49921321311558 132.30617162815179 0 0 0 0 74.587798169537564 -66.4313601947797 0 -66.4313601947797 100.12299037989578 0 0 0 0 133.31959451243165 -152.2041883023121 0 -152.2041883023121 2.5068076917741564 0 0 0 0 -30.704729876713827 -233.82729513903905 0 -233.82729513903905 28.010408896829176 0 0 0 0 -100.37312854299307 -193.79971034294977 0 -193.79971034294977 73.852005798718892 0 0 0 0 -299.05610775852983 -209.598466147414 0 -209.598466147414 72.798715950612859 0 0 0 0 -76.444718394050142 -44.385970832096064 0 -44.385970832096064 -206.89354663165796 0 0 0 0 -77.891805429258966 -359.69639612618266 0 -359.69639612618266 -92.310291949761449 0 0 0 0 -225.40713332344603 -75.771664954147127 0 -75.771664954147127 58.027830265986267 0 0 0 0 494.09514790606045 -197.8784066666085 0 -197.8784066666085 -212.57073650824896 0 0 0 0 54.115769534344508 152.71052336212188 0 152.71052336212188 -10.057720000681002 0 0 0 0 90.850471052573994 -344.75821524824642 0 -344.75821524824642 109.90103432853357 0 0 0 0 -9.7302225471132147 -1.7554921361418678 0 -1.7554921361418678 -2.4142272657258559 0 0 0 0 -639.89232720630753 -605.74861986178985 0 -605.74861986178985 -199.90917033371079 0 0 0 0 -252.20239393351949 94.622851935193466 0 94.622851935193466 -154.67205725337408 0 0 0 0 139.37938440416838 -273.3275012094532 0 -273.3275012094532 -511.96054612991429 0 0 0 0 627.17903114505316 -99.237905808309733 0 -99.237905808309733 -52.804108493539388 0 0 0 0 58.861879718126147 13.595755794902288 0 13.595755794902288 592.30752418103657 0 0 0 0 222.0668548471242 264.89525129490465 0 264.89525129490465 419.93615173183207 0 0 0 0 168.62253538279037 35.61880414418556 0 35.61880414418556 404.04328037872267 0 0 0 0 807.42821507832559 -314.98800907899567 0 -314.98800907899567 319.48518788213551 0 0 0 0 303.06035213811265 -317.64906537855859 0 -317.64906537855859 395.86728580263355 0 0 0 0 373.1503873282054 -24.604111263324739 0 -24.604111263324739 174.84708172595128 0 0 0 0 228.53630273287126 -276.08565334969171 0 -276.08565334969171 1502.9378745412832 0 0 0 0 1058.5731246425712 1039.2583581697618 0 1039.2583581697618 943.41108964739033 0 0 0 0 211.47379222100926 -70.241199943597621 0 -70.241199943597621 -176.54497509171779 0 0 0 0 92.334555709298002 -268.59320405350809 0 -268.59320405350809 27.096255419544832 0 0 0 0 2583.9193144728924 -2058.048898843801 0 -2058.048898843801 -972.70541042264085 0 0 0 0 -2295.114992209099 425.05341426477389 0 425.05341426477389 1692.4480599330382 0 0 0 0 556.27904595148721 86.113820453967492 0 86.113820453967492 134.68202917360759 0 0 0 0 19.260121603534685 -18.622350652979691 0 -18.622350652979691 17.500129684278249 0 0 0 0 -445.34648042990011 237.41888989892686 0 237.41888989892686 -184.9378740878019 0 0 0 0 -546.16330431726237 -464.36950950273967 0 -464.36950950273967 -3.052387290525985 0 0 0 0 172.46539774668781 -276.27090220270293 0 -276.27090220270293 -120.9664139381639 0 0 0 0 16.312794433991314 -41.375594902012693 0 -41.375594902012693 55.137554517639472 0 0 0 0 295.51321904507859 108.73585842158809 0 108.73585842158809 -23.283090474593337 0 0 0 0 -2215.9485133337876 -1453.9417994208488 0 -1453.9417994208488 235.94735402807055 0 0 0 0 5.2692594216325652 -5.4108068267273666 0 -5.4108068267273666 -26.239548511264587 0 0 0 0 168.44332308918911 -97.372582628135206 0 -97.372582628135206 -37.518550848486484 0 0 0 0 11.91455651961704 -47.184774536385021 0 -47.184774536385021 31.385582447154462 0 0 0 0 -102.81741343390604 -118.83737463282887 0 -118.83737463282887 115.45370547059429 0 0 0 0 -425.76280554964615 -127.3110419210534 0 -127.3110419210534 42.85802666411837 0 0 0 0 -90.129888939367447 -184.74634122246289 0 -184.74634122246289 -99.570430747015052 0 0 0 0 0.2509830121150447 -7.1314281586834909 0 -7.1314281586834909 -2.4816097972715738 0 0 0 0 547.45830855704844 -245.9388260251726 0 -245.9388260251726 108.32862629216106 0 0 0 0 69.758300648027216 -457.40266426210655 0 -457.40266426210655 647.70244756908505 0 0 0 0 986.23021369450726 -767.77308987275319 0 -767.77308987275319 188.24226063808601 0 0 0 0 -421.80500149927684 35.032312182360329 0 35.032312182360329 -60.383172309486326 0 0 0 0 -950.96340573237103 -141.0499878597293 0 -141.0499878597293 243.66554540178913 0 0 0 0 -500.15209936859901 -361.30386284444467 0 -361.30386284444467 110.04847071534459 0 0 0 0 7.0802806040853454 -10.003609844661128 0 -10.003609844661128 20.951465927106938 0 0 0 0 1402.8871518536616 -149.20448473716169 0 -149.20448473716169 -46.198809256380628 0 0 0 0 799.96576075316989 -872.52002132592315 0 -872.52002132592315 435.71702155657113 0 0 0 0 0.81946932583405285 -4.0864621858561634 0 -4.0864621858561634 -0.16315606208524969 0 0 0 0 297.20914149323653 -555.31463352987339 0 -555.31463352987339 347.90288493618573 0 0 0 0 1799.7009156735226 -649.67104797689785 0 -649.67104797689785 -317.88472679371625 0 0 0 0 617.54928865055626 -75.148725262510197 0 -75.148725262510197 -267.99239377062622 0 0 0 0 -398.503477432605 177.04988031916582 0 177.04988031916582 293.48206787318486 0 0 0 0 0.012409463597577997 -11.289118046592193 0 -11.289118046592193 -20.648935272908602 0 0 0 0 -5.2930425935073799 -10.554765221774403 0 -10.554765221774403 -41.461643102611362 0 0 0 0 -576.57342454614991 214.14002436488227 0 214.14002436488227 -51.931508764770115 0 0 0 0 -2.3304209552143504 -4.8375557739877593 0 -4.8375557739877593 -11.598140216224465 0 0 0 0 0.010090022813528776 -11.284017136680632 0 -11.284017136680632 -20.646975537945764 0 0 0 0 1281.3787152777368 -79.832085104470025 0 -79.832085104470025 -937.38579194360136 0 0 0 0 -2.6357631707337967 -1431.6352685981149 0 -1431.6352685981149 704.99112808214704 0 0 0 0 -49.499109408454387 -91.903428298290237 0 -91.903428298290237 37.283295711054961 0 0 0 0 -48.739012096135411 -86.742791647255217 0 -86.742791647255217 52.478113306045998 0 0 0 0 -57.849512591783423 -96.096067601443792 0 -96.096067601443792 62.71682062769105 0 0 0 0 -63.517164638113172 -85.500312047426632 0 -85.500312047426632 54.915709687018534 0 0 0 0 -57.68075635623245 -99.080859668720223 0 -99.080859668720223 51.187230456198449 0 0 0 0 -54.561517516573076 -80.777973503019894 0 -80.777973503019894 54.348466451176137 0 0 0 0 -255.30995332228485 95.630691992788343 0 95.630691992788343 -645.95679634378757 0 0 0 0 -45.1056749481221 -56.887994468582662 0 -56.887994468582662 70.114801122050665 0 0 0 0 -54.556394802508294 -71.451704804931069 0 -71.451704804931069 84.344919151175418 0 0 0 0 171.9503044916346 -363.43125835838146 0 -363.43125835838146 -153.24103459667822 0 0 0 0 -41.028767252151738 -93.716130159795284 0 -93.716130159795284 58.999854385183426 0 0 0 0 -25.066696574553852 -43.911297908261432 0 -43.911297908261432 36.79690051399092 0 0 0 0 -49.113132302481972 -83.220977306784334 0 -83.220977306784334 45.617897533127689 0 0 0 0 -68.05842042909353 -100.72687363091973 0 -100.72687363091973 51.835570648336216 0 0 0 0 -71.988577571260976 -82.893545328297478 0 -82.893545328297478 46.836051395330287 0 0 0 0 -59.141046238729615 -61.675572666919024 0 -61.675572666919024 7.204019535257089 0 0 0 0 -84.730030211285339 -97.489212242704525 0 -97.489212242704525 55.091501568131207 0 0 0 0 -21.061918051229441 -98.891502684649822 0 -98.891502684649822 104.33437725390831 0 0 0 0 -3.3512718758720439 -148.4832887198645 0 -148.4832887198645 168.02212162436263 0 0 0 0 -50.40311494131106 -61.075954180461522 0 -61.075954180461522 108.81878989061647 0 0 0 0 118.53433725408104 -121.17820526701689 0 -121.17820526701689 -124.22991702340369 0 0 0 0 4.0722856006534869 -24.698203655103889 0 -24.698203655103889 11.026939742230923 0 0 0 0 -17.619764640458925 -74.77551076559115 0 -74.77551076559115 16.28776287809869 0 0 0 0 -198.95711711832337 -134.28418463395064 0 -134.28418463395064 95.737145056453301 0 0 0 0 -216.23043992577004 104.02332768842462 0 104.02332768842462 239.10094102662697 0 0 0 0 -9.1095632432067077 -7.2206628397309203 0 -7.2206628397309203 28.240540256457848 0 0 0 0 -63.363168839287255 -100.31697518446677 0 -100.31697518446677 9.8960296398130936 0 0 0 0 -67.543763898393081 -117.3196391001984 0 -117.3196391001984 -12.56124812955386 0 0 0 0 -65.718116162417573 -100.94168470429577 0 -100.94168470429577 34.98131886412375 0 0 0 0 -219.41915779765975 -482.6510260147532 0 -482.6510260147532 -90.056391203572275 0 0 0 0 24.963478098681662 -178.33867227578594 0 -178.33867227578594 -193.65965935500208 0 0 0 0 3.6469102921982994 -218.62504554515181 0 -218.62504554515181 -199.13789787882706 0 0 0 0 -186.3662600358075 -241.35983884395682 0 -241.35983884395682 199.5296684117784 0 0 0 0 22.817896889646363 -188.41531342896633 0 -188.41531342896633 -216.53485210149665 0 0 0 0 -27.5704818359618 -100.51111783848239 0 -100.51111783848239 21.369683634499559 0 0 0 0 -33.685465010043117 -115.43410361305723 0 -115.43410361305723 5.5616108332742442 0 0 0 0 -46.620879984714406 -98.561562889107421 0 -98.561562889107421 21.275136581764485 0 0 0 0 -42.150662470972748 -99.910238690579718 0 -99.910238690579718 25.087108970619738 0 0 0 0 -45.233737232960266 -116.35742399164883 0 -116.35742399164883 -11.975938956864411 0 0 0 0 -6.5332507490081042 -32.213726422727746 0 -32.213726422727746 -24.996706745958022 0 0 0 0 -22.505927685124334 -1.8761284201755188 0 -1.8761284201755188 -309.86918797223916 0 0 0 0 -13.928250286058756 -5.1187084854027489 0 -5.1187084854027489 -359.42455879118643 0 0 0 0 64.724109336966649 -41.374908286321443 0 -41.374908286321443 -580.36593181605349 0 0 0 0 89.065543758246349 -117.11793483706424 0 -117.11793483706424 -385.82256734732073 0 0 0 0 41.249196264267084 -118.91642608338589 0 -118.91642608338589 -331.98838162941684 0 0 0 0 50.511382795077225 -195.04873846004193 0 -195.04873846004193 -231.90803297579987 0 0 0 0 85.451851655700011 -127.66926794346364 0 -127.66926794346364 -354.73047718823204 0 0 0 0 -7.7854892673707123 -76.018266914826313 0 -76.018266914826313 -78.171004167211265 0 0 0 0 -14.13713670130528 -118.67334580956231 0 -118.67334580956231 10.07615128463658 0 0 0 0 -8.9715551064264787 -106.8304606735777 0 -106.8304606735777 8.3413746509000433 0 0 0 0 -13.156876150067546 -71.744470160912897 0 -71.744470160912897 -166.7408771882474 0 0 0 0 -28.244432907144073 -105.32906422698579 0 -105.32906422698579 30.553149432918872 0 0 0 0 -11.215618318339693 -98.382751821831334 0 -98.382751821831334 -19.191931389694219 0 0 0 0 22.711074930673931 -241.72605924093659 0 -241.72605924093659 6.5399800634477288 0 0 0 0 -43.769901262232906 -57.090576774835 0 -57.090576774835 -46.300662244542764 0 0 0 0 -21.089364002924412 -94.865293143891904 0 -94.865293143891904 6.074663495826826 0 0 0 0 -9.1088737364788486 -9.3767028468267881 0 -9.3767028468267881 13.725651394256914 0 0 0 0 -120.8852488492339 -69.964215370906459 0 -69.964215370906459 50.151751209352369 0 0 0 0 -30.303971933069988 -106.3735645863344 0 -106.3735645863344 24.848380251539538 0 0 0 0 -23.26337638602854 -102.59098702242409 0 -102.59098702242409 19.861604478297522 0 0 0 0 -47.481029857277065 -59.7980358243951 0 -59.7980358243951 -39.419674614642105 0 0 0 0 -37.96867926701816 -110.2570091655798 0 -110.2570091655798 40.737314033292932 0 0 0 0 -126.88101890703547 -151.18453962407511 0 -151.18453962407511 108.93820831964695 0 0 0 0 -71.14995808655658 -183.81649587487482 0 -183.81649587487482 -92.851072507452045 0 0 0 0 -12.433244260733545 22.04056573807884 0 22.04056573807884 -114.86848597812059 0 0 0 0 24.502496958331903 -142.33737764193575 0 -142.33737764193575 -338.91374996006925 0 0 0 0 -270.27676708009676 46.268832538346032 0 46.268832538346032 739.58062422737748 0 0 0 0 1.3374999237431098 -0.19021422328128779 0 -0.19021422328128779 2.2480269818833492 0 0 0 0 -76.983693990667234 31.262922271416755 0 31.262922271416755 -0.59215383109403774 0 0 0 0 -68.50012672264711 -70.585069322336494 0 -70.585069322336494 19.007926616297482 0 0 0 0 1.7625552356644096 -1.1341114854327827 0 -1.1341114854327827 3.5646089225357684 0 0 0 0 -177.78684087467263 96.70758198356998 0 96.70758198356998 215.96472373150391 0 0 0 0 -78.485054591714288 -219.23553222614282 0 -219.23553222614282 213.65759921375138 0 0 0 0 -126.71381384186679 10.571087704822276 0 10.571087704822276 310.8647289042492 0 0 0 0 -117.0629604328642 -116.75748142580778 0 -116.75748142580778 -23.669699106816552 0 0 0 0 133.48505732241028 49.902190577424335 0 49.902190577424335 215.29229902457882 0 0 0 0 -508.19849688117392 -430.17577642660035 0 -430.17577642660035 24.960767048957905 0 0 0 0 -265.85196166130481 -210.70692238554693 0 -210.70692238554693 173.4038776130219 0 0 0 0 -90.356573196540921 -101.63724684892713 0 -101.63724684892713 116.3717136461928 0 0 0 0 -401.45854323953972 -402.39773372212949 0 -402.39773372212949 -93.631246072555768 0 0 0 0 -230.83635644891183 -177.31011490383571 0 -177.31011490383571 -103.26805999301723 0 0 0 0 -686.34055927044392 -144.28783002425553 0 -144.28783002425553 -259.65910316708323 0 0 0 0 -625.31995103336521 -369.05027605763462 0 -369.05027605763462 -68.64949473175875 0 0 0 0 110.01866060041357 -171.53532031123541 0 -171.53532031123541 166.48337019542305 0 0 0 0 1.3331361381449511 -6.6097166201576272 0 -6.6097166201576272 -8.1600039147108703 0 0 0 0 664.96742808105773 -155.24054467757014 0 -155.24054467757014 -108.13160328184313 0 0 0 0 458.55924015547498 142.37546714383643 0 142.37546714383643 194.55044173475653 0 0 0 0 -12.394231500860769 -254.25961732088035 0 -254.25961732088035 388.7119710847328 0 0 0 0 121.06819623371121 -190.67519561539666 0 -190.67519561539666 43.155355582523043 0 0 0 0 275.70901220996893 -65.242320473701056 0 -65.242320473701056 -97.321638444656855 0 0 0 0 -86.467894763423828 -106.23295108672755 0 -106.23295108672755 106.16083528691524 0 0 0 0 0.54383482602952427 -1.8354253123795274 0 -1.8354253123795274 -1.4906712048142197 0 0 0 0 961.3904967198323 -129.12146152802597 0 -129.12146152802597 -187.10583000381666 0 0 0 0 -1215.2403617644159 -520.50077277409582 0 -520.50077277409582 255.17755991453305 0 0 0 0 -350.43233991715533 -610.14045240019186 0 -610.14045240019186 -167.1304814179166 0 0 0 0 327.39640109523316 -433.56728877854039 0 -433.56728877854039 25.613990687488695 0 0 0 0 29.595968868234195 -228.25395437474799 0 -228.25395437474799 -61.914925670327648 0 0 0 0 -16.138380295742536 -61.319186206259474 0 -61.319186206259474 -120.06342395624961 0 0 0 0 -86.316158423520392 -66.429884774552193 0 -66.429884774552193 -79.296627286807052 0 0 0 0 55.593971991955186 -175.68331736648543 0 -175.68331736648543 -67.80598639814707 0 0 0 0 -107.90824104074272 -85.384600040895748 0 -85.384600040895748 -6.9968437760398956 0 0 0 0 -7.1602025218235781 4.6195394974857535 0 4.6195394974857535 22.849804134106051 0 0 0 0 -102.74449837644352 -188.18109681264832 0 -188.18109681264832 363.1809617278268 0 0 0 0 2.8819670305299496 -10.183596634921457 0 -10.183596634921457 -9.511604005087122 0 0 0 0 -49.540098061514698 -61.8012738765254 0 -61.8012738765254 -27.853281126845275 0 0 0 0 -16.245047478130914 -139.75371245995802 0 -139.75371245995802 -90.549006651621312 0 0 0 0 -1213.3715746033267 -191.24334810779692 0 -191.24334810779692 304.43322842393536 0 0 0 0 402.88612630145508 -217.29061429537978 0 -217.29061429537978 -65.848668896367599 0 0 0 0 599.10861477768049 11.617558715293853 0 11.617558715293853 -302.22702213341836 0 0 0 0 -2.4576191435070278 0.055787150529653218 0 0.055787150529653218 -5.5384054243888272 0 0 0 0 -988.7530026587483 -673.26236572682319 0 -673.26236572682319 298.87783164501889 0 0 0 0 -353.47153931460343 -982.74096569027461 0 -982.74096569027461 194.2923754479998 0 0 0 0 -19.902598255372141 -81.195595522905933 0 -81.195595522905933 -7.5904005136544583 0 0 0 0 -38.986096780283958 -54.518320373437547 0 -54.518320373437547 23.58736303147667 0 0 0 0 3.6133445621410374 -9.0247132874562794 0 -9.0247132874562794 -26.540437394429233 0 0 0 0 -303.40516236700205 -243.7272575813754 0 -243.7272575813754 -2.275834773958195 0 0 0 0 -106.68302443422726 -84.126855306712969 0 -84.126855306712969 -8.1280853751813993 0 0 0 0 -112.45277945385169 -43.169539237849676 0 -43.169539237849676 -133.13699802642805 0 0 0 0 -508.52884888164408 -130.04210758105546 0 -130.04210758105546 10.399614676774945 0 0 0 0 -337.99165337564773 -343.61808111601567 0 -343.61808111601567 10.472358765936406 0 0 0 0 -568.67992385584512 -172.29796590155456 0 -172.29796590155456 30.411560660977557 0 0 0 0 -320.19252716797928 19.900852485377982 0 19.900852485377982 -188.37183976931556 0 0 0 0 -184.39276225419599 -140.35593499508104 0 -140.35593499508104 -80.778948195678822 0 0 0 0 -23.256113421812188 -200.81889095788938 0 -200.81889095788938 -87.760499044323296 0 0 0 0 -105.31955553794978 -47.402987527530058 0 -47.402987527530058 -121.09862842834264 0 0 0 0 -323.64419038547203 -127.34169693566218 0 -127.34169693566218 -104.49247737917176 0 0 0 0 -29.800473958181101 -145.28399885752697 0 -145.28399885752697 287.48211281100521 0 0 0 0 -415.92499273432622 80.57509015272808 0 80.57509015272808 -283.66019292795681 0 0 0 0 -831.5448815333948 185.54298064631803 0 185.54298064631803 -89.282665770413587 0 0 0 0 -425.52552458025457 -93.8033549303982 0 -93.8033549303982 47.81710011283576 0 0 0 0 175.1300417301245 -37.53772427927106 0 -37.53772427927106 -60.60382251777628 0 0 0 0 20.665569807067683 -2.5453191894651184 0 -2.5453191894651184 -1.9854105375744382 0 0 0 0 12.949065842109214 -8.8602582479111049 0 -8.8602582479111049 -15.651185156590827 0 0 0 0 -327.30749216556433 -128.89277972218406 0 -128.89277972218406 -149.27180765657977 0 0 0 0 -335.60729707332212 -127.05168886803585 0 -127.05168886803585 30.973977151748841 0 0 0 0 -293.35589638495003 -128.2737351917749 0 -128.2737351917749 98.395435440557776 0 0 0 0 -85.568302213447168 -91.288265137074632 0 -91.288265137074632 3.3689514671495999 0 0 0 0 -42.092512915318366 -26.920167671949457 0 -26.920167671949457 52.681911156600108 0 0 0 0 -339.56061885255622 -286.90982995395461 0 -286.90982995395461 -40.766695683887974 0 0 0 0 -321.29789712525962 -168.92316811243654 0 -168.92316811243654 157.91863213088436 0 0 0 0 39.067402000418952 -44.584793769904536 0 -44.584793769904536 6.6056340106733842 0 0 0 0 31.954298102660431 -41.520952387027933 0 -41.520952387027933 13.610613832898338 0 0 0 0 -332.97742725586431 -52.345715050854778 0 -52.345715050854778 -17.21258335019229 0 0 0 0 37.115342251033212 -37.059230550705905 0 -37.059230550705905 16.999506940904496 0 0 0 0 23.912327018329961 -83.722223628098618 0 -83.722223628098618 -7.4984204334468814 0 0 0 0 -5.2394912258041586 -57.904542802851211 0 -57.904542802851211 -6.1556932831153972 0 0 0 0 18.189079434629491 -38.15890198628253 0 -38.15890198628253 7.8058954296031686 0 0 0 0 57.793607750020229 -33.926976674945337 0 -33.926976674945337 -4.3953049897880589 0 0 0 0 33.038769886014052 -47.5787040050418 0 -47.5787040050418 5.9295717527329543 0 0 0 0 -3.8477535655838437 -53.419154231305583 0 -53.419154231305583 -7.5591380763435154 0 0 0 0 12.705625934483095 -37.949333639070943 0 -37.949333639070943 13.647096363868513 0 0 0 0 128.82945345452754 -39.22031063396571 0 -39.22031063396571 -31.144589050385548 0 0 0 0 76.711236493052937 -54.187625846143305 0 -54.187625846143305 -9.120212216004802 0 0 0 0 41.742766971421702 -30.753532975641946 0 -30.753532975641946 9.8635307356113771 0 0 0 0 49.585067087173229 -19.158425021945732 0 -19.158425021945732 -57.810203100190847 0 0 0 0 20.654520086327381 -24.505422571258578 0 -24.505422571258578 21.150234933069811 0 0 0 0 -2.5613017950190624 -45.158314569722052 0 -45.158314569722052 -19.869329885696061 0 0 0 0 -13.437197664781706 -221.41698502253712 0 -221.41698502253712 -187.90057463556877 0 0 0 0 -35.563778919353354 -122.21225074146059 0 -122.21225074146059 11.697311796306167 0 0 0 0 -182.0717184736277 -540.89543649538973 0 -540.89543649538973 -172.5556317124574 0 0 0 0 27.753056458017511 -38.965199271037761 0 -38.965199271037761 33.207321218975395 0 0 0 0 53.784143686869555 -35.127225306128594 0 -35.127225306128594 15.408872410983008 0 0 0 0 265.82070244284114 -33.511575805096072 0 -33.511575805096072 -330.28802032239037 0 0 0 0 80.604970799875446 -3.8363383065006929 0 -3.8363383065006929 -113.27084480820486 0 0 0 0 17.481450068719596 -10.106595761536425 0 -10.106595761536425 4.3078806681932065 0 0 0 0 55.12547580501996 -77.082592788472539 0 -77.082592788472539 -76.778576841359609 0 0 0 0 28.804829001775943 -34.814867084285652 0 -34.814867084285652 11.230033684463706 0 0 0 0 -36.157083305704873 -104.8090984399023 0 -104.8090984399023 142.43170796145023 0 0 0 0 -46.33701488643419 23.882593354603159 0 23.882593354603159 147.55243862992211 0 0 0 0 -43.817493017893867 4.4315628142767309 0 4.4315628142767309 269.94421803019941 0 0 0 0 -44.546138634003 -104.15349044957838 0 -104.15349044957838 285.26189981532661 0 0 0 0 -18.561485037062084 135.13338295941503 0 135.13338295941503 53.824432161542063 0 0 0 0 9.4965696234533112 -1.9813482385774677 0 -1.9813482385774677 -1.0734346562821031 0 0 0 0 -80.386524617420037 -97.949424117699436 0 -97.949424117699436 164.86193360316247 0 0 0 0 13.886624987935647 -73.976781705548092 0 -73.976781705548092 40.284870059382229 0 0 0 0 56.172309381552623 -90.290957271579828 0 -90.290957271579828 -7.227725803393696 0 0 0 0 72.133384650063817 -134.57673940289169 0 -134.57673940289169 -120.72738567747001 0 0 0 0 63.913060912498622 -196.32608177621296 0 -196.32608177621296 -96.420732676840998 0 0 0 0 24.563933588535292 -142.9582771707428 0 -142.9582771707428 25.21530503462418 0 0 0 0 -10.3936328945274 -127.60797347321932 0 -127.60797347321932 18.700707631051046 0 0 0 0 -11.314834265431273 -109.93945355658434 0 -109.93945355658434 112.57582206504594 0 0 0 0 -6.2017000120249577 -233.57045046049461 0 -233.57045046049461 71.428300789641071 0 0 0 0 -43.710011956951348 -101.47229051389149 0 -101.47229051389149 278.39367987388687 0 0 0 0 -0.26731991066480987 -210.27342560483521 0 -210.27342560483521 110.31655549477728 0 0 0 0 29.99909457625472 -285.33057451623608 0 -285.33057451623608 216.21827837025921 0 0 0 0 85.305333827214781 -315.09783161766973 0 -315.09783161766973 -15.243497839241172 0 0 0 0 36.175238762705703 -269.31911928951013 0 -269.31911928951013 -38.458417691159411 0 0 0 0 36.435036547089112 -250.41239839739137 0 -250.41239839739137 -54.037206182134696 0 0 0 0 15.625369678193238 -181.54905317139492 0 -181.54905317139492 -56.265432211905136 0 0 0 0 66.900326230927021 -244.44803786411649 0 -244.44803786411649 -195.65725522194407 0 0 0 0 85.322292632423341 -296.96982021774602 0 -296.96982021774602 -229.06539781703759 0 0 0 0 120.97141026778263 -335.0709627866745 0 -335.0709627866745 -219.94494304741966 0 0 0 0 62.667319002550357 -222.91689237754872 0 -222.91689237754872 -290.18389248033054 0 0 0 0 105.40779879468028 -202.019806961016 0 -202.019806961016 -408.9824505145516 0 0 0 0 56.942079078580718 -199.61625882252702 0 -199.61625882252702 -308.58038950034097 0 0 0 0 96.69705067716859 -244.80006948366281 0 -244.80006948366281 -301.41702603761223 0 0 0 0 34.22393268191081 -100.75406151903735 0 -100.75406151903735 -171.18581173850725 0 0 0 0 82.512530285603134 -258.97676939739904 0 -258.97676939739904 -178.26924823508853 0 0 0 0 39.39957058680011 -214.27477541022381 0 -214.27477541022381 -206.04160910772043 0 0 0 0 71.583587862129207 -220.52673753892668 0 -220.52673753892668 -205.3291436691361 0 0 0 0 1412.2848129049817 -313.21374654404644 0 -313.21374654404644 -136.64816871567018 0 0 0 0 207.53447729554318 41.970062396436333 0 41.970062396436333 91.962291973046376 0 0 0 0 -1461.1801936672418 469.49000471016916 0 469.49000471016916 348.50397465645801 0 0 0 0 -121.23721862959792 610.65138221645975 0 610.65138221645975 165.55970939196413 0 0 0 0 138.04370422204374 -147.35367673890141 0 -147.35367673890141 73.454408757112105 0 0 0 0 2.6724707743993577 -37.648691307209546 0 -37.648691307209546 -12.422298859663599 0 0 0 0 67.63062438966881 -96.170349549654929 0 -96.170349549654929 80.013509957424048 0 0 0 0 184.57008922091336 1472.8085628002555 0 1472.8085628002555 -107.22503068079823 0 0 0 0 -370.41979513393017 -477.76605230850691 0 -477.76605230850691 -520.8401053245907 0 0 0 0 -55.496575932600535 -304.12069416930899 0 -304.12069416930899 -567.21496787431533 0 0 0 0 78.910581774674938 -170.30519546764845 0 -170.30519546764845 -436.10395082764444 0 0 0 0 55.207336414692691 -292.44096651213476 0 -292.44096651213476 -399.27091060480598 0 0 0 0 -24.396143495469005 -215.87462363789382 0 -215.87462363789382 -322.74977520591347 0 0 0 0 -75.412294282898074 -292.58222959566046 0 -292.58222959566046 -274.95215584457037 0 0 0 0 32.772715141756635 -180.03184193911511 0 -180.03184193911511 -157.86028120471747 0 0 0 0 -270.55910527339438 -32.95241684607754 0 -32.95241684607754 55.117020713994862 0 0 0 0 -1176.9022836506119 -418.26381959281935 0 -418.26381959281935 -73.773663664818741 0 0 0 0 -290.56995124922832 -71.286335960663564 0 -71.286335960663564 -17.270634711370803 0 0 0 0 -585.1040285914205 148.55936368375842 0 148.55936368375842 77.875199526519282 0 0 0 0 -198.49249332930776 325.24971919869131 0 325.24971919869131 19.106850740485243 0 0 0 0 -137.84956231847173 248.5321567769206 0 248.5321567769206 99.43034580751555 0 0 0 0 -35.260562308933004 -63.677755608989173 0 -63.677755608989173 -68.9248873378383 0 0 0 0 269.28053589697811 -277.16808328039042 0 -277.16808328039042 -120.99257128070167 0 0 0 0 79.575421321787871 -18.231665058076032 0 -18.231665058076032 -109.27233837646781 0 0 0 0 703.680778760463 -241.8982237513701 0 -241.8982237513701 -41.416638616443379 0 0 0 0 71.357412895726156 -348.04148017714397 0 -348.04148017714397 164.6187996956578 0 0 0 0 75.13490843019099 -352.47572743183264 0 -352.47572743183264 816.28322210007173 0 0 0 0 47.580969224669388 -242.61795441235336 0 -242.61795441235336 156.99074927940092 0 0 0 0 202.63438609143486 -485.96044664585497 0 -485.96044664585497 489.75597346754512 0 0 0 0 195.37748727409871 -254.23861869782513 0 -254.23861869782513 50.24764869606588 0 0 0 0 790.01308913936373 -817.07483111330657 0 -817.07483111330657 529.01222430249618 0 0 0 0 -46.923275945424393 -98.431626330717336 0 -98.431626330717336 375.74222657072823 0 0 0 0 106.74495980913343 491.56284469576349 0 491.56284469576349 -248.89038230509323 0 0 0 0 1449.359644668868 229.30864782080243 0 229.30864782080243 -517.67643552194932 0 0 0 0 -133.44218360719969 369.34835166223638 0 369.34835166223638 185.18628437960433 0 0 0 0 60.872510148388585 -56.614546703521341 0 -56.614546703521341 33.489592814117515 0 0 0 0 -140.00280377174204 156.12951494077424 0 156.12951494077424 54.475927316878369 0 0 0 0 92.960943637182936 -466.03319808164088 0 -466.03319808164088 70.7299921073718 0 0 0 0 297.90181876026327 -716.60796217191091 0 -716.60796217191091 259.27483109074819 0 0 0 0 459.20881646453927 20.803438086910319 0 20.803438086910319 -346.32377841373091 0 0 0 0 341.64243561362468 -13.555883918315942 0 -13.555883918315942 -347.68465695877967 0 0 0 0 279.30735254229512 -62.931703193022258 0 -62.931703193022258 -245.8980245571729 0 0 0 0 58.390021766797872 76.083612307498697 0 76.083612307498697 -237.2945401842735 0 0 0 0 7.8519674149864613 -1.5309527174699724 0 -1.5309527174699724 -0.83447961071904331 0 0 0 0 346.78739300815505 112.85002758106202 0 112.85002758106202 -232.70742883185449 0 0 0 0 222.38971412740648 101.08738523368083 0 101.08738523368083 -212.61005261466926 0 0 0 0 341.67204869206762 -17.297947079394362 0 -17.297947079394362 -259.5361905011232 0 0 0 0 601.50409977805975 -655.7207667902403 0 -655.7207667902403 381.45371720548428 0 0 0 0 -141.30967692033892 -261.16625813206588 0 -261.16625813206588 114.92686230938125 0 0 0 0 71.791822270267232 -53.130493617750261 0 -53.130493617750261 34.982747708640915 0 0 0 0 -301.18079100627801 100.54216644709231 0 100.54216644709231 251.42082597175613 0 0 0 0 -0.16872302852368648 -3.5222872938020373 0 -3.5222872938020373 7.1467916069111652 0 0 0 0 6.7366391303985438 26.033874836653922 0 26.033874836653922 523.59919662777975 0 0 0 0 70.505972374405246 -380.68993546646379 0 -380.68993546646379 -477.50088024568686 0 0 0 0 -0.12233417896158016 -19.109525480884457 0 -19.109525480884457 18.522060288443356 0 0 0 0 -132.56218001765956 -225.06952417237699 0 -225.06952417237699 -230.5483230886457 0 0 0 0 379.07711219525663 -151.97305458995106 0 -151.97305458995106 -341.94058790560666 0 0 0 0 19.97477070055902 -136.42011705221375 0 -136.42011705221375 -432.24711567748454 0 0 0 0 614.24431757869388 -336.36875650557477 0 -336.36875650557477 -123.57033353437146 0 0 0 0 -96.84500195531291 -100.73157257519779 0 -100.73157257519779 -218.04194682253001 0 0 0 0 -67.828013372258283 -150.96268529444933 0 -150.96268529444933 -131.52057715044793 0 0 0 0 138.61677581263939 -307.42547961793025 0 -307.42547961793025 -191.62095169025997 0 0 0 0 552.39652423471216 345.51956107219075 0 345.51956107219075 65.603348660632037 0 0 0 0 228.48224351742829 -29.194280956333387 0 -29.194280956333387 -24.418434715917101 0 0 0 0 0.98841756606066156 -6.8539842087509157 0 -6.8539842087509157 -2.3748258014263683 0 0 0 0 -407.58483044781315 -440.68028148803205 0 -440.68028148803205 -269.20152866234275 0 0 0 0 -474.70542694006872 -294.68819475665805 0 -294.68819475665805 -250.49484369075071 0 0 0 0 -254.05017718481395 -339.90216927035726 0 -339.90216927035726 -230.12091237395362 0 0 0 0 -436.55464356895391 -360.01071629049238 0 -360.01071629049238 -175.53138856869191 0 0 0 0 -14.49582939199172 -42.457708908681525 0 -42.457708908681525 -33.196703955358316 0 0 0 0 -6.8747097087666589 -7.8397344289207922 0 -7.8397344289207922 7.195180476390604 0 0 0 0 -17.584169305366231 -34.945145391197002 0 -34.945145391197002 -23.138403065936245 0 0 0 0 8.8871049040178463 -16.820636224811608 0 -16.820636224811608 -24.187072873207455 0 0 0 0 -37.523668596637435 -46.336898149376793 0 -46.336898149376793 -23.547975533059798 0 0 0 0 -27.783880217990372 -51.500600896557444 0 -51.500600896557444 -31.698445619331324 0 0 0 0 49.273211918611196 -319.77502246314907 0 -319.77502246314907 89.484305892068733 0 0 0 0 -139.60322475356406 -162.72590311552403 0 -162.72590311552403 -40.363887002560659 0 0 0 0 -304.33919417070865 -289.65286291951998 0 -289.65286291951998 67.483381192203524 0 0 0 0 -106.06432408450928 -321.49909235319865 0 -321.49909235319865 -298.59595856146916 0 0 0 0 -396.41638095068629 -444.78774543747932 0 -444.78774543747932 -195.9792446248066 0 0 0 0 -300.3723635041024 -535.04496024401669 0 -535.04496024401669 -599.49833796700477 0 0 0 0 -48.596608873136574 -403.77126329547173 0 -403.77126329547173 -233.77103561014519 0 0 0 0 -245.97431963228883 -223.12499965565257 0 -223.12499965565257 -393.34993206696527 0 0 0 0 1.0652153210820643 -6.407988605958792 0 -6.407988605958792 8.9276111692656031 0 0 0 0 -16.960316241762484 -1.7879540878639091 0 -1.7879540878639091 46.155443518255197 0 0 0 0 -234.44770458409039 -579.19919836112604 0 -579.19919836112604 -646.04714176633024 0 0 0 0 3.8310495711714339 -6.0083768424725292 0 -6.0083768424725292 5.4151078311353587 0 0 0 0 -13.998733654529133 -14.418592918933882 0 -14.418592918933882 88.037595117537421 0 0 0 0 21.887267234568725 -20.50697727159141 0 -20.50697727159141 -27.229092469880982 0 0 0 0 41.80928106913052 -66.086224731576294 0 -66.086224731576294 -42.04514825285878 0 0 0 0 -262.04073390919075 -309.99853470566086 0 -309.99853470566086 711.21751886380662 0 0 0 0 -78.05497218677192 -49.414199788912811 0 -49.414199788912811 20.668505433321116 0 0 0 0 22.274418223456621 -9.5008657099367468 0 -9.5008657099367468 -4.8879360629444477 0 0 0 0 66.239413154719955 -16.079881176650851 0 -16.079881176650851 -48.649678541477613 0 0 0 0 672.81404111842858 -15.073216728771513 0 -15.073216728771513 -324.44818338933692 0 0 0 0 -116.93474796910959 350.22047135565481 0 350.22047135565481 -415.84426431257452 0 0 0 0 -44.931083157789544 -51.802276283942774 0 -51.802276283942774 -13.964820783054165 0 0 0 0 -43.301602561259642 -28.819315954886406 0 -28.819315954886406 18.272452198812971 0 0 0 0 -57.312140665133484 -43.473743965067115 0 -43.473743965067115 14.854924541065884 0 0 0 0 -64.743094350473257 -36.784538450361651 0 -36.784538450361651 30.122241212739027 0 0 0 0 22.980056593179199 -54.317205497290161 0 -54.317205497290161 36.75535110223035 0 0 0 0 70.682421027915552 -86.00923225209408 0 -86.00923225209408 70.517181777096994 0 0 0 0 -78.385039961052826 -51.811927920396556 0 -51.811927920396556 22.199039664958036 0 0 0 0 62.263981628835609 -101.14904230168941 0 -101.14904230168941 59.245084558679082 0 0 0 0 81.224550665036077 -58.836750472865788 0 -58.836750472865788 0.51399431080790237 0 0 0 0 18.134433700767019 -43.45618206745462 0 -43.45618206745462 19.778813696773796 0 0 0 0 -29.05483940555132 -62.099129674945289 0 -62.099129674945289 26.951865661234478 0 0 0 0 -118.47485430285451 -77.694293736938562 0 -77.694293736938562 45.827079170858269 0 0 0 0 -91.224279441914405 -71.260083180113725 0 -71.260083180113725 1.8512256696049008 0 0 0 0 -59.909802483482054 -102.21936265048134 0 -102.21936265048134 11.701688230446962 0 0 0 0 4.9263880428479752 -62.405783183286985 0 -62.405783183286985 -13.115761445253156 0 0 0 0 41.321740195824532 -76.402381242140109 0 -76.402381242140109 -11.187422890558082 0 0 0 0 3.6105287792161107 -2.636423621144786 0 -2.636423621144786 95.912443085791892 0 0 0 0 -93.746089174834196 -69.325528191431658 0 -69.325528191431658 96.340725777141415 0 0 0 0 -27.284574408360641 -65.551854654091585 0 -65.551854654091585 43.948210055241361 0 0 0 0 -20.495496710889711 -113.54268227581451 0 -113.54268227581451 259.27070889931929 0 0 0 0 149.70599913102342 -251.45884181201836 0 -251.45884181201836 43.925520439282991 0 0 0 0 121.00828725805559 -246.9424427250425 0 -246.9424427250425 53.103707336566004 0 0 0 0 -124.58079561655177 -84.405531753498508 0 -84.405531753498508 76.60270844747356 0 0 0 0 126.0756125976186 -187.21124715471524 0 -187.21124715471524 -92.20938938485051 0 0 0 0 186.11685127161036 -208.85181272220871 0 -208.85181272220871 48.607795163663468 0 0 0 0 -80.084568399596719 -178.71859114247013 0 -178.71859114247013 57.464946354346466 0 0 0 0 275.15928411541972 -271.01840950455153 0 -271.01840950455153 14.405012824816367 0 0 0 0 1.3866710214933846 -96.863502277421503 0 -96.863502277421503 -2.0098002145459759 0 0 0 0 -56.017589842143934 -81.793795431247418 0 -81.793795431247418 -2.9026891620269453 0 0 0 0 13.200380154061463 -46.478721641262695 0 -46.478721641262695 -4.1518194039899754 0 0 0 0 -88.335334175328171 -155.9475622025675 0 -155.9475622025675 -89.517416331662389 0 0 0 0 5.0149053752267037 -12.363713615920808 0 -12.363713615920808 5.8234880847467281 0 0 0 0 -64.258612312592049 -22.319322401894851 0 -22.319322401894851 36.081611825604341 0 0 0 0 -6.9427162242668743 -24.558734301349261 0 -24.558734301349261 61.901307223470383 0 0 0 0 -27.54322447143204 -60.411335922377475 0 -60.411335922377475 73.692641083143826 0 0 0 0 -41.639557375267032 -61.094139818624171 0 -61.094139818624171 106.02952218148494 0 0 0 0 -151.41280263944645 -79.126543833375763 0 -79.126543833375763 146.93969825293425 0 0 0 0 -55.348666524768475 -61.882333499168375 0 -61.882333499168375 -16.444672867300191 0 0 0 0 -101.7660037841415 -92.572514984623012 0 -92.572514984623012 149.59049966431849 0 0 0 0 5.8177110791148152 -125.37237693971838 0 -125.37237693971838 60.38160045695895 0 0 0 0 -54.664789725288188 -54.832042987478658 0 -54.832042987478658 -26.214922290936698 0 0 0 0 -3.4853844475946971 -110.34368402421023 0 -110.34368402421023 -35.056425914248393 0 0 0 0 9.3821644592499069 -102.83055827908174 0 -102.83055827908174 89.134639071664424 0 0 0 0 -33.547108238468354 -186.38834023723757 0 -186.38834023723757 113.07261262472093 0 0 0 0 -175.37687311210902 -229.16827949229264 0 -229.16827949229264 278.66502879779364 0 0 0 0 -51.702221820368663 -51.3889079037192 0 -51.3889079037192 -26.576198003030168 0 0 0 0 -1.2601711964525748 0.21433344629622297 0 0.21433344629622297 140.74264861425036 0 0 0 0 -51.302929711935576 41.908980888725637 0 41.908980888725637 124.93767795304211 0 0 0 0 -333.55794258398237 196.1593588206124 0 196.1593588206124 97.65574605231086 0 0 0 0 19.184070771254483 45.061062528784532 0 45.061062528784532 124.83665078869672 0 0 0 0 -372.22903711578692 -363.00399835241114 0 -363.00399835241114 -64.252575713668193 0 0 0 0 70.786476403736742 -43.457362926725182 0 -43.457362926725182 -182.24997178149351 0 0 0 0 119.52451278463923 628.44447310217311 0 628.44447310217311 191.00249200612598 0 0 0 0 -4.8564106934757092 -4.663083685196419 0 -4.663083685196419 -5.3612353113881568 0 0 0 0 -33.831158081094031 -22.325131784182709 0 -22.325131784182709 -19.429743302114844 0 0 0 0 105.36521000617358 188.3691540902546 0 188.3691540902546 -87.707465964784205 0 0 0 0 -415.67367829657269 -837.53808860303798 0 -837.53808860303798 276.41189902959741 0 0 0 0 65.039353533153189 -148.73045269039721 0 -148.73045269039721 305.75225186923035 0 0 0 0 94.210707542486489 -172.18746693283902 0 -172.18746693283902 278.60273216463975 0 0 0 0 88.105703908120631 -86.999403623623948 0 -86.999403623623948 -402.82943241572139 0 0 0 0 25.391987416871416 -158.71612392446332 0 -158.71612392446332 346.99131335304628 0 0 0 0 5.3217541994228839 -5.7264736302620634 0 -5.7264736302620634 -1.8767951778859668 0 0 0 0 -3.2768041600313609 -2.634096001263373 0 -2.634096001263373 3.101548606763501 0 0 0 0 19.102327364627854 -168.435821376901 0 -168.435821376901 310.15528850942792 0 0 0 0 94.892180779323098 -57.26599644349335 0 -57.26599644349335 -367.93018858940923 0 0 0 0 -752.25887003414391 -811.27446104173578 0 -811.27446104173578 454.13485008994212 0 0 0 0 -14.974697847533122 -17.242832382395839 0 -17.242832382395839 -12.964729948692138 0 0 0 0 84.478311993196257 -139.56461375200161 0 -139.56461375200161 68.010714260060922 0 0 0 0 -11.764645018544229 -10.26275149906985 0 -10.26275149906985 -6.2869020082220004 0 0 0 0 56.515795176936081 -139.25444684809918 0 -139.25444684809918 -507.98722257758345 0 0 0 0 -153.69100470676494 -360.70343112682895 0 -360.70343112682895 515.33477495213447 0 0 0 0 45.697609030816238 -64.779529987579735 0 -64.779529987579735 80.873022937393216 0 0 0 0 98.652564323696424 -83.001656413613091 0 -83.001656413613091 18.032570355819189 0 0 0 0 35.502280183703988 -76.18817403777939 0 -76.18817403777939 29.438825198969425 0 0 0 0 53.716585126632708 -104.72816941588462 0 -104.72816941588462 -34.779374826870935 0 0 0 0 75.912667722703191 -82.149646697347634 0 -82.149646697347634 -34.730024160591711 0 0 0 0 75.566213567290106 -94.337431110037869 0 -94.337431110037869 -34.528635802133067 0 0 0 0 95.624470784707228 -122.5397088634345 0 -122.5397088634345 -225.69183803585838 0 0 0 0 67.242088891638559 -135.41784183807249 0 -135.41784183807249 -126.45241789477586 0 0 0 0 72.172287802679421 -16.352145397429013 0 -16.352145397429013 -36.035026069570449 0 0 0 0 -70.071063957570004 -69.647398962206353 0 -69.647398962206353 186.1183716538435 0 0 0 0 5.3647059987546299 0.54696591584053067 0 0.54696591584053067 -5.0687048458266304 0 0 0 0 -68.033996129583102 -68.856599624083174 0 -68.856599624083174 0.301763016035693 0 0 0 0 -56.29825169686228 -52.738055377056298 0 -52.738055377056298 18.463456641999073 0 0 0 0 -35.753101880966966 -81.676846656638503 0 -81.676846656638503 -8.8709216606418977 0 0 0 0 -12.086898235730473 -14.309074114240218 0 -14.309074114240218 -11.972108919460794 0 0 0 0 -4.8952835630916525 -51.681960163001349 0 -51.681960163001349 -45.633873015911377 0 0 0 0 -4.7478494944080012 -29.956701406390494 0 -29.956701406390494 -46.96087425515725 0 0 0 0 -0.030035437317565084 -30.763584345841082 0 -30.763584345841082 -55.314132536565012 0 0 0 0 0.016318779365974478 -34.645508795023488 0 -34.645508795023488 -43.598494699424919 0 0 0 0 78.633400566075579 -37.804357119010092 0 -37.804357119010092 -546.24750603237044 0 0 0 0 10.842896676367673 -22.032068141990749 0 -22.032068141990749 -44.395057793110027 0 0 0 0 11.061091144234524 -27.191243245470105 0 -27.191243245470105 -46.304852317291079 0 0 0 0 20.87967831264541 -44.665683648221602 0 -44.665683648221602 -51.828977299046528 0 0 0 0 6.0528064062097542 -28.978851375705062 0 -28.978851375705062 -70.037481462357334 0 0 0 0 103.27858089863003 331.81288468126149 0 331.81288468126149 -337.37970701218728 0 0 0 0 80.152227657727963 -77.89902301168587 0 -77.89902301168587 39.244195271453975 0 0 0 0 -650.48786873003701 282.83877596863749 0 282.83877596863749 1222.3531461475613 0 0 0 0 62.729352565816214 -48.099843568177135 0 -48.099843568177135 39.058498021639394 0 0 0 0 933.35050872321517 -2362.2761697424976 0 -2362.2761697424976 150.64522420702269 0 0 0 0 115.28165284584975 -52.170926887272799 0 -52.170926887272799 4.2133166688436177 0 0 0 0 89.914960326721484 -90.287205621321391 0 -90.287205621321391 -37.181443205932737 0 0 0 0 83.074662471226475 -122.40989584680574 0 -122.40989584680574 -4.7675045902760758 0 0 0 0 93.963372351419821 -141.7531844715777 0 -141.7531844715777 -15.70499300067786 0 0 0 0 102.3048075333063 -153.12601150797673 0 -153.12601150797673 -0.2659502814130974 0 0 0 0 111.88117460869398 -176.96732158964369 0 -176.96732158964369 -87.947600977568072 0 0 0 0 183.75852311073686 -229.49743147063782 0 -229.49743147063782 -63.927861398291498 0 0 0 0 194.66624050946848 -277.07404148872229 0 -277.07404148872229 -349.25914549028676 0 0 0 0 217.50056646508165 -87.886431605413236 0 -87.886431605413236 -262.71204109543396 0 0 0 0 203.6226744868909 -106.18767107468375 0 -106.18767107468375 -227.39674654436385 0 0 0 0 144.21504812156491 -96.972335471953556 0 -96.972335471953556 -94.662145544282794 0 0 0 0 195.85336980057764 -65.761945267600822 0 -65.761945267600822 -83.408054574530979 0 0 0 0 116.3881552663006 -33.616267440374941 0 -33.616267440374941 -96.10174417802773 0 0 0 0 219.39616042049602 55.506513027386973 0 55.506513027386973 -19.760171563488257 0 0 0 0 44.18749764407039 31.999730007827566 0 31.999730007827566 37.433818317847908 0 0 0 0 70.676332707414986 -40.852271370727976 0 -40.852271370727976 2.2569044599422341 0 0 0 0 254.94005239143735 171.11739015494823 0 171.11739015494823 117.172391101014 0 0 0 0 513.34705289767589 -39.609411425011785 0 -39.609411425011785 -11.331461649489938 0 0 0 0 333.53118378150975 55.426120520452969 0 55.426120520452969 -60.983683709266188 0 0 0 0 269.06088050788094 -18.241585537121864 0 -18.241585537121864 -130.35202634804591 0 0 0 0 252.48873941150669 -12.455090103348994 0 -12.455090103348994 -132.20992569453665 0 0 0 0 253.48795916265226 -37.37471701470713 0 -37.37471701470713 -141.77248549245269 0 0 0 0 289.15126873537156 -127.62601784945127 0 -127.62601784945127 -271.17576841679693 0 0 0 0 379.11527174906223 -143.44541808399663 0 -143.44541808399663 -54.725892862676119 0 0 0 0 467.97765200569847 -33.467799750900667 0 -33.467799750900667 12.052780080091907 0 0 0 0 141.91960081750585 -68.208511954966525 0 -68.208511954966525 27.938067910152313 0 0 0 0 -25.42465917908703 -121.33622938377084 0 -121.33622938377084 -204.64975795907958 0 0 0 0 239.97599642598561 -284.26111002135849 0 -284.26111002135849 -117.59170637953503 0 0 0 0 174.12262336185086 -252.51107679114648 0 -252.51107679114648 -421.26681756526523 0 0 0 0 121.38591004065529 -151.58165575302337 0 -151.58165575302337 -230.18539594140748 0 0 0 0 -228.89552303362871 -222.77321579346608 0 -222.77321579346608 -302.80216434313115 0 0 0 0 3.606091456843501 -2.1608715365725857 0 -2.1608715365725857 0.53528483683271588 0 0 0 0 5.9609467578266049 -36.566917201816977 0 -36.566917201816977 575.67054020115393 0 0 0 0 135.55784508671059 -401.70979835000071 0 -401.70979835000071 -625.22852595093718 0 0 0 0 136.08238084895856 -420.01998669274326 0 -420.01998669274326 -89.266219632736465 0 0 0 0 200.73752570297802 -390.02982303110548 0 -390.02982303110548 274.38436135096708 0 0 0 0 228.57705619307035 -254.43298178918872 0 -254.43298178918872 79.534716993803158 0 0 0 0 151.10489491874159 -269.61507172291249 0 -269.61507172291249 126.52597512042848 0 0 0 0 90.764089188611251 -244.86018879811672 0 -244.86018879811672 45.685196435690159 0 0 0 0 193.46172064202256 -301.31945170685503 0 -301.31945170685503 70.258530312970834 0 0 0 0 75.40449883423571 -168.29005325125217 0 -168.29005325125217 51.705690991060692 0 0 0 0 -50.626296893096878 -196.10468903891524 0 -196.10468903891524 90.874714337951445 0 0 0 0 -28.578480550087988 -97.867373180561117 0 -97.867373180561117 -28.061824015449019 0 0 0 0 31.639881003828123 -177.36580836257735 0 -177.36580836257735 9.7751885871803097 0 0 0 0 26.321035894667148 -174.10797023008126 0 -174.10797023008126 154.68415687679226 0 0 0 0 50.16710233601043 -332.19391087541771 0 -332.19391087541771 168.9836188575282 0 0 0 0 48.761542825523065 -254.72432647810638 0 -254.72432647810638 -67.199215994248789 0 0 0 0 5.9504665582935559 -163.81922955407026 0 -163.81922955407026 6.637393159227031 0 0 0 0 56.269097692671494 -216.81271551450664 0 -216.81271551450664 39.800768132266967 0 0 0 0 -49.980987348988748 -78.451151420882042 0 -78.451151420882042 -18.244663660355656 0 0 0 0 -5.1269063820582232 -144.91074972874139 0 -144.91074972874139 24.158230158907827 0 0 0 0 -48.734403825403348 -81.376204603621829 0 -81.376204603621829 -25.649701890265192 0 0 0 0 -133.44942490526591 -127.83017739986644 0 -127.83017739986644 53.870879810738188 0 0 0 0 94.223085120564065 -189.28538756560374 0 -189.28538756560374 -8.7467173227450985 0 0 0 0 26.327903962039272 -142.88512398501371 0 -142.88512398501371 14.946584734195312 0 0 0 0 -40.776059637224535 -154.57932902227913 0 -154.57932902227913 -3.2764251279986638 0 0 0 0 17.929566779352172 -160.17590440655385 0 -160.17590440655385 -10.230692071108933 0 0 0 0 -0.0087577301455894485 -172.45310972155494 0 -172.45310972155494 17.423564106124104 0 0 0 0 2.3873451236722758 -160.39945134631489 0 -160.39945134631489 32.768308748378331 0 0 0 0 -4.4096348673920147 -148.19105678981941 0 -148.19105678981941 20.006088338488553 0 0 0 0 -5.2781080571294297 -144.79777670035401 0 -144.79777670035401 24.236719881664612 0 0 0 0 -14.582145980879432 -151.76192859540242 0 -151.76192859540242 30.479401263995896 0 0 0 0 -0.028665551181012317 -178.83698611496416 0 -178.83698611496416 74.838713240271318 0 0 0 0 0.3022945507853052 -5.6402741995610199 0 -5.6402741995610199 -3.9403475602779139 0 0 0 0 -0.03914652782259509 -12.834594593900874 0 -12.834594593900874 -7.01686531958876 0 0 0 0 -0.063910907672834583 -10.598630451313511 0 -10.598630451313511 -7.7992120782946586 0 0 0 0 1.8894597174657974 -10.911740568753885 0 -10.911740568753885 -17.551705540998228 0 0 0 0 271.23169266294281 -8.7794648204235273 0 -8.7794648204235273 -126.858683010405 0 0 0 0 0.49246681248769164 -18.931072602848872 0 -18.931072602848872 54.364826624921989 0 0 0 0 84.9107656822016 71.427367164327734 0 71.427367164327734 34.251484967479428 0 0 0 0 208.26838147865783 51.737443899261052 0 51.737443899261052 -98.711524150068726 0 0 0 0 35.686376230674796 -1.3997214873006669 0 -1.3997214873006669 -56.950735695980256 0 0 0 0 -148.72509282137617 -103.19781490089008 0 -103.19781490089008 -55.133517536710315 0 0 0 0 0.13211509104494024 -4.3243942909265058 0 -4.3243942909265058 -1.8545775123050277 0 0 0 0 -51.235570733435452 -64.468720543591189 0 -64.468720543591189 -177.18923822032593 0 0 0 0 -0.0600755411433056 -131.59303546207593 0 -131.59303546207593 -264.54568616774486 0 0 0 0 -0.02636503795563197 -159.16236502638733 0 -159.16236502638733 -88.833982028852915 0 0 0 0 49.426110860149493 -158.97690550692278 0 -158.97690550692278 -103.7410968677541 0 0 0 0 -46.368777513529039 -179.40463685506728 0 -179.40463685506728 -101.33659503300078 0 0 0 0 131.70353262271965 -51.588284848294279 0 -51.588284848294279 -226.2841800396709 0 0 0 0 39.864199160248972 -78.721291601215853 0 -78.721291601215853 0.18328031482815277 0 0 0 0 77.040122780468664 -24.78726910979276 0 -24.78726910979276 -62.093659523477982 0 0 0 0 59.724499454663601 -127.56599841773459 0 -127.56599841773459 -8.5475449987599887 0 0 0 0 170.83573276891548 -170.21888315534852 0 -170.21888315534852 -46.631865796845887 0 0 0 0 -49.31051596814919 -83.026954351220752 0 -83.026954351220752 -34.026312576153373 0 0 0 0 -28.180281445878791 -50.884237873697202 0 -50.884237873697202 -10.036155186160613 0 0 0 0 163.68943287235015 -222.61930382458422 0 -222.61930382458422 -117.6662246283704 0 0 0 0 27.348084107681643 -7.2046898810576749 0 -7.2046898810576749 -26.023434888793417 0 0 0 0 16.198723078101466 -61.48030684031869 0 -61.48030684031869 -62.555608066835703 0 0 0 0 -247.11026052487432 -22.031784993383553 0 -22.031784993383553 -46.911303166587459 0 0 0 0 0.21877576688711997 -39.281860546409916 0 -39.281860546409916 -129.99687573084964 0 0 0 0 -204.79631181735022 -4.0705433741004526 0 -4.0705433741004526 -146.7650980030553 0 0 0 0 -168.26400631680735 -93.760444952520629 0 -93.760444952520629 -166.7212836274548 0 0 0 0 -126.36323090099177 -13.19833998406466 0 -13.19833998406466 -20.595666198016261 0 0 0 0 -303.52318507814925 -14.69221362924327 0 -14.69221362924327 -12.743763026497618 0 0 0 0 -48.554849127447881 -82.969007210401486 0 -82.969007210401486 -43.622762737250767 0 0 0 0 -122.88620750716655 -27.705414914311405 0 -27.705414914311405 -75.599088955568732 0 0 0 0 -228.24490021548263 -74.403760497064468 0 -74.403760497064468 34.354861982137663 0 0 0 0 -95.883777996255958 -169.63809038232466 0 -169.63809038232466 -10.603274009368761 0 0 0 0 -42.163367921079043 -109.17127204525605 0 -109.17127204525605 55.8922470707858 0 0 0 0 65.848047657702409 -260.46409145297912 0 -260.46409145297912 50.699807765748119 0 0 0 0 179.6771078140373 -363.13906277872775 0 -363.13906277872775 152.2485330525451 0 0 0 0 44.449397154261533 -238.6401354235386 0 -238.6401354235386 67.543099124679429 0 0 0 0 105.08455366761336 -164.20689782999034 0 -164.20689782999034 139.77379491318061 0 0 0 0 -59.574565078510204 -57.041188659204636 0 -57.041188659204636 91.609852406510527 0 0 0 0 71.340244589890062 -159.62166463933681 0 -159.62166463933681 9.1461101859458722 0 0 0 0 -66.322058461384586 -111.17872391055062 0 -111.17872391055062 -41.362153261732601 0 0 0 0 -92.068904830171959 44.349466848700104 0 44.349466848700104 -102.838062657298 0 0 0 0 -86.651636878144927 -10.400393408424861 0 -10.400393408424861 -166.66649506264366 0 0 0 0 -61.890677363102441 -80.413578535815759 0 -80.413578535815759 -99.35032486423006 0 0 0 0 -83.970115570176858 -28.433266085194191 0 -28.433266085194191 71.668216291414865 0 0 0 0 -80.44684600061737 196.32714914478856 0 196.32714914478856 -660.2684174266542 0 0 0 0 -126.35522959227092 -39.940195000155654 0 -39.940195000155654 -377.44505560694961 0 0 0 0 -81.530306537155411 196.34127256397187 0 196.34127256397187 -650.54969105350028 0 0 0 0 -74.784567042603157 87.860785650700564 0 87.860785650700564 -339.89727401865093 0 0 0 0 -196.14102280582301 72.817344536546443 0 72.817344536546443 -327.76199377275771 0 0 0 0 -142.82740057717456 56.805737787371982 0 56.805737787371982 -131.19244676351082 0 0 0 0 -44.798210512133664 -83.463368468663248 0 -83.463368468663248 -224.30875554324302 0 0 0 0 -138.19210494946128 83.521662145532446 0 83.521662145532446 -256.618204457096 0 0 0 0 -18.34721450030338 63.860064034222887 0 63.860064034222887 -341.79659201629329 0 0 0 0 -24.049156796224679 -49.087854042002888 0 -49.087854042002888 -9.3898467370978196 0 0 0 0 -7.5768246447842102 -86.475824867545725 0 -86.475824867545725 -47.314807874949679 0 0 0 0 -68.007769114832627 -178.22493675827718 0 -178.22493675827718 -117.42844255651653 0 0 0 0 -3.308286621307218 -6.5501940201219355 0 -6.5501940201219355 17.385717408290461 0 0 0 0 25.814263258420397 -42.252788448953652 0 -42.252788448953652 79.512716062658001 0 0 0 0 -83.765623814135324 208.52876381971146 0 208.52876381971146 -655.4526402066258 0 0 0 0 -82.483886897505727 216.14017443011107 0 216.14017443011107 -624.83925048037781 0 0 0 0 11.158556683063864 -4.9951611167343515 0 -4.9951611167343515 -18.041410608890303 0 0 0 0 5.3750263358908512 -64.022824577242091 0 -64.022824577242091 -26.247850678818793 0 0 0 0 -325.04833950285683 101.70063629203651 0 101.70063629203651 -110.25376742571098 0 0 0 0 -189.55389023452881 235.88206322399128 0 235.88206322399128 -537.13228165599867 0 0 0 0 26.523425550572711 -47.909305620695633 0 -47.909305620695633 -1.4029067040752281 0 0 0 0 27.488825202475368 -33.560201416222419 0 -33.560201416222419 -16.296132321429806 0 0 0 0 14.34032261261018 -30.418607129317024 0 -30.418607129317024 -0.7058710823621368 0 0 0 0 29.741324864589842 -52.475315025877876 0 -52.475315025877876 9.6559289903259469 0 0 0 0 29.38961832001587 -57.538116433641306 0 -57.538116433641306 -26.827936944476505 0 0 0 0 29.029873229408736 -54.520431681913351 0 -54.520431681913351 16.373536031194178 0 0 0 0 73.866335991493543 -231.11126607858205 0 -231.11126607858205 74.642269013311306 0 0 0 0 78.481066278211074 -237.27609001175915 0 -237.27609001175915 81.395641100629291 0 0 0 0 -361.15455076918079 -62.920951285234878 0 -62.920951285234878 436.471206342183 0 0 0 0 -316.15443327155663 -379.13539413159015 0 -379.13539413159015 225.16149256878998 0 0 0 0 68.186894099344499 -445.66997318523136 0 -445.66997318523136 108.30283384338691 0 0 0 0 -98.516831472574268 -174.12537562489888 0 -174.12537562489888 229.15977786060603 0 0 0 0 59.32212073924893 196.82564053895294 0 196.82564053895294 480.84580727546563 0 0 0 0 -3.5791235155011805 -93.924165376065986 0 -93.924165376065986 75.398837480699584 0 0 0 0 -1.8451764562404378 -23.092254244023742 0 -23.092254244023742 16.337928200267317 0 0 0 0 -20.015566378948279 -81.641318143120316 0 -81.641318143120316 99.753762154399766 0 0 0 0 40.649413616863569 -34.226542511466505 0 -34.226542511466505 -2.102929910199725 0 0 0 0 -15.501785130647477 -122.02023910981143 0 -122.02023910981143 -6.4114751180577514 0 0 0 0 -15.089128545649146 -117.73243966247588 0 -117.73243966247588 -126.89022663418291 0 0 0 0 -27.228511991190317 -84.331638380144369 0 -84.331638380144369 15.68741980817782 0 0 0 0 23.982013912376715 -140.11011642773383 0 -140.11011642773383 -41.809298019330527 0 0 0 0 64.044938913451915 -147.31108642942422 0 -147.31108642942422 31.838131132896251 0 0 0 0 -17.211743372783531 -143.47888827607972 0 -143.47888827607972 36.821946173790138 0 0 0 0 17.486747415474383 -98.434795374836085 0 -98.434795374836085 56.683097317685224 0 0 0 0 20.625965128219832 -100.01388518409696 0 -100.01388518409696 -6.9198731679490493 0 0 0 0 17.573845085207722 -134.52248159655255 0 -134.52248159655255 48.510090262849189 0 0 0 0 -4.7169292771141045 -136.27464539765242 0 -136.27464539765242 48.860073815528722 0 0 0 0 16.266476310120197 -169.6263304971053 0 -169.6263304971053 97.10883063347319 0 0 0 0 57.980576181915239 -110.62881319519079 0 -110.62881319519079 30.712997037803689 0 0 0 0 -52.132172150997604 -71.381932334234989 0 -71.381932334234989 23.223742855921373 0 0 0 0 -17.349495683151133 -64.992879513143777 0 -64.992879513143777 -25.350162126279425 0 0 0 0 -8.6094324698551645 -76.874985667462738 0 -76.874985667462738 40.698441971605462 0 0 0 0 -101.93653266003457 -50.974843009706092 0 -50.974843009706092 -274.21655246800947 0 0 0 0 7.5215011302152561 -38.305072943724326 0 -38.305072943724326 -302.7583299697726 0 0 0 0 -50.511910258631701 -89.22826160161236 0 -89.22826160161236 -48.229250238470186 0 0 0 0 166.61835495041305 -183.32329221885357 0 -183.32329221885357 -333.3845563140585 0 0 0 0 1.9897331693020988 -23.031543379798247 0 -23.031543379798247 -6.5265261521246831 0 0 0 0 -15.295326028572163 -212.46481993741781 0 -212.46481993741781 -707.73378804891399 0 0 0 0 -6.4364298807255977 6.7295264501952161 0 6.7295264501952161 3.1937583859152792 0 0 0 0 -129.31374837362091 -116.63891805579624 0 -116.63891805579624 342.01665220179075 0 0 0 0 -148.99514994333731 -305.71183167666322 0 -305.71183167666322 -133.75267696264564 0 0 0 0 45.294842201314168 -81.476714607661961 0 -81.476714607661961 -329.06850359392047 0 0 0 0 -214.93226243692334 -262.62819731774925 0 -262.62819731774925 97.074929147855073 0 0 0 0 47.277830899191031 -119.50762364003685 0 -119.50762364003685 59.298234689376841 0 0 0 0 -42.710970099215047 -154.68111542221777 0 -154.68111542221777 45.701627664102261 0 0 0 0 17.746066776428052 -140.04229827229739 0 -140.04229827229739 -5.2566389442927175 0 0 0 0 -24.44491662782093 -102.38982540683992 0 -102.38982540683992 17.714952096921934 0 0 0 0 -35.389177068631398 -127.81577572693413 0 -127.81577572693413 -39.124569596450783 0 0 0 0 -104.27757483189635 -100.09468738609939 0 -100.09468738609939 -23.5305366577104 0 0 0 0 -54.641510222732904 -115.55250287516128 0 -115.55250287516128 55.896732007531455 0 0 0 0 -126.42754224629607 -194.90510754718798 0 -194.90510754718798 -28.796372576091017 0 0 0 0 -197.44991330874473 -101.31923459716336 0 -101.31923459716336 3.8850256693240226 0 0 0 0 -421.61170235289319 -187.9231169703362 0 -187.9231169703362 19.104542978779136 0 0 0 0 -88.143741761276033 -101.01109949337956 0 -101.01109949337956 -79.154417423369978 0 0 0 0 -178.11332838417002 -220.97592051345646 0 -220.97592051345646 -114.94250186313093 0 0 0 0 0.19287875341251493 -204.47720857823083 0 -204.47720857823083 -73.462178693288479 0 0 0 0 -0.082481437292409421 -4.971503725209601 0 -4.971503725209601 -1.1233895211251586 0 0 0 0 179.6007883302716 -54.531578086684249 0 -54.531578086684249 -4.3234149929721752 0 0 0 0 0.041652286279713735 -32.848237231362873 0 -32.848237231362873 18.480705338577536 0 0 0 0 18.989838489156682 -51.555577836309567 0 -51.555577836309567 10.701936112329349 0 0 0 0 48.935112014180049 -32.959916470545977 0 -32.959916470545977 -2.7900204122342984 0 0 0 0 0.1354007491428284 -6.1751707521941057 0 -6.1751707521941057 -3.2076629196805868 0 0 0 0 -33.77068569738185 -154.29814388721024 0 -154.29814388721024 20.80793693934902 0 0 0 0 23.42551380864461 -173.41212666638967 0 -173.41212666638967 -46.208583837433252 0 0 0 0 -75.440130730072269 -185.46036806090706 0 -185.46036806090706 -0.53979012418858474 0 0 0 0 -3.7800850035564508 -207.12374412940972 0 -207.12374412940972 -85.986335301175131 0 0 0 0 35.662860729238673 -7.0639039812956526 0 -7.0639039812956526 11.318006480785698 0 0 0 0 -1.9745611811958952 -11.784234392311191 0 -11.784234392311191 3.1326672987124766 0 0 0 0 26.11212902868283 -13.462139127758746 0 -13.462139127758746 3.2084851220206474 0 0 0 0 378.4254065319401 -308.3246204084262 0 -308.3246204084262 152.71841605179361 0 0 0 0 -153.39507660562231 -30.26015683611331 0 -30.26015683611331 105.1861738562875 0 0 0 0 0.19301779629577709 0.49589239107748995 0 0.49589239107748995 5.1585028933989605 0 0 0 0 169.4419474124079 -230.88685569851623 0 -230.88685569851623 180.24119306165812 0 0 0 0 809.55147205223329 67.294592091933737 0 67.294592091933737 -70.484894417386386 0 0 0 0 -147.67713167803595 19.408693253613819 0 19.408693253613819 94.756673001247691 0 0 0 0 44.792407458691741 -99.216394124103317 0 -99.216394124103317 -40.421824795870634 0 0 0 0 268.49931385106174 -149.26039402061724 0 -149.26039402061724 -56.372851863456162 0 0 0 0 235.12673372806967 -173.35180548394737 0 -173.35180548394737 -233.17724775178795 0 0 0 0 176.33649149368284 26.923526960148592 0 26.923526960148592 157.25519236678156 0 0 0 0 -187.39538756685215 -131.99236275132353 0 -131.99236275132353 138.2409821326446 0 0 0 0 41.885935594822513 85.215991327281245 0 85.215991327281245 51.596282396160177 0 0 0 0 42.805408833827187 -52.756189590674339 0 -52.756189590674339 69.205999834456307 0 0 0 0 -339.59394951808645 -344.17148945714871 0 -344.17148945714871 113.47237788277926 0 0 0 0 -40.243242270109477 -89.741208628951426 0 -89.741208628951426 11.098678459446091 0 0 0 0 -111.88387595980021 -32.393322055888348 0 -32.393322055888348 119.76582648012663 0 0 0 0 -156.48602429856328 -143.33061551650189 0 -143.33061551650189 72.37815402535125 0 0 0 0 -38.849980414447629 -66.6582646330871 0 -66.6582646330871 -0.76558004930492274 0 0 0 0 9.1943776177686232 -40.214947451275748 0 -40.214947451275748 33.187930833402788 0 0 0 0 -29.646993015714543 -100.21043734624027 0 -100.21043734624027 45.625052297269576 0 0 0 0 265.56491817389906 6.7583525197642302 0 6.7583525197642302 83.778239214689165 0 0 0 0 -39.874583205811518 -69.662228439296371 0 -69.662228439296371 362.72306854172348 0 0 0 0 138.92114802707874 -387.79983057243726 0 -387.79983057243726 52.678107085732336 0 0 0 0 -38.632252961746417 -168.8497952376274 0 -168.8497952376274 108.65821744598725 0 0 0 0 -309.82563645653136 -180.60793561557875 0 -180.60793561557875 120.5549194788282 0 0 0 0 -90.751278033894778 -40.576906606874218 0 -40.576906606874218 100.62475776386418 0 0 0 0 -193.96323080008733 1.4041838430475764 0 1.4041838430475764 27.857008844410302 0 0 0 0 9.7764153215248371 64.483873698223761 0 64.483873698223761 14.461703013275837 0 0 0 0 3.3308280491804965 -8.4011911667973891 0 -8.4011911667973891 38.962433935964199 0 0 0 0 -175.72111477900762 -38.773842490048992 0 -38.773842490048992 101.5091723277551 0 0 0 0 205.09374349995051 34.070030279792263 0 34.070030279792263 1.0753946278055082 0 0 0 0 -243.07821856098599 71.88833523356152 0 71.88833523356152 79.146167193735891 0 0 0 0 -1013.553925021115 -302.8829557659592 0 -302.8829557659592 217.23443257009421 0 0 0 0 -230.73946205475568 -122.71145640155066 0 -122.71145640155066 -67.351863881318423 0 0 0 0 158.52729701269709 -199.2239746481464 0 -199.2239746481464 180.53758024680428 0 0 0 0 338.72025581520938 -188.95531990106338 0 -188.95531990106338 110.23074737223214 0 0 0 0 53.24466253889841 -25.820084905293697 0 -25.820084905293697 31.347026552160969 0 0 0 0 290.55090162357374 -244.97803008317533 0 -244.97803008317533 58.949206869103364 0 0 0 0 347.17072654000367 -378.70112192573106 0 -378.70112192573106 191.02131951551667 0 0 0 0 -1.1076878299269879 -0.84721260415759048 0 -0.84721260415759048 4.0071910768374295 0 0 0 0 190.22302283481986 -294.69544277577279 0 -294.69544277577279 173.8426775496082 0 0 0 0 45.065775361872511 -162.98173814769325 0 -162.98173814769325 192.57923131410644 0 0 0 0 304.80334092504927 -128.39800688096875 0 -128.39800688096875 125.1466208938109 0 0 0 0 455.44401721577742 -430.82742195651736 0 -430.82742195651736 198.17151913906855 0 0 0 0 0.093815050210480422 -0.29277025201781726 0 -0.29277025201781726 5.6236186601974936 0 0 0 0 1246.7236352385953 301.39154129305098 0 301.39154129305098 1657.4990887462627 0 0 0 0 1461.9653428589372 -174.80795604408195 0 -174.80795604408195 -192.08410087045377 0 0 0 0 2.0716809909844613 -3.3524730159155638 0 -3.3524730159155638 12.331793914015847 0 0 0 0 487.42962959699798 -312.7371675180184 0 -312.7371675180184 77.296989566988486 0 0 0 0 301.21524186560418 -262.27381284697185 0 -262.27381284697185 384.49166587379295 0 0 0 0 481.15706029115245 -101.41136396467846 0 -101.41136396467846 151.03338675634586 0 0 0 0 235.6451000860543 -127.18809821598552 0 -127.18809821598552 199.62683500387357 0 0 0 0 387.60349587597011 -224.22674159461894 0 -224.22674159461894 8.1372611934348242 0 0 0 0 315.95403606432956 -274.2149852221537 0 -274.2149852221537 104.44986018794589 0 0 0 0 224.41123635252006 -236.86850640312332 0 -236.86850640312332 210.3426817298714 0 0 0 0 260.7549877371639 -208.67902006145778 0 -208.67902006145778 38.601789251551963 0 0 0 0 217.77766465219611 -194.53556169024523 0 -194.53556169024523 -19.406823493540287 0 0 0 0 73.208949170133565 -78.151668436836189 0 -78.151668436836189 90.618505611637374 0 0 0 0 89.245870611499413 -121.47706037440366 0 -121.47706037440366 -83.771570789169346 0 0 0 0 -1.3285313139899717 0.5086519653869459 0 0.5086519653869459 -3.9875032205016367 0 0 0 0 -1416.9890966850871 79.894780010819886 0 79.894780010819886 362.30751623930701 0 0 0 0 -793.85940357678919 -68.41644783956508 0 -68.41644783956508 351.30939107963059 0 0 0 0 -820.11175707962502 257.05382611770847 0 257.05382611770847 -253.05635825110221 0 0 0 0 -413.21945336853969 54.842517322696949 0 54.842517322696949 95.310180976121046 0 0 0 0 -411.57667571739876 25.961260957436025 0 25.961260957436025 535.65868045777461 0 0 0 0 460.26371754729917 430.96079721074966 0 430.96079721074966 444.67892572707206 0 0 0 0 -208.46298596254201 104.72940710319381 0 104.72940710319381 1556.3183971750768 0 0 0 0 -179.0252169685009 -54.105370751506143 0 -54.105370751506143 172.72166111847037 0 0 0 0 368.99354105984094 -547.86048655910781 0 -547.86048655910781 -333.38581202405112 0 0 0 0 -198.30672504570975 -328.69666022711317 0 -328.69666022711317 -136.08324154531874 0 0 0 0 -35.170117462228518 -671.54359403446506 0 -671.54359403446506 533.99687698111666 0 0 0 0 408.34579240050516 -387.62162077963876 0 -387.62162077963876 -263.75176203080264 0 0 0 0 82.885009429242928 -727.99579329868357 0 -727.99579329868357 -401.84643837488693 0 0 0 0 -113.19294349562551 -1598.4379388779635 0 -1598.4379388779635 1394.8204010410627 0 0 0 0 -583.45573950358084 -377.17457859918068 0 -377.17457859918068 -13.698829444396324 0 0 0 0 -583.47360660295817 -379.31354956984433 0 -379.31354956984433 -177.62467909852421 0 0 0 0 -446.79915678288671 -145.05610992636502 0 -145.05610992636502 -135.80670018800083 0 0 0 0 -209.7204606789528 -356.30998217728848 0 -356.30998217728848 -164.63468904094771 0 0 0 0 -457.70658347478457 -207.63547652386023 0 -207.63547652386023 -493.46854327684559 0 0 0 0 1.6011525633873589 -3.6723089218477867 0 -3.6723089218477867 -16.795640747298137 0 0 0 0 -558.38542410715309 155.36133797876028 0 155.36133797876028 286.75364685004388 0 0 0 0 60.625842281078803 143.00480184487424 0 143.00480184487424 92.541272536313045 0 0 0 0 -939.57047349687491 -75.640779181812832 0 -75.640779181812832 338.09326952071569 0 0 0 0 620.83130001105019 -403.04396761826865 0 -403.04396761826865 37.177884895958414 0 0 0 0 216.65228280957672 -300.4480664160692 0 -300.4480664160692 260.42646606422932 0 0 0 0 0.043810744422216885 -1.5428213479960391 0 -1.5428213479960391 0.20345740312880878 0 0 0 0 425.26795408288217 60.494837274224778 0 60.494837274224778 -83.091644492138585 0 0 0 0 107.08677332337538 -208.66652679370964 0 -208.66652679370964 -307.88672406890691 0 0 0 0 -284.06857376837979 -312.24318982349632 0 -312.24318982349632 -695.04562108588289 0 0 0 0 448.34039806244255 -183.43155083926479 0 -183.43155083926479 -358.28847509510524 0 0 0 0 8.9160321060244314 -28.252119781598168 0 -28.252119781598168 6.2660818560159157 0 0 0 0 -0.89753280929932089 -1.8310584049645797 0 -1.8310584049645797 -1.8153805262225831 0 0 0 0 -375.15367213830177 -341.32265253755759 0 -341.32265253755759 80.896522778180952 0 0 0 0 -32.324636432138504 -43.270371679484015 0 -43.270371679484015 -209.03678210228099 0 0 0 0 54.261304090672638 52.118690590563347 0 52.118690590563347 -330.18055835460109 0 0 0 0 -73.610545896401163 -36.338695949452813 0 -36.338695949452813 -49.494056981573522 0 0 0 0 118.15371595133911 -0.04668670966202626 0 -0.04668670966202626 -197.46497243488557 0 0 0 0 127.45010569982878 -100.06556868884036 0 -100.06556868884036 -161.55822146135324 0 0 0 0 177.54295879008714 -14.001981098270335 0 -14.001981098270335 -37.532849475202966 0 0 0 0 183.35731330781709 81.743898380846076 0 81.743898380846076 -384.07398968451889 0 0 0 0 72.909055796335451 -13.260078221508593 0 -13.260078221508593 -162.06480350658603 0 0 0 0 147.39550490389229 -69.674523246711033 0 -69.674523246711033 -89.952676771070401 0 0 0 0 211.46460723409837 -168.5522441784924 0 -168.5522441784924 49.585639511351474 0 0 0 0 309.89356664476509 -46.817752919741906 0 -46.817752919741906 -137.92171194791445 0 0 0 0 2.4127626918925671 199.31183069582767 0 199.31183069582767 -229.17832266176629 0 0 0 0 34.657330837508198 31.228468638000777 0 31.228468638000777 -401.06646783065298 0 0 0 0 142.82285089955258 203.09556619275463 0 203.09556619275463 -517.4054231107657 0 0 0 0 42.851626123089261 -40.135884218554807 0 -40.135884218554807 -29.46219740335366 0 0 0 0 -144.99225640011718 146.16372000540287 0 146.16372000540287 -437.87182156660128 0 0 0 0 -90.211018751957454 85.007050176267512 0 85.007050176267512 -518.24255675642053 0 0 0 0 -88.42634362843819 2.5147944040872972 0 2.5147944040872972 -345.50574145303108 0 0 0 0 -2.0976096556088066 -22.034487750801546 0 -22.034487750801546 1.9991590356639559 0 0 0 0 33.628902360981328 -46.050144429932203 0 -46.050144429932203 -13.868824889691947 0 0 0 0 31.557878001218342 -60.517563138565905 0 -60.517563138565905 3.4099043650230669 0 0 0 0 55.315132631119923 -107.61743115171475 0 -107.61743115171475 42.62179400266723 0 0 0 0 28.081391584204539 -29.729660850448454 0 -29.729660850448454 -116.64172061159843 0 0 0 0 10.365441337780794 -1.4887748438704875 0 -1.4887748438704875 -126.75208861304054 0 0 0 0 19.251323811131158 -43.33919652756434 0 -43.33919652756434 -58.265068248013968 0 0 0 0 49.773487202546676 -57.425159021502623 0 -57.425159021502623 -142.37424805511318 0 0 0 0 201.19201550197977 -39.773119172442421 0 -39.773119172442421 -194.80277615188243 0 0 0 0 28.965487514666165 -27.535614826785604 0 -27.535614826785604 -15.58112616859853 0 0 0 0 -566.18395252466144 -11.222348867408527 0 -11.222348867408527 95.624366068672316 0 0 0 0 18.833130906657104 -28.605711689932974 0 -28.605711689932974 -19.275600033959805 0 0 0 0 39.985223162686452 -119.7417484903217 0 -119.7417484903217 -49.3002351670184 0 0 0 0 -15.523898809769889 -122.96322188267118 0 -122.96322188267118 -35.425266669722987 0 0 0 0 11.342815217063617 -43.326773290838489 0 -43.326773290838489 -28.289523444362494 0 0 0 0 -264.99214468128048 -601.37375034249271 0 -601.37375034249271 -595.26292135365657 0 0 0 0 38.410649518417927 -43.682117981701772 0 -43.682117981701772 -22.499870886527802 0 0 0 0 -54.948312774326041 -15.151994896502515 0 -15.151994896502515 180.05154141312732 0 0 0 0 4.1996921576732689 1.2394989473515867 0 1.2394989473515867 -16.380814861529483 0 0 0 0 102.29524961666903 20.738971440903697 0 20.738971440903697 -110.59039499469208 0 0 0 0 298.03489967045607 -203.0275528914608 0 -203.0275528914608 -343.2434493478213 0 0 0 0 343.10291445782059 -76.028447138170122 0 -76.028447138170122 -58.093050027579011 0 0 0 0 304.11483039171435 -38.613345423197643 0 -38.613345423197643 -132.47583610480751 0 0 0 0 102.61847123720509 -65.671348081501833 0 -65.671348081501833 -105.2558303978376 0 0 0 0 36.614376858866308 47.82936552338424 0 47.82936552338424 -85.457013693170438 0 0 0 0 28.64717875716417 -36.802954080672635 0 -36.802954080672635 -65.742804144557127 0 0 0 0 54.245715189055772 -155.53449386599414 0 -155.53449386599414 -78.689601243587731 0 0 0 0 38.817974112145748 -131.19716997032197 0 -131.19716997032197 -82.337839229751353 0 0 0 0 14.102493668838434 -21.387795444195234 0 -21.387795444195234 11.946626826067284 0 0 0 0 44.573953710020589 -51.29874671624502 0 -51.29874671624502 -8.7472427056591986 0 0 0 0 -191.97859973284358 -125.86468903664263 0 -125.86468903664263 -41.820112453465299 0 0 0 0 96.819167398687568 -65.278622178685509 0 -65.278622178685509 -26.709370095008012 0 0 0 0 238.23298265584162 -410.69928491054179 0 -410.69928491054179 -34.811109370191843 0 0 0 0 16.770891878960313 -14.179768003146279 0 -14.179768003146279 0.89278993981457955 0 0 0 0 27.198281009841594 -96.270291461258466 0 -96.270291461258466 -15.906626297002276 0 0 0 0 73.519706930324901 -59.805150155534648 0 -59.805150155534648 9.500021360716346 0 0 0 0 -70.503276819028542 -66.461301128104196 0 -66.461301128104196 -1.7215959440886763 0 0 0 0 -7.3444373487727717 -104.58189528900766 0 -104.58189528900766 20.321614342175053 0 0 0 0 101.83735498302849 -163.35303354044572 0 -163.35303354044572 32.08234767738395 0 0 0 0 205.75768910553597 -3.7540353932508879 0 -3.7540353932508879 -110.37867138272486 0 0 0 0 -1.3133322454081053 -64.051007784446554 0 -64.051007784446554 -19.529361016774374 0 0 0 0 159.2684948173046 -145.3149770350974 0 -145.3149770350974 -382.89398927529692 0 0 0 0 138.91418122033065 -23.422977360878576 0 -23.422977360878576 -70.657799734860419 0 0 0 0 42.926879054904532 -42.709049303393329 0 -42.709049303393329 -45.024420624634622 0 0 0 0 44.214194813423092 -54.15451787213533 0 -54.15451787213533 -43.687178853491787 0 0 0 0 42.024213260375291 -68.028633591696405 0 -68.028633591696405 -12.299800539866865 0 0 0 0 53.391825360324077 -61.654972540282557 0 -61.654972540282557 -54.209248920893835 0 0 0 0 30.401937252214111 -28.562914209441089 0 -28.562914209441089 8.4333712004160617 0 0 0 0 11.140534449863589 -15.420234182053889 0 -15.420234182053889 -28.065508566979901 0 0 0 0 87.629599999047059 -171.3743880573893 0 -171.3743880573893 -92.419562179897184 0 0 0 0 160.27399381406576 -113.16776822826341 0 -113.16776822826341 -121.55688173557428 0 0 0 0 32.664016590170547 -39.024163239138204 0 -39.024163239138204 44.255361700987976 0 0 0 0 -172.22892583846988 -401.6205526644444 0 -401.6205526644444 -83.256458546322392 0 0 0 0 -122.14729874357181 -24.833346782774697 0 -24.833346782774697 37.896566884723143 0 0 0 0 141.16394143484649 107.92918914157781 0 107.92918914157781 -34.317029623878625 0 0 0 0 -1.2215524131331961 -4.7785243313111891 0 -4.7785243313111891 12.973180434612402 0 0 0 0 418.12052071976359 63.324652759745732 0 63.324652759745732 -142.85166924503574 0 0 0 0 118.95604830454249 96.068394753040593 0 96.068394753040593 13.299273261578492 0 0 0 0 -38.245011964943842 -217.12091628520648 0 -217.12091628520648 -63.365092558895412 0 0 0 0 -386.62716842918599 -65.714657106724189 0 -65.714657106724189 49.895830011813814 0 0 0 0 -184.76172270206735 -151.08204499456042 0 -151.08204499456042 48.086888736399487 0 0 0 0 -210.7873155712623 -332.94744326836098 0 -332.94744326836098 -316.30382349872525 0 0 0 0 -218.17599645569135 -122.65427911192819 0 -122.65427911192819 -88.969137261170545 0 0 0 0 -46.53033960214816 -64.391061459828052 0 -64.391061459828052 -32.788920370796404 0 0 0 0 -11.698029609640656 -4.4623816582725624 0 -4.4623816582725624 3.8217022677933272 0 0 0 0 -17.054461952108198 -21.481355700503528 0 -21.481355700503528 26.269619423091825 0 0 0 0 -34.614746512750571 -10.312682703314749 0 -10.312682703314749 86.315458159453556 0 0 0 0 -477.00053276535618 -106.317523699503 0 -106.317523699503 304.64779764906416 0 0 0 0 -162.56358280625136 89.465729735875357 0 89.465729735875357 -199.92832373346755 0 0 0 0 -234.02474022528622 -116.24209979023453 0 -116.24209979023453 -43.049417565681324 0 0 0 0 -68.249271595866304 -76.245033236547172 0 -76.245033236547172 -28.939229762199023 0 0 0 0 -99.686771665852575 -147.04868736713661 0 -147.04868736713661 -75.349322075966029 0 0 0 0 -2.6571623855887907 -131.59087331818267 0 -131.59087331818267 -117.23646305479531 0 0 0 0 177.99562719720416 29.563472296268401 0 29.563472296268401 -109.17245921052302 0 0 0 0 18.324375689213412 -26.260894740266714 0 -26.260894740266714 -20.545690169659682 0 0 0 0 -31.375614713126794 -50.214590067983096 0 -50.214590067983096 -21.047635359184707 0 0 0 0 -1.5665936463377648 -37.587024768471601 0 -37.587024768471601 -15.266619583614759 0 0 0 0 -2.6900264222458645 -49.85316129640114 0 -49.85316129640114 21.666284987360996 0 0 0 0 -10.395951278083885 -61.888306575723618 0 -61.888306575723618 0.23804606922203675 0 0 0 0 -20.694851918815402 -47.338041522385538 0 -47.338041522385538 -37.179697589868738 0 0 0 0 -25.078285166964633 -45.073636710752908 0 -45.073636710752908 -18.652160082768205 0 0 0 0 -18.123365207808092 -50.973559765450773 0 -50.973559765450773 23.734815603100287 0 0 0 0 -28.578157199954148 -61.722965168002702 0 -61.722965168002702 -46.717027144635722 0 0 0 0 -5.0546572829904335 -36.980769955099589 0 -36.980769955099589 -26.186213193662397 0 0 0 0 2.250541882701242 -21.761280441175728 0 -21.761280441175728 -38.427279117805782 0 0 0 0 -9.4031884890573565 -70.470628780662082 0 -70.470628780662082 -0.49074350778391818 0 0 0 0 -21.938323763813969 -44.774157948771517 0 -44.774157948771517 -30.214225860887382 0 0 0 0 -40.182851146040775 -32.111885936117687 0 -32.111885936117687 -36.109763892617593 0 0 0 0 -44.516000412986614 -53.954315133121781 0 -53.954315133121781 -29.927254450409237 0 0 0 0 6.4293389392369136 -123.4885377781211 0 -123.4885377781211 -31.068760670823394 0 0 0 0 -32.493838521146245 -87.395065800641532 0 -87.395065800641532 -52.640757416440465 0 0 0 0 -64.511033799780307 -60.225101308869853 0 -60.225101308869853 -56.460658593423432 0 0 0 0 -7.928582572749292 -35.508209935218474 0 -35.508209935218474 -106.5997269151776 0 0 0 0 23.399863929771527 -15.890248802668793 0 -15.890248802668793 -37.457061589015211 0 0 0 0 49.492523678360158 -105.8867899122888 0 -105.8867899122888 -68.484884670089741 0 0 0 0 70.079345371419549 -113.21006298690736 0 -113.21006298690736 -67.332266372446611 0 0 0 0 114.95060781743086 -125.59830266693825 0 -125.59830266693825 -75.478578092785028 0 0 0 0 125.83380747361298 -206.34963904526739 0 -206.34963904526739 -23.138020263599174 0 0 0 0 239.19032155314926 -172.42788032976387 0 -172.42788032976387 -61.182864340324159 0 0 0 0 -4.4472463296187925 -57.755964337327896 0 -57.755964337327896 -28.245409962147278 0 0 0 0 89.297654483567385 25.307942108760017 0 25.307942108760017 -7.5403062301702448 0 0 0 0 5.9656552028828429 -16.028763886118796 0 -16.028763886118796 -19.445117161961917 0 0 0 0 -3.4622715338065007 -11.880811595874576 0 -11.880811595874576 3.1513203949638182 0 0 0 0 -6.496206076710223 -72.47331020260026 0 -72.47331020260026 413.01928830282486 0 0 0 0 -7.2662027577738186 0.95865843503261772 0 0.95865843503261772 0.19224123126906534 0 0 0 0 -97.709336593306944 -44.869022576165207 0 -44.869022576165207 34.006743177087628 0 0 0 0 465.16672768449916 -300.32684081089974 0 -300.32684081089974 -8.0733021712148911 0 0 0 0 345.50299094332877 26.856984667463621 0 26.856984667463621 -40.027113459846078 0 0 0 0 -20.890885891463768 -12.887756412486908 0 -12.887756412486908 22.724400411621808 0 0 0 0 -12.547796867482248 -4.1120698032718792 0 -4.1120698032718792 -10.990715871522298 0 0 0 0 -38.564795842430613 -39.46287665566706 0 -39.46287665566706 -2.7693496342362778 0 0 0 0 -37.762484063370238 -11.956938809342802 0 -11.956938809342802 14.203853309174441 0 0 0 0 -60.491950010069559 -41.352908138786461 0 -41.352908138786461 -13.326856285922986 0 0 0 0 -25.49714082877108 -18.061614968091817 0 -18.061614968091817 15.566959215964744 0 0 0 0 2.5910459704173263 -39.745561105621164 0 -39.745561105621164 -31.953266513579365 0 0 0 0 -5.3109404834487179 4.00397334290966 0 4.00397334290966 2.4924504079629486 0 0 0 0 -345.12402475610361 -270.97368287709969 0 -270.97368287709969 -67.619015549586038 0 0 0 0 -159.40388495105435 -124.3313038223514 0 -124.3313038223514 -149.98245548096384 0 0 0 0 -573.44500949275971 -192.71090358025504 0 -192.71090358025504 110.21298893306994 0 0 0 0 -166.16652732862894 -258.4873222799913 0 -258.4873222799913 45.363247324962686 0 0 0 0 29.465247628329962 -23.745839203267678 0 -23.745839203267678 8.5180708108082399 0 0 0 0 297.44085461792565 -126.20288162736961 0 -126.20288162736961 41.784912823633931 0 0 0 0 -4.6863565749621046 5.0141585154211299 0 5.0141585154211299 4.9012282207143656 0 0 0 0 122.85571603341668 -150.40654245295991 0 -150.40654245295991 75.167368632754005 0 0 0 0 161.89194376054365 -331.20137195167445 0 -331.20137195167445 161.75015875680242 0 0 0 0 -27.595055464313191 -231.82548547162878 0 -231.82548547162878 180.20887321794726 0 0 0 0 194.594433196311 -416.1827744397815 0 -416.1827744397815 333.17411525386251 0 0 0 0 166.98831619252769 -131.04512181268538 0 -131.04512181268538 21.657843110046088 0 0 0 0 605.73688560639857 -272.80599921123394 0 -272.80599921123394 62.904344758198931 0 0 0 0 239.16897589778455 -144.48722647393697 0 -144.48722647393697 -46.749283358970615 0 0 0 0 -47.123753974272404 -48.652749760191 0 -48.652749760191 -62.27962344471689 0 0 0 0 137.70346738102853 -261.1452365044529 0 -261.1452365044529 52.147742410832507 0 0 0 0 23.749622307132086 -198.58813592525166 0 -198.58813592525166 52.059885492075587 0 0 0 0 2.3765074066587033 -60.678870669625724 0 -60.678870669625724 -36.085560843231733 0 0 0 0 139.88827726770069 -112.45567344582666 0 -112.45567344582666 -145.7518570700106 0 0 0 0 123.58518772078969 8.2980526168321376 0 8.2980526168321376 5.2791679733381898 0 0 0 0 -85.293067544902442 -209.64224463737992 0 -209.64224463737992 165.21398742222118 0 0 0 0 -142.34300074729254 -153.25444075431733 0 -153.25444075431733 234.10284244553623 0 0 0 0 -15.270194612363412 -171.9990205255931 0 -171.9990205255931 67.742929125495266 0 0 0 0 6.4731963919475675 -137.23750347209898 0 -137.23750347209898 94.577322662895085 0 0 0 0 -3.265130128545934 -76.74679357589693 0 -76.74679357589693 -16.508409513308887 0 0 0 0 -279.65101724362466 -329.52655958843388 0 -329.52655958843388 249.88368306302618 0 0 0 0 170.81191909764675 27.652509657626979 0 27.652509657626979 -41.040878199859435 0 0 0 0 28.033081179863075 -82.297139266498561 0 -82.297139266498561 195.72483901234591 0 0 0 0 44.920992667375657 -78.072494105799692 0 -78.072494105799692 79.545474769090461 0 0 0 0 46.889380433284714 -102.60665085449727 0 -102.60665085449727 103.22324362624568 0 0 0 0 20.000272710614809 -144.20891421505439 0 -144.20891421505439 138.7896816584107 0 0 0 0 -16.411024433478168 -21.609470947553831 0 -21.609470947553831 4.6686486747178222 0 0 0 0 17.714625713258798 -18.226175456857831 0 -18.226175456857831 1.9869018189042293 0 0 0 0 -48.696892026855949 -26.949338769817743 0 -26.949338769817743 38.417650948817652 0 0 0 0 112.35877513512241 -132.09667543131945 0 -132.09667543131945 -38.565225033835304 0 0 0 0 216.87251752045267 273.19305646794237 0 273.19305646794237 172.18663897106308 0 0 0 0 59.719023221045973 -2.3126387844531564 0 -2.3126387844531564 14.402537850517547 0 0 0 0 9.8526387533413669 -13.327119002378602 0 -13.327119002378602 -4.2101960137083161 0 0 0 0 75.678293949244107 -187.55407207917233 0 -187.55407207917233 93.036277606873682 0 0 0 0 4.6681053790722267 -4.8689028932660108 0 -4.8689028932660108 -11.493351193967705 0 0 0 0 14.970456369541353 -36.204840087746561 0 -36.204840087746561 55.067001288505708 0 0 0 0 26.706205037909967 6.6627403803177003 0 6.6627403803177003 52.849982531424757 0 0 0 0 -4.0462436892915719 -8.1825023755741171 0 -8.1825023755741171 3.9637967037877075 0 0 0 0 0.081348263559448242 -44.878284365586296 0 -44.878284365586296 56.486649869497342 0 0 0 0 28.63087299318363 -42.017394166171016 0 -42.017394166171016 73.067449844860676 0 0 0 0 -25.360916317410926 -9.4416580412521718 0 -9.4416580412521718 29.79248766766186 0 0 0 0 -39.839114934962709 -127.71255196331549 0 -127.71255196331549 180.16800484519899 0 0 0 0 -1.502802131822591 -38.61658445815101 0 -38.61658445815101 31.906279151095077 0 0 0 0 -27.318281799780749 -13.37521513617731 0 -13.37521513617731 2.7246533538086624 0 0 0 0 -15.099111830770198 -57.412144961235754 0 -57.412144961235754 56.060521440189405 0 0 0 0 -15.068525104201399 -57.849906105802802 0 -57.849906105802802 375.59659835849743 0 0 0 0 -32.388713099957386 -249.45653595617114 0 -249.45653595617114 212.14456143153438 0 0 0 0 -9.8896048359078179 -10.418793377983931 0 -10.418793377983931 1.0263106022840205 0 0 0 0 8.9247957844277721 -59.279825170873337 0 -59.279825170873337 -32.45236096064879 0 0 0 0 114.0395815497177 29.201535636775589 0 29.201535636775589 -221.59378887962566 0 0 0 0 52.916053962431761 -119.92165934459081 0 -119.92165934459081 27.919687471574434 0 0 0 0 22.122128726987285 -73.564261982330208 0 -73.564261982330208 153.91179470012503 0 0 0 0 -8.8026893002133875 -48.707621516689869 0 -48.707621516689869 -128.73738130658148 0 0 0 0 -58.581784626161607 -11.255126365937031 0 -11.255126365937031 -47.854321687005722 0 0 0 0 35.498266165252062 36.046921424659558 0 36.046921424659558 13.485224725247463 0 0 0 0 208.57385439969221 47.517668500810032 0 47.517668500810032 260.16238482563858 0 0 0 0 -0.82824260397319449 -130.07008330510325 0 -130.07008330510325 110.07087498519195 0 0 0 0 -10.100140098424163 -83.253294960815765 0 -83.253294960815765 -101.34444208381046 0 0 0 0 15.938527893279876 -64.929896550137201 0 -64.929896550137201 -35.558942790272916 0 0 0 0 -109.28215013213139 -98.144761952147974 0 -98.144761952147974 -176.08681731931028 0 0 0 0 418.56300648349861 -374.78295816716854 0 -374.78295816716854 -338.44952947779529 0 0 0 0 289.65828824135497 -285.07537995990083 0 -285.07537995990083 -335.00003532915434 0 0 0 0 -27.380098300826067 -57.732577070849885 0 -57.732577070849885 -56.952238023310528 0 0 0 0 19.86790462067907 -34.534911041954828 0 -34.534911041954828 -14.413434227990901 0 0 0 0 179.66573519838494 -307.13877512126601 0 -307.13877512126601 277.86710881341423 0 0 0 0 -53.225224034923031 -133.59358583543235 0 -133.59358583543235 -166.99340863258658 0 0 0 0 -90.119500623513886 -143.91904406794129 0 -143.91904406794129 -165.04501366466206 0 0 0 0 -10.391439234477648 -22.805273249639868 0 -22.805273249639868 -3.451217317946087 0 0 0 0 -46.104742445649663 -171.82960352120062 0 -171.82960352120062 -201.51140282454071 0 0 0 0 -39.603089681513438 -126.35306905197285 0 -126.35306905197285 164.50220799193266 0 0 0 0 -116.52656673131241 -77.897737832921848 0 -77.897737832921848 501.22659680890592 0 0 0 0 -2.8170556192288103 -4.9035494415309131 0 -4.9035494415309131 2.0915166778970491 0 0 0 0 -122.58688879754482 -292.41438357122024 0 -292.41438357122024 -465.8469736718107 0 0 0 0 20.195595143355604 -161.17307526067452 0 -161.17307526067452 116.657980760805 0 0 0 0 -138.99718844674135 -233.05124777222954 0 -233.05124777222954 183.43290499207797 0 0 0 0 -118.54241412807096 -159.54919878562578 0 -159.54919878562578 125.09080382779302 0 0 0 0 -1.2334522568978059 -101.33497117151364 0 -101.33497117151364 130.78122712669938 0 0 0 0 85.284574184759549 -350.65985446241575 0 -350.65985446241575 316.3621042789282 0 0 0 0 9.9358555381477345 -217.8393335947685 0 -217.8393335947685 83.823220082871558 0 0 0 0 -7.2593234828709683 -266.47462141792494 0 -266.47462141792494 -53.253048628233955 0 0 0 0 -222.0119354999415 -198.5036985945635 0 -198.5036985945635 80.286350114012748 0 0 0 0 -131.64940360180958 -322.05828629336008 0 -322.05828629336008 82.604604505999305 0 0 0 0 -56.949737221337273 -274.06458969637242 0 -274.06458969637242 101.3990815709567 0 0 0 0 -30.58163819600577 -328.27338759210488 0 -328.27338759210488 89.801096681403578 0 0 0 0 104.15007975939079 -287.68539562473597 0 -287.68539562473597 44.424330920599459 0 0 0 0 122.39585065140636 -206.94358416934119 0 -206.94358416934119 -17.666784420332988 0 0 0 0 34.408456715627835 -168.63864044298316 0 -168.63864044298316 -45.246737601912173 0 0 0 0 65.736476403487359 -160.97895733689529 0 -160.97895733689529 -57.169358871331497 0 0 0 0 122.21910957418777 -212.39206920740617 0 -212.39206920740617 -23.986351228006242 0 0 0 0 37.774061614163656 -206.42326219868119 0 -206.42326219868119 -22.102742595576274 0 0 0 0 -39.281641259001844 -241.30793988473852 0 -241.30793988473852 10.175240998258232 0 0 0 0 -41.399437201485853 -214.68466694153904 0 -214.68466694153904 7.8108294383018801 0 0 0 0 -63.454796119734965 -248.54807400507707 0 -248.54807400507707 98.708985285394192 0 0 0 0 9.644145119951645 -72.666203302371287 0 -72.666203302371287 166.32754345952708 0 0 0 0 -224.50981360230708 -305.07882538856757 0 -305.07882538856757 43.428469637547096 0 0 0 0 63.002502569390344 -256.6922276520927 0 -256.6922276520927 -196.42881565850985 0 0 0 0 -319.92462368210363 -270.19630799034894 0 -270.19630799034894 373.39731034249417 0 0 0 0 -88.543765465383331 -80.433748733274115 0 -80.433748733274115 -137.30839673383161 0 0 0 0 -10.625043397405534 -178.23919723222934 0 -178.23919723222934 -34.864721066478523 0 0 0 0 16.660020286086365 -190.27984154801379 0 -190.27984154801379 -69.451657442099531 0 0 0 0 14.863168499361564 -283.61617444101648 0 -283.61617444101648 50.854572486292454 0 0 0 0 1.6493469786728383 -144.82190641556372 0 -144.82190641556372 -59.928048680616484 0 0 0 0 27.078826299086359 -257.43522218591534 0 -257.43522218591534 13.925988384304219 0 0 0 0 198.5556479554798 -196.21126561599522 0 -196.21126561599522 -114.68875663329891 0 0 0 0 2.8353587498504567 -105.61769958184959 0 -105.61769958184959 -61.110664135710977 0 0 0 0 32.341982474164979 -263.81286464657387 0 -263.81286464657387 -1.044660442355962 0 0 0 0 268.21009176615371 -365.9001052446838 0 -365.9001052446838 31.028016306054269 0 0 0 0 46.646966116597468 -249.685947184822 0 -249.685947184822 -34.150210954772774 0 0 0 0 45.780963161872023 -256.77110562849612 0 -256.77110562849612 323.10114061489003 0 0 0 0 -162.88485380142794 -47.862438376994533 0 -47.862438376994533 112.98809722370788 0 0 0 0 -282.90103381994652 -166.44625260505109 0 -166.44625260505109 187.80362523000076 0 0 0 0 -227.34417756737457 -28.629176428010396 0 -28.629176428010396 371.71843903123954 0 0 0 0 346.21096015379317 6.2122122297187161 0 6.2122122297187161 118.8387155606033 0 0 0 0 -194.56579850087383 -220.29934429423884 0 -220.29934429423884 25.332222325916518 0 0 0 0 30.377599266132535 -83.139325436725315 0 -83.139325436725315 108.44792338547528 0 0 0 0 -14.864344458175765 -134.2792929800562 0 -134.2792929800562 30.816288905733472 0 0 0 0 70.962250915452159 -119.59124895527293 0 -119.59124895527293 34.039235379306774 0 0 0 0 64.70046136093606 -160.07005330645916 0 -160.07005330645916 -113.72273261687769 0 0 0 0 -54.377458015974071 -228.3315671466753 0 -228.3315671466753 10.494010788454034 0 0 0 0 12.859972421886662 -30.140152305964101 0 -30.140152305964101 22.948849709004229 0 0 0 0 92.355793018488413 -98.689274944239457 0 -98.689274944239457 56.733931913020008 0 0 0 0 57.944093542304472 -181.72959529932996 0 -181.72959529932996 -95.868936683054926 0 0 0 0 23.948936644088491 -15.747475505281074 0 -15.747475505281074 8.730599654861706 0 0 0 0 -15.79946873635663 -143.30538750939121 0 -143.30538750939121 54.762585495277762 0 0 0 0 -164.2936506774131 -368.78904943030466 0 -368.78904943030466 179.33834003061565 0 0 0 0 -69.180307745238721 -70.580109997665943 0 -70.580109997665943 14.277801620397545 0 0 0 0 -146.38428763647971 -57.18411583069792 0 -57.18411583069792 399.64408860400999 0 0 0 0 52.192112967981302 18.812372189476491 0 18.812372189476491 188.65331879443329 0 0 0 0 -42.139885031750623 -37.606429368979263 0 -37.606429368979263 -16.636711464338479 0 0 0 0 381.49755887569336 -95.581231035291239 0 -95.581231035291239 9.9377061965606117 0 0 0 0 3.8862442106531034 -8.284570105665253 0 -8.284570105665253 0.2883104900816349 0 0 0 0 17.653110415116316 198.19398942098246 0 198.19398942098246 524.4930671734237 0 0 0 0 14.22792523611497 -388.41208285652829 0 -388.41208285652829 540.07846824571425 0 0 0 0 -205.67359482531538 23.065384227182562 0 23.065384227182562 306.10930367929905 0 0 0 0 -211.67382641989389 -99.30820000762651 0 -99.30820000762651 407.22437217447441 0 0 0 0 -599.14212339973164 -217.84022279064538 0 -217.84022279064538 -81.184432074060169 0 0 0 0 -201.34873016265919 -285.30642922118477 0 -285.30642922118477 -256.42030062808408 0 0 0 0 28.021551732266943 -41.488753847367029 0 -41.488753847367029 41.117864834052817 0 0 0 0 -284.02594926762686 -440.39583429949926 0 -440.39583429949926 -29.251813341322304 0 0 0 0 -351.45254660541377 -175.24846026276646 0 -175.24846026276646 -100.26911001611006 0 0 0 0 22.632947922124004 -270.40438526668186 0 -270.40438526668186 -113.34222305138064 0 0 0 0 -68.123126061080256 -481.0108113987917 0 -481.0108113987917 -252.40010109650666 0 0 0 0 3.3495819974705228 -86.669644705817973 0 -86.669644705817973 -243.13104812731035 0 0 0 0 26.752555722023104 -25.229681788654645 0 -25.229681788654645 23.078896199112805 0 0 0 0 25.660545143364288 -81.48561688281734 0 -81.48561688281734 -97.739217681524678 0 0 0 0 -2.9423150344796625 -6.8477192613451798 0 -6.8477192613451798 8.4893159684902528 0 0 0 0 -11.023925783505547 -104.26021707016116 0 -104.26021707016116 -48.77705676154801 0 0 0 0 -49.324083249935939 -32.332615013496252 0 -32.332615013496252 0.22187117452267557 0 0 0 0 -13.200915413348412 -86.603092542191007 0 -86.603092542191007 -4.6356059165264014 0 0 0 0 26.317133605436538 -39.867012014565262 0 -39.867012014565262 -70.973332039859088 0 0 0 0 47.755229615919234 -66.122771509013546 0 -66.122771509013546 -29.037113195361599 0 0 0 0 -84.977321254002163 -55.383319267231855 0 -55.383319267231855 31.044087152040447 0 0 0 0 4.9291055060554356 -1.9895321317043937 0 -1.9895321317043937 -6.5248133171816178 0 0 0 0 0.38448807285992359 -66.002035063279124 0 -66.002035063279124 9.3795413036251851 0 0 0 0 -38.545558160883957 -116.50003529587411 0 -116.50003529587411 73.520880302557998 0 0 0 0 67.286457734538999 -79.837936148735025 0 -79.837936148735025 21.792900230757368 0 0 0 0 -42.480585694124684 -45.343706119349328 0 -45.343706119349328 -2.339050958877479 0 0 0 0 40.156958335399395 -107.51334710529773 0 -107.51334710529773 14.024190069977521 0 0 0 0 -20.811195060910904 -122.98481306203848 0 -122.98481306203848 79.283372976471583 0 0 0 0 20.972197242014772 -148.41932812135565 0 -148.41932812135565 92.039872071341961 0 0 0 0 10.445385312817962 -62.304105376204461 0 -62.304105376204461 10.642154006214696 0 0 0 0 59.066333461649265 -168.01926804956202 0 -168.01926804956202 42.125298543451208 0 0 0 0 10.464540299852715 -84.049650516774335 0 -84.049650516774335 29.875143711404235 0 0 0 0 -11.673053113883 -54.162229061407224 0 -54.162229061407224 3.9877485779006605 0 0 0 0 -485.99561769473803 -450.31514266935028 0 -450.31514266935028 -13.410102486023561 0 0 0 0 -709.44965382236114 -492.64750459331663 0 -492.64750459331663 -4.3071287897282673 0 0 0 0 -804.10922481791022 -74.860830982366906 0 -74.860830982366906 -164.17843725612329 0 0 0 0 -372.25337769619364 -302.25853349976114 0 -302.25853349976114 -46.007346485208473 0 0 0 0 -625.90554868833715 -231.33462026682446 0 -231.33462026682446 75.514307743233985 0 0 0 0 -431.14218439238084 -158.49664683000196 0 -158.49664683000196 441.21641975569946 0 0 0 0 264.3568715710644 -436.14408682968633 0 -436.14408682968633 -127.10998904150529 0 0 0 0 504.31278793949969 -136.71003697727838 0 -136.71003697727838 -220.5196098571123 0 0 0 0 86.976294062864326 -83.990104469714424 0 -83.990104469714424 -256.41885169097441 0 0 0 0 7.9570116963732289 -103.29301890928036 0 -103.29301890928036 -205.84135488512675 0 0 0 0 44.683905385842081 -6.2238956852525007 0 -6.2238956852525007 -212.26954169496821 0 0 0 0 -258.24005301287252 -102.58102775394218 0 -102.58102775394218 -102.08050345243282 0 0 0 0 107.90408445650246 220.99820456091857 0 220.99820456091857 167.46679750176509 0 0 0 0 -236.92281372513025 -145.78851104689261 0 -145.78851104689261 -41.789408197966623 0 0 0 0 -168.11566132339067 -283.17626212991127 0 -283.17626212991127 -214.55222370491799 0 0 0 0 -359.40441516813735 -291.78324482641801 0 -291.78324482641801 -213.85436710340696 0 0 0 0 -68.015138572489377 -19.043992387318212 0 -19.043992387318212 378.03541363684417 0 0 0 0 -33.241310716278349 -168.30985420115451 0 -168.30985420115451 424.29622515960727 0 0 0 0 -129.24703503419005 -25.41227861851803 0 -25.41227861851803 448.45445164459943 0 0 0 0 -33.543031046567194 -158.34514002991273 0 -158.34514002991273 117.58764749449256 0 0 0 0 0.058882149770681735 -0.98014274342663299 0 -0.98014274342663299 0.43191895296415872 0 0 0 0 -89.912598663402605 -169.87603403758476 0 -169.87603403758476 -524.17898465657709 0 0 0 0 -231.17869064974366 83.423455826699865 0 83.423455826699865 1046.5459739577291 0 0 0 0 -585.02020920256473 53.764847009844743 0 53.764847009844743 433.92383266770594 0 0 0 0 -259.85463384722243 -320.38944117243591 0 -320.38944117243591 940.74224366425551 0 0 0 0 -146.77693346829619 -202.70599182292426 0 -202.70599182292426 633.97869593628093 0 0 0 0 53.305375445605023 -55.784313033022045 0 -55.784313033022045 692.52829073037719 0 0 0 0 149.83865818222694 -219.12542584574476 0 -219.12542584574476 527.89097285444768 0 0 0 0 -31.072891032355983 -36.730600411998239 0 -36.730600411998239 -224.54402026355092 0 0 0 0 75.774008810403757 -274.92040379397804 0 -274.92040379397804 940.06545797583021 0 0 0 0 26.173077612387715 -56.453788934841214 0 -56.453788934841214 -239.53389832796893 0 0 0 0 4.0424610728075834 -5.7292028668356068 0 -5.7292028668356068 -1.2218741240107009 0 0 0 0 -15.841395275332616 -79.753946166594687 0 -79.753946166594687 -244.11609431978286 0 0 0 0 -8.9357287995808292 -140.01909837196945 0 -140.01909837196945 -266.19865434290796 0 0 0 0 236.88846432439459 -513.97168006949869 0 -513.97168006949869 586.5171256797039 0 0 0 0 -108.44060361623997 -51.721306865258157 0 -51.721306865258157 1008.6396641361353 0 0 0 0 2.7639695668950708 -2.2679615463145666 0 -2.2679615463145666 -4.719054440211238 0 0 0 0 370.52741133140808 -241.99599031604612 0 -241.99599031604612 427.02981744198769 0 0 0 0 199.21531002858683 -379.95976718580914 0 -379.95976718580914 74.349280379901757 0 0 0 0 -24.976637565778219 -461.1857854886548 0 -461.1857854886548 344.91017242121598 0 0 0 0 150.12045768657117 -402.82279491287682 0 -402.82279491287682 278.91319945405849 0 0 0 0 64.189102203919902 -281.04536641487721 0 -281.04536641487721 289.28673546118807 0 0 0 0 -58.242357079230715 -457.76940211431975 0 -457.76940211431975 52.401550827627943 0 0 0 0 -102.29752341407584 -438.75435440736328 0 -438.75435440736328 -290.85550385323586 0 0 0 0 259.48514903735486 -368.97677496118922 0 -368.97677496118922 -286.60959918385561 0 0 0 0 17.023868630895791 -9.9218215815698443 0 -9.9218215815698443 -7.8644617143490407 0 0 0 0 340.07346550841612 -120.78428969002653 0 -120.78428969002653 2139.632187877869 0 0 0 0 -45.615409593148797 -283.06169387929276 0 -283.06169387929276 -520.66802540404933 0 0 0 0 849.82152037075139 -678.41068146877114 0 -678.41068146877114 -271.66000975017414 0 0 0 0 -11.10622378597327 -281.58335293399796 0 -281.58335293399796 -718.26049567595328 0 0 0 0 0.90921953948884493 -14.791965878276287 0 -14.791965878276287 8.3950356181652772 0 0 0 0 -20.29388763874158 -354.89375030952033 0 -354.89375030952033 -470.90787193740107 0 0 0 0 -430.57671094486432 -567.35495459622689 0 -567.35495459622689 -734.51823927660371 0 0 0 0 -141.55457061945344 -284.75937715991313 0 -284.75937715991313 -463.93383993043653 0 0 0 0 -93.201574871214689 -342.40202474373655 0 -342.40202474373655 -758.6705294104604 0 0 0 0 -1000.2019815916865 -577.14491016052125 0 -577.14491016052125 -239.97589496117143 0 0 0 0 -316.13130325429665 -478.79758540332386 0 -478.79758540332386 196.05842901994038 0 0 0 0 -567.28953462837671 -291.83492695927634 0 -291.83492695927634 -147.20264718251019 0 0 0 0 -530.23198693541053 -270.88698011565612 0 -270.88698011565612 -238.50078467330241 0 0 0 0 -20.924903625185834 -294.07133840076131 0 -294.07133840076131 -253.78896221109972 0 0 0 0 -3.3252622743968914 -0.47916324035211488 0 -0.47916324035211488 0.1117002989952276 0 0 0 0 -28.16615300943522 232.00864318767435 0 232.00864318767435 -53.102797370185726 0 0 0 0 -464.39965027656581 -204.90759727677687 0 -204.90759727677687 213.20089042913605 0 0 0 0 -846.69266029693972 -59.816907589794027 0 -59.816907589794027 159.18977273954806 0 0 0 0 116.16813674998775 -471.16169120826498 0 -471.16169120826498 -283.31553193858053 0 0 0 0 -2.3155580655557628 -1.7856211873237839 0 -1.7856211873237839 -0.99964905000890525 0 0 0 0 -570.00412701730966 -432.87752449431173 0 -432.87752449431173 -849.45106452110849 0 0 0 0 -489.39879347265378 -132.33187483053371 0 -132.33187483053371 13.870622836297116 0 0 0 0 -996.88556718913401 -249.13238636859893 0 -249.13238636859893 82.666763018998608 0 0 0 0 273.29676657916571 -160.87456040861525 0 -160.87456040861525 -56.015377902811451 0 0 0 0 88.653522802327643 -70.672400414554431 0 -70.672400414554431 323.82266892345069 0 0 0 0 -8.8739543579899305 -1.2788248460559544 0 -1.2788248460559544 0.29605108038303385 0 0 0 0 83.642878427737742 63.346984046438592 0 63.346984046438592 -10.667790969957423 0 0 0 0 45.584040072717471 19.86527999234022 0 19.86527999234022 81.177810238681559 0 0 0 0 163.57301612728043 51.739258616838924 0 51.739258616838924 -192.67753855829687 0 0 0 0 97.483933435723884 91.200556205326393 0 91.200556205326393 45.02924341004109 0 0 0 0 0.70171262050264716 -11.1013041380522 0 -11.1013041380522 10.042409172739687 0 0 0 0 -109.37654507639672 -242.6035079727244 0 -242.6035079727244 -306.03265499507324 0 0 0 0 -119.59755165901879 -269.45431106625983 0 -269.45431106625983 -345.4512275236666 0 0 0 0 -176.63291634368215 -294.31481509012156 0 -294.31481509012156 -305.76850185360308 0 0 0 0 -138.59409185884579 -238.09542542585223 0 -238.09542542585223 -244.69816268977956 0 0 0 0 -194.82506383801228 -299.31612142979429 0 -299.31612142979429 -278.53630283499933 0 0 0 0 -213.15915717271855 -269.49404514353228 0 -269.49404514353228 -281.24188687262267 0 0 0 0 4.3941824163243837 2.3042904399260706 0 2.3042904399260706 -10.12239829567072 0 0 0 0 -423.49021921813255 -220.08644234860549 0 -220.08644234860549 -128.1852826078466 0 0 0 0 290.98438608863944 -219.59768888956933 0 -219.59768888956933 -163.33936862974952 0 0 0 0 420.85968857841181 -368.17253353295928 0 -368.17253353295928 -474.41048349162156 0 0 0 0 -121.39159206938348 -97.281352439065813 0 -97.281352439065813 -495.65185072630538 0 0 0 0 -225.15047764074552 -329.93708408871134 0 -329.93708408871134 -509.18126339538139 0 0 0 0 -228.76934117918427 -212.58759501516761 0 -212.58759501516761 -123.37281783876097 0 0 0 0 49.028560787111928 -361.76990464210394 0 -361.76990464210394 60.968513065992738 0 0 0 0 -36.692928366244416 -54.400449740117118 0 -54.400449740117118 -57.611892274823973 0 0 0 0 -216.18760918638372 -28.823601675596592 0 -28.823601675596592 16.049064526261645 0 0 0 0 -532.24495765792381 -157.33260044726194 0 -157.33260044726194 30.888645035549416 0 0 0 0 -249.37335071295092 -377.80580685677705 0 -377.80580685677705 103.25270009975793 0 0 0 0 -41.345870815290255 -121.67801836388389 0 -121.67801836388389 64.850591107118817 0 0 0 0 -52.629525158486103 1.9070130399195477 0 1.9070130399195477 55.102671268708946 0 0 0 0 -3.6859172245567464 -27.139072312962824 0 -27.139072312962824 47.330848033716009 0 0 0 0 -130.26410830281748 -53.628709976943355 0 -53.628709976943355 115.40960243553855 0 0 0 0 -31.872580567847763 -46.584814856331377 0 -46.584814856331377 44.797448359984628 0 0 0 0 -19.54491388554743 -24.994140884176886 0 -24.994140884176886 82.164842752349159 0 0 0 0 -12.282075627263339 -15.226711951516858 0 -15.226711951516858 -0.92166983121292567 0 0 0 0 2.9677184736574418 -33.27931951017672 0 -33.27931951017672 -6.81129900603446 0 0 0 0 -5.2758396290737437 -58.321017898389982 0 -58.321017898389982 -13.92724027075792 0 0 0 0 13.873969039912026 -12.008770476812757 0 -12.008770476812757 5.0255432672843057 0 0 0 0 21.635722842638643 -100.18235416380685 0 -100.18235416380685 250.70871589431408 0 0 0 0 33.403406047262251 -215.53727808791245 0 -215.53727808791245 249.12018455161888 0 0 0 0 26.482800279962248 -267.54340473881166 0 -267.54340473881166 387.72015498295877 0 0 0 0 11.724845245153176 -22.441947209511675 0 -22.441947209511675 25.589197660863533 0 0 0 0 -80.016714390651941 -122.39939032909206 0 -122.39939032909206 -213.49366998389814 0 0 0 0 -26.971564964466069 -20.542507949777438 0 -20.542507949777438 14.469424033825176 0 0 0 0 62.862086738539801 -92.547185770190481 0 -92.547185770190481 55.500118041516544 0 0 0 0 -175.46064698332339 -158.36310195766237 0 -158.36310195766237 -205.15134527548071 0 0 0 0 -147.31009672196524 -151.16629099197235 0 -151.16629099197235 -213.5312034791823 0 0 0 0 -262.70985554986692 -109.67404730479029 0 -109.67404730479029 -204.56706230394047 0 0 0 0 -222.79818136795438 -250.68425413330169 0 -250.68425413330169 -138.89837357432407 0 0 0 0 -164.14722901119967 -223.22981516017171 0 -223.22981516017171 -232.22109182802251 0 0 0 0 252.60183771129982 -277.08332797124245 0 -277.08332797124245 65.473086322472227 0 0 0 0 -116.68851195164461 -402.3824465745729 0 -402.3824465745729 212.63078781914737 0 0 0 0 139.75469922413322 -310.64653929027281 0 -310.64653929027281 65.489762800891185 0 0 0 0 3.8064154637687011 -6.0450764269903061 0 -6.0450764269903061 11.049031804698764 0 0 0 0 1675.0185825679473 545.79778284904387 0 545.79778284904387 -1441.0022074864755 0 0 0 0 -188.68272553060888 -208.42117829218296 0 -208.42117829218296 -19.265126000202144 0 0 0 0 -97.81119705652236 -439.51601132314499 0 -439.51601132314499 189.11080039654553 0 0 0 0 77.907118347295182 -485.52584198871318 0 -485.52584198871318 18.774987912245706 0 0 0 0 201.1747436773876 -738.56347285442098 0 -738.56347285442098 246.56704087477783 0 0 0 0 -246.54251626042242 -97.71258595215113 0 -97.71258595215113 -408.32124390122044 0 0 0 0 -266.92669169568399 -391.10705546334793 0 -391.10705546334793 -110.94103107372939 0 0 0 0 -90.218316151702311 -305.14117715589782 0 -305.14117715589782 -79.44865607261454 0 0 0 0 -177.45936982278727 -216.25918263969288 0 -216.25918263969288 -7.9691213635087479 0 0 0 0 -171.15519956278149 -345.08982448488496 0 -345.08982448488496 55.476553045453329 0 0 0 0 -122.70463825939805 -264.87866970258438 0 -264.87866970258438 -26.394609309090811 0 0 0 0 -264.13646234727639 -165.37410459805142 0 -165.37410459805142 146.36525384961715 0 0 0 0 -57.826480443036417 -104.58396844243362 0 -104.58396844243362 -356.37143464641122 0 0 0 0 -152.61306130608864 -40.731680083621995 0 -40.731680083621995 94.119814386034705 0 0 0 0 -94.62389404969872 -237.7309519775572 0 -237.7309519775572 177.17531093465459 0 0 0 0 -0.3950425045553061 -7.2687983687686923 0 -7.2687983687686923 -3.3321434068186981 0 0 0 0 5.3533744573091866 -3.1606716128745731 0 -3.1606716128745731 -3.0609585640459436 0 0 0 0 -119.73835898983816 -151.58790013764701 0 -151.58790013764701 -97.494074122118946 0 0 0 0 -13.758079331848421 -12.511367878223609 0 -12.511367878223609 86.452966978228687 0 0 0 0 -373.9115393980901 -270.51503296305964 0 -270.51503296305964 82.475992810315802 0 0 0 0 -286.7674976125345 -459.3196835277231 0 -459.3196835277231 -211.67368674594036 0 0 0 0 -523.08645670249825 -173.03973801608299 0 -173.03973801608299 -157.90445863172499 0 0 0 0 -142.09323804076121 -297.73691518083069 0 -297.73691518083069 -197.23946545285253 0 0 0 0 -34.102078018157044 -233.59340151607466 0 -233.59340151607466 -179.98273787823564 0 0 0 0 -127.35780332129798 -167.82907663339392 0 -167.82907663339392 -86.952288460903219 0 0 0 0 -167.23738685355602 -210.36425551226512 0 -210.36425551226512 -104.61952743234724 0 0 0 0 -239.35915230611863 -266.51217327574341 0 -266.51217327574341 -129.12411480775336 0 0 0 0 -181.4521859513552 -261.7816751452774 0 -261.7816751452774 -203.49544239942043 0 0 0 0 -181.80643360182876 -234.28680910871117 0 -234.28680910871117 -139.51656278817609 0 0 0 0 -178.36458861728897 -279.26009401615374 0 -279.26009401615374 -197.63768615777008 0 0 0 0 -232.29116726716165 -272.51929873724112 0 -272.51929873724112 -186.48291355076071 0 0 0 0 -60.889418978709728 2.4060640503412287 0 2.4060640503412287 0.24434974117866659 0 0 0 0 -301.65699121434591 -120.80574326128044 0 -120.80574326128044 -47.28566181477072 0 0 0 0 -266.62169710460876 -321.77780692385932 0 -321.77780692385932 -187.48877114057541 0 0 0 0 -252.6147125442476 -156.44876140111137 0 -156.44876140111137 -55.302425244321057 0 0 0 0 53.857931210177412 16.870620864656303 0 16.870620864656303 -43.301069649671263 0 0 0 0 2.1870589911486604 41.111863401314622 0 41.111863401314622 22.002975239174702 0 0 0 0 20.06379793547967 -36.905637974594356 0 -36.905637974594356 -38.860567625634758 0 0 0 0 19.270184609057424 -78.330817928504899 0 -78.330817928504899 164.654096324477 0 0 0 0 21.162130031947981 -22.743875238227929 0 -22.743875238227929 132.40471099459683 0 0 0 0 51.581939527834038 -84.454079343388912 0 -84.454079343388912 158.8326551250284 0 0 0 0 13.199606568741729 -84.909542495244523 0 -84.909542495244523 274.95847887608943 0 0 0 0 36.023206117263527 -68.397075195649222 0 -68.397075195649222 -31.926173521608526 0 0 0 0 33.753022790042451 -157.50039417840753 0 -157.50039417840753 282.75557531167601 0 0 0 0 129.58895238876585 27.173737178053216 0 27.173737178053216 -68.953797998990922 0 0 0 0 11.785524799270206 -283.29943727483101 0 -283.29943727483101 367.78708823113084 0 0 0 0 70.159503355062043 -36.427499080555208 0 -36.427499080555208 187.29426127308579 0 0 0 0 107.90147773386707 -239.31029072241927 0 -239.31029072241927 89.35357516895283 0 0 0 0 -113.63790107132809 -144.68562758356984 0 -144.68562758356984 285.62303438565687 0 0 0 0 99.328370758288656 -384.66716472622466 0 -384.66716472622466 -52.453936086910289 0 0 0 0 77.768385455763564 -144.81247684269147 0 -144.81247684269147 88.571966981755395 0 0 0 0 397.57324341406638 -364.77234427877738 0 -364.77234427877738 -428.15039280280689 0 0 0 0 89.877162312874361 -51.242662640588307 0 -51.242662640588307 -40.633659681250322 0 0 0 0 52.928879361152212 -150.09571690659504 0 -150.09571690659504 101.92788531228143 0 0 0 0 45.198425722742741 -97.415244087558222 0 -97.415244087558222 60.065858305591973 0 0 0 0 59.568206389205216 -53.429520458915469 0 -53.429520458915469 -51.934472848719736 0 0 0 0 155.60471950065767 -119.84651192054298 0 -119.84651192054298 -82.884472879253735 0 0 0 0 112.66106242090973 -156.51946504887383 0 -156.51946504887383 79.416772127908189 0 0 0 0 79.767003976030537 -199.33953899393964 0 -199.33953899393964 139.61458417228278 0 0 0 0 73.478628594260954 -215.51062067556268 0 -215.51062067556268 258.58453272816405 0 0 0 0 -36.783418093596993 -219.88898284699098 0 -219.88898284699098 141.1397613552399 0 0 0 0 -36.12640697153256 -177.94579466530558 0 -177.94579466530558 3.6226845931232674 0 0 0 0 100.68210386150895 -87.835130073752225 0 -87.835130073752225 102.8751288266285 0 0 0 0 -28.670463356669643 -27.954964439650212 0 -27.954964439650212 154.98136024341875 0 0 0 0 11.268521491350839 -153.82836240920733 0 -153.82836240920733 54.186023217625916 0 0 0 0 179.85422441492847 6.9485943184809003 0 6.9485943184809003 281.92601819676929 0 0 0 0 103.92857774683216 -102.05174593714764 0 -102.05174593714764 125.47147091841907 0 0 0 0 299.1359991198442 -149.37818626665103 0 -149.37818626665103 92.892344940404655 0 0 0 0 20.163244527022471 -106.02455927938354 0 -106.02455927938354 165.75829301480553 0 0 0 0 158.93068867138209 -212.18286686925785 0 -212.18286686925785 230.98187361073724 0 0 0 0 15.291545226176822 9.1697087940374331 0 9.1697087940374331 313.39309697677527 0 0 0 0 3.7807575965061773 -4.2678138374561598 0 -4.2678138374561598 -8.4440992935157482 0 0 0 0 6.0181721103399468 -112.05065286808531 0 -112.05065286808531 331.75408163584871 0 0 0 0 202.76594380338065 -254.4133526149817 0 -254.4133526149817 55.393345608434174 0 0 0 0 -117.0391617675632 -392.32469720975132 0 -392.32469720975132 -74.368912266979351 0 0 0 0 -168.89880727339187 -362.12247679433131 0 -362.12247679433131 -71.070419802988908 0 0 0 0 -190.64783770275244 -437.2575135927782 0 -437.2575135927782 -83.73428926807901 0 0 0 0 -199.75931179578401 -396.10279065057784 0 -396.10279065057784 -2.8997960964334197 0 0 0 0 -39.639431616324146 -422.92805216579745 0 -422.92805216579745 -107.89046326239622 0 0 0 0 -77.288104093458969 -358.95974543633019 0 -358.95974543633019 -89.472281252776156 0 0 0 0 118.19790326886869 -290.07069268978375 0 -290.07069268978375 -101.72905423179873 0 0 0 0 37.966623725245881 -413.53207437268065 0 -413.53207437268065 -190.70992862708954 0 0 0 0 -77.210126079067777 -573.0401477255416 0 -573.0401477255416 -170.59460075529205 0 0 0 0 -57.211667539828341 -424.04970847269215 0 -424.04970847269215 -99.989017132404115 0 0 0 0 -462.29239352716831 -496.96838640528586 0 -496.96838640528586 14.979422437700123 0 0 0 0 -385.14627909187402 -710.01447270580866 0 -710.01447270580866 -214.58896682708291 0 0 0 0 -965.11119821494503 -480.57261583562104 0 -480.57261583562104 51.426006812231208 0 0 0 0 -365.3462683459511 -420.43023574741164 0 -420.43023574741164 52.016450167032872 0 0 0 0 -309.48723056550079 -394.52306974719795 0 -394.52306974719795 32.940702469619282 0 0 0 0 -256.10069649192155 -414.66354556187071 0 -414.66354556187071 31.373353141234475 0 0 0 0 -249.86691119689203 -377.86466271475365 0 -377.86466271475365 -0.056017157978203613 0 0 0 0 -326.51204492576926 -246.93976628861708 0 -246.93976628861708 106.42372594548215 0 0 0 0 -61.42684629134601 -68.016941829257121 0 -68.016941829257121 130.93559126456648 0 0 0 0 -74.969373500178335 -17.24105922052695 0 -17.24105922052695 101.49201575441839 0 0 0 0 -233.67571660340764 -157.94653570735682 0 -157.94653570735682 119.58990324366732 0 0 0 0 -216.24652092068573 -184.53310938189315 0 -184.53310938189315 111.77174725471923 0 0 0 0 -405.25982061278773 -245.12698137165353 0 -245.12698137165353 20.200925608849502 0 0 0 0 -435.57211483992432 -121.29495573159147 0 -121.29495573159147 124.11143932627601 0 0 0 0 -581.36877841906244 -243.97388075702384 0 -243.97388075702384 124.74982534284572 0 0 0 0 -810.26845424297062 -516.88656230904962 0 -516.88656230904962 -129.00521367255715 0 0 0 0 -562.92354527932912 -186.49097352420176 0 -186.49097352420176 4.045239033177495 0 0 0 0 -54.928026521127322 -103.73953266099488 0 -103.73953266099488 70.54718217763002 0 0 0 0 -363.99707947361276 -25.815711600077066 0 -25.815711600077066 138.85904207058047 0 0 0 0 -69.858498100569705 54.18012325741438 0 54.18012325741438 92.970773402834311 0 0 0 0 104.6667901276669 56.25432396168253 0 56.25432396168253 11.901555147520412 0 0 0 0 240.76662228406349 -65.076196917179914 0 -65.076196917179914 -3.6944864663419139 0 0 0 0 8.3412542446909619 -65.639248595499538 0 -65.639248595499538 91.416426996249072 0 0 0 0 94.586165836160944 -136.19660474007469 0 -136.19660474007469 77.80428260089684 0 0 0 0 -18.72518311960448 -119.86524120303693 0 -119.86524120303693 180.32667241332092 0 0 0 0 27.842371826365707 -1.1505200577175856 0 -1.1505200577175856 124.60838183855867 0 0 0 0 8.6571086918853748 -61.853643199366964 0 -61.853643199366964 87.061877692794141 0 0 0 0 159.98769597757519 -75.010625423722217 0 -75.010625423722217 58.410773642004642 0 0 0 0 -83.073955250954896 -91.858278694006003 0 -91.858278694006003 219.63991459147655 0 0 0 0 -23.44248572306509 -7.1199403886686099 0 -7.1199403886686099 20.086391447917109 0 0 0 0 -16.833707044681148 -22.88744344177455 0 -22.88744344177455 24.170899970348366 0 0 0 0 27.087510810702952 -45.320385169150541 0 -45.320385169150541 -3.6506373386109772 0 0 0 0 14.34846992791074 -22.864874441336568 0 -22.864874441336568 18.582741392519864 0 0 0 0 4.0225569301837822 -125.57427869886669 0 -125.57427869886669 8.0797491944686044 0 0 0 0 29.149504588975219 -42.080436941068143 0 -42.080436941068143 33.333490911672257 0 0 0 0 15.001072338386081 -20.916449623615023 0 -20.916449623615023 16.63846892473876 0 0 0 0 15.492649214938865 -56.274603970290627 0 -56.274603970290627 145.54512577497007 0 0 0 0 31.832554687453012 -92.542095590476038 0 -92.542095590476038 -30.254743154488096 0 0 0 0 -34.1231935064352 -105.36066743272022 0 -105.36066743272022 52.913566786148294 0 0 0 0 -88.54662145859038 -130.31013877961595 0 -130.31013877961595 52.156703174576251 0 0 0 0 27.458262757863395 -31.725171398326893 0 -31.725171398326893 55.441600328398636 0 0 0 0 -48.470677839795826 -100.47274339107025 0 -100.47274339107025 120.58266221572558 0 0 0 0 28.547176641470287 -110.43666556452524 0 -110.43666556452524 65.125956075593422 0 0 0 0 -147.99357108015101 -178.21288529618687 0 -178.21288529618687 85.447975856019184 0 0 0 0 -202.58605062418064 -277.07534841092456 0 -277.07534841092456 0.58603380890781409 0 0 0 0 -135.36940000949835 -187.98395794078897 0 -187.98395794078897 74.866171594915613 0 0 0 0 -157.80545154451102 -304.87304815197422 0 -304.87304815197422 9.5435088844114944 0 0 0 0 -95.916047612612601 -200.05189208125739 0 -200.05189208125739 -2.0104659924297721 0 0 0 0 -122.3097688373673 -232.49293102865704 0 -232.49293102865704 -41.050049021105224 0 0 0 0 -81.222059725478175 -184.28704023302635 0 -184.28704023302635 -52.71229305939778 0 0 0 0 29.097701419734079 -24.85725480657074 0 -24.85725480657074 12.181223736150109 0 0 0 0 -37.723184108115674 -124.08493829061263 0 -124.08493829061263 -38.496732484845779 0 0 0 0 -62.828426230305922 65.924469254725409 0 65.924469254725409 49.683766923099029 0 0 0 0 -53.021529729929171 -125.86104604891443 0 -125.86104604891443 -22.381384628239175 0 0 0 0 -21.795281357175554 -137.67686771948502 0 -137.67686771948502 -153.69993112132943 0 0 0 0 -34.271516976914427 -170.69010554931629 0 -170.69010554931629 -225.00131818334921 0 0 0 0 -53.872393665864365 -183.82921404995068 0 -183.82921404995068 -272.29289328091181 0 0 0 0 -112.10518004947517 -276.29400381249798 0 -276.29400381249798 -164.13246987603816 0 0 0 0 -54.374089641583851 -216.48295230945951 0 -216.48295230945951 -280.55886749646652 0 0 0 0 -21.959236030845204 -178.33132308656786 0 -178.33132308656786 -391.04099162263446 0 0 0 0 -54.383891499601305 -215.2305114040937 0 -215.2305114040937 -286.6089157335955 0 0 0 0 -92.766197988341446 -258.2542016919142 0 -258.2542016919142 -332.50280453330925 0 0 0 0 -111.64045563123364 -278.04283531154942 0 -278.04283531154942 -222.70153580310216 0 0 0 0 -120.54980689252989 -286.86633037103729 0 -286.86633037103729 -229.80840312062355 0 0 0 0 -156.33176965607345 -329.55991189747238 0 -329.55991189747238 -150.13134530306706 0 0 0 0 -108.60148058125924 -259.02980180723671 0 -259.02980180723671 -134.57952737087908 0 0 0 0 -154.15988836163888 -317.06506920717948 0 -317.06506920717948 -64.072418464766088 0 0 0 0 -178.94282182211464 -349.79642817439799 0 -349.79642817439799 -85.095113550763926 0 0 0 0 -155.72281790884153 -329.45560916641625 0 -329.45560916641625 -150.20041291835878 0 0 0 0 -158.22103943051843 -374.47067055435537 0 -374.47067055435537 -109.38000990687578 0 0 0 0 42.562894434231566 -80.032942526158877 0 -80.032942526158877 136.95177593029075 0 0 0 0 1.7705988895693565 -3.975570583984819 0 -3.975570583984819 1.2695228707150044 0 0 0 0 -194.90595759355165 -429.39889528691037 0 -429.39889528691037 359.99618682423898 0 0 0 0 58.571973003170569 147.27125345212335 0 147.27125345212335 564.07791032677778 0 0 0 0 -3.5559079833255112 -1.2322200514357604 0 -1.2322200514357604 5.0726115180927067 0 0 0 0 -73.164956551569048 116.34440406163048 0 116.34440406163048 418.52268790420203 0 0 0 0 -7.8646342696156353 -123.06988280516816 0 -123.06988280516816 -310.46786041255109 0 0 0 0 17.413306763702963 -24.85295342680072 0 -24.85295342680072 16.118102305875535 0 0 0 0 33.388500797751476 26.959859230362781 0 26.959859230362781 -126.3581600697089 0 0 0 0 -19.257957160923979 14.705438472323294 0 14.705438472323294 86.218419569391699 0 0 0 0 80.363732285200967 -83.203143667215954 0 -83.203143667215954 -28.755464203328302 0 0 0 0 78.156173740746453 -6.8873018724625581 0 -6.8873018724625581 -4.1435968280493398 0 0 0 0 -55.993129143651458 -18.951521384789885 0 -18.951521384789885 4.8661779984395253 0 0 0 0 12.6151785198781 -98.017500324770481 0 -98.017500324770481 -24.925515762886789 0 0 0 0 57.132906716816251 -88.062260475086077 0 -88.062260475086077 -34.449514322994219 0 0 0 0 -1.8716648818299291 -41.357242514950485 0 -41.357242514950485 26.265185257994744 0 0 0 0 11.749811856827392 -14.954841865703237 0 -14.954841865703237 15.898930831895825 0 0 0 0 -12.894710830570602 -15.007264888483945 0 -15.007264888483945 11.935995994220464 0 0 0 0 9.6435834058138425 -219.8999401176734 0 -219.8999401176734 -18.786519283527014 0 0 0 0 -45.634065200851182 -99.745479926801636 0 -99.745479926801636 7.9678989688654838 0 0 0 0 -43.160875008325092 -6.6416989545541583 0 -6.6416989545541583 72.910605990618933 0 0 0 0 -13.31534163554943 -6.0535964865624976 0 -6.0535964865624976 10.594446349543336 0 0 0 0 24.085368360232678 -68.475132941613992 0 -68.475132941613992 3.4315055164461228 0 0 0 0 23.305706713005918 -31.018069170266546 0 -31.018069170266546 27.657725034531865 0 0 0 0 25.227157115826301 -40.310526945096932 0 -40.310526945096932 20.276403072217853 0 0 0 0 -79.356328981972183 -96.682404469320318 0 -96.682404469320318 -142.44508593583305 0 0 0 0 3.300384606118314 -30.037043428397737 0 -30.037043428397737 7.5116512588865589 0 0 0 0 10.008138430026989 -30.98074697087014 0 -30.98074697087014 22.452009494465457 0 0 0 0 -82.332689804519759 -190.30792724408093 0 -190.30792724408093 -234.32027540413401 0 0 0 0 -11.506016083410941 -19.428933269882691 0 -19.428933269882691 -316.31119338862482 0 0 0 0 -8.6600946669597505 -29.371903954293089 0 -29.371903954293089 26.511869291013586 0 0 0 0 6.5366043442973023 -9.9443644872767436 0 -9.9443644872767436 29.342267283394904 0 0 0 0 -98.156838645285461 418.71310349875421 0 418.71310349875421 308.23594208643772 0 0 0 0 -82.56302825675084 -75.573766546571278 0 -75.573766546571278 118.59790677668298 0 0 0 0 70.214755915816568 8.4640635717732948 0 8.4640635717732948 -494.24229307087808 0 0 0 0 4.5272875582194345 -1.7884816835990449 0 -1.7884816835990449 -1.871040869395614 0 0 0 0 -222.27059686730536 -35.253672884185391 0 -35.253672884185391 67.968821364207543 0 0 0 0 2.6122594391895433 -9.3061747255511733 0 -9.3061747255511733 2.6563645103147167 0 0 0 0 44.464532718862756 -111.97780147484445 0 -111.97780147484445 76.112488673912594 0 0 0 0 648.94903772545513 125.98210515547544 0 125.98210515547544 87.897046564408811 0 0 0 0 0.26731524345733249 -5.0874134046809232 0 -5.0874134046809232 5.2879153215863752 0 0 0 0 109.20804441001383 -34.501992595975025 0 -34.501992595975025 -483.0998154277404 0 0 0 0 -6.7487533973981044 -22.956181346242374 0 -22.956181346242374 -440.63046251022024 0 0 0 0 68.631919447791006 -31.495044223007426 0 -31.495044223007426 -446.18683769725612 0 0 0 0 146.01580346304695 -63.931553843274969 0 -63.931553843274969 -438.16163740237971 0 0 0 0 157.29803488514563 39.967272279458939 0 39.967272279458939 -417.62302274481044 0 0 0 0 146.49005310900156 -98.088320098726399 0 -98.088320098726399 -155.32283306161844 0 0 0 0 202.6757310198991 41.897821686757197 0 41.897821686757197 -263.667638071478 0 0 0 0 161.60461701096938 -127.90935717212051 0 -127.90935717212051 -398.25066575382516 0 0 0 0 191.80557303568639 28.383501088439516 0 28.383501088439516 -326.56449724835693 0 0 0 0 185.30959281163086 38.703406976390397 0 38.703406976390397 -170.29092535268137 0 0 0 0 155.69381959126258 -85.183685388055892 0 -85.183685388055892 -496.79776647254766 0 0 0 0 130.96999824641534 -73.871105674792489 0 -73.871105674792489 -438.95076889774646 0 0 0 0 56.983844951988431 -106.35912124284368 0 -106.35912124284368 -432.86372872818902 0 0 0 0 39.348989412495939 -176.27938476415147 0 -176.27938476415147 -461.77609143484733 0 0 0 0 -95.913984177097518 -275.93621303490136 0 -275.93621303490136 -417.78080031638092 0 0 0 0 45.359878010647662 -215.97019205954712 0 -215.97019205954712 -544.01202374277636 0 0 0 0 113.01165472194771 -139.15491285612552 0 -139.15491285612552 -459.69298344684648 0 0 0 0 49.48742461042275 -333.30037548006658 0 -333.30037548006658 -621.69414783151296 0 0 0 0 -127.56113820416795 -201.02240371705921 0 -201.02240371705921 167.201008750445 0 0 0 0 67.316066199165078 -47.922609953314854 0 -47.922609953314854 30.59548339315478 0 0 0 0 64.943512383561028 -92.928039160309709 0 -92.928039160309709 -737.58189543611661 0 0 0 0 169.47214365730724 -123.49411596203026 0 -123.49411596203026 -498.48380000909674 0 0 0 0 73.932642241743451 -167.4042839834492 0 -167.4042839834492 -404.59736781387619 0 0 0 0 196.94087155676743 -70.719634273674728 0 -70.719634273674728 -441.15841117610398 0 0 0 0 63.622464977087503 -50.588067387308826 0 -50.588067387308826 36.917308281455028 0 0 0 0 137.03952700381342 -934.63002454281741 0 -934.63002454281741 -1303.0929848871019 0 0 0 0 -286.7221533509146 -208.84389754998119 0 -208.84389754998119 -337.19635427326284 0 0 0 0 969.2433489018149 15.884341407549073 0 15.884341407549073 -1111.5815926754731 0 0 0 0 -85.998843110653979 -435.1590731731194 0 -435.1590731731194 -151.94091934960306 0 0 0 0 135.59847202376113 132.49566973600486 0 132.49566973600486 -58.616053700723569 0 0 0 0 116.42554398619359 -199.26723473249876 0 -199.26723473249876 137.2167220109659 0 0 0 0 117.39459525469965 -212.18848023315547 0 -212.18848023315547 -78.365894494185341 0 0 0 0 -1.9885903296017204 -74.641367461506889 0 -74.641367461506889 52.47242537764032 0 0 0 0 123.63126817723878 -153.70278908851378 0 -153.70278908851378 96.465683871276269 0 0 0 0 183.87087869107563 -107.19279123613705 0 -107.19279123613705 59.975774837454082 0 0 0 0 159.82824148251166 -89.383775889458775 0 -89.383775889458775 74.582504242926007 0 0 0 0 172.92058968134006 -133.87305877070594 0 -133.87305877070594 5.5244666350627085 0 0 0 0 149.39421233888243 -63.1267756667512 0 -63.1267756667512 53.421974154611235 0 0 0 0 28.143823853803042 -96.606834111516946 0 -96.606834111516946 140.23109900732015 0 0 0 0 62.93211421801243 -44.487129893990641 0 -44.487129893990641 87.496807616927981 0 0 0 0 2.7582460094490671 -10.429755816418037 0 -10.429755816418037 -39.19200171574812 0 0 0 0 45.457886526546645 -139.70647995839317 0 -139.70647995839317 -28.38003049823601 0 0 0 0 -3.6250329020986101 -1.478470395702594 0 -1.478470395702594 3.7194101452571005 0 0 0 0 38.209459649788187 -39.090814413691987 0 -39.090814413691987 159.92556453644283 0 0 0 0 24.429680994406226 25.502413156609691 0 25.502413156609691 61.576017727253202 0 0 0 0 60.902535286702914 -70.895635946046241 0 -70.895635946046241 22.722007112934079 0 0 0 0 21.756369286340487 -93.402072346922068 0 -93.402072346922068 68.176072296646453 0 0 0 0 87.013346237661608 -47.599014363324386 0 -47.599014363324386 81.978917993710638 0 0 0 0 76.38851402862565 -95.967923212501773 0 -95.967923212501773 118.55506430848982 0 0 0 0 -12.432263180227892 -17.199577297680662 0 -17.199577297680662 -440.78696943675095 0 0 0 0 75.471316706316429 127.54312516241043 0 127.54312516241043 -667.37960425332858 0 0 0 0 2.1498505971014197 -4.1747903368507622 0 -4.1747903368507622 -3.0957796468417058 0 0 0 0 -49.71907325633947 119.5253975719861 0 119.5253975719861 -421.99661564810958 0 0 0 0 30.912038802456664 -1.2417753743284266 0 -1.2417753743284266 -273.64344843167783 0 0 0 0 86.698999849104439 20.074581308737834 0 20.074581308737834 -431.09065890233069 0 0 0 0 -19.939473073900444 90.764417691536437 0 90.764417691536437 -245.1912413409882 0 0 0 0 -33.204092423258771 -108.35612911224052 0 -108.35612911224052 -233.08137215533498 0 0 0 0 -1.9540484895005648 -141.32084474083604 0 -141.32084474083604 -394.13889741456114 0 0 0 0 68.974383374947138 -174.8263578690603 0 -174.8263578690603 298.14321866868704 0 0 0 0 1.3720069498013459 -2.2805662588088182 0 -2.2805662588088182 -1.2919365807888639 0 0 0 0 -20.191743008901199 103.44649258964114 0 103.44649258964114 -700.65362238642047 0 0 0 0 -1.0278421862529896 -2.3521408868065166 0 -2.3521408868065166 1.7764193095752319 0 0 0 0 12.571771524926589 -206.34462261134559 0 -206.34462261134559 -361.55020506473011 0 0 0 0 -62.781298232484914 92.656736252301926 0 92.656736252301926 240.38067049967685 0 0 0 0 32.621629365959961 -30.675376162049361 0 -30.675376162049361 7.7275568021905201 0 0 0 0 28.233378782442635 -41.032241721488575 0 -41.032241721488575 50.420733409227097 0 0 0 0 -105.93465364533404 -19.768102131663909 0 -19.768102131663909 130.11822609374212 0 0 0 0 -5.8254828232715496 -7.3027848747865889 0 -7.3027848747865889 12.182342801703797 0 0 0 0 -79.97349650254364 -247.79000618572354 0 -247.79000618572354 -296.03884025510342 0 0 0 0 -34.631694905376207 -153.28231961608981 0 -153.28231961608981 -225.60215708238411 0 0 0 0 -123.24251560166522 -212.39513363436345 0 -212.39513363436345 -283.31357938953442 0 0 0 0 -122.88535360994138 -237.09754532544321 0 -237.09754532544321 -236.99750484158722 0 0 0 0 -82.476248080081859 -90.381653071362962 0 -90.381653071362962 -231.7703968489659 0 0 0 0 40.324926203582436 -101.66010730059497 0 -101.66010730059497 -233.79834451377064 0 0 0 0 -103.62128477844453 -100.31361942672811 0 -100.31361942672811 -11.734709735443175 0 0 0 0 -25.225243951810626 -219.52107941967006 0 -219.52107941967006 -121.37055886504095 0 0 0 0 -50.36419850388711 -221.40965121420231 0 -221.40965121420231 -306.11761702912918 0 0 0 0 -82.480120452604751 -36.810446435280028 0 -36.810446435280028 -157.06015937897973 0 0 0 0 -94.930207218053511 -145.21927735975805 0 -145.21927735975805 -42.444035411805089 0 0 0 0 -148.41890279812651 -144.97292028757875 0 -144.97292028757875 134.84170621961675 0 0 0 0 -72.675867618519987 -167.91074998507975 0 -167.91074998507975 135.02161917319705 0 0 0 0 -187.40031949261902 -70.598250230079429 0 -70.598250230079429 32.614114833973872 0 0 0 0 -48.583594760009873 -117.70317061452079 0 -117.70317061452079 -6.2805789440353692 0 0 0 0 -49.405015158343303 -152.42925589716106 0 -152.42925589716106 92.018725987501966 0 0 0 0 -43.552422228691285 -99.740739061722707 0 -99.740739061722707 107.81526641441451 0 0 0 0 7.0718737963040113 -1.5043925355284102 0 -1.5043925355284102 1.4769631402300831 0 0 0 0 -59.010022850252426 -84.499850461135793 0 -84.499850461135793 -77.132128023607947 0 0 0 0 110.42179045947069 -161.54983004268615 0 -161.54983004268615 -169.62955172253714 0 0 0 0 199.70903291569448 -303.32438976651247 0 -303.32438976651247 -48.013184961251682 0 0 0 0 93.461793833757838 -400.65744250619173 0 -400.65744250619173 177.61363633652945 0 0 0 0 -214.12128133910301 -262.44665654677374 0 -262.44665654677374 426.37554695801373 0 0 0 0 -301.04755549107722 212.16580062752473 0 212.16580062752473 147.93146636343226 0 0 0 0 67.249863576973894 -133.19592504026696 0 -133.19592504026696 -448.61078826644371 0 0 0 0 -44.457402178034499 -101.85736200233805 0 -101.85736200233805 -543.58372893869819 0 0 0 0 550.91169139088834 -475.26264692887526 0 -475.26264692887526 -397.26718751151202 0 0 0 0 -272.08142703522662 26.972155871950235 0 26.972155871950235 643.78316440707931 0 0 0 0 11.785719273193536 -136.13702854492294 0 -136.13702854492294 -49.982257778265193 0 0 0 0 52.886086881586252 -51.036837777511579 0 -51.036837777511579 38.473467393046171 0 0 0 0 7.7186660287343329 -135.50086279579409 0 -135.50086279579409 -35.439791274056915 0 0 0 0 -19.298515951054014 -137.16971496734186 0 -137.16971496734186 -34.871542611717814 0 0 0 0 13.657809396706391 -7.1283548085620669 0 -7.1283548085620669 -11.896106167840372 0 0 0 0 -270.87777190821726 -359.79259601722879 0 -359.79259601722879 -403.55350973621898 0 0 0 0 -47.266533125158276 -158.49716936305595 0 -158.49716936305595 -7.2860131443230784 0 0 0 0 15.659935330321332 -165.88089471236526 0 -165.88089471236526 -27.612940874932974 0 0 0 0 19.633243683198089 -164.51152217106755 0 -164.51152217106755 -27.294484079829999 0 0 0 0 55.595288833139421 -144.20055216505716 0 -144.20055216505716 -58.344936753404909 0 0 0 0 40.220735823124414 -113.59719396853689 0 -113.59719396853689 -52.307204617238312 0 0 0 0 47.811322004656176 -117.666543778083 0 -117.666543778083 -50.529690850831685 0 0 0 0 53.259694659659544 -103.01109482376705 0 -103.01109482376705 -52.831516897800611 0 0 0 0 38.509482737611506 -77.085874752747259 0 -77.085874752747259 -44.117781369750446 0 0 0 0 22.576143287087689 -97.866937346676423 0 -97.866937346676423 -49.58722639035841 0 0 0 0 18.060597873542065 -75.032381000870373 0 -75.032381000870373 -35.866786615864839 0 0 0 0 7.3031485185238125 -111.45881946396548 0 -111.45881946396548 -60.172700106588309 0 0 0 0 23.410854878055034 -111.78024353976434 0 -111.78024353976434 -77.498249662567105 0 0 0 0 21.147520869520747 -124.88546582941012 0 -124.88546582941012 -52.130597839888651 0 0 0 0 -253.14249045306497 -114.07112239387789 0 -114.07112239387789 22.215190647551935 0 0 0 0 85.429385567971622 -43.669750064920663 0 -43.669750064920663 -55.294729977511452 0 0 0 0 4.1212363783113943 -8.4002717371781301 0 -8.4002717371781301 -13.755261423096755 0 0 0 0 -94.158133890785393 -96.161388792705111 0 -96.161388792705111 -28.596067256246897 0 0 0 0 -8.5547155312051473 -73.164102205686504 0 -73.164102205686504 -35.523806871115085 0 0 0 0 -35.635250617260816 -81.081537772695455 0 -81.081537772695455 -45.35882108592719 0 0 0 0 47.385509085928788 -173.08178435124137 0 -173.08178435124137 -63.053392270212498 0 0 0 0 35.003040980682272 -82.602768911190651 0 -82.602768911190651 -48.875996212842438 0 0 0 0 -37.768285454517624 -77.855277231220796 0 -77.855277231220796 -52.268451367857551 0 0 0 0 225.92420270537696 17.240736953814121 0 17.240736953814121 -182.5708437800713 0 0 0 0 -0.092262526653556165 2.5089339548660945 0 2.5089339548660945 -6.1288643039001727 0 0 0 0 -623.25870907875651 -106.35733027515744 0 -106.35733027515744 111.20947315950252 0 0 0 0 382.43048304365948 -146.68907019743529 0 -146.68907019743529 -264.52046780712408 0 0 0 0 159.89598852485506 -253.17066981850803 0 -253.17066981850803 -295.17268105403491 0 0 0 0 -25.697970619819856 -84.029046277317221 0 -84.029046277317221 -52.20392957377905 0 0 0 0 207.96532920106984 -259.52471013343529 0 -259.52471013343529 -290.69343190235304 0 0 0 0 25.117414015670875 215.67708407327063 0 215.67708407327063 -91.941766195232049 0 0 0 0 -44.252404053870123 -77.821688992713462 0 -77.821688992713462 -81.734734941099305 0 0 0 0 41.386806712915188 -51.38110248726818 0 -51.38110248726818 5.7818426572738275 0 0 0 0 -2.328661599134648 -104.98222036509742 0 -104.98222036509742 -77.402735717550968 0 0 0 0 -301.44972815426445 -311.72483343362546 0 -311.72483343362546 57.398600419124705 0 0 0 0 -5.1339291657277499 -345.01181786550296 0 -345.01181786550296 -252.31314263212698 0 0 0 0 21.450048802185847 -133.36287095368607 0 -133.36287095368607 -111.66003136665677 0 0 0 0 44.004726855801152 -51.903792186682523 0 -51.903792186682523 32.202151743064377 0 0 0 0 16.30059150183115 -126.48060625353537 0 -126.48060625353537 -111.71241518805323 0 0 0 0 11.886925337984394 -116.04851851328931 0 -116.04851851328931 -56.338284608762478 0 0 0 0 -2.4551821880486386 -136.43552243101294 0 -136.43552243101294 -132.6479097493866 0 0 0 0 -21.031884253165117 -157.09056107437209 0 -157.09056107437209 -101.48085067026841 0 0 0 0 -35.91974413725984 -111.97264954949787 0 -111.97264954949787 -33.697688670536536 0 0 0 0 4.5449589611814147 -22.800990724719657 0 -22.800990724719657 -4.5789871825930675 0 0 0 0 18.13925923368879 -105.86315305730386 0 -105.86315305730386 -169.78594642675307 0 0 0 0 -89.987943509619527 -29.657130098054722 0 -29.657130098054722 75.581986507881084 0 0 0 0 6.825760885828366 -27.381468924117897 0 -27.381468924117897 6.5309237148533583 0 0 0 0 -5.0627015251629928 -89.141314240543579 0 -89.141314240543579 -12.720617725513875 0 0 0 0 -108.20573474773664 -53.808760066200193 0 -53.808760066200193 64.085899829748087 0 0 0 0 -76.763564736988542 -83.148327430638261 0 -83.148327430638261 19.121784622531337 0 0 0 0 1.3083128182915971 -39.63933559502766 0 -39.63933559502766 7.1978233850895776 0 0 0 0 37.343591807144747 -49.485329320134234 0 -49.485329320134234 -24.772671314666809 0 0 0 0 0.76357797659389881 -41.617661313618832 0 -41.617661313618832 14.39499922864664 0 0 0 0 12.410330702874489 -276.41442204015766 0 -276.41442204015766 -35.697523668350186 0 0 0 0 -103.19863936896607 -48.802923134847831 0 -48.802923134847831 62.07040746169514 0 0 0 0 -102.98970630164519 -112.81466371525232 0 -112.81466371525232 -61.486824714651448 0 0 0 0 -110.71543792020225 -190.40391231357489 0 -190.40391231357489 -104.61730720866763 0 0 0 0 -173.24140445205921 -179.74975329920562 0 -179.74975329920562 -44.338996188642341 0 0 0 0 -102.31543701355258 -133.4442952834288 0 -133.4442952834288 -118.1353408779687 0 0 0 0 -23.249360856631874 -27.800153439672911 0 -27.800153439672911 26.226833682477292 0 0 0 0 -40.175118373843361 -33.086333446000936 0 -33.086333446000936 9.0668917092989432 0 0 0 0 243.00558476058177 -13.718142187000922 0 -13.718142187000922 -0.99703518368551158 0 0 0 0 -1.697958535084183 -43.62570952934793 0 -43.62570952934793 4.9858847371824027 0 0 0 0 -61.350641639699461 48.287412275032693 0 48.287412275032693 244.95081896850024 0 0 0 0 -37.301453046265777 -47.416396282302372 0 -47.416396282302372 6.2539519008371656 0 0 0 0 4.5355408166360576 -463.09503602908808 0 -463.09503602908808 -1033.7285628793761 0 0 0 0 -399.23193353421084 -526.68915840696718 0 -526.68915840696718 265.7726171867464 0 0 0 0 -15.612636797503001 -57.5431941264942 0 -57.5431941264942 26.041047841434192 0 0 0 0 -11.718945268683214 -70.831669852659161 0 -70.831669852659161 4.5659840154903222 0 0 0 0 262.98225563722372 31.356988100160379 0 31.356988100160379 -63.882640644835192 0 0 0 0 64.193671783683385 -127.86529992822761 0 -127.86529992822761 -607.14119549399038 0 0 0 0 11.418248467776245 21.948840674914379 0 21.948840674914379 402.03604383461061 0 0 0 0 -4.8023799054937442 -2.867221464644885 0 -2.867221464644885 -0.8402763008554146 0 0 0 0 -64.885910472723481 -449.07418099494316 0 -449.07418099494316 -392.64536923012929 0 0 0 0 -24.402079159274336 -12.791747528708775 0 -12.791747528708775 -6.3901497951336097 0 0 0 0 23.14689769569668 -139.24818078269891 0 -139.24818078269891 -28.137431265015039 0 0 0 0 111.41285685705952 -70.219201120140497 0 -70.219201120140497 -9.678302172513213 0 0 0 0 25.98158130855029 -19.022531898263352 0 -19.022531898263352 13.483039090506935 0 0 0 0 -79.893114330876415 -36.576640861523629 0 -36.576640861523629 164.99732698042499 0 0 0 0 -3.9275343645498992 -6.0168986978385135 0 -6.0168986978385135 3.7996556454637442 0 0 0 0 39.317952240016893 -91.470054117678956 0 -91.470054117678956 -177.91953919836669 0 0 0 0 -90.076089966998552 -32.278474963815825 0 -32.278474963815825 196.90946624038043 0 0 0 0 -39.922689513216028 -46.833136197390559 0 -46.833136197390559 78.688556940251146 0 0 0 0 -59.418486415546795 -70.012529623602404 0 -70.012529623602404 55.411863382221782 0 0 0 0 -21.286129797670526 -32.58426612242495 0 -32.58426612242495 8.0142430907937481 0 0 0 0 31.905185410912964 -130.10312069954671 0 -130.10312069954671 167.29241097681142 0 0 0 0 -43.805732739679371 -37.569683431673504 0 -37.569683431673504 2.3364150519843889 0 0 0 0 26.786757686299097 -158.33418266494118 0 -158.33418266494118 168.09793017530603 0 0 0 0 31.300913305807626 -177.2847525217876 0 -177.2847525217876 264.97611020191107 0 0 0 0 375.31533300643059 15.983112918984261 0 15.983112918984261 -74.745837973547168 0 0 0 0 232.72733394414718 -243.55465340096362 0 -243.55465340096362 151.88554852358357 0 0 0 0 31.483870309817576 66.977942727092341 0 66.977942727092341 31.964541249311878 0 0 0 0 -31.959230027370779 -49.37092744059693 0 -49.37092744059693 -1.1148560481113918 0 0 0 0 -16.927194008181687 -121.67985100652368 0 -121.67985100652368 121.37747680745815 0 0 0 0 4.2346901183137167 -14.041711232198594 0 -14.041711232198594 1.3410997497350081 0 0 0 0 324.33092778244281 -225.0590087257583 0 -225.0590087257583 -199.19677052603947 0 0 0 0 29.427424136180747 -73.282579563002926 0 -73.282579563002926 84.409351366781692 0 0 0 0 155.08144914142031 -71.992506222577504 0 -71.992506222577504 34.751373225182761 0 0 0 0 42.546273830386994 -75.760008529441009 0 -75.760008529441009 56.890368053704037 0 0 0 0 15.645421928231372 -125.11197486563469 0 -125.11197486563469 47.759869511501165 0 0 0 0 113.10302515573858 13.84720753635338 0 13.84720753635338 61.010177274154557 0 0 0 0 -48.524059937406413 -34.339259696706932 0 -34.339259696706932 -13.390332408703728 0 0 0 0 -30.306186347665971 -41.122142781274306 0 -41.122142781274306 33.672405786655872 0 0 0 0 -13.731011190035133 -51.494126124980539 0 -51.494126124980539 413.7512882301744 0 0 0 0 -36.139170502604429 -54.350899304157792 0 -54.350899304157792 56.860491533305321 0 0 0 0 -41.765886037635937 -35.953033004672761 0 -35.953033004672761 55.016156736433913 0 0 0 0 -25.840664642219053 -55.677663587270217 0 -55.677663587270217 45.25530535611324 0 0 0 0 56.787374164014182 -270.40206930900968 0 -270.40206930900968 63.877744921424892 0 0 0 0 106.91287200600345 -303.55013306172623 0 -303.55013306172623 -1.2092051260360677 0 0 0 0 230.53858592135657 -105.06604856730701 0 -105.06604856730701 140.69515225563373 0 0 0 0 -35.346606043984139 -33.009808688360721 0 -33.009808688360721 -4.8896721896013418 0 0 0 0 -23.74025863180367 -51.733251075624608 0 -51.733251075624608 -22.838823552212666 0 0 0 0 -20.495303294829597 -66.010083394990531 0 -66.010083394990531 82.932085839054309 0 0 0 0 -37.338348029443878 -7.3483921499370695 0 -7.3483921499370695 9.7673288675488834 0 0 0 0 126.38935812357522 -239.80514088196651 0 -239.80514088196651 49.205373430930194 0 0 0 0 -245.9235107454333 -76.303483370840695 0 -76.303483370840695 209.11573936430796 0 0 0 0 84.547779613210878 -254.29579859139631 0 -254.29579859139631 62.564287790042727 0 0 0 0 103.88270032199944 -74.096641552401707 0 -74.096641552401707 -23.526697995781433 0 0 0 0 5.8553730827343884 -9.0166208291880849 0 -9.0166208291880849 -4.7935661706656418 0 0 0 0 -46.84251970947571 -79.744866006484699 0 -79.744866006484699 150.09088787296059 0 0 0 0 -36.598980766913883 -82.696192835286638 0 -82.696192835286638 98.221183471032418 0 0 0 0 -69.033492198053864 -111.37002932728865 0 -111.37002932728865 229.69668160614538 0 0 0 0 -66.044421768594475 -134.85019900785846 0 -134.85019900785846 123.4201822899231 0 0 0 0 -182.64491044462193 -324.6369483227445 0 -324.6369483227445 274.43756156536983 0 0 0 0 12.867943289325922 -199.34732643580719 0 -199.34732643580719 157.31705016878004 0 0 0 0 -23.794647375526253 -37.288792764395033 0 -37.288792764395033 -26.532347490442717 0 0 0 0 39.371796429993992 -37.134028558881255 0 -37.134028558881255 206.60421016526379 0 0 0 0 120.04886788336444 -114.99798860860028 0 -114.99798860860028 16.156587008523275 0 0 0 0 -52.617037488692546 -15.833386599811192 0 -15.833386599811192 -4.8009620169836751 0 0 0 0 124.90406342726783 21.101048741278646 0 21.101048741278646 583.72323742361186 0 0 0 0 -28.576338869143285 -60.687807408643494 0 -60.687807408643494 78.064105808691238 0 0 0 0 -26.32705143401472 -117.58600176913751 0 -117.58600176913751 143.50720105793152 0 0 0 0 -46.449735276425052 -17.905451210493382 0 -17.905451210493382 12.276668183865063 0 0 0 0 -3.7532977380476638 -49.974418272828679 0 -49.974418272828679 25.680060543410356 0 0 0 0 -29.298655823322406 -233.19858095601739 0 -233.19858095601739 213.51141350334547 0 0 0 0 47.278982732977965 -32.247672710334882 0 -32.247672710334882 119.73623572623001 0 0 0 0 -40.596084633360107 -22.483867840149692 0 -22.483867840149692 2.9737801206840402 0 0 0 0 -59.734768460220948 -127.10280823652647 0 -127.10280823652647 397.46109415416868 0 0 0 0 98.245812433648098 39.063389881157491 0 39.063389881157491 233.0704761388406 0 0 0 0 11.113586880658659 -163.06208108103056 0 -163.06208108103056 218.92458364721097 0 0 0 0 -48.598813518645329 -57.378690064775583 0 -57.378690064775583 191.50249990480734 0 0 0 0 -32.175670274809818 -53.056194571036031 0 -53.056194571036031 95.045023170991044 0 0 0 0 -11.239487797598693 -55.232074184445381 0 -55.232074184445381 23.343977151151563 0 0 0 0 -27.290813772417348 -32.975303151504086 0 -32.975303151504086 44.385832362374281 0 0 0 0 7.9150586596006178 -60.630503495194716 0 -60.630503495194716 99.010662181328371 0 0 0 0 4.5390637784439605 -38.244157451681531 0 -38.244157451681531 51.927111528264504 0 0 0 0 -0.42318102545505099 -63.250412282946854 0 -63.250412282946854 98.424608445346166 0 0 0 0 16.674169122008607 -65.365044135665812 0 -65.365044135665812 98.403215458522027 0 0 0 0 20.492660215497235 -33.870415297285106 0 -33.870415297285106 -12.85426434610843 0 0 0 0 -2.8524893421918875 -23.932002400088635 0 -23.932002400088635 16.520548319641907 0 0 0 0 -16.141651888111483 -42.278025135308098 0 -42.278025135308098 124.5230264314705 0 0 0 0 -8.6787778857176399 -13.420145621467586 0 -13.420145621467586 57.062336530338101 0 0 0 0 -6.9609733268084568 -36.504030864264088 0 -36.504030864264088 40.651846711985733 0 0 0 0 38.251270179098356 -28.673387806900791 0 -28.673387806900791 82.978566566436712 0 0 0 0 12.068476699409075 -73.230326513015825 0 -73.230326513015825 109.03016274812398 0 0 0 0 -1.4498936372207254 -8.6750567687645272 0 -8.6750567687645272 32.121749481538743 0 0 0 0 -13.265983026331014 -62.380050333046029 0 -62.380050333046029 132.8006511082931 0 0 0 0 16.482325893608504 -63.699898035456499 0 -63.699898035456499 119.43194739406317 0 0 0 0 14.233156559188501 -81.726192150545103 0 -81.726192150545103 154.75658687772739 0 0 0 0 27.960873116935545 -53.874193848276263 0 -53.874193848276263 129.74195935406169 0 0 0 0 24.18924395772774 -74.400151686430036 0 -74.400151686430036 171.64636918063752 0 0 0 0 21.832119790822617 -93.638886733282561 0 -93.638886733282561 194.01255493460303 0 0 0 0 33.724231734209752 -96.365275076735998 0 -96.365275076735998 137.66190548103623 0 0 0 0 31.549022221632185 -87.49285328645783 0 -87.49285328645783 114.66983500787956 0 0 0 0 0.98464031964462606 -5.2030364110068525 0 -5.2030364110068525 26.2109859685606 0 0 0 0 33.101192932052072 -77.82097210305983 0 -77.82097210305983 128.98395279487158 0 0 0 0 9.7513069826563878 -44.554863106073753 0 -44.554863106073753 98.360624063032446 0 0 0 0 56.830857280096097 -117.46991719484549 0 -117.46991719484549 175.27241962128028 0 0 0 0 34.181849765955121 -98.56558804582528 0 -98.56558804582528 159.63570197505578 0 0 0 0 16.933017995840935 -79.536381823869689 0 -79.536381823869689 51.752847123413289 0 0 0 0 -20.611486752709894 -16.622109756515229 0 -16.622109756515229 20.783390658958567 0 0 0 0 -14.609321301977616 -60.374497235839954 0 -60.374497235839954 106.87263648269072 0 0 0 0 -48.579070609484916 -151.42875241208822 0 -151.42875241208822 253.44907982944278 0 0 0 0 40.546569577312766 -116.08635135621444 0 -116.08635135621444 258.50015137414448 0 0 0 0 -196.70386745748692 -56.344574153394205 0 -56.344574153394205 165.95953021478635 0 0 0 0 -3.6960085887295762 -23.212354646297129 0 -23.212354646297129 24.048992616156895 0 0 0 0 -39.020726880188477 -133.35140385284649 0 -133.35140385284649 56.976022551985807 0 0 0 0 14.162348477944761 -59.00687760618257 0 -59.00687760618257 119.99919213855901 0 0 0 0 26.770111972328479 -72.736069306429272 0 -72.736069306429272 57.824072354633344 0 0 0 0 1.7008270947844721 -56.111406677249761 0 -56.111406677249761 101.72447538736742 0 0 0 0 -5.027133861931361 -44.082336131898046 0 -44.082336131898046 85.477050483765197 0 0 0 0 -22.137586919183377 -73.569063894417923 0 -73.569063894417923 101.0911016947648 0 0 0 0 -30.8418234882447 -81.264859504681226 0 -81.264859504681226 94.352920371267828 0 0 0 0 -17.813053078480152 -86.33718911667529 0 -86.33718911667529 81.080641160639061 0 0 0 0 -6.0424073888680141 -86.346381635044963 0 -86.346381635044963 49.336026243094238 0 0 0 0 -7.5535752529685851 -79.94201213730048 0 -79.94201213730048 84.730772871393128 0 0 0 0 15.061518964357674 -0.011379613235476427 0 -0.011379613235476427 81.858044878092187 0 0 0 0 2.6982389247793961 -6.7945668293238839 0 -6.7945668293238839 16.353210853320064 0 0 0 0 -30.088798504686565 -71.668016392890422 0 -71.668016392890422 162.56821229936031 0 0 0 0 0.86218581950470252 -78.670092618509443 0 -78.670092618509443 150.79314321011771 0 0 0 0 -50.564242018328514 -112.05851732368319 0 -112.05851732368319 171.49900565724238 0 0 0 0 -33.548382945467893 -116.92821090287543 0 -116.92821090287543 136.02001194945478 0 0 0 0 -98.189877759827141 -144.87204566269793 0 -144.87204566269793 135.83601039087807 0 0 0 0 11.329761097947994 -135.42695178960457 0 -135.42695178960457 130.19820301199798 0 0 0 0 -21.374249387019518 -126.75388685122743 0 -126.75388685122743 109.19999389113218 0 0 0 0 -50.210396537642737 -146.46490567127148 0 -146.46490567127148 96.947038223544951 0 0 0 0 -64.187121257582476 -174.49224496270836 0 -174.49224496270836 117.9388087157422 0 0 0 0 -68.798320027701266 -244.62678397063428 0 -244.62678397063428 71.660162300253432 0 0 0 0 57.891331539638486 -227.25152425996203 0 -227.25152425996203 30.77191749811027 0 0 0 0 0.16450704245653469 -145.36077673762338 0 -145.36077673762338 3.10924623322353 0 0 0 0 -23.369901674957873 -138.97894598402672 0 -138.97894598402672 34.545410237798933 0 0 0 0 40.212545938247786 -162.27873429199826 0 -162.27873429199826 -49.118386857925657 0 0 0 0 26.330801341586266 -169.69102191353159 0 -169.69102191353159 -47.17705777289666 0 0 0 0 0.33002023568042205 -96.233223400944553 0 -96.233223400944553 -94.319602048642992 0 0 0 0 -37.099171355370345 -121.79718978748861 0 -121.79718978748861 -75.881758505529433 0 0 0 0 23.166061128562433 -92.648108509834856 0 -92.648108509834856 -100.46258774493617 0 0 0 0 -22.306949809689286 -66.252426818913591 0 -66.252426818913591 -29.317873208179662 0 0 0 0 -40.389930285662558 -5.6749580988980597 0 -5.6749580988980597 -225.55347506612816 0 0 0 0 -0.99558929302293109 -60.374281827433151 0 -60.374281827433151 -37.670355209524132 0 0 0 0 -14.688439563110293 -6.2199611492893183 0 -6.2199611492893183 -4.4660216809847526 0 0 0 0 -3.9085306757501712 -43.84247851557484 0 -43.84247851557484 5.7798702217987739 0 0 0 0 3.4720302737187012 -96.965137658109597 0 -96.965137658109597 60.809287470605341 0 0 0 0 3.8150294604383816 -108.90821043057804 0 -108.90821043057804 -12.064662470322219 0 0 0 0 29.128150152493617 -130.66730049215766 0 -130.66730049215766 6.3454976256834925 0 0 0 0 
</DataArray>
<DataArray type="Float64" Name="cross_section_updated" format="ascii">
1 1 1 1 1 1 1 1 1 1 1 1 1 1 1 1 1 0.013690271454153191 1 1 1 1 1 1 0.019148552805181081 1 1 1 1 1 1 1 1 0.011880920709107937 1 1 1 1 1 1 1 1 1 1 1 1 1 1 1 1 5.4412800732858702e-05 1 1 1 1 0.021393566206338185 0.010364608475820457 1 1 1 1 0.01112292237588778 1 1 1 1 1 1 0.010756705550508495 1 1 1 0.010003725431249139 1 0.0097743390102188882 1 1 1 1 1 1 1 0.0097696549610921599 1 1 1 1 1 1 1 1 1 1 1 1 1 1 1 1 1 1 1 1 1 1 1 1 1 1 1 1 1 1 1 1 0.0096518070733059985 1 1 1 1 1 1 1 1 1 0.00712098210843988 1 1 1 1 1 1 0.012442787878250296 1 1 1 1 0.010085081777094655 1 1 1 0.010556796864994965 1 1 1 1 1 1 1 1 1 1 1 1 0.015089258210097415 1 1 7.206462211695186e-09 1 1 1 1 1 1 1 1 0.012729538464944276 1 1 1 1 1 1 0.018022066613481637 0.0022641369423942806 1 1 0.024822350465308403 1 1 1 1 1 1 1 1 1 1 1 1 0.028507312902570612 1 1 1 1 1 1 1 1 0.029427429165670673 1 1 1 1 1 1 1 1 0.010792273726517115 1 0.0081173838701645157 1 1 -4.4850030148091413e-09 0.016701421560342933 1 0.021847285561053989 1 1 1 1 1 1 1 1 1 1 1 1 1 1 1 1 1 1 1 1 1 1 1 1 1 1 0.01745936151563654 1 1 1 1 0.023352170186124094 1 1 1 1 1 0.0099393270932083416 3.3559523215931364e-09 4.0115464422507685e-09 0.016866288895430376 0.017134877743290373 1 1 1 0.0048464085214142763 1 1 1 1 1 1 1 1 1 0.015797409075433547 1 1 1 1 1 1 0.02068333759519006 1 0.006093260346402167 1 1 1 1 1 1 1 1 1 1 1 1 1 1 0.0075899317999118115 1 1 1 1 0.0091584101964948192 1 1 1 1 1 1 1 1 1 1 1 1 1 1 1 1 0.010801891339310461 1 1 1 1 1 1 1 1 1 1 1 1 1 1 1 0.0094721699984900709 1 1 1 1 1 0.015823584818563885 1 1.2722765896366894e-09 1 0.012101678159481849 1 1 1 5.5803737646603624e-05 1 1 1 1 1 1 1 0.015814525433804912 1 1 1 1 0.0095690310125640388 1 1 0.010702986172729077 1 1 1 1 1 1 0.012211459884373789 1 1 1 0.019595378140437134 1 1 1 1 1 1 1 1 1 1 0.0089108881358645926 1 1 1 1 0.0090552778348826114 1 1 1 1 1 1 1 1 1 1 0.0072125635137732375 1 0.010423162504465146 1 1 1 1 1 0.0088356023105696652 1 1 1 1 1 1 1 1 1 1 1 1 1 0.010612315851490493 1 1 1 0.0222432681960106 1 0.012319953664530044 1 1 0.01001062239253645 1 1 0.0039154303348426511 1 1 1 1 1 1 1 1 1 1 1 1 1 1 1 1 1 1 1 1 0.00094358182602522628 1 1 1 1 1 1 1 1 1 1 1 1 1 1 1 1 1 1 1 1 1 1 1 1 1 1 1 1 1 1 1 1 1 0.0075655894378398314 1 1 1 1 1 1 1 0.010036796711753976 1 1 1 1 1 1 1 1 1 1 1 1 1 1 1 1 1 1 1 1 1 1 1 1 1 1 1 1 1 1 1 1 1 1 1 1 1 1 1 1 1 1 1 1 1 1 1 1 1 1 1 1 1 1 1 0.011120515804138829 1 0.01052183995763422 1 1 1 1 0.010078177603439242 1 0.011569622561052234 1 1 0.0096842875097571252 1 1 1 1 1 1 1 1 1 0.011230767648467418 1 1 0.0099746351715764153 1 1 1 0.0095389013624756214 0.011516915357008415 1 1 1 1 1 1 1 1 1 1 1 1 1 1 1 1 1 1 1 1 1 1 1 1 1 1 1 1 0.011719491292236449 1 1 1 1 1 1 1 1 1 0.010846146721201192 1 1 1 1 1 1 0.012031269208863616 1 1 1 0.012605376785649698 1 1 1 1 1 1 1 1 0.010313879595563654 1 1 1 1 1 1 0.011923205463157067 1 1 1 0.010733367262007862 1 1 1 1 0.01016766222815307 0.013446594242661369 1 1 1 1 1 1 0.013045257329617879 1 1 1 1 1 0.01529485930566583 1 0.0081492852462387699 1 1 1 1 0.00903295973405744 1 1 0.0099651491052075956 1 0.0065558876227131274 1 1 1 1 1 0.0085824319673468794 1 1 1 1 1 1 1 0.0073230092217186626 0.0067012287274019096 1 1 1 0.014107227657157714 1 1 1 1 1 1 1 1 1 0.0069282513049273974 1 1 0.0065148522635385692 1 1 1 1 1 1 0.010667620935460557 1 1 1 0.0099366017763008029 1 1 1 1 1 1 1 1 1 1 0.0099862127800382453 1 1 1 1.9472660289787669e-09 1 1 1 1 1 1 1 1 1 1 1 1 1 0.01000848678399471 0.011786371930627496 1 1 1 1 1 1 0.009933670884109097 1 1 1 1 1 1 1 1 1 0.0068327339420822739 0.0099331990067438834 -2.5174761442148252e-09 1 1 0.013561378963463367 1 1 1 1 1 1 1 1 1 1 1 4.6908431241318715e-05 1 1 0.01019606699318429 1 1 1 1 1 1 1 1 1 1 1 1 1 1 1 1 1 1 1 1 1 0.0089304761525540247 1 1 1 4.5786118646473639e-10 1 1 0.0012441958253285035 1 1 1 0.0032572196610721124 1 1 1 1 1 1 1 1 1 1 1 1 1 0.010011677162640755 1 1 0.011616299639513217 1 1 0.0029745256228008617 1 1 1 1 0.0070884061536704429 1 1 1 1 1 1 1 1 1 1 1 1 1 1 1 1 1 1 1 1 1 1 1 1 1 1 1 1 1 1 1 1 1 1 1 1 1 1 1 1 1 1 1 1 1 1 1 1 1 1 1 1 1 1 1 1 0.01078112890997975 1 1 1 1 1 1 1 1 1 1 1 1 1 1 1 1 1 1 1 1 1 1 1 1 1 1 0.0093309966124624985 1 1 1 1 1 1 1 0.010546486088457006 1 1 1 1 1 1 1 1 1 1 1 1 1 1 1 1 1 1 1 1 1 1 1 1 1 1 0.010769229073979579 1 1 1 1 1 1 1 1 1 1 0.0081569701130304734 1 1 1 1 1 1 1 1 0.00062763493391968309 1 1 1 1 0.0074898613873438102 1 0.010020901100142546 1 0.0014416204507834048 1 1 1 1 1 1 1 1 0.0062882906800549934 1 1 1 1 1 1 1 1 0.0099540819021938873 1 1 0.0067569249158756471 0.0076424342134817913 1 1 0.0043596114064561459 1 1 1 1 1 1 1 1 1 1 1 1 1 0.011187520753209227 1 1 1 0.0066049794849552326 0.0050977725170182099 1 1 0.010210494924330857 1 0.0095180633419629426 1 1 1 1 1 1 1 0.010645342859093868 1 1 1 1 1 1 1 1 1 1 0.0099242066256488137 1 1 0.013361940655949468 1 1 1 1 1 1 0.012118488458939636 1 1 1 0.0051161683835233146 1 1 0.010056777030782477 1 1 1 0.0094238994652575056 1 1 1 1 1 1 1 1 0.0081204321741995978 0.0083715170692777417 1 1 1 1 1 1 1 1 1 1 1 1 0.0097441869784173577 1 1 1 1 1 1 0.01249893680544599 1 1 1 1 1 0.0072501299699610153 1 1 1 1 1 1 1 1 0.0062845523732556891 1 1 1 1 1 1 0.010073377098444258 1 0.0061164791189359316 0.0076115807471586923 1 1 1 0.009963047394698327 0.0050230196058520596 1 0.0075964498626749401 1 1 1 1 1 0.010102730930755623 1 1 1 1 1 1 1 0.010056087972029962 1 1 1 1 0.0078285662529449483 1 0.0094600985395093991 1 1 0.0087556208182503325 1 0.0083460966803016109 1 1 1 0.010034835602203755 1 1 1 1 1 1 1 1 1 1 1 1 0.018673692617330429 1 1 0.021189185372152197 1 1 1 1 1 1 1 1 1 1 1 1 1 1 1 1 1 0.01613064941787002 1 1 0.013509427928592641 1 0.010070170229671313 1 1 1 1 1 1 1 0.010196147502530187 0.0068709570623489494 1 1 1 1 1 0.010809159129207399 1 0.011546921106683119 0.0086492482146878213 1 1 1 0.010030921900316438 0.0099911033687880985 1 1 1 1 1 0.010939105934415792 1 1 1 1 1 1 1 1 1 1 1 1 0.014775621367006176 1 1 0.011690785020118758 1 1 1 1 1 1 1 1 1 1 0.015506780862044531 0.017452753231664959 1 1 1 1 1 1 1 0.0098340498301537349 1 1 1 0.011404820822648883 1 0.010036309833658601 1 1 1 1 1 1 1 1 1 0.0053160702640330654 1 1 1 0.0037764200698351125 1 1 1 1 1 1 1 1 1 -9.1089813990252733e-10 1 1 1 1 1 1 1 1 1 1 1 1 1 1 1 1 1 1 1 1 1 1 1 -8.5650842494844337e-10 0.0078279745670099821 1 1 1 1 1 1 -1.3835225465275158e-09 0.0061470752121994985 1 1 0.0028184308946498683 1 0.0022188224588242465 1 0.0099665822775600738 1 1 1 0.0060548990494184163 1 1 0.011217425133559715 1 0.0070238828480991833 1 0.010492050932638365 1 1 0.012163263967375507 1 1 1 1 1 1 0.008824645526314099 0.0097023200487493678 1 1 1 0.00761261848413421 1 1 1 1 0.010093984541200413 1 1 1 1 1 0.0064323898103880572 1 1 1 1 0.0098870334175204695 0.010215522307061069 1 1 1 1 1 1 1 0.0086957377368984609 1 1 1 1 1 1 1 1 1 1 1 1 1 1 1 0.010381136495694675 1 1 0.012524984656216809 0.007831908212158541 1 1 1 1 0.0085566094052508899 0.012522867228797708 1 1 1 0.012171102285713883 1 1 0.0095046455908351663 1 1 1 1 1 1 1 1 1 0.010232631850102158 1 1 1 1 0.015230677040888006 1 1 1 1 1 1 1 1 1 1 0.0079267338199318412 1 1 1 0.0063377711324807372 1 1 0.0026922432143646827 1 0.0093430891137574069 1 0.0095760955086324172 0.0053648436542409143 1 1 1 1 1 1 0.0035946156468743967 1 1 1 0.0081106951521799069 1 0.0021653268500111053 1 1 1 1 0.0034530676098225611 1 1 1 0.0019426051291697114 1 0.0099997929876529355 0.017351344674195052 1 1 1 0.016846829728882084 1 1 0.0099708171622537329 1 0.022321335704380628 1 1 1 1 1 0.010046457755039874 1 1 1 1 1 0.023321817228323778 1 1 1 1 1 1 0.0099579251509730043 0.0015455262194656871 1 0.01465667115994139 0.0012968955823729443 1 0.009994973699711418 1 1 1 1 0.014433980838111673 1 1 1 0.0068478907941617231 1 0.0058787486270569893 1 0.0033271194067052926 1 1 0.010486089643576802 1 0.0097127347809476908 1 1 1 0.0034258086453406202 1 1 1 0.0063253176331283219 0.013958773826446287 1 1 1 0.010191818380713315 0.011808593851851951 1 1 1 0.0033647114201909318 0.013606382796797574 0.011998801965495208 1 0.0025336305682153587 1 1 0.012804522490740936 1 1 1 1 1 1 1 1 1 1 1 1 1 1 0.0097663267849137318 1 1 0.0031143293989340307 0.0093806271784767862 1 1 1 1 0.013932548898534056 0.0012777897993436309 1 1 0.0029926329275224012 1 0.0072342472445965219 1 0.0029376727970677752 1 1 1 0.013295802081039206 0.0017105644214810529 1 1 1 0.0039878337593156673 1 1 1 1 1 1 1 1 1 1 0.0025850397606442983 0.011618440126060442 1 1 0.010202016978807999 1 1 1 1 0.0035664166899032415 0.005601664538046728 1 0.0037021243113939881 0.0017968349933556588 1 1 1 1 1 0.012260783603934091 0.011485009264843528 1 1 0.014065917725699258 1 0.0054502594168823471 0.008137500092815898 1 0.0035665042922441419 1 1 1 1 0.0099013534640414215 1 1 0.011638070866258201 1 0.0054784987488849645 1 1 0.0048900519693486667 1 1 1 1 1 1 1 1 0.015672552758289288 1 1 1 1 0.0053860852159438449 1 0.010893576499797147 1 0.0099787285356594448 1 1 1 1 0.011545696964524097 1 0.0086111487427367028 0.013345441028256255 1 0.0096851000583225936 0.01465786123809509 1 1 1 1 1 1 1 1 1 1 1 1 1 1 1 1 1 0.010579223829879594 1 1 1 1 1 1 1 1 1 1 1 0.011635811902370249 1 1 1 1 0.015226279496438268 1 1 1 1 1 1 1 0.0085559310266475341 1 1 0.0086470820573901781 1 1 1 1 0.0092938358339386094 1 -1.4487505743676632e-09 1 1 1 1 1 1 1 1 1 1 1 1 1 1 1 1 1 1 1 1 1 0.0088711036194793064 1 1 1 1 0.015156880254392265 1 1 1 1 1 1 1 0.011559325903797133 1 0.007600798827517281 1 1 0.010283875198060611 1 1 1 1 1 1 1 1 1 1 1 1 1 0.0071096577881084623 1 1 1 1 1 0.0084178296585782943 1 1 1 1 1 1 1 0.013044530352336707 1 1 1 1 1 1 1 1 1 1 1 1 1 1 1 1 1 1 1 1 1 0.0047045289941992103 1 1 1 0.0080731221650512872 1 1 1 1 1 1 1 1 1 0.0093059041223685687 1 1 1 0.018663734093906207 1 1 1 1 1 1 1 0.011176654311456145 1 1 1 1 1 1 1 1 1 1 1 1 1 1 1 1 1 1 1 1 1 1 1 1 1 1 0.021173510312052134 1 1 1 1 1 1 0.0098441088502556756 1 1 1 1 1 1 1 0.014415614454951792 1 1 1 0.021040099607712422 1.280655768931549e-09 1 1 0.0046108594398236134 1 1 1 1 0.011460083574431465 1 1 0.010232319486153198 1 0.01116332223491036 1 1 1 1 1 1 1 0.0088599117142125743 1 1 1 1 1 1 1 1 1 1 0.013158913356382603 1 1 1 1 1 1 1 1 1 1 1 1 0.009725940254950053 1 1 1 1 1 1 1 1 1 1 0.010658091370967132 1 1 1 1 1 0.012011759159274738 1 0.016459495137173513 0.0046462989174600785 1 1 -5.3855843569483586e-09 1 1 1 1 1 1 1 1 1 1 0.019956544865193257 1 1 1 0.009792385085797049 0.0035868223732011756 1 1 0.0095331010585580529 0.017242951039313649 0.010168040115744126 1 1 1 1 1 0.0060517320777862434 1 1 0.0057534586615864275 0.0081524422963564352 1 1 0.0042998158525989205 1 0.0060028873804019792 1 1 1 0.01031453472548406 1 1 1 1 1 0.0021990452533659759 1 1 1 1 0.0075840839959614142 1 1 1 1 0.0092364190403905876 1 1 1 1 1 0.0086918281295301613 1 1 1 1 1 1 1 1 1 0.0016129143166393346 1 1 1 1 1 0.017580427776689882 1 1 0.012037469645917377 1 1 0.0099789608822856979 1 1 1 0.0088693716598298375 1 1 1 1 0.016117490729854175 0.013028358338595131 1 1 0.010108744515311067 1 1 1 0.011665839784380436 1 1 1 0.0056584888459134128 1 0.0036771607794126521 1 1 1 1 0.0022452921430836659 0.0084664569626455473 1 1 1 1 1 1 1 1 1 1 1 1 1 1 1 1 0.0016622341183109481 1 0.0095453908753726068 1 1 1 1 1 1 0.0095694286465947461 1 1 1 1 0.0098633125770974037 0.0093096653757851668 0.010778866005655653 1 1 1 0.0095439349748327757 0.010008114934798765 1 1 1 1 1 1 1 1 1 0.011963305831625639 1 1 1 1 1 1 1 0.0083079687678340175 1 1 1 1 0.0096227032153464662 0.0084321129982116091 1 1 1 1 1 1 1 1 1 1 1 1 1 1 1 1 1 1 1 1 1 1 1 1 1 1 1 1 1 1 1 1 1 1 1 1 1 1 1 1 1 1 1 1 1 1 1 1 1 1 1 1 1 1 1 0.0090711126603290754 1 1 1 1 1 1 1 1 1 1 1 1 1 1 1 1 1 1 1 1 1 1 1 1 1 1 1 1 1 1 1 1 1 1 1 1 1 1 1 1 1 1 1 1 1 1 1 1 1 1 1 1 1 1 1 1 1 1 1 1 1 1 1 1 1 1 0.0092426946935111835 1 1 1 1 1 0.00054509196318752381 1 1 1 1 1 1 0.00068429711298184301 1 1 1 1 1 1 1 1 1 1 0.011263542406073508 1 1 1 1 1 1 0.0099111466860991194 0.0099109294031413872 1 1 1 1 1 1 1 1 1 1 1 1 1 1 1 1 1 1 1 1 1 1 1 1 1 1 1 1 1 1 1 1 1 1 1 1 1 1 1 1 1 1 1 1 1 1 1 1 1 1 1 1 1 1 1 1 1 1 1 1 1 1 1 0.0082285427379861047 1 0.001681573592461974 1 1 1 1 1 1 1 1 1.7516894580682507e-08 1.315991905725955e-09 1 1 1 0.019314112477423241 1 0.0068856895300769064 1 1 1 1 1 1 1 1 1 1 1 0.010181402399178184 0.010034412927709551 1 1 1 1 1 1 1 1 1 0.00057962177070017273 0.031454457558640438 1 1 1 0.017883277202410886 1 0.009884184154576349 1 0.0094507409066772949 1 1 1 1 1 1 1 9.0323817869553125e-10 1 0.008221865861376354 0.009601089027725683 1 1 1 1 1 1 1 1 0.0088950411154697703 1 1 0.0096308328703987364 1 1 1 1 1 1 1 7.0078813346925728e-10 1 1 1 1 1 0.0088472454942465223 0.0013565052980047717 1 1 0.018725627289164097 1 1 1 1 0.014478439927439246 1 0.0091911532467683979 1 1 1 1 0.0091904858464804846 1 1 0.014077394207180028 0.01012500684246747 1 1 1 1 1 1 1 0.0098588269911127763 1 1 1 1 1 1 1 1 1 1 1 1 1 1 1 1 1 1 1 1 1 1 1 1 1 1 1 1 1 1 1 1 1 1 1 1 1 0.0072881242198510766 1 1 0.0073407897763808957 1 1 1 1 1 1 1 0.0098287366829039186 1 1 4.2391739719233046e-09 1 0.0080722170559341406 0.0069669205771249743 1 1 1 1 1 0.0035671736478104059 1 1 1 1 1 1 1 1 1 1 1 1 1 1 1 1 1 1 0.015959750321306074 1 1 1 1 1 0.0085493363388738294 1 1 1 1 1 1 1 0.019291176020007038 1 1 1 1 1 0.025541987025650734 1 1 1 1 0.028617897540437719 1 1 0.0039989497994640001 1 1 1 0.0060363177748094868 1 1 1 1 1 1 1 1 1 1 1 0.011926329596507872 1 1 0.016938809405924769 1 1 1 1 1 1 1 1 1 1 1 1 1 1 1 1 1 1 1 0.0076293283693443584 1 0.0096005933984810825 1 1 0.0078709096299228176 0.0094886981167566706 1 1 1 0.0100338662856352 1 0.00945660061739758 1 1 0.0077034948439685322 1 1 1 1 0.0047065870347821268 1 1 1 1 1 0.0066837820937878864 1 1 1 0.0036616362962145765 0.013408064578044464 0.0044077303018872707 1 0.012401967582353334 1 0.012114235688542028 0.007955609112973416 1 1 1 1 0.014546015081745042 1 0.010001800286424027 1 1 0.0078557391022021153 1 1 1 1 1 0.0056159648730809766 1 0.0099789862906526864 0.013577492303012246 1 0.013704942699873931 1 1 1 1 0.010492200388373811 0.010846732663540457 1 1 1 1 1 1 1 1 1 1 1 1 1 1 1 1 1 1 1 1 0.014482762805357496 1 0.010087034254352178 1 1 1 0.0062321188514544972 1 1 0.0099694989512039839 0.0067674461840951036 1 1 1 0.0071657088357469922 1 1 1 0.013132696330186426 1 0.009994138991508356 1 0.015122458741666329 1 1 1 0.011751983456674366 0.01141973031062221 1 1 0.0099914149992857415 1 0.012894633281591501 1 1 0.012703233218633101 1 1 1 1 1 0.015791736056736699 1 0.0099985844190279127 0.0055738878895615698 1 1 1 0.0092045076959615113 1 1 1 1 1 0.0074714518561347573 1 0.011673969436541524 1 1 0.0080871273707576446 1 1 0.0099435575055131301 1 0.0081239915824771192 1 1 1 1 1 0.012897016493639253 1 1 1 1 1 1 1 1 1 1 0.010124825609988869 0.0085055017150734435 1 1 1 1 1 1 1 1 1 1 1 1 1 1 1 1 1 1 1 1 1 1 1 1 1 1 0.0044956205397672297 1 1 1 1 1 1 1 1 1 1 1 0.011532259515357739 1 0.012368751864829027 1 1 1 0.014084487337759568 0.0078114399883326066 1 1 0.010852021655716471 1 0.012138535495503464 1 1 1 0.013979732545533481 1 1 1 1 1 1 1 1 1 1 1 1 1 1 0.0099086737359667942 1 1 0.0098898101572531538 1 1 1 1 1 1 1 1 1 1 1 1 1 1 1 1 1 1 1 1 1 1 1 1 1 1 1 1 0.010193351074513458 1 1 0.0059898130610215941 1 1 1 0.010516885591935542 1 0.010013241571756756 1 1 1 1 1 1 1 0.0097552847309201676 1 1 1 0.0098483374144170271 1 1 0.0094938316708580439 1 1 1 1 0.0090573415060017232 1 1 1 1 1 1 0.0099069473165031563 1 1 1 1 1 1 0.0095625106765904605 1 1 1 1 1 0.0097528275330957398 1 1 1 0.0093793313798392203 0.0096261407003791211 1 1 1 1 1 1 1 1 1 1 1 0.0080993880540896554 1 1 0.010391294144629588 0.010472635587838369 1 1 1 1 1 1 1 1 1 1 1 1 1 1 1 1 1 1 1 1 1 1 1 1 0.010100409488798312 1 0.0082181253668368887 1 1 1 1 0.0095595373030774936 1 0.010617604811368695 1 1 1 0.011523361981143929 1 0.0052872893850693103 1 1 0.0097842313309909126 0.010871317041802839 1 0.0082699042450576493 1 0.010016841274998392 1 1 1 0.0096597509947826121 1 1 1 1 1 0.0094938737047996422 1 1 1 1 1 1 1 1 1 1 1 1 1 1 1 1 1 1 1 1 0.010340921661646407 1 0.010011862838644116 1 1 0.011016668638654782 1 1 1 1 1 1 1 1 1 0.0074170697050329748 1 1 0.010473674529478276 1 0.010401451573745134 1 1 1 1 1 1 1 1 1 1 1 0.010038203479952774 1 1 1 1 1 1 1 1 1 1 1 1 1 1 1 1 1 1 1 1 0.0080782373082458579 1 1 1 1 1 1 1 0.0088684949976712904 1 1 1 1 1 1 1 1 1 1 1 1 0.006639543301779292 1 1 0.0096089159726619744 1 1 1 1 1 0.0052390196006263465 1 1 1 1 1 1 1 1 1 0.011038423776319355 1 1 1 1 1 1 1 0.010572248333308804 1 1 1 1 1 1 1 1 1 1 1 1 1 0.010099612745470443 1 1 1 0.0087665551070844061 1 1 1 1 1 1 1 1 1 1 1 1 1 1 1 1 1 1 1 1 1 1 1 1 1 1 1 1 1 1 1 1 1 0.0054961139220782024 1 0.0089681829905227453 1 0.0083953638272558431 1 1 1 1 1 0.0095597200442492578 1 1 1 1 0.008673307268223145 1 1 1 1 1 1 1 1 1 0.0094137282432138463 1 1 1 1 1 1 1 1 1 1 1 1 1 1 1 1 1 1 0.0093291949176237399 1 1 1 1 1 1 1 1 1 1 1 1 1 1 1 1 1 1 1 1 1 1 1 1 1 1 1 1 1 0.010853427612674327 1 1 1 1 1 1 0.007810037540031723 1 1 1 1 1 1 1 0.001683898418244182 1 1 0.0041207363507009698 1 1 1 0.0084727829935272812 1 1 1 0.0056882578454110766 1 1 1 1 1 1 1 1 1 1 1 -2.732622531032014e-10 1 1 0.0029896900211326648 1 0.012252686548635879 1 1 0.013829249326791158 1 1 1 0.011357873999056828 1 1 1 1 1 1 1 1 1 1 1 1 1 1 1 1 1 1 1 1 1 1 1 1 0.010313568190372956 1 1 0.012590504466664036 1 1 1 1 0.010267353993173474 1 1 0.00065656262498158154 0.010721943210332839 1 1 -7.7233595907610919e-10 1 1 1 1 1 1 -6.3520810139605643e-10 0.00034986989622254501 0.0099879523354397103 1 1 1 1 1 1 1 1 0.01244507230150621 0.013376051161624693 0.0026553147700029422 1 0.0081978600399317744 1 1 1 1 1 0.014039210606013146 1 1 0.0093757390699793011 1 1 1 1 1 1 1 1 1 1 1 1 1 1 1 1 1 1 0.009386181606608944 1 1 1 0.010122114092223477 1 1 1 1 0.0099987165136897881 1 0.010650147297953216 0.0021515589727559709 0.014963709882190123 1 -2.0363823821645255e-10 1 1 1 1 0.0083344753364803133 1 0.0035242206422423789 1 0.0057177602913563025 1 1 1 1 0.0099692671236703695 1 0.0079636247290761006 1 1 1 1 1 1 1 0.0093880865566489148 0.012780008791127472 1 1 1 0.0083310471556927029 0.0092458978046049307 1 1 1 1 1 1 1 1 0.014563537151201927 1 1 1 1 1 1 1 1 1 1 1 1 0.008049174332189258 1 1 0.012990888862617078 1 1 0.010414744708265103 0.011370255651512519 1 1 1 0.0097615847376971085 1 1 1 0.010090421216874999 1 1 1 1 1 1 1 1 1 1 1 1 0.0091489726664318802 1 1 0.0075728334635436871 1 1 1 0.01149583508079164 0.022074838203903102 1 1 0.014633820154786006 1 1 1 1 0.0099302544741382767 1 1 1 0.018835194529966855 1 1 1 1 1 1 1 1 0.016285239154106367 1 1 0.0083317253435650444 1 1 0.015389720414842489 1 1 1 1 1 1 0.015214990687660836 1 1 1 1 0.012776202214623528 0.013576609548580885 1 1 1 1 0.010544692339670748 1 1 1 1 1 1 1 1 1 1 1 1 1 1 1 0.012510040677782346 1 0.0099996279516882183 1 1 0.0086909161655942171 0.01451532799869993 1 0.013562969135665072 0.011725423467379866 1 1 1 1 0.010374696014687684 1 0.016109114769644974 1 0.0094922452668954223 1 1 0.011308566460861036 1 1 1 1 1 1 1 0.011525394955653419 1 1 0.010187644791664667 1 0.015817646313070869 1 1 1 1 1 1 1 1 0.016235320707343126 1 1 1 1 1 0.016047646765378051 1 1 1 1 1 0.010051845662451481 1 1 1 1 1 0.010473423514346443 1 1 1 1 1 1 1 1 1 1 1 1 1 1 1 1 1 1 1 1 1 1 1 1 1 0.0030417288099835182 1 1 1 1 1 1 1 1 1 0.0054869406619254511 1 1 1 1 1 1 0.0084317299195248718 1 1 1 1 1 1 1 1 1 1 -8.489493625446487e-09 1 0.0025484112433229386 1 1 1 1 1 1 1 1 -3.0385780449941613e-09 1 1 1 1 1 1 0.0088432949092006486 1 1 0.0040628799860074616 0.0090955202724731163 1 1 1 1 0.0096045150799050558 1 1 1 1 1 1 1 1 1 1 1 1 1 1 1 1 1 1 1 1 1 1 1 1 1 1 1 1 1 1 1 1 0.0073304304195224938 1 1 1 1 1 1 1 1 1 0.007211625258028714 1 1 1 1 1 0.017130461336293021 1 1 8.1090042666764894e-10 1 1 1 1 1 1 1 1 1 1 0.00094109470672993495 0.010466311257911844 1 1 1 0.0078040418371604636 1 1 1 1 0.0093018727945307286 1 1 1 0.010093068131316968 1 1 1 1 1 1 0.010265305637501103 1 1 1 0.00307123060019549 1 0.0075203318034402829 1 1 1 1 1 1 1 1 0.0095547422832766918 1 1 1 1 0.0090006031970806116 1 1 0.0065211421443001696 0.0040350094529961588 0.0080783714389761757 1 -3.3996890042714556e-09 1 1 0.013074959274848273 1 1 1 1 1 1 1 1 1 1 1 1 0.012083645370583394 1 1 1 1 1 1 1 0.011706772967727416 1 1 1 1 1 1 1 0.011946206813134908 1 1 1 1 0.010470301772235749 1 0.0029106469594083022 1 1 1 1 1 1 1 1 1 1 1 1 0.00065608250378879594 1 1 0.013701806525794044 0.0095947880095644394 1 1 1 0.0089661503412340818 1 1 1 1 0.0069279647338600092 1 1 1 0.014926911700740883 1 1 1 1 0.021419506459801327 1 1 1 1.2075538034783673e-09 1 1 1 1 0.015507087174677338 1 0.0099149005587745916 0.0031512461652056963 1 0.012745347069780233 1 1 0.0095548956005013959 1 1 1 1 1 0.015483267159703943 1 1 1 1 1 1 1 1 1 -1.2693568418598034e-11 1 1 1 0.0093214353934140941 1 1 1 1 1 1 1 1 1 1 1 1 1 1 1 1 1 1 1 1 1 1 1 1 1 1 1 1 1 1 1 1 1 1 1 1 1 1 1 1 1 1 1 1 0.0099783552987505117 1 1 1 1 1 1 1 1 1 1 1 1 1 1 1 0.0084150461447450725 1 1 1 1 1 1 1 1 1 1 1 1 1 1 1 1 1 1 1 1 1 1 1 1 1 0.010108403685214824 1 1 1 1 1 1 1 0.0062585961723944381 1 0.010034168289753849 1 1 0.0060830430908991248 1 1 1 0.016011212041361987 1 1 1 0.0084432299673922323 1 0.013241257052234674 1 1 0.010687024864856155 0.011717767127530442 1 1 0.01536689314100715 1 1 1 1 1 1 1 1 1 1 1 0.016571602279135983 1 1 0.0049829781594917417 1 1 1 1 1 1 1 0.010031533944240695 1 1 1 1 1 0.011133389993235022 1 1 1 1 1 1 1 1 1 1 1 0.010542629614391938 1 0.011285458698126541 1 1 1 1 1 1 1 1 1 1 0.010526752470134709 1 1 1 1 1 0.0093001312460890481 1 0.012898525402476275 1 1 1 0.014902990828173555 1 1 1 1 1 1 0.011333390649911554 1 0.01098732504870964 0.0099909959274472951 1 0.0096523911485222672 1 1 1 1 1 1 1 1 1 1 1 1 0.010194900180981722 1 1 1 0.010712956079543597 1 1 1 1 1 1 0.013017655705076583 1 1 0.015141331186242224 1 0.013926748971977675 1 1 1 1 1 1 1 1 0.011405811069021561 1 1 1 1 1 1 1 1 1 1 1 1 1 1 1 1 1 1 1 1 1 0.011978230974017803 1 1 1 1 1 1 1 1 1 1 1 1 1 1 1 1 1 1 1 1 1 0.0093783938211106296 1 1 1 0.0096168090834135231 1 1 1 1 3.0901396593386449e-05 1 1 1 1 1 1 0.002172354719378565 1 1 1 1 1 1 1 1 1 1 1 1 0.0051210501619158213 1 1 1 1 1 1 1 1 1 1 1 0.015600136820339595 1 1 0.0088729952279364057 1 1 1 1 1 1 0.010411695556299685 1 1 1 1 0.0041959295765055925 1 1 1 1 1 1 1 1 1 1 1 1 1 1 0.01116893930237519 1 1 1 1 1 1 1 1 1 1 1 1 1 1 1 0.013693745653242016 1 1 1 1 0.0095590758028014991 0.016272676876971488 1 1 1 1 1 1 1 1 0.0085292418784856244 1 1 1 1 1 1 1 1 1 1 1 1 1 1 1 1 1 1 1 1 1 1 1 1 1 1 1 1 0.0093060400915861707 1 0.008159624010428022 1 1 1 1 1 1 1 1 1 1 0.010666969152852694 1 1.0863196453492208e-09 0.0090936107513309595 1 1 1 1 0.00027183372607755829 1 1 1 1 1 1 1 1 1 1 1 1 1 1 1 1 1 1 1 1 1 1 1 1 1 1 1 1 1 1 1 1 1 1 1 1 1 1 1 1 1 1 1 1 1 1 1 1 1 1 1 0.013198513119445433 1 1 0.0098839631240979497 1 1 1 1 1 0.011052409355081991 1 1 1 1 1 1 1 1 1 1 1 1 1 1 1 1 1 1 1 1 1 1 1 1 1 1 1 1 1 1 1 1 1 1 1 1 1 1 1 1 1 1 1 1 1 1 -9.4758468710542942e-09 1 0.0040636835477025554 1 1 1 1 0.0099484444311586165 1 1 1 0.0081778660595916361 1 1 1 1 1 1 1 1 0.0084175391291487767 0.0089316392674005304 1 1 1 1 1 1 1 1 0.0082393309738265346 1 1 1 1 1 1 1 1 1 1 0.0085367650794765798 1 1 0.0093970996061681772 1 1 1 1 0.011197683939491457 1 1 0.0087580276354082762 1 1 0.0095387908437875642 1 1 1 1 1 1 1 0.013893675163017608 1 1 1 1 1 0.0099969930158778017 1 1 1 1 0.01075882359267781 1 1 1 1 0.007402893066123177 0.0099987680739752824 1 0.01000346829151634 0.010713471944038128 1 0.0076918821836235163 1 1 0.011947355369371637 1 1 1 1 1 0.010090585021870706 1 1 1 1 0.0060780004854515401 1 1 0.012368630502998211 1 1 1 0.0080517154911651651 1 0.010968722512578293 1 1 1 0.012415258512317957 1 1 0.01112528974221301 0.010970140823559238 0.0053104974923381017 1 1 1 0.010992635645383324 1 1 1 1 1 1 1 1 0.010145442757884954 1 1 0.0087372827390105445 1 1 1 1 1 1 1 1 1 0.0093443096196471134 1 1 1 1 1 1 0.0038284755526863945 1 1 1 1 0.0028562191457671797 0.012411513055465791 0.010165093922470364 1 0.0051940128159122124 0.011569848237490285 0.0081103502866308672 1 1 1 1 0.011573087996540353 1 1 0.025755258301206521 1 0.009581206277642168 1 0.0098676019355976308 1 0.014180330114299061 1 0.011759065506069054 1 1 1 -5.3521084023011589e-09 1 1 1 1 1 0.00085654355395355791 0.0088390520612699475 1 1 0.0098011593554777551 1 1 1 1 0.010091816473193398 1 1 1 1 1 1 0.011102361739397944 1 1 1 1 1 1 1 1 1 1 1 1 0.013672717126485448 1 1 1 1 1 1 1 1 1 1 1 1 1 1 1 1 1 1 1 1 1 1 1 1 1 1 1 1 1 0.011969614619255983 1 1 0.0096983764102625894 1 1 1 0.013286379657854244 1 1 1 1 1 1 1 1 1 1 1 1 1 1 1 1 1 1 1 1 1 1 1 1 1 1 1 1 1 1 1 1 0.010816810981818538 1 1 1 1 0.022778327421510022 1 1 1 0.0099991363382221365 0.01243425426710109 -1.2189025205833204e-09 1 1 1 0.012438584503771249 1 1 1 0.018123829262208235 1 1 0.0068913214581026866 0.015241960203248792 1 1 0.009995875785878558 1 1 0.0073748225656681335 1 1 0.013500348077587369 1 0.0081307511912893024 1 0.004130585585644983 1 1 1 1 1 1 1 1 0.007931243991907054 1 1 1 1 1 1 1 1 1 1 1 0.0041505437281351837 1 1 1 0.011130088223758966 1 1 0.011110090079238775 1 1 1 1 1 1 1 1 1 1 0.01000020713698728 0.0062029454345962562 1 1 1 1 1 1 1 1 1 1 1 1 1 1 1 0.012662178247568576 1 1 1 0.0088023516741022392 1 1 1 1 1 0.016369778070486167 1 1 1 1 1 1 -1.6935395447115198e-10 0.01204371583195072 0.016155470073822939 1 1 1 1 1 1 0.0099238430351861195 1 1.790344886232198e-10 0.0082275364469069894 1 1 1 1 1 0.01319752100662025 1 1 0.010079970459163375 0.010678743669118564 1 1 0.011195456801058136 0.0091927184667477055 0.013490796472171732 1 1 1 1 1 0.010036343766450191 1 1 1 1 1 0.010004189024111189 0.014217728802969287 1 1 0.0083430116564813181 1 1 0.010189816536818656 0.011837203586401647 1 1 0.0027069828174620322 1 1 1 0.0030066495854946078 1 0.010223379284564856 0.01057480099448406 1 1 1 1 1 1 1 1 1 0.0098664242391032636 1 1 1 0.011564574357867806 1 1 1 1 0.012157243534022817 1 0.0082803491752967001 0.0093008353042688952 1 0.010040828429134639 1 1 1 1 1 1 1 1 1 1 1 0.0085363294873978257 1 1 0.0093847395292952565 0.0088619885674864028 0.011227574267112544 1 0.0099986683091573339 1 0.010557002901854471 1 1 0.0099630301013575451 1 0.0099971935361929595 1 1 1 1 1 1 1 1 1 1 1 1 1 1 1 1 1 0.012799979743822647 1 0.014903719622529402 1 1 1 1 1 1 1 1 0.010180414372239561 1 1 1 1 1 0.0066801940336485791 1 0.0080368368225224793 1 0.015549375360358244 1 1 1 0.010039808397244995 0.01671738141918238 1 0.012645029502265266 0.0057918357490270092 1 1 1 1 1 1 1 1 1 0.01471119487786593 1 1 1 1 1 1 1 1 1 1 1 0.009979365094076164 0.011503831111906795 1 1 1 0.017414245232715148 1 1 1 0.0093977924254225863 1 1 1 1 0.010083352444152711 1 1 1 1 1 1 1 1 1 0.0097396878929619374 1 1 1 1 1 0.015546832084300516 1 1 1 1 1 0.016347395707150176 1 0.016280671977137381 1 1 0.018085427717830366 1 1 1 0.01432557757232316 1 1 0.012690293833193752 1 1 0.009824517385945716 1 1 1 1 1 1 1 1 1 1 1 1 1 1 1 1 1 0.0088206178397952952 1 1 1 1 1 1 1 0.010184174495763542 1 1 1 1 1 1 1 1 0.00013977694173743921 0.0022096771337510174 1 1 1 1 1 1 1 0.010374112759002515 1 1 1 1 1 1 1 1 1 1 1 1 1 1 1 1 1 1 1 1 0.010190157961728154 1 0.00021174435043063572 1 1 1 1 1 1 1 1 1 1 1 1 1 1 1 1 0.0099256985944961226 1 1 1 1 0.010889809135079318 1 0.017400261257851664 1 1 0.00040414011372628955 0.0077832753619774212 1 0.0099049821559170654 0.015693484254928391 1 1 1 1 1 1 1 1 0.0087484275846202407 0.010313858456176671 1 1 0.012655073140805176 1 1 1 1 0.014671627132830413 1 1 1 1 0.014148286419598559 1 1 1 0.016997355843561705 1 1 1 0.01009577215017499 1 1 0.014351564923675481 1 0.012536050579217042 1 0.012472877320117565 1 1 0.016680555100530479 1 0.010093884736539917 1 1 1 1 1 1 1 1 1 1 1 1 0.0099972336858056843 1 1 1 1 1 1 1 1 1 1 1 1 1 1 1 0.0096183092155283176 1 1 1 1 1 1 1 1 1 1 0.012042696929169323 0.011808702926484137 1 1 0.0083976281283318285 1 1 1 0.010335626127470042 1 0.011358841207614438 1 1 1 1 1 1 1 1 1 1 1 1 1 1 1 1 1 1 1 1 1 1 1 1 1 1 1 1 1 1 1 1 1 1 1 0.0089298085189043197 1 1 1 0.0092664589531377406 1 1 1 0.0080231750894890416 0.0072193779496916299 1 0.018520871168362325 1 1 1 1 1 0.014136031687535008 1 0.011048216814183075 1 1 0.0095824231585550021 1 1 1 1 1 1 1 1 1 1 1 1 1 1 1 1 1 1 1 1 1 1 1 1 1 1 1 1 1 1 1 1 1 1 1 1 1 1 0.010091917432615012 0.011154833511794152 1 1 1 1 1 1 1 1 0.014960979079943676 1 1 1 1 1 1 1 1 1 1 1 1 1 1 1 0.012217134438764642 1 1 1 1 1 1 1 1 1 1 1 1 1 1 1 1 1 1 1 0.012743844641179043 1 1 1 1 1 1 1 1 1 1 1 1 1 1 1 1 1 1 1 1 1 1 1 1 1 1 1 0.0084476879824252407 0.008927102454833552 1 1 1 0.0068943387661359601 1 1 1 1 1 1 0.010092756451814185 1 1 1 1 1 1 1 1 1 1 1 1 1 1 1 1 1 1 1 1 0.0096340764980285022 1 1 1 1 0.0096906871007010984 0.0075266519310026227 1 1 1 1 1 1 1 1 0.0078902573410207823 1 0.0091322410649223341 1 1 1 1 1 1 1 1 1 1 1 1 1 1 1 1 1 1 1 1 1 1 1 1 0.010548132464539244 1 1 1 1 1 1 1 1 1 1 1 1 1 1 1 1 1 1 1 0.011550788857021686 1 1 1 1 1 1 1 1 1 0.012552394584635045 1 1 1 1 0.010024130964312462 1 1 1 1 1 0.009123633905871573 1 1 1 0.010012330227976259 0.0079140433629125064 0.0067709335606093036 1 0.012127458988216521 1 1 0.013240604106868524 0.010879348469010983 0.0108538406249487 1 1 1 1 1 1 1 1 1 1 1 1 1 1 1 1 1 1 1 1 1 1 1 0.0099971814481478495 1 1 1 1 1 0.010053792050820444 1 1 1 1 0.010045287000461733 1 1 1 1 1 1 1 1 1 1 0.015700752446905775 1 1 1 1 1 1 0.0093118287214674616 1 1 1 0.014586520738694682 0.010030863384504162 0.011656186680842843 1 1 1 1 0.0097411894763931584 1 1 1 1 1 1 1 1 1 1 1 1 0.014312546363333399 1 1 1 0.013565001465092194 0.0089902797540958035 1 0.010000648416380195 1 1 0.016457997260375737 0.012271586357535585 0.0096427417404055388 1 0.01836764922599729 1 1 1 1 0.0040506761295470272 1 1 1 1 1 0.0057396991118616458 0.014120786416971981 1 1 1 1 1 0.00412083983193633 1 1 1 1 1 1 1 1 1 0.0071271907518763999 0.0067811922016711929 1 0.014075551094660037 1 1 0.0099956494818084461 1 1 0.011027259651855767 1 1 1 0.0094743021773545447 1 0.0052583874679369702 1 1 1 1 1 0.014295108910217033 1 1 1 1 0.012063181628558602 1 0.010203017177207199 1 1 1 0.010038579976447894 1 0.010244542518336886 1 1 1 0.0098179674226798273 1 1 1 1 1 0.012096854755118191 1 0.0043651624261042739 1 1 1 1 1 0.0036529976682936824 1 1 0.010047421413271246 1 1 1 0.0090991367981032786 1 1 1 0.0084417065872264101 1 1 1 1 1 1 1 1 1 1 1 1 1 1 1 1 1 1 0.0047807783149754722 1 1 1 1 0.0081166724317616925 1 1 1 1 0.0081950505379047092 1 1 1 1 1 0.0094264148830005313 1 1 1 1 1 1 1 0.0022035100379520084 1 1 1 0.008290185909018746 1 1 0.0091222587931404017 1 1 1 1 1 1 1 0.0091679271158783514 1 1 1 0.0047558904596052241 1 1 1 1 0.0096446912485957971 1 1 1 1 1 1 1 1 0.011083593142293163 0.010007534185460033 1 1 1 0.0047731465549849337 1 1 1 7.1989232977576201e-09 1 1 1 1 0.01086369940294621 1 1 1 1 1 1 1 1 0.0089744723815299993 1 1 0.0095516469671573043 1 1 1 1 1 0.010389491384905221 1 1 1 1 1 1 1 1 1 1 1 1 1 1 1 1 1 1 1 1 1 0.0083009640160638352 1 1 1 1 1 1 1 1 1 1 1 1 1 1 1 1 1 1 1 1 0.010140280721749254 1 1 1 0.010824849735973911 1 1 1 1 1 1 1 1 1 1 1 1 1 1 1 1 1 1 1 1 1 1 1 1 1 1 1 1 1 1 1 1 1 1 1 1 1 1 1 0.0079802859544164158 1 1 1 1 1 1 1 1 1 1 1 1 1 1 1 1 1 1 1 1 1 1 1 1 1 1 1 1 1 1 0.0087953560872978988 0.010272970904537238 1 1 1 1 1 0.0090999729052530561 1 1 1 1 1 1 1 1 1 1 1 1 1 1 1 1 1 0.0095444317189109333 0.010060288476495056 1 1 1 1 1 1 1 1 1 1 1 1 1 1 1 1 1 1 1 1 1 1 1 1 1 1 1 1 1 1 1 1 1 1 1 1 1 1 1 1 1 1 1 1 1 1 1 1 1 1 1 1 1 1 1 1 1 1 1 1 1 0.010674253046632512 1 1 1 1 1 1 1 1 1 1 1 1 0.01261341201249898 1 1 1 0.011126586134657866 1 1 1 1 1 1 1 1 1 0.0099672292347764684 1 1 1 1 1 0.011137731662499234 1 0.0077003715282367366 1 0.0099071939589151295 1 1 1 1 1 0.0067044264656256555 1 1 1 1 1 1 0.0083546965726259553 1 1 1 1 0.008233466172090826 1 1 1 1 1 0.0090243058907283069 1 1 1 1 1 1 1 1 1 1 1 1 1 1 1 1 1 0.009445811987612112 0.0088315185186540798 1 1 1 1 1 1 1 1 1 1 1 1 1 1 1 0.0094456413015706203 1 1 1 1 1 0.0086059158504090804 1 0.010528240449466181 1 1 1 1 1 1 1 1 1 1 1 1 1 1 1 1 1 1 1 1 1 1 1 1 1 1 1 1 1 1 1 1 0.0093124998925161896 1 1 1 1 1 1 1 1 1 1 1 1 1 1 1 1 1 1 0.010890093670851642 1 1 1 1 1 1 1 1 1 1 1 1 0.0096305130403120838 1 1 1 1 1 1 1 1 1 1 1 1 1 1 1 1 0.0097836353901399244 1 1 1 1 1 1 1 1 1 1 1 1 1 1 1 1 1 1 1 1 1 1 1 1 1 1 1 0.005183495972560492 1 1 1 0.010486367043496687 1 1 1 0.0065741978052879634 1 0.010114496589721611 1 1 0.0088946258274912038 0.0095836319232774306 1 1 1 1 1 1 1 1 1 0.0081024103045325181 1 1 1 0.0021118904533596571 1 1 1 1 1 0.012329285791235947 0.003521552974438371 0.0099823378876321908 1 0.0068712875480196715 1 1 1 1 0.0080813379310367937 1 0.0076814616874356558 0.010439282605467167 1 0.011895897106455571 1 1 1 0.011410037654714211 1 1 1 0.0094309872119053284 1 1 0.011212912970516256 1 0.0092048486350160708 1 1 1 1 1 1 1 0.0068740164192740462 0.010250457786481454 0.0090653034758630211 1 0.010247781201420732 1 0.0069124865768042301 1 1 1 1 1 1 1 0.011004572521804565 1 1 1 0.0095501854234850449 1 1 1 1 1 0.0044163469719685836 1 0.012950737420181971 1 0.0098496745120989094 0.0088219061774291053 1 1 1 1 0.012380557628770928 1 1 1 1 1 1 1 1 1 1 1 1 0.010552362972321186 1 1 1 0.0098821952305753243 1 1 1 0.010395673111055659 1 1 1 1 1 1 1 1 1 1 1 1 1 1 1 1 1 1 1 1 1 1 1 0.010614216624401684 1 1 1 1 1 1 0.010720718208894755 1 1 1 1 1 1 1 1 1 1 1 1 1 0.010633547277125368 1 1 0.0092676094101512042 1 1 1 0.010058829424090948 0.0095821653872131818 1 1 1 1 1 1 1 1 1 1 1 1 1 1 0.010131126573559603 1 1 1 1 1 1 1 1 1 1 1 1 1 1 1 1 1 1 1 1 1 1 0.0105123485029177 1 1 1 1 0.011040003502914215 1 1 1 1 1 1 1 1 1 1 1 1 1 1 1 1 1 1 1 1 1 1 1 0.01022144258671291 1 1 1 1 1 1 1 0.012992986930564653 1 1 0.0031877963102591271 1 1 1 1 1 1 1 1 1 1 1 0.0090723676478467775 0.0072503762133561654 1 1 1 1 1 1 1 1 1 1 1 1 1 1 1 1 1 1 1 1 1 1 1 1 1 1 1 1 1 0.0060338469207838266 1 0.011051223863690954 1 1 0.0087342306894082674 1 1 1 1 1 1 1 1 1 1 1 1 1 1 1 1 1 0.012154697882972923 0.003403863104013586 1 1 1 1 1 1 1 1 1 0.013898713340330915 1 1 1 1 1 1 1 1 1 1 1 1 1 1 1 1 1 1 1 1 1 1 1 1 1 1 1 1 1 1 1 1 1 1 1 1 1 1 1 0.01093114277285229 0.01185160604276967 1 1 1 1 0.010815160865953445 0.012725154294314159 1 1 1 1 1 1 1 1 1 1 1 1 1 1 0.010595974037802929 1 1 1 1 1 1 1 1 1 1 1 0.012104701818869055 1 1 1 1 1 0.011627122882851493 1 1 1 1 0.01039668116411342 1 1 1 1 1 1 1 1 1 1 1 1 1 1 1 1 1 1 1 1 1 1 1 1 1 1 1 1 1 1 0.0098473248572396206 1 1 1 1 1 1 1 1 0.0095174481866586568 1 1 1 1 0.0092869271438473771 1 1 1 1 1 1 0.010048532862247845 1 1 1 1 1 1 1 0.012375762314120534 1 1 0.010127302022104033 1 1 1 0.010002023019748257 1 1 1 0.011317586171436729 1 1 1 1 1 1 1 1 1 1 1 1 1 1 1 1 1 1 1 1 1 1 1 1 1 1 1 1 1 1 1 1 1 1 1 1 1 1 1 1 1 1 1 1 1 1 1 1 1 1 1 1 1 1 1 1 1 1 1 1 1 1 1 1 1 1 1 1 1 1 1 1 1 1 1 1 1 1 1 1 1 1 1 1 1 1 1 0.012160159323121334 1 1 1 1 1 1 1 1 1 1 0.010527654999996514 1 1 1 1 1 1 1 1 1 1 1 1 1 0.012301214497318247 1 1 1 1 1 1 1 1 1 1 1 1 0.01002004859682154 0.010036104235823615 1 1 1 1 1 1 1 1 1 1 1 1 1 1 1 1 1 1 1 1 1 1 1 1 1 0.010854944363655396 0.0026007839452846238 1 1 0.0086170140794562464 1 1 1 1 0.010428385359605399 1 1 0.0098656533047670816 1 1 1 1 1 1 1 1 1 0.0061573453203920755 1 1 0.0096851170594433322 1 0.0058338680510933508 1 1 0.0083188556521622097 1 1 1 1 0.0099158956754699795 1 1 0.0086216865748563153 1 1 1 1 1 1 1 1 1 1 1 0.010045604743395768 1 1 1 0.0099127910064013697 1 1 1 1 1 1 1 1 1 1 1 1 1 1 0.010634892869160462 1 1 1 1 1 1 1 1 1 1 1 1 0.01183372772381476 1 1 1 1 0.0098681170554661898 0.012604932060720352 1 1 1 1 1 1 1 1 1 1 1 1 1 0.011406097206066067 1 1 1 1 1 1 1 1 1 1 1 1 1 1 1 1 0.0098465979058925956 0.01015228519502881 1 1 1 1 1 1 1 1 1 0.010527385839496819 1 1 1 1 1 0.010803486004073416 0.0097122512106596823 1 1 1 1 1 1 1 1 1 0.010306506386872021 0.00074186471425287392 1 1 1 1 0.009328699103455497 1 1 1 0.00030169555826634747 1 1 1 1 1 1 1 1 1 0.0082468136725554614 1 1 1 1 1 1 1 1 0.014309855715297677 0.0085730372368534105 1 0.022824002965540519 1 1 1 0.0024294540994005825 1 1 1 1 1 1 1 1 0.010858810067538235 1 1 0.011420194111473925 1 0.0059649461899011907 0.0099964810471024849 1 1 1 1 1 1 1 1 1 1 1 1 1 1 1 1 1 1 1 1 1 1 1 1 1 1 1 1 1 1 1 1 1 1 1 1 1 1 1 1 1 1 1 1 1 1 1 0.0009539189994856364 0.012174010648016757 1 1 1 1 1 1 1 0.0067804253593075764 1 1 1 1 0.0069767431710139292 1 1 1 1 1 1 1 1 0.014694243861661752 1 1 1 1 1 0.010327944171205979 1 1 1 0.01071356287474806 1 0.011714339702633317 1 1 1 1 1 1 1 1 1 1 1 1 1 1 1 1 1 1 1 1 1 1 1 1 1 1 1 1 1 1 0.0029842148657721612 1 1 1 0.009376422367328623 1 1 1 0.0047232852282270837 1 1 1 1 1 1 1 1 0.0097659015423485346 1 1 1 0.0024871171804713987 1 1 1 1 1 1 1 0.0014019362308914166 1 1 1 1 1 1.7313706024424391e-09 1 1 1 1 1 1 1 1 1 1 1 1 1 1 1 1 1 1 1 1 1 1 1 1 1 1 1 1 1 1 -6.3241223854926254e-09 1 1 0.010272111691855386 1 0.0028020643061571551 1 1 1 0.025417228732664741 1 0.0021184367057586195 1 1 1 1 1 0.010069177413104091 1 1 1 0.021998798439928295 1 1 1 1 1 1 1 1 1 3.982287853643296e-09 1 1 0.0064732229566643734 1 1 1 1 1 1 1 1 1 1 1 1 1 1 1 1 0.0083891846371216272 1 1 1 1 1 1 1 1 1 1 1 0.006236212503445672 1 1 1 1 0.005962979468306373 1 1 1 1 0.008232962279865922 1 0.0093718477004030749 1 1 1 1 1 1 1 1 1 1 1 1 1 0.0099455077582046858 1 1 0.004983963961284886 1 0.015319384629658619 1 1 1 1 1 1 4.9029423576651965e-10 1 1 1 1 2.1152415929925894e-09 1 1 1 1 1 1 1 1 0.00808197382388013 1 0.0012239760018535398 1 1 1 1 1 1 1 1 1 1 1 1 1 1 1 1 1 1 1 1 1 1 1 1 1 1 0.008836433160959431 1 1 1 1 1 1 1 1 1 1 1 0.006952384762941799 1 1 1 1 1 1 1 1 1 1 1 1 1 1 1 1 1 1 1 1 1 1 1 1 1 1 1 1 1 1 1 1 1 1 1 1 1 1 1 1 1 1 1 1 1 1 1 1 1 1 1 1 1 1 1 1 1 1 1 1 1 1 1 1 1 1 1 1 1 1 1 1 1 0.010088707160358151 1 1 1 1 1 1 1 1 1 1 1 0.010088531585065313 1 1 1 1 1 1 1 1 1 1 1 1 1 1 1 1 1 1 1 1 1 1 0.0073782431202149973 1 1 1 1 1 1 1 0.0084866204588548294 1 1 1 1 1 1 1 1 1 1 1 1 1 1 1 1 1 1 1 1 1 1 1 1 1 1 1 1 1 1 1 1 1 -2.1226110383243402e-09 1 1 1 1 1 1 0.0079443643382249365 0.010185930685857443 1 1 0.022060695119117023 1 1 1 1 -2.0954393706307251e-09 1 0.00091537501441205094 1 1 1 0.01836774761906608 1 1 0.021695536861931541 1 1 1 0.009961615261733614 1 0.02719081339889249 1 1 1 0.010425753272107582 1 1 1 1 1 1 1 0.022071098867952721 1 1 1 1 1 1 1 1 1 1 1 1 1 1 1 0.01109041142421653 1 1 1 1 1 1 1 1 0.012865151049411137 1 1 1 1 1 1 0.021053251749231755 1 1 1 1 1 0.010180404513904803 1 0.00098859905148792997 4.3329388757507026e-09 1 0.022102495298163445 1 1 1 1 1 0.0016733822678325558 0.01416661485582341 1 1 0.00050364674256069691 1 1 0.020670549991698678 1 0.0078167232659530021 1 1 1 1 1 1 1 1 1 1 1 1 1 1 1 1 0.0066371905493837376 1 1 0.020527404432476012 1 1 1 1 0.0087425319676918203 1 1 1 1 1 1 0.0089284511984970873 1 1 1 1 0.010321385524321195 1 1 1 1 1 1 1 1 1 8.6722531933425273e-11 1 1 1 0.0016940901769257333 1 1 0.020167789986733766 1 1 1 0.020745372456142865 1 1 1 1 1 0.011786267912769439 1 0.0087780640125255799 1 1 0.0099500198667563378 1 1 1 1 1 1 1 1 1 1 1 0.01548115522666599 1 1 1 1 0.0090081540553206274 1 1 1 1 1 1 1 1 1 1 1 1 1 1 1 1 1 1 1 1 0.0096232303061471319 1 0.0089859479453961652 1 0.01361077034142554 0.0072300780446889756 1 0.010008609981326896 1 1 1 1 1 1 1 1 0.0099252473977853722 0.0098985167368235705 1 1 1 1 1 0.0096593456865722641 1 1 1 1 1 1 1 1 1 1 1 1 0.0094421221760029386 1 1 0.012261163312758207 0.0082742902422908229 0.00095387892872875191 1 1 1 1 0.0099357089691918411 1 1 1 1 0.009898645065865342 0.010711265856784842 1 0.0088185549211384565 1 0.0096135304186464529 1 0.014926072742866198 1 1 0.024046134925290126 0.014744502140860705 1 1 0.021447940193167852 1 1 1 1 1 3.2617742812268702e-09 1 1 1 1 1 1 1 1 1 1 1 1 1 1 1 0.010463198431179361 1 1 2.4473402054914217e-09 1 1 0.00031601256660813634 1 1 1 0.0044088108444607678 1 1 1 1 1 1 1 1 1 1 1 1 1 1 1 1 1 1 1 1 0.010142848654702493 1 1 1 0.019559130276426473 1 1 1 0.021159366339239621 1 1 1 0.0034855629678195773 1 1 0.011334950323912648 0.0018436921260938655 1 1 1 1 0.014707420881616558 1 1 0.022121968903342774 0.012420426894327638 1 0.01004819388959962 1 1 0.012907486038993207 1 0.011792766939028601 1 1 1 1 1 1 0.011008948399649589 1 1 1 0.010295985698963832 1 1 1 1 0.010573319375610606 1 1 1 0.011589824843644979 1 0.012451313807266551 1 1 1 1 0.0077395332765348504 1 1 1 1 1 1 1 1 0.019591036372848862 1 1 1 0.0092709094410904358 1 1 0.013614920282718509 1 1 1 1 1 1 1 1 1 1 1 1 0.010367050898237376 1 1 1 1 1 0.01089365404227207 0.016647631020917059 1 1 0.013035840269063841 0.012726426091983309 1 0.0094947018271276523 1 1 1 0.0097760778121648226 1 1 1 1 1 1 1 1 1 1 1 1 1 0.013185107289644447 1 1 0.010796306523702465 1 1 1 1 1 1 1 0.012020913925634751 1 1 1 1 1 1 1 0.0099095535107171558 1 1 1 1 1 1 1 1 1 1 1 1 1 1 1 1 1 1 1 0.0077572470616958083 1 1 1 1 0.021516232101406987 1 1 0.0041836522616466813 1 1 0.015978011293245005 1 1 0.0097202628873935392 1 1 1 1 0.007596752107023234 0.013722096976969545 1 1 0.013398809603643971 1 1 1 1 1 1 1 1 1 1 1 1 1 1 1 0.01118340044683519 1 1 1 1 1 1 1 1 0.018125615331988976 1 1 1 1 1 0.020671365494248146 1 1 0.0083432858734900518 1 1 1 1 1 1 1 1 1 1 1 0.0050383641358248948 1 0.0096068648854328951 1 1 0.012128430303644414 1 1 0.018616570725045828 1 1 1 1 1 1 1 1 1 1 1 0.013595639575378992 1 1 1 1 1 1 1 1 1 1 1 1 1 1 1 1 1 1 1 1 1 1 1 1 1 1 1 1 1 1 1 1 1 1 1 1 1 1 1 1 1 1 1 1 1 1 1 1 1 1 1 1 1 1 1 1 1 1 1 1 1 1 1 1 1 1 1 1 1 1 1 1 1 1 1 1 1 1 1 1 1 1 1 1 1 1 1 1 1 1 0.010524410929382538 1 1 1 1 1 1 1 1 1 1 0.0096256761827052395 1 1 0.010301094743556508 1 1 1 0.018350504144788532 1 1 1 1 1 0.015651418170506783 1 1 1 1 1 1 1 1 1 1 1 1 1 0.011036445176816227 1 1 1 1 1 1 1 1 1 1 1 1 1 1 1 1 1 0.0091849912338155034 1 1 1 1 1 1 1 1 1 1 1 1 0.010002372038965899 1 1 1 1 1 1 1 1 1 1 1 1 1 1 1 1 1 1 1 1 1 1 1 1 1 1 1 1 1 1 1 0.0088368065387961527 1 1 1 1 1 1 1 1 1 1 1 1 1 1 1 1 1 1 1 0.010320254302825693 1 1 0.0081073921583275921 1 1 1 1 1 1 1 0.0074711632573563908 1 1 1 1 0.010007330108160677 1 1 1 1 1 1 1 0.01035526133924896 1 1 1 0.013444925012273436 1 1 0.010770868609977955 1 1 1 1 1 1 1 1 1 1 1 1 1 1 1 1 1 1 1 0.012726800105746776 1 1 0.0095114704907463109 1 1 1 1 1 0.010103650936052651 1 1 1 0.018466905193815487 1.3899999901090254e-10 0.022336390769148264 1 1 1 1 1 1 1 1 0.0084590696693608719 1 0.010823574625075745 1 1 1 1 1 1 1 1 0.021696924032017964 1 1 1 1 1 1 1 1 1 0.010443543359227845 0.0091597570016113961 1 1 1 1 1 1 1 1 1 1 0.020298800991068105 1 1 1 1 1 1 0.017712021576213627 1 1 1 1 1 1 1 1 0.009572560448036109 1 0.010021789569774751 1 0.0079810796318399435 1 1 1 1 0.0081442682961063231 1 1 1 1 1 1 1 1 1 1 1 1 1 0.0099988850577073171 1 1 1 0.010020744108956599 1 1 1 1 1 1 1 1 1 1 1 1 1 1 1 1 0.008678556433425591 1 1 0.0095066372996341839 1 1 1 1 1 1 1 1 1 1 1 1 1 1 1 1 1 0.010000182594725411 0.010610034294313671 1 1 0.009364088545056555 1 1 1 0.011522757322675208 1 1 0.012685055938526958 1 1 0.0077448300807635151 1 1 1 1 1 1 1 1 1 0.0097395599948285061 1 1 1 1 1 1 1 1 0.003257321455880792 1 1 1 0.0058408742868851574 0.0096197802836440749 1 1 1 1 1 1 0.010084883417985933 1 1 1 1 1 0.018190320622230784 1 1 0.023377688599787602 1 0.025055783423534574 1 0.0068703171173686746 1 1 1 0.020806810785280516 0.01215801662342725 1 1 1 0.014992301726264671 6.6680772015104139e-11 0.020202403909010111 1 1 0.016833410111012581 1 1 0.022164059612568381 1 1 1 1 0.0031318383655265618 1 1 0.018851119893696668 1 0.017281214980720612 1 1 1 0.014574358868430858 1 1 1 1 1 1 1 1 1 1 1 1 1 1 0.0098899958676036195 0.0095407091961904784 1 1 1 1 1 1 1 1 1 1 0.0088120962260829321 1 1 1 1 1 1 1 1 1 1 1 1 1 1 1 1 1 1 1 1 1 1 0.0086034316354027182 1 1 1 0.0076376547059530328 1 1 1 1 1 0.010023029251141298 1 1 0.0095470955710159604 1 1 1 1 1 1 1 1 1 1 1 1 1 1 1 0.010670942911253607 1 1 1 0.0083526970913726396 0.0095970909719038794 1 1 1 1 1 1 1 1 1 1 0.0099951332897014831 1 0.0099835879121667921 1 0.0099475461445304413 1 1 0.0096291704254570475 1 0.0099547799437377186 0.0099755715461719487 1 1 1 1 0.0097358347374903852 1 1 1 0.0099058609823833785 1 1 1 1 1 1 0.0097131345494509014 1 1 1 1 1 1 1 1 0.0097813466670445791 1 1 0.0094356889443096299 1 1 1 1 1 1 1 1 0.0095751809233877716 1 1 0.010342094104440352 1 1 1 1 1 1 1 1 1 1 0.010092672342754698 1 1 1 1 1 0.009904867507193521 1 1 0.010139863363151359 1 1 1 1 1 1 1 1 1 1 1 1 1 1 1 1 1 1 1 1 0.027784520880079301 1 1 1 1 0.010940127435243273 0.026607299471597318 1 0.012728107033426667 1 1 1 1 1 1 1 1 1 1 1 1 1 1 1 1 1 0.02729500153425924 1 0.025273640567892872 1 1 1 1 1 1 0.011058750863504579 1 1 1 1 1 1 1 1 1 1 1 1 1 1 1 1 1 1 1 1 1 1 1 1 1 1 1 1 1 1 1 1 1 1 1 0.010160532338340435 1 1 1 1 0.013053075914135775 1 0.014588193025456154 0.011111629649949531 1 1 1 1 1 1 1 1 1 1 1 1 1 1 0.010011561823100677 1 1 1 1 1 1 1 1 1 1 1 1 1 1 1 1 1 1 1 1 1 1 1 0.010033057007648546 1 1 0.010031809882342804 1 1 1 1 1 1 0.026396587155543154 1 1 1 1 1 1 1 1 0.015609417460025712 0.020094948741876537 1 0.0099402501004768815 1 1 1 0.0036914187509276657 1 0.010371050152728364 1 1 1 1 0.021499305805682913 1 0.019694483410653857 0.0071195579058076254 1 1 0.0087754533748686785 0.0056509319953646601 1 0.015720417144196794 0.010937008981420398 1 0.0076977531759656239 0.01180575357972781 1 1 1 1 1 0.010597544440095603 1 1 1 1 1 1 1 1 1 1 1 1 1 1 1 1 1 1 0.016917279466095288 1 1 1 1 0.015858265685155585 1 1 1 1 1 1 1 1 1 1 1 1 0.021198966577688518 1 1 1 0.022362152581664213 1 1 1 0.0090864430643119182 1 1 1 0.0096881159167185489 1 1 1 1 1 1 1 1 1 1 0.023622639897449896 1 1 0.015948757791569491 0.010943635783248414 1 1 1 0.0099863674137477369 1 0.032839540578683671 1 1 1 1 1 0.014750817350355874 0.013847562100545397 0.015659495150822135 0.0060796217080710657 1 1 0.011930366772780724 1 1 1 0.0108885703331906 1 0.021437675566437178 1 1 1 1 0.018553374388805562 1 1 1 1 1 1 1 7.0071248265551889e-09 1 1 1 1 1 1 1 0.0099246930632010746 1 1 0.012637922169074854 1 0.0045709104873707723 1 0.017900741621115719 1 1 1 1 1 1 1 0.012960133736454126 0.0099215074198473821 1 1 0.015164991566074574 1 1 1 1 1 1 1 1 1 1 1 1 1 1 1 1 1 1 1 1 1 1 1 1 1 1 1 1 1 1 1 1 1 1 1 1 1 1 1 1 1 1 1 0.017862123038627817 1 1 1 1 1 1 0.010067630005059183 1 1 1 1 1 1 1 1 1 1 1 1 1 1 1 0.0099146860587564084 0.010478973425475935 1 1 1 1 1 1 0.010112298661152701 1 1 1 1 1 1 0.0099803965901067975 1 1 1 1 1 1 1 0.0099118438122885386 1 1 1 1 1 1 0.010674479525730723 1 1 0.0096595346664144835 1 1 1 1 1 1 1 1 1 1 1 1 1 1 1 1 1 0.010185696057208191 1 1 1 1 1 1 0.0088827303244427263 1 1 0.0089084170269833184 1 1 1 1 1 1 1 1 1 1 0.0094805109706738184 1 1 1 1 1 1 0.010339855982755976 1 1 1 1 1 1 1 0.010707931406956549 1 1 1 0.010664326257085313 1 1 1 1 1 1 1 1 1 1 1 1 1 1 1 1 1 1 1 1 1 1 1 0.010330611254156866 1 1 1 1 1 1 1 1 1 1 1 1 1 1 1 1 1 1 1 1 1 1 1 1 1 1 1 1 1 1 1 1 1 1 1 1 1 1 1 1 1 1 1 1 1 0.0098583463268747049 1 1 1 1 0.0099723853946487029 1 1 1 0.0063057175309402178 1 0.010849526081662952 1 1 1 1 0.0079931470465282942 1 1 1 1 1 1 1 1 0.009640926489052272 1 1 1 1 0.0099371773219370588 1 1 1 1 1 1 1 1 0.010753488895296537 1 1 1 1 0.012138010147522936 1 1 1 1 1 1 0.0020528435144925288 0.010857597960377656 1 0.010720113867920872 0.0096153496415133863 1 1 1 1 1 1 1 0.0036515876413132382 1 0.009162317862756314 1 1 1 0.0093463971318371863 1 1 1 1 1 1 0.010689047244038123 1 1 0.0090127754061729154 1 0.0051326304010087601 1 0.0084089737284353365 0.010676980137926041 1 1 1 0.0042151286299278376 1 1 0.0075149057284938751 1 1 1 1 1 1 1 1 1 1 0.0097762166409198388 1 1 1 1 0.0082840636783343621 1 0.010390956729681634 1 1 0.0096149800659562062 1 0.0084494914712638022 1 1 0.0062011259081554762 1 1 1 1 1 1 0.010114039067773979 1 1 1 1 1 0.011016904614630514 1 1 0.012801882776206294 1 1 0.010200098613375431 1 1 1 0.004889775275403109 1 1 1 1 1 1 0.010037328756717541 1 1 1 1 0.0099606605901619502 0.005400521452500617 1 1 1 0.0019772491596504044 1 0.0099988843671019664 0.013055671871398798 1 1 0.0092543124052410844 1 1 1 0.010630829972530315 1 1 1 1 1 1 1 1 0.012448747410206608 1 1 1 1 1 0.0098981919939295782 1 1 1 1 1 0.0061451898890547002 1 0.01001670760649382 1 1 1 1 1 0.0079924879710021046 0.012640044506743005 1 1 0.0050848112500575457 -3.5821047517092808e-11 0.0057686052590341375 1 1 1 1 0.013807649279647366 1 1 1 1 1 1 0.0070465303438442747 1 1 1 1 1 1 1 1 1 1 1 1 1 1 1 1 1 0.0096952838686883494 1 1 1 1 1 1 1 1 1 1 1 1 1 1 1 1 1 0.01367485245813229 1 1 1 0.018138259845698432 1 1 0.0074285428031874053 1 0.013541615841798622 1 1 1 0.0097911558917950017 1 1 1 1 1 1 0.012591531988795007 1 1 0.010006169921818832 1 1 1 1 1 0.0055764219347966461 1 0.0086458440136078889 1 1 1 1 1 1 1 1 1 1 0.015592901259585394 1 1 1 0.011152950017935604 1 1 1 0.00040048393064747931 1 1 1 0.016905364073330389 1 0.0098573200423525478 0.0097603025524905587 1 1 0.009422162648983521 0.005733717571562609 1 1 1 1 1 1 1 0.0092925202265757914 1 0.0073676404959893971 1 1 0.007270491689187808 1 1 1 1 1 1 1 0.0016440153042122999 1 0.01124655320751821 1 1 1 1 0.0017419245930562176 1 0.011301994355447278 1 1 1 0.0013267027682691418 1 1 1 1 1 1 0.010147017431374458 1 1 0.010348050234451837 1 1 1 1 1 1 1 1 1 1 1 1 1 0.0095001941789693012 1 1 1 1 1 1 0.0099360373198501481 1 1 1 1 1 1 1 1 1 0.0099874081311542538 1 0.0106774263503885 0.0011637816834946108 1 1 1 1 0.0094478323287111761 1 1 1 0.0088621752466405065 0.010054428162529362 1 1 1 1 1 1 1 1 1 1 1 1 1 1 1 1 0.0097739186093347228 0.0083421888949105488 1 1 1 1 1 1 1 1 0.01629082784291834 1 0.01626475725066253 1 1 0.015137942823000385 0.0091897303885228529 1 1 0.014585876152138775 1 0.008491332128460689 0.015736512586948838 1 0.014203465303139352 1 1 1 1 0.016292086414678705 0.016717651190812574 1 1 0.012133906073070876 1 1 1 1 1 1 1 0.0098733228257775266 1 1 1 1 1 1 1 1 1 1 1 1 1 1 1 1 1 1 1 1 1 1 1 1 1 1 1 1 1 1 1 1 0.0057912507628458051 1 1 1 1 1 1 1 1 1 1 1 1 1 1 1 1 1 1 1 1 1 1 1 1 1 1 1 1 1 0.020176185150565941 1 1 1 1 1 1 1 0.010699802517854566 1 1 1 1 1 0.020393497677702752 1 0.010681066297187933 1 1 0.012113607775193158 1 1 1 1 1 1 1 1 1 0.010636326175844417 1 1 1 1 1 0.010622788435426092 1 0.0084259446876884317 1 1 1 1 1 1 1 1 1 1 0.011036278900388802 1 1 0.011030208980960875 1 0.0083462953637968955 1 1 1 0.0099900649358409567 0.0095679127978875352 1 1 1 1 1 1 0.015862262627126165 1 1 1 1 0.013769416407049722 1 1 1 1 1 1 1 1 1 1 1 1 1 1 1 1 1 1 1 0.011586678207968826 1 0.0098849277898419366 1 0.016897981343600741 1 1 1 0.0016157969544559614 1 1 0.0019679270286322853 1 1 1 1 0.0024148505626436778 1 1 1 1 1 1 1 0.0090247148783114458 0.0050451545942728979 1 1 1 1 1 1 0.0099771298331716267 0.010004304024634876 1 1 1 0.0068758609979964504 1 0.0080726204539289092 1 1 1 1 1 1 1 1 1 1 1 1 0.010074800720243714 1 1 0.0041460544156928288 0.010192499150430412 1 1 1 1 1 1 1 1 0.0020211948358710916 1 0.024018066673437935 1 0.020041632095199984 1 1 1 1 1 1 1 1 1 1 1 1 1 1 1 1 1 1 1 1 1 1 1 1 1 1 1 1 1 1 1 1 0.010452023270209332 1 1 1 1 1 1 1 1 1 1 1 1 1 1 1 1 1 0.0033504541442203701 1 0.0025204592389206958 1 1 1 1 1 1 1 1 1 1 1 0.0096135172893202919 1 1 1 1 1 1 1 1 1 0.0098203267500226576 1 1 1 1 1 1 1 1 1 1 0.0016591188152796418 1 1 1 1 1 1 1 1 1 1 0.00079798908533230527 1 1 1 1 1 1 1 1 1 1 1 1 1 1 1 1 1 1 1 1 1 1 1 1 0.0054957883523703288 1 1 0.0098782128174658961 1 1 1 0.0099546378439263547 0.015088081081336632 1 1 0.0067825866084678804 0.01103508876807148 1 1 1 0.013308006092317831 1 1 1 1 1 1 1 0.023428882822430726 0.009990310143088918 1 0.015031663965208756 1 1 0.0063010825285237 1 1 1 1 1 1 1 1 1 0.0075047982084928185 0.0053436607425782767 1 1 1 3.1772065187118947e-09 1 0.009134309365127595 1 0.0097044110716459422 1 1 1 1 1 1 1 1 1 1 1 1 1 1 1 1 1 0.0098943056075752617 1 1 1 1 0.009687496146872903 1 1 1 1 1 1 1 1 1 0.010449314431340966 1 1 1 1 1 1 1 1 1 0.021006818382695296 1 1 1 1 0.0030198107567089398 1 1 1 1 1 1 1 1 1 1 0.014084202560093505 1 1 1 1 1 1 1 1 1 1 0.010195553908305312 1 1 1 1 0.010394978040341571 1 1 0.011325939191418048 1 1 1 1 1 1 1 1 1 1 1 0.0096044272281715967 1 1 1 1 1 1 1 1 1 1 1 1 1 1 1 1 1 1 1 0.0083006659388584637 1 1 1 1 1 0.0098815089110975557 1 1 1 1 0.012179419121335827 0.0096820847790613177 1 1 1 1 1 1 1 1 1 1 1 1 1 1 1 0.012132295193428497 1 1 1 0.0077897186229682752 0.013699855661474278 1 1 1 1 0.0044588956313672268 1 1 1 1 0.0099275754711893385 1 1 0.0090092081933687979 1 0.011590090335406353 1 0.010407852995012547 1 1 1 1 1 1 0.0063881067897163003 1 1 0.0099717114233220921 0.015680085438927488 1 1 1 0.010008289442381567 1 1 1 1 1 1 0.0069361293953335568 1 1 0.011944844341541274 1 0.016927011203686324 0.0042301774492648223 0.014240721683110375 0.0071072250021856111 1 1 0.017707537559691323 1 1 1 0.01144302755382625 1 1 1 1 1 1 1 1 0.0093937625002745162 0.013505837156507485 1 1 1 1 -1.5804247494033419e-10 1 0.0083800716273200512 1 0.0099862610113808994 0.0046907916148756761 0.0075758612795151885 1 1 1 1 1 1 0.007746442552355846 0.0073118321106094147 1 1 1 1 1 1 1 1 1 1 1 1 1 1 1 1 0.0088830572473472692 0.010616250025148436 1 0.0099399158255878486 1 1 1 0.0095198280283853784 1 1 0.0078947410485911054 1 1 1 0.0098881903432474928 1 1 1 1 1 1 0.01004026821032338 1 1 1 1 1 1 1 1 1 1 0.0069235953133743589 1 1 1 1 1 1 0.0057222302991025761 1 1 1 0.024146899034668136 1 1 0.0070150242405215097 0.009805129152873706 0.0091811622679733688 1 1 1 0.010143387436485905 1 0.0087848931188348571 1 1 0.0091159214507048666 1 1 0.010782701069513892 1 1 0.0068588295466938207 1 1 1 0.010153111212704962 0.0076290223087186982 1 1 1 1 1 1 1 1 1 0.0079774140600917896 1 1 1 4.3115487655814855e-10 0.010016494366212257 1 1 1 0.0096683913027822751 1 1 1 0.0098784623806858242 1 1 1 1 1 1 1 1 1 1 1 1 1 1 1 1 1 1 1 1 1 1 1 1 1 1 1 1 1 1 1 1 1 1 1 1 1 1 1 1 1 1 0.025513321165774035 1 1 1 1 0.0097800453751586934 0.02717058897831057 1 0.0098867500956833169 1 1 -2.8971549118073092e-10 1 1 0.0040029679394640652 1 0.011041427448065615 1 1 1 1 1 1 0.017642078198439031 1 1 1 1 1 0.014994918207545695 1 0.0099402048162336703 1 1 1 1 1 1 0.010003419425281164 0.012060081048572299 1 1 0.0047204022314009508 1 1 1 1 1 1 0.0052199856596485406 1 1 1 1 1 1 1 1 1 1 1 1 1 1 1 1 1 1 1 1 0.0099924101062436807 1 1 1 1 1 1 1 1 1 1 0.010321829986603246 1 1 1 1 0.010101675431041277 1 1 1 1 1 1 1 1 0.0092422196818404238 1 1 1 1 0.0092058569662871251 1 1 1 1 1 1 1 1 1 0.0096660002528136252 1 1 1 1 0.0096444538210220514 1 1 1 1 1 0.0091086540079709025 1 1 1 1 0.0099200116281512353 1 1 1 1 1 1 0.0094634709407073123 1 1 1 1 1 1 1 9.6406537128390646e-09 1 1 1 1 1 0.015342301241919497 1 1 1 0.008565123016338775 1 1 0.012111099705747691 1 1 1 0.014202095085014434 1 0.0070367669468611484 1 1 1 1 1 1 1 1 1 0.011406391015995415 1 1 1 1 1 1 1 1 1 1 1 1 1 1 1 0.0095397257687884172 0.010152851250647998 1 1 1 1 1 1 1 1 1 1 1 1 1 1 1 1 1 1 1 1 1 1 1 1 1 0.0082268478983814827 1 1 1 1 1 1 1 1 1 0.013964664143175756 1 1 0.011026853332450045 1 1 1 1 1 1 1 1 1 1 1 1 1 1 1 0.010452113383310995 1 1 1 1 1 1 1 1 1 1 1 1 1 1 1 1 1 1 1 1 1 1 1 1 1 1 1 1 1 1 1 1 1 1 0.019326294438310999 1 1 1 0.018931768526121769 1 1 0.010026563088200765 0.0099929651928689234 1 0.011906317963989284 1 0.015396699504784676 0.0135958598165761 1 1 1 1 1 1 1 1 1 1 1 1 1 1 0.014190988119496262 1 1 1 1 1 1 1 1 1 1 1 1 1 1 1 1 1 1 1 1 0.010010054200877494 1 1 0.010095226841177599 1 1 0.013166007295317741 1 1 1 1 1 1 1 1 0.012788525797514144 0.0090871255936553381 1 1 1 0.0085250846172935726 1 0.015433418652014561 0.013439112032948232 1 1 0.014380502927238718 1 1 0.0080748967281949989 1 1 1 1 0.0098181016696400024 1 0.0098757636490206333 1 1 0.010149884507643562 1 1 1 1 1 1 1 1 1 1 1 1 1 1 1 1 1 1 1 0.020020071331911402 1 1 1 1 0.020251434964817974 1 1 1 1 1 1 1 1 1 1 1 1 1 1 1 1 1 0.010032699787791432 1 1 1 1 1 1 1 1 0.010018393967766909 1 1 1 1 1 1 1 0.01003071498002635 1 0.010137593029800721 1 1 1 0.017687695903969659 1 0.010344139323233335 1 1 1 1 1 1 1 1 1 1 1 1 1 1 1 1 1 0.010741452399471368 1 1 1 1 1 1 1 1 1 1 1 0.019044827685672665 1 1 0.0097362452102503112 1 1 1 1 1 1 1 1 1 1 1 1 1 1 1 1 0.0084408784242634462 1 1 0.0015812652481603483 1 1 0.0010774082661411805 1 0.0094604897986069556 1 1 1 0.00085934748176446848 1 1 1 0.01751114307286053 1 1 1 1 0.018275861909063676 1 1 1 1 1 0.0099779746026669707 1 1 0.012324777520962154 1 1 0.010758055493787853 1 0.0057205983935923951 0.012208192598321841 1 1 1 1 1 1 0.013100319512628007 1 1 0.0081478597687438016 1 0.0080437590174612453 1 1 1 0.0037682264807962391 1 1 1 0.0094115973425078145 1 0.0069043695742634498 1 1 0.013859976334680146 1 0.010046271966060887 1 1 1 1 0.010123061283025196 1 0.0035785600615143628 1 1 1 1 1 0.0033086099039679497 1 0.010398116082881553 1 0.023518570651364253 1 0.022327221164837978 1 1 0.0031615100226722354 1 1 1 1 1 1 1 1 0.0077677400218894369 0.0031617832992394106 0.019451884333802773 0.010132592177305541 1 1 1 1 0.010006750446058884 1 1 1 1 1 1 0.0043293891068294996 1 1 0.0042616149812981933 1 1 1 0.0048537142214086695 0.014561988469437027 1 1 0.0049925458019396589 1 1 1 1 1 0.014381242089118673 0.0060517341881040866 1 1 1 1 0.0099290840758652858 0.0082429475185079402 1 0.013312850613428857 0.013526270037942002 1 1 0.011844052893479238 1 1 1 1 1 1 1 1 0.009999459734983826 1 1 1 1 0.019267648662825609 0.0074111652867988528 1 1 1 1 0.0099894068266654437 1 1 0.019585152135886859 1 1 1 1 1 1 1 1 0.0099910764979160172 1 1 1 1 1 1 1 1 1 1 1 1 1 1 1 1 1 1 1 1 1 0.0083052873897121043 1 1 1 1 
</DataArray>
</CellData>
</Piece>
</UnstructuredGrid>
</VTKFile>
